<?xml version="1.0"?> 
<VTKFile type="UnstructuredGrid"> 
   <UnstructuredGrid> 
      <Piece NumberOfPoints="6000"  NumberOfCells="1500">  
          <Points>  
             <DataArray type="Float64" NumberOfComponents="3" format="ascii">   
-500.0   0.0   0.0
-450.0   0.0   0.0
-500.0   30.0   0.0
-500.0   0.0   16.666666666666668
-450.0   0.0   0.0
-450.0   30.0   0.0
-500.0   30.0   0.0
-450.0   30.0   16.666666666666668
-500.0   0.0   16.666666666666668
-500.0   30.0   16.666666666666668
-450.0   30.0   16.666666666666668
-500.0   30.0   0.0
-500.0   0.0   16.666666666666668
-450.0   30.0   16.666666666666668
-450.0   0.0   16.666666666666668
-450.0   0.0   0.0
-500.0   0.0   16.666666666666668
-450.0   30.0   16.666666666666668
-450.0   0.0   0.0
-500.0   30.0   0.0
-500.0   0.0   16.666666666666668
-450.0   0.0   16.666666666666668
-500.0   30.0   16.666666666666668
-500.0   0.0   33.333333333333336
-450.0   0.0   16.666666666666668
-450.0   30.0   16.666666666666668
-500.0   30.0   16.666666666666668
-450.0   30.0   33.333333333333336
-500.0   0.0   33.333333333333336
-500.0   30.0   33.333333333333336
-450.0   30.0   33.333333333333336
-500.0   30.0   16.666666666666668
-500.0   0.0   33.333333333333336
-450.0   30.0   33.333333333333336
-450.0   0.0   33.333333333333336
-450.0   0.0   16.666666666666668
-500.0   0.0   33.333333333333336
-450.0   30.0   33.333333333333336
-450.0   0.0   16.666666666666668
-500.0   30.0   16.666666666666668
-500.0   0.0   33.333333333333336
-450.0   0.0   33.333333333333336
-500.0   30.0   33.333333333333336
-500.0   0.0   50.0
-450.0   0.0   33.333333333333336
-450.0   30.0   33.333333333333336
-500.0   30.0   33.333333333333336
-450.0   30.0   50.0
-500.0   0.0   50.0
-500.0   30.0   50.0
-450.0   30.0   50.0
-500.0   30.0   33.333333333333336
-500.0   0.0   50.0
-450.0   30.0   50.0
-450.0   0.0   50.0
-450.0   0.0   33.333333333333336
-500.0   0.0   50.0
-450.0   30.0   50.0
-450.0   0.0   33.333333333333336
-500.0   30.0   33.333333333333336
-500.0   30.0   0.0
-450.0   30.0   0.0
-500.0   60.0   0.0
-500.0   30.0   16.666666666666668
-450.0   30.0   0.0
-450.0   60.0   0.0
-500.0   60.0   0.0
-450.0   60.0   16.666666666666668
-500.0   30.0   16.666666666666668
-500.0   60.0   16.666666666666668
-450.0   60.0   16.666666666666668
-500.0   60.0   0.0
-500.0   30.0   16.666666666666668
-450.0   60.0   16.666666666666668
-450.0   30.0   16.666666666666668
-450.0   30.0   0.0
-500.0   30.0   16.666666666666668
-450.0   60.0   16.666666666666668
-450.0   30.0   0.0
-500.0   60.0   0.0
-500.0   30.0   16.666666666666668
-450.0   30.0   16.666666666666668
-500.0   60.0   16.666666666666668
-500.0   30.0   33.333333333333336
-450.0   30.0   16.666666666666668
-450.0   60.0   16.666666666666668
-500.0   60.0   16.666666666666668
-450.0   60.0   33.333333333333336
-500.0   30.0   33.333333333333336
-500.0   60.0   33.333333333333336
-450.0   60.0   33.333333333333336
-500.0   60.0   16.666666666666668
-500.0   30.0   33.333333333333336
-450.0   60.0   33.333333333333336
-450.0   30.0   33.333333333333336
-450.0   30.0   16.666666666666668
-500.0   30.0   33.333333333333336
-450.0   60.0   33.333333333333336
-450.0   30.0   16.666666666666668
-500.0   60.0   16.666666666666668
-500.0   30.0   33.333333333333336
-450.0   30.0   33.333333333333336
-500.0   60.0   33.333333333333336
-500.0   30.0   50.0
-450.0   30.0   33.333333333333336
-450.0   60.0   33.333333333333336
-500.0   60.0   33.333333333333336
-450.0   60.0   50.0
-500.0   30.0   50.0
-500.0   60.0   50.0
-450.0   60.0   50.0
-500.0   60.0   33.333333333333336
-500.0   30.0   50.0
-450.0   60.0   50.0
-450.0   30.0   50.0
-450.0   30.0   33.333333333333336
-500.0   30.0   50.0
-450.0   60.0   50.0
-450.0   30.0   33.333333333333336
-500.0   60.0   33.333333333333336
-500.0   60.0   0.0
-450.0   60.0   0.0
-500.0   90.0   0.0
-500.0   60.0   16.666666666666668
-450.0   60.0   0.0
-450.0   90.0   0.0
-500.0   90.0   0.0
-450.0   90.0   16.666666666666668
-500.0   60.0   16.666666666666668
-500.0   90.0   16.666666666666668
-450.0   90.0   16.666666666666668
-500.0   90.0   0.0
-500.0   60.0   16.666666666666668
-450.0   90.0   16.666666666666668
-450.0   60.0   16.666666666666668
-450.0   60.0   0.0
-500.0   60.0   16.666666666666668
-450.0   90.0   16.666666666666668
-450.0   60.0   0.0
-500.0   90.0   0.0
-500.0   60.0   16.666666666666668
-450.0   60.0   16.666666666666668
-500.0   90.0   16.666666666666668
-500.0   60.0   33.333333333333336
-450.0   60.0   16.666666666666668
-450.0   90.0   16.666666666666668
-500.0   90.0   16.666666666666668
-450.0   90.0   33.333333333333336
-500.0   60.0   33.333333333333336
-500.0   90.0   33.333333333333336
-450.0   90.0   33.333333333333336
-500.0   90.0   16.666666666666668
-500.0   60.0   33.333333333333336
-450.0   90.0   33.333333333333336
-450.0   60.0   33.333333333333336
-450.0   60.0   16.666666666666668
-500.0   60.0   33.333333333333336
-450.0   90.0   33.333333333333336
-450.0   60.0   16.666666666666668
-500.0   90.0   16.666666666666668
-500.0   60.0   33.333333333333336
-450.0   60.0   33.333333333333336
-500.0   90.0   33.333333333333336
-500.0   60.0   50.0
-450.0   60.0   33.333333333333336
-450.0   90.0   33.333333333333336
-500.0   90.0   33.333333333333336
-450.0   90.0   50.0
-500.0   60.0   50.0
-500.0   90.0   50.0
-450.0   90.0   50.0
-500.0   90.0   33.333333333333336
-500.0   60.0   50.0
-450.0   90.0   50.0
-450.0   60.0   50.0
-450.0   60.0   33.333333333333336
-500.0   60.0   50.0
-450.0   90.0   50.0
-450.0   60.0   33.333333333333336
-500.0   90.0   33.333333333333336
-500.0   90.0   0.0
-450.0   90.0   0.0
-500.0   120.0   0.0
-500.0   90.0   16.666666666666668
-450.0   90.0   0.0
-450.0   120.0   0.0
-500.0   120.0   0.0
-450.0   120.0   16.666666666666668
-500.0   90.0   16.666666666666668
-500.0   120.0   16.666666666666668
-450.0   120.0   16.666666666666668
-500.0   120.0   0.0
-500.0   90.0   16.666666666666668
-450.0   120.0   16.666666666666668
-450.0   90.0   16.666666666666668
-450.0   90.0   0.0
-500.0   90.0   16.666666666666668
-450.0   120.0   16.666666666666668
-450.0   90.0   0.0
-500.0   120.0   0.0
-500.0   90.0   16.666666666666668
-450.0   90.0   16.666666666666668
-500.0   120.0   16.666666666666668
-500.0   90.0   33.333333333333336
-450.0   90.0   16.666666666666668
-450.0   120.0   16.666666666666668
-500.0   120.0   16.666666666666668
-450.0   120.0   33.333333333333336
-500.0   90.0   33.333333333333336
-500.0   120.0   33.333333333333336
-450.0   120.0   33.333333333333336
-500.0   120.0   16.666666666666668
-500.0   90.0   33.333333333333336
-450.0   120.0   33.333333333333336
-450.0   90.0   33.333333333333336
-450.0   90.0   16.666666666666668
-500.0   90.0   33.333333333333336
-450.0   120.0   33.333333333333336
-450.0   90.0   16.666666666666668
-500.0   120.0   16.666666666666668
-500.0   90.0   33.333333333333336
-450.0   90.0   33.333333333333336
-500.0   120.0   33.333333333333336
-500.0   90.0   50.0
-450.0   90.0   33.333333333333336
-450.0   120.0   33.333333333333336
-500.0   120.0   33.333333333333336
-450.0   120.0   50.0
-500.0   90.0   50.0
-500.0   120.0   50.0
-450.0   120.0   50.0
-500.0   120.0   33.333333333333336
-500.0   90.0   50.0
-450.0   120.0   50.0
-450.0   90.0   50.0
-450.0   90.0   33.333333333333336
-500.0   90.0   50.0
-450.0   120.0   50.0
-450.0   90.0   33.333333333333336
-500.0   120.0   33.333333333333336
-500.0   120.0   0.0
-450.0   120.0   0.0
-500.0   150.0   0.0
-500.0   120.0   16.666666666666668
-450.0   120.0   0.0
-450.0   150.0   0.0
-500.0   150.0   0.0
-450.0   150.0   16.666666666666668
-500.0   120.0   16.666666666666668
-500.0   150.0   16.666666666666668
-450.0   150.0   16.666666666666668
-500.0   150.0   0.0
-500.0   120.0   16.666666666666668
-450.0   150.0   16.666666666666668
-450.0   120.0   16.666666666666668
-450.0   120.0   0.0
-500.0   120.0   16.666666666666668
-450.0   150.0   16.666666666666668
-450.0   120.0   0.0
-500.0   150.0   0.0
-500.0   120.0   16.666666666666668
-450.0   120.0   16.666666666666668
-500.0   150.0   16.666666666666668
-500.0   120.0   33.333333333333336
-450.0   120.0   16.666666666666668
-450.0   150.0   16.666666666666668
-500.0   150.0   16.666666666666668
-450.0   150.0   33.333333333333336
-500.0   120.0   33.333333333333336
-500.0   150.0   33.333333333333336
-450.0   150.0   33.333333333333336
-500.0   150.0   16.666666666666668
-500.0   120.0   33.333333333333336
-450.0   150.0   33.333333333333336
-450.0   120.0   33.333333333333336
-450.0   120.0   16.666666666666668
-500.0   120.0   33.333333333333336
-450.0   150.0   33.333333333333336
-450.0   120.0   16.666666666666668
-500.0   150.0   16.666666666666668
-500.0   120.0   33.333333333333336
-450.0   120.0   33.333333333333336
-500.0   150.0   33.333333333333336
-500.0   120.0   50.0
-450.0   120.0   33.333333333333336
-450.0   150.0   33.333333333333336
-500.0   150.0   33.333333333333336
-450.0   150.0   50.0
-500.0   120.0   50.0
-500.0   150.0   50.0
-450.0   150.0   50.0
-500.0   150.0   33.333333333333336
-500.0   120.0   50.0
-450.0   150.0   50.0
-450.0   120.0   50.0
-450.0   120.0   33.333333333333336
-500.0   120.0   50.0
-450.0   150.0   50.0
-450.0   120.0   33.333333333333336
-500.0   150.0   33.333333333333336
-450.0   0.0   0.0
-400.0   0.0   0.0
-450.0   30.0   0.0
-450.0   0.0   16.666666666666668
-400.0   0.0   0.0
-400.0   30.0   0.0
-450.0   30.0   0.0
-400.0   30.0   16.666666666666668
-450.0   0.0   16.666666666666668
-450.0   30.0   16.666666666666668
-400.0   30.0   16.666666666666668
-450.0   30.0   0.0
-450.0   0.0   16.666666666666668
-400.0   30.0   16.666666666666668
-400.0   0.0   16.666666666666668
-400.0   0.0   0.0
-450.0   0.0   16.666666666666668
-400.0   30.0   16.666666666666668
-400.0   0.0   0.0
-450.0   30.0   0.0
-450.0   0.0   16.666666666666668
-400.0   0.0   16.666666666666668
-450.0   30.0   16.666666666666668
-450.0   0.0   33.333333333333336
-400.0   0.0   16.666666666666668
-400.0   30.0   16.666666666666668
-450.0   30.0   16.666666666666668
-400.0   30.0   33.333333333333336
-450.0   0.0   33.333333333333336
-450.0   30.0   33.333333333333336
-400.0   30.0   33.333333333333336
-450.0   30.0   16.666666666666668
-450.0   0.0   33.333333333333336
-400.0   30.0   33.333333333333336
-400.0   0.0   33.333333333333336
-400.0   0.0   16.666666666666668
-450.0   0.0   33.333333333333336
-400.0   30.0   33.333333333333336
-400.0   0.0   16.666666666666668
-450.0   30.0   16.666666666666668
-450.0   0.0   33.333333333333336
-400.0   0.0   33.333333333333336
-450.0   30.0   33.333333333333336
-450.0   0.0   50.0
-400.0   0.0   33.333333333333336
-400.0   30.0   33.333333333333336
-450.0   30.0   33.333333333333336
-400.0   30.0   50.0
-450.0   0.0   50.0
-450.0   30.0   50.0
-400.0   30.0   50.0
-450.0   30.0   33.333333333333336
-450.0   0.0   50.0
-400.0   30.0   50.0
-400.0   0.0   50.0
-400.0   0.0   33.333333333333336
-450.0   0.0   50.0
-400.0   30.0   50.0
-400.0   0.0   33.333333333333336
-450.0   30.0   33.333333333333336
-450.0   30.0   0.0
-400.0   30.0   0.0
-450.0   60.0   0.0
-450.0   30.0   16.666666666666668
-400.0   30.0   0.0
-400.0   60.0   0.0
-450.0   60.0   0.0
-400.0   60.0   16.666666666666668
-450.0   30.0   16.666666666666668
-450.0   60.0   16.666666666666668
-400.0   60.0   16.666666666666668
-450.0   60.0   0.0
-450.0   30.0   16.666666666666668
-400.0   60.0   16.666666666666668
-400.0   30.0   16.666666666666668
-400.0   30.0   0.0
-450.0   30.0   16.666666666666668
-400.0   60.0   16.666666666666668
-400.0   30.0   0.0
-450.0   60.0   0.0
-450.0   30.0   16.666666666666668
-400.0   30.0   16.666666666666668
-450.0   60.0   16.666666666666668
-450.0   30.0   33.333333333333336
-400.0   30.0   16.666666666666668
-400.0   60.0   16.666666666666668
-450.0   60.0   16.666666666666668
-400.0   60.0   33.333333333333336
-450.0   30.0   33.333333333333336
-450.0   60.0   33.333333333333336
-400.0   60.0   33.333333333333336
-450.0   60.0   16.666666666666668
-450.0   30.0   33.333333333333336
-400.0   60.0   33.333333333333336
-400.0   30.0   33.333333333333336
-400.0   30.0   16.666666666666668
-450.0   30.0   33.333333333333336
-400.0   60.0   33.333333333333336
-400.0   30.0   16.666666666666668
-450.0   60.0   16.666666666666668
-450.0   30.0   33.333333333333336
-400.0   30.0   33.333333333333336
-450.0   60.0   33.333333333333336
-450.0   30.0   50.0
-400.0   30.0   33.333333333333336
-400.0   60.0   33.333333333333336
-450.0   60.0   33.333333333333336
-400.0   60.0   50.0
-450.0   30.0   50.0
-450.0   60.0   50.0
-400.0   60.0   50.0
-450.0   60.0   33.333333333333336
-450.0   30.0   50.0
-400.0   60.0   50.0
-400.0   30.0   50.0
-400.0   30.0   33.333333333333336
-450.0   30.0   50.0
-400.0   60.0   50.0
-400.0   30.0   33.333333333333336
-450.0   60.0   33.333333333333336
-450.0   60.0   0.0
-400.0   60.0   0.0
-450.0   90.0   0.0
-450.0   60.0   16.666666666666668
-400.0   60.0   0.0
-400.0   90.0   0.0
-450.0   90.0   0.0
-400.0   90.0   16.666666666666668
-450.0   60.0   16.666666666666668
-450.0   90.0   16.666666666666668
-400.0   90.0   16.666666666666668
-450.0   90.0   0.0
-450.0   60.0   16.666666666666668
-400.0   90.0   16.666666666666668
-400.0   60.0   16.666666666666668
-400.0   60.0   0.0
-450.0   60.0   16.666666666666668
-400.0   90.0   16.666666666666668
-400.0   60.0   0.0
-450.0   90.0   0.0
-450.0   60.0   16.666666666666668
-400.0   60.0   16.666666666666668
-450.0   90.0   16.666666666666668
-450.0   60.0   33.333333333333336
-400.0   60.0   16.666666666666668
-400.0   90.0   16.666666666666668
-450.0   90.0   16.666666666666668
-400.0   90.0   33.333333333333336
-450.0   60.0   33.333333333333336
-450.0   90.0   33.333333333333336
-400.0   90.0   33.333333333333336
-450.0   90.0   16.666666666666668
-450.0   60.0   33.333333333333336
-400.0   90.0   33.333333333333336
-400.0   60.0   33.333333333333336
-400.0   60.0   16.666666666666668
-450.0   60.0   33.333333333333336
-400.0   90.0   33.333333333333336
-400.0   60.0   16.666666666666668
-450.0   90.0   16.666666666666668
-450.0   60.0   33.333333333333336
-400.0   60.0   33.333333333333336
-450.0   90.0   33.333333333333336
-450.0   60.0   50.0
-400.0   60.0   33.333333333333336
-400.0   90.0   33.333333333333336
-450.0   90.0   33.333333333333336
-400.0   90.0   50.0
-450.0   60.0   50.0
-450.0   90.0   50.0
-400.0   90.0   50.0
-450.0   90.0   33.333333333333336
-450.0   60.0   50.0
-400.0   90.0   50.0
-400.0   60.0   50.0
-400.0   60.0   33.333333333333336
-450.0   60.0   50.0
-400.0   90.0   50.0
-400.0   60.0   33.333333333333336
-450.0   90.0   33.333333333333336
-450.0   90.0   0.0
-400.0   90.0   0.0
-450.0   120.0   0.0
-450.0   90.0   16.666666666666668
-400.0   90.0   0.0
-400.0   120.0   0.0
-450.0   120.0   0.0
-400.0   120.0   16.666666666666668
-450.0   90.0   16.666666666666668
-450.0   120.0   16.666666666666668
-400.0   120.0   16.666666666666668
-450.0   120.0   0.0
-450.0   90.0   16.666666666666668
-400.0   120.0   16.666666666666668
-400.0   90.0   16.666666666666668
-400.0   90.0   0.0
-450.0   90.0   16.666666666666668
-400.0   120.0   16.666666666666668
-400.0   90.0   0.0
-450.0   120.0   0.0
-450.0   90.0   16.666666666666668
-400.0   90.0   16.666666666666668
-450.0   120.0   16.666666666666668
-450.0   90.0   33.333333333333336
-400.0   90.0   16.666666666666668
-400.0   120.0   16.666666666666668
-450.0   120.0   16.666666666666668
-400.0   120.0   33.333333333333336
-450.0   90.0   33.333333333333336
-450.0   120.0   33.333333333333336
-400.0   120.0   33.333333333333336
-450.0   120.0   16.666666666666668
-450.0   90.0   33.333333333333336
-400.0   120.0   33.333333333333336
-400.0   90.0   33.333333333333336
-400.0   90.0   16.666666666666668
-450.0   90.0   33.333333333333336
-400.0   120.0   33.333333333333336
-400.0   90.0   16.666666666666668
-450.0   120.0   16.666666666666668
-450.0   90.0   33.333333333333336
-400.0   90.0   33.333333333333336
-450.0   120.0   33.333333333333336
-450.0   90.0   50.0
-400.0   90.0   33.333333333333336
-400.0   120.0   33.333333333333336
-450.0   120.0   33.333333333333336
-400.0   120.0   50.0
-450.0   90.0   50.0
-450.0   120.0   50.0
-400.0   120.0   50.0
-450.0   120.0   33.333333333333336
-450.0   90.0   50.0
-400.0   120.0   50.0
-400.0   90.0   50.0
-400.0   90.0   33.333333333333336
-450.0   90.0   50.0
-400.0   120.0   50.0
-400.0   90.0   33.333333333333336
-450.0   120.0   33.333333333333336
-450.0   120.0   0.0
-400.0   120.0   0.0
-450.0   150.0   0.0
-450.0   120.0   16.666666666666668
-400.0   120.0   0.0
-400.0   150.0   0.0
-450.0   150.0   0.0
-400.0   150.0   16.666666666666668
-450.0   120.0   16.666666666666668
-450.0   150.0   16.666666666666668
-400.0   150.0   16.666666666666668
-450.0   150.0   0.0
-450.0   120.0   16.666666666666668
-400.0   150.0   16.666666666666668
-400.0   120.0   16.666666666666668
-400.0   120.0   0.0
-450.0   120.0   16.666666666666668
-400.0   150.0   16.666666666666668
-400.0   120.0   0.0
-450.0   150.0   0.0
-450.0   120.0   16.666666666666668
-400.0   120.0   16.666666666666668
-450.0   150.0   16.666666666666668
-450.0   120.0   33.333333333333336
-400.0   120.0   16.666666666666668
-400.0   150.0   16.666666666666668
-450.0   150.0   16.666666666666668
-400.0   150.0   33.333333333333336
-450.0   120.0   33.333333333333336
-450.0   150.0   33.333333333333336
-400.0   150.0   33.333333333333336
-450.0   150.0   16.666666666666668
-450.0   120.0   33.333333333333336
-400.0   150.0   33.333333333333336
-400.0   120.0   33.333333333333336
-400.0   120.0   16.666666666666668
-450.0   120.0   33.333333333333336
-400.0   150.0   33.333333333333336
-400.0   120.0   16.666666666666668
-450.0   150.0   16.666666666666668
-450.0   120.0   33.333333333333336
-400.0   120.0   33.333333333333336
-450.0   150.0   33.333333333333336
-450.0   120.0   50.0
-400.0   120.0   33.333333333333336
-400.0   150.0   33.333333333333336
-450.0   150.0   33.333333333333336
-400.0   150.0   50.0
-450.0   120.0   50.0
-450.0   150.0   50.0
-400.0   150.0   50.0
-450.0   150.0   33.333333333333336
-450.0   120.0   50.0
-400.0   150.0   50.0
-400.0   120.0   50.0
-400.0   120.0   33.333333333333336
-450.0   120.0   50.0
-400.0   150.0   50.0
-400.0   120.0   33.333333333333336
-450.0   150.0   33.333333333333336
-400.0   0.0   0.0
-350.0   0.0   0.0
-400.0   30.0   0.0
-400.0   0.0   16.666666666666668
-350.0   0.0   0.0
-350.0   30.0   0.0
-400.0   30.0   0.0
-350.0   30.0   16.666666666666668
-400.0   0.0   16.666666666666668
-400.0   30.0   16.666666666666668
-350.0   30.0   16.666666666666668
-400.0   30.0   0.0
-400.0   0.0   16.666666666666668
-350.0   30.0   16.666666666666668
-350.0   0.0   16.666666666666668
-350.0   0.0   0.0
-400.0   0.0   16.666666666666668
-350.0   30.0   16.666666666666668
-350.0   0.0   0.0
-400.0   30.0   0.0
-400.0   0.0   16.666666666666668
-350.0   0.0   16.666666666666668
-400.0   30.0   16.666666666666668
-400.0   0.0   33.333333333333336
-350.0   0.0   16.666666666666668
-350.0   30.0   16.666666666666668
-400.0   30.0   16.666666666666668
-350.0   30.0   33.333333333333336
-400.0   0.0   33.333333333333336
-400.0   30.0   33.333333333333336
-350.0   30.0   33.333333333333336
-400.0   30.0   16.666666666666668
-400.0   0.0   33.333333333333336
-350.0   30.0   33.333333333333336
-350.0   0.0   33.333333333333336
-350.0   0.0   16.666666666666668
-400.0   0.0   33.333333333333336
-350.0   30.0   33.333333333333336
-350.0   0.0   16.666666666666668
-400.0   30.0   16.666666666666668
-400.0   0.0   33.333333333333336
-350.0   0.0   33.333333333333336
-400.0   30.0   33.333333333333336
-400.0   0.0   50.0
-350.0   0.0   33.333333333333336
-350.0   30.0   33.333333333333336
-400.0   30.0   33.333333333333336
-350.0   30.0   50.0
-400.0   0.0   50.0
-400.0   30.0   50.0
-350.0   30.0   50.0
-400.0   30.0   33.333333333333336
-400.0   0.0   50.0
-350.0   30.0   50.0
-350.0   0.0   50.0
-350.0   0.0   33.333333333333336
-400.0   0.0   50.0
-350.0   30.0   50.0
-350.0   0.0   33.333333333333336
-400.0   30.0   33.333333333333336
-400.0   30.0   0.0
-350.0   30.0   0.0
-400.0   60.0   0.0
-400.0   30.0   16.666666666666668
-350.0   30.0   0.0
-350.0   60.0   0.0
-400.0   60.0   0.0
-350.0   60.0   16.666666666666668
-400.0   30.0   16.666666666666668
-400.0   60.0   16.666666666666668
-350.0   60.0   16.666666666666668
-400.0   60.0   0.0
-400.0   30.0   16.666666666666668
-350.0   60.0   16.666666666666668
-350.0   30.0   16.666666666666668
-350.0   30.0   0.0
-400.0   30.0   16.666666666666668
-350.0   60.0   16.666666666666668
-350.0   30.0   0.0
-400.0   60.0   0.0
-400.0   30.0   16.666666666666668
-350.0   30.0   16.666666666666668
-400.0   60.0   16.666666666666668
-400.0   30.0   33.333333333333336
-350.0   30.0   16.666666666666668
-350.0   60.0   16.666666666666668
-400.0   60.0   16.666666666666668
-350.0   60.0   33.333333333333336
-400.0   30.0   33.333333333333336
-400.0   60.0   33.333333333333336
-350.0   60.0   33.333333333333336
-400.0   60.0   16.666666666666668
-400.0   30.0   33.333333333333336
-350.0   60.0   33.333333333333336
-350.0   30.0   33.333333333333336
-350.0   30.0   16.666666666666668
-400.0   30.0   33.333333333333336
-350.0   60.0   33.333333333333336
-350.0   30.0   16.666666666666668
-400.0   60.0   16.666666666666668
-400.0   30.0   33.333333333333336
-350.0   30.0   33.333333333333336
-400.0   60.0   33.333333333333336
-400.0   30.0   50.0
-350.0   30.0   33.333333333333336
-350.0   60.0   33.333333333333336
-400.0   60.0   33.333333333333336
-350.0   60.0   50.0
-400.0   30.0   50.0
-400.0   60.0   50.0
-350.0   60.0   50.0
-400.0   60.0   33.333333333333336
-400.0   30.0   50.0
-350.0   60.0   50.0
-350.0   30.0   50.0
-350.0   30.0   33.333333333333336
-400.0   30.0   50.0
-350.0   60.0   50.0
-350.0   30.0   33.333333333333336
-400.0   60.0   33.333333333333336
-400.0   60.0   0.0
-350.0   60.0   0.0
-400.0   90.0   0.0
-400.0   60.0   16.666666666666668
-350.0   60.0   0.0
-350.0   90.0   0.0
-400.0   90.0   0.0
-350.0   90.0   16.666666666666668
-400.0   60.0   16.666666666666668
-400.0   90.0   16.666666666666668
-350.0   90.0   16.666666666666668
-400.0   90.0   0.0
-400.0   60.0   16.666666666666668
-350.0   90.0   16.666666666666668
-350.0   60.0   16.666666666666668
-350.0   60.0   0.0
-400.0   60.0   16.666666666666668
-350.0   90.0   16.666666666666668
-350.0   60.0   0.0
-400.0   90.0   0.0
-400.0   60.0   16.666666666666668
-350.0   60.0   16.666666666666668
-400.0   90.0   16.666666666666668
-400.0   60.0   33.333333333333336
-350.0   60.0   16.666666666666668
-350.0   90.0   16.666666666666668
-400.0   90.0   16.666666666666668
-350.0   90.0   33.333333333333336
-400.0   60.0   33.333333333333336
-400.0   90.0   33.333333333333336
-350.0   90.0   33.333333333333336
-400.0   90.0   16.666666666666668
-400.0   60.0   33.333333333333336
-350.0   90.0   33.333333333333336
-350.0   60.0   33.333333333333336
-350.0   60.0   16.666666666666668
-400.0   60.0   33.333333333333336
-350.0   90.0   33.333333333333336
-350.0   60.0   16.666666666666668
-400.0   90.0   16.666666666666668
-400.0   60.0   33.333333333333336
-350.0   60.0   33.333333333333336
-400.0   90.0   33.333333333333336
-400.0   60.0   50.0
-350.0   60.0   33.333333333333336
-350.0   90.0   33.333333333333336
-400.0   90.0   33.333333333333336
-350.0   90.0   50.0
-400.0   60.0   50.0
-400.0   90.0   50.0
-350.0   90.0   50.0
-400.0   90.0   33.333333333333336
-400.0   60.0   50.0
-350.0   90.0   50.0
-350.0   60.0   50.0
-350.0   60.0   33.333333333333336
-400.0   60.0   50.0
-350.0   90.0   50.0
-350.0   60.0   33.333333333333336
-400.0   90.0   33.333333333333336
-400.0   90.0   0.0
-350.0   90.0   0.0
-400.0   120.0   0.0
-400.0   90.0   16.666666666666668
-350.0   90.0   0.0
-350.0   120.0   0.0
-400.0   120.0   0.0
-350.0   120.0   16.666666666666668
-400.0   90.0   16.666666666666668
-400.0   120.0   16.666666666666668
-350.0   120.0   16.666666666666668
-400.0   120.0   0.0
-400.0   90.0   16.666666666666668
-350.0   120.0   16.666666666666668
-350.0   90.0   16.666666666666668
-350.0   90.0   0.0
-400.0   90.0   16.666666666666668
-350.0   120.0   16.666666666666668
-350.0   90.0   0.0
-400.0   120.0   0.0
-400.0   90.0   16.666666666666668
-350.0   90.0   16.666666666666668
-400.0   120.0   16.666666666666668
-400.0   90.0   33.333333333333336
-350.0   90.0   16.666666666666668
-350.0   120.0   16.666666666666668
-400.0   120.0   16.666666666666668
-350.0   120.0   33.333333333333336
-400.0   90.0   33.333333333333336
-400.0   120.0   33.333333333333336
-350.0   120.0   33.333333333333336
-400.0   120.0   16.666666666666668
-400.0   90.0   33.333333333333336
-350.0   120.0   33.333333333333336
-350.0   90.0   33.333333333333336
-350.0   90.0   16.666666666666668
-400.0   90.0   33.333333333333336
-350.0   120.0   33.333333333333336
-350.0   90.0   16.666666666666668
-400.0   120.0   16.666666666666668
-400.0   90.0   33.333333333333336
-350.0   90.0   33.333333333333336
-400.0   120.0   33.333333333333336
-400.0   90.0   50.0
-350.0   90.0   33.333333333333336
-350.0   120.0   33.333333333333336
-400.0   120.0   33.333333333333336
-350.0   120.0   50.0
-400.0   90.0   50.0
-400.0   120.0   50.0
-350.0   120.0   50.0
-400.0   120.0   33.333333333333336
-400.0   90.0   50.0
-350.0   120.0   50.0
-350.0   90.0   50.0
-350.0   90.0   33.333333333333336
-400.0   90.0   50.0
-350.0   120.0   50.0
-350.0   90.0   33.333333333333336
-400.0   120.0   33.333333333333336
-400.0   120.0   0.0
-350.0   120.0   0.0
-400.0   150.0   0.0
-400.0   120.0   16.666666666666668
-350.0   120.0   0.0
-350.0   150.0   0.0
-400.0   150.0   0.0
-350.0   150.0   16.666666666666668
-400.0   120.0   16.666666666666668
-400.0   150.0   16.666666666666668
-350.0   150.0   16.666666666666668
-400.0   150.0   0.0
-400.0   120.0   16.666666666666668
-350.0   150.0   16.666666666666668
-350.0   120.0   16.666666666666668
-350.0   120.0   0.0
-400.0   120.0   16.666666666666668
-350.0   150.0   16.666666666666668
-350.0   120.0   0.0
-400.0   150.0   0.0
-400.0   120.0   16.666666666666668
-350.0   120.0   16.666666666666668
-400.0   150.0   16.666666666666668
-400.0   120.0   33.333333333333336
-350.0   120.0   16.666666666666668
-350.0   150.0   16.666666666666668
-400.0   150.0   16.666666666666668
-350.0   150.0   33.333333333333336
-400.0   120.0   33.333333333333336
-400.0   150.0   33.333333333333336
-350.0   150.0   33.333333333333336
-400.0   150.0   16.666666666666668
-400.0   120.0   33.333333333333336
-350.0   150.0   33.333333333333336
-350.0   120.0   33.333333333333336
-350.0   120.0   16.666666666666668
-400.0   120.0   33.333333333333336
-350.0   150.0   33.333333333333336
-350.0   120.0   16.666666666666668
-400.0   150.0   16.666666666666668
-400.0   120.0   33.333333333333336
-350.0   120.0   33.333333333333336
-400.0   150.0   33.333333333333336
-400.0   120.0   50.0
-350.0   120.0   33.333333333333336
-350.0   150.0   33.333333333333336
-400.0   150.0   33.333333333333336
-350.0   150.0   50.0
-400.0   120.0   50.0
-400.0   150.0   50.0
-350.0   150.0   50.0
-400.0   150.0   33.333333333333336
-400.0   120.0   50.0
-350.0   150.0   50.0
-350.0   120.0   50.0
-350.0   120.0   33.333333333333336
-400.0   120.0   50.0
-350.0   150.0   50.0
-350.0   120.0   33.333333333333336
-400.0   150.0   33.333333333333336
-350.0   0.0   0.0
-300.0   0.0   0.0
-350.0   30.0   0.0
-350.0   0.0   16.666666666666668
-300.0   0.0   0.0
-300.0   30.0   0.0
-350.0   30.0   0.0
-300.0   30.0   16.666666666666668
-350.0   0.0   16.666666666666668
-350.0   30.0   16.666666666666668
-300.0   30.0   16.666666666666668
-350.0   30.0   0.0
-350.0   0.0   16.666666666666668
-300.0   30.0   16.666666666666668
-300.0   0.0   16.666666666666668
-300.0   0.0   0.0
-350.0   0.0   16.666666666666668
-300.0   30.0   16.666666666666668
-300.0   0.0   0.0
-350.0   30.0   0.0
-350.0   0.0   16.666666666666668
-300.0   0.0   16.666666666666668
-350.0   30.0   16.666666666666668
-350.0   0.0   33.333333333333336
-300.0   0.0   16.666666666666668
-300.0   30.0   16.666666666666668
-350.0   30.0   16.666666666666668
-300.0   30.0   33.333333333333336
-350.0   0.0   33.333333333333336
-350.0   30.0   33.333333333333336
-300.0   30.0   33.333333333333336
-350.0   30.0   16.666666666666668
-350.0   0.0   33.333333333333336
-300.0   30.0   33.333333333333336
-300.0   0.0   33.333333333333336
-300.0   0.0   16.666666666666668
-350.0   0.0   33.333333333333336
-300.0   30.0   33.333333333333336
-300.0   0.0   16.666666666666668
-350.0   30.0   16.666666666666668
-350.0   0.0   33.333333333333336
-300.0   0.0   33.333333333333336
-350.0   30.0   33.333333333333336
-350.0   0.0   50.0
-300.0   0.0   33.333333333333336
-300.0   30.0   33.333333333333336
-350.0   30.0   33.333333333333336
-300.0   30.0   50.0
-350.0   0.0   50.0
-350.0   30.0   50.0
-300.0   30.0   50.0
-350.0   30.0   33.333333333333336
-350.0   0.0   50.0
-300.0   30.0   50.0
-300.0   0.0   50.0
-300.0   0.0   33.333333333333336
-350.0   0.0   50.0
-300.0   30.0   50.0
-300.0   0.0   33.333333333333336
-350.0   30.0   33.333333333333336
-350.0   30.0   0.0
-300.0   30.0   0.0
-350.0   60.0   0.0
-350.0   30.0   16.666666666666668
-300.0   30.0   0.0
-300.0   60.0   0.0
-350.0   60.0   0.0
-300.0   60.0   16.666666666666668
-350.0   30.0   16.666666666666668
-350.0   60.0   16.666666666666668
-300.0   60.0   16.666666666666668
-350.0   60.0   0.0
-350.0   30.0   16.666666666666668
-300.0   60.0   16.666666666666668
-300.0   30.0   16.666666666666668
-300.0   30.0   0.0
-350.0   30.0   16.666666666666668
-300.0   60.0   16.666666666666668
-300.0   30.0   0.0
-350.0   60.0   0.0
-350.0   30.0   16.666666666666668
-300.0   30.0   16.666666666666668
-350.0   60.0   16.666666666666668
-350.0   30.0   33.333333333333336
-300.0   30.0   16.666666666666668
-300.0   60.0   16.666666666666668
-350.0   60.0   16.666666666666668
-300.0   60.0   33.333333333333336
-350.0   30.0   33.333333333333336
-350.0   60.0   33.333333333333336
-300.0   60.0   33.333333333333336
-350.0   60.0   16.666666666666668
-350.0   30.0   33.333333333333336
-300.0   60.0   33.333333333333336
-300.0   30.0   33.333333333333336
-300.0   30.0   16.666666666666668
-350.0   30.0   33.333333333333336
-300.0   60.0   33.333333333333336
-300.0   30.0   16.666666666666668
-350.0   60.0   16.666666666666668
-350.0   30.0   33.333333333333336
-300.0   30.0   33.333333333333336
-350.0   60.0   33.333333333333336
-350.0   30.0   50.0
-300.0   30.0   33.333333333333336
-300.0   60.0   33.333333333333336
-350.0   60.0   33.333333333333336
-300.0   60.0   50.0
-350.0   30.0   50.0
-350.0   60.0   50.0
-300.0   60.0   50.0
-350.0   60.0   33.333333333333336
-350.0   30.0   50.0
-300.0   60.0   50.0
-300.0   30.0   50.0
-300.0   30.0   33.333333333333336
-350.0   30.0   50.0
-300.0   60.0   50.0
-300.0   30.0   33.333333333333336
-350.0   60.0   33.333333333333336
-350.0   60.0   0.0
-300.0   60.0   0.0
-350.0   90.0   0.0
-350.0   60.0   16.666666666666668
-300.0   60.0   0.0
-300.0   90.0   0.0
-350.0   90.0   0.0
-300.0   90.0   16.666666666666668
-350.0   60.0   16.666666666666668
-350.0   90.0   16.666666666666668
-300.0   90.0   16.666666666666668
-350.0   90.0   0.0
-350.0   60.0   16.666666666666668
-300.0   90.0   16.666666666666668
-300.0   60.0   16.666666666666668
-300.0   60.0   0.0
-350.0   60.0   16.666666666666668
-300.0   90.0   16.666666666666668
-300.0   60.0   0.0
-350.0   90.0   0.0
-350.0   60.0   16.666666666666668
-300.0   60.0   16.666666666666668
-350.0   90.0   16.666666666666668
-350.0   60.0   33.333333333333336
-300.0   60.0   16.666666666666668
-300.0   90.0   16.666666666666668
-350.0   90.0   16.666666666666668
-300.0   90.0   33.333333333333336
-350.0   60.0   33.333333333333336
-350.0   90.0   33.333333333333336
-300.0   90.0   33.333333333333336
-350.0   90.0   16.666666666666668
-350.0   60.0   33.333333333333336
-300.0   90.0   33.333333333333336
-300.0   60.0   33.333333333333336
-300.0   60.0   16.666666666666668
-350.0   60.0   33.333333333333336
-300.0   90.0   33.333333333333336
-300.0   60.0   16.666666666666668
-350.0   90.0   16.666666666666668
-350.0   60.0   33.333333333333336
-300.0   60.0   33.333333333333336
-350.0   90.0   33.333333333333336
-350.0   60.0   50.0
-300.0   60.0   33.333333333333336
-300.0   90.0   33.333333333333336
-350.0   90.0   33.333333333333336
-300.0   90.0   50.0
-350.0   60.0   50.0
-350.0   90.0   50.0
-300.0   90.0   50.0
-350.0   90.0   33.333333333333336
-350.0   60.0   50.0
-300.0   90.0   50.0
-300.0   60.0   50.0
-300.0   60.0   33.333333333333336
-350.0   60.0   50.0
-300.0   90.0   50.0
-300.0   60.0   33.333333333333336
-350.0   90.0   33.333333333333336
-350.0   90.0   0.0
-300.0   90.0   0.0
-350.0   120.0   0.0
-350.0   90.0   16.666666666666668
-300.0   90.0   0.0
-300.0   120.0   0.0
-350.0   120.0   0.0
-300.0   120.0   16.666666666666668
-350.0   90.0   16.666666666666668
-350.0   120.0   16.666666666666668
-300.0   120.0   16.666666666666668
-350.0   120.0   0.0
-350.0   90.0   16.666666666666668
-300.0   120.0   16.666666666666668
-300.0   90.0   16.666666666666668
-300.0   90.0   0.0
-350.0   90.0   16.666666666666668
-300.0   120.0   16.666666666666668
-300.0   90.0   0.0
-350.0   120.0   0.0
-350.0   90.0   16.666666666666668
-300.0   90.0   16.666666666666668
-350.0   120.0   16.666666666666668
-350.0   90.0   33.333333333333336
-300.0   90.0   16.666666666666668
-300.0   120.0   16.666666666666668
-350.0   120.0   16.666666666666668
-300.0   120.0   33.333333333333336
-350.0   90.0   33.333333333333336
-350.0   120.0   33.333333333333336
-300.0   120.0   33.333333333333336
-350.0   120.0   16.666666666666668
-350.0   90.0   33.333333333333336
-300.0   120.0   33.333333333333336
-300.0   90.0   33.333333333333336
-300.0   90.0   16.666666666666668
-350.0   90.0   33.333333333333336
-300.0   120.0   33.333333333333336
-300.0   90.0   16.666666666666668
-350.0   120.0   16.666666666666668
-350.0   90.0   33.333333333333336
-300.0   90.0   33.333333333333336
-350.0   120.0   33.333333333333336
-350.0   90.0   50.0
-300.0   90.0   33.333333333333336
-300.0   120.0   33.333333333333336
-350.0   120.0   33.333333333333336
-300.0   120.0   50.0
-350.0   90.0   50.0
-350.0   120.0   50.0
-300.0   120.0   50.0
-350.0   120.0   33.333333333333336
-350.0   90.0   50.0
-300.0   120.0   50.0
-300.0   90.0   50.0
-300.0   90.0   33.333333333333336
-350.0   90.0   50.0
-300.0   120.0   50.0
-300.0   90.0   33.333333333333336
-350.0   120.0   33.333333333333336
-350.0   120.0   0.0
-300.0   120.0   0.0
-350.0   150.0   0.0
-350.0   120.0   16.666666666666668
-300.0   120.0   0.0
-300.0   150.0   0.0
-350.0   150.0   0.0
-300.0   150.0   16.666666666666668
-350.0   120.0   16.666666666666668
-350.0   150.0   16.666666666666668
-300.0   150.0   16.666666666666668
-350.0   150.0   0.0
-350.0   120.0   16.666666666666668
-300.0   150.0   16.666666666666668
-300.0   120.0   16.666666666666668
-300.0   120.0   0.0
-350.0   120.0   16.666666666666668
-300.0   150.0   16.666666666666668
-300.0   120.0   0.0
-350.0   150.0   0.0
-350.0   120.0   16.666666666666668
-300.0   120.0   16.666666666666668
-350.0   150.0   16.666666666666668
-350.0   120.0   33.333333333333336
-300.0   120.0   16.666666666666668
-300.0   150.0   16.666666666666668
-350.0   150.0   16.666666666666668
-300.0   150.0   33.333333333333336
-350.0   120.0   33.333333333333336
-350.0   150.0   33.333333333333336
-300.0   150.0   33.333333333333336
-350.0   150.0   16.666666666666668
-350.0   120.0   33.333333333333336
-300.0   150.0   33.333333333333336
-300.0   120.0   33.333333333333336
-300.0   120.0   16.666666666666668
-350.0   120.0   33.333333333333336
-300.0   150.0   33.333333333333336
-300.0   120.0   16.666666666666668
-350.0   150.0   16.666666666666668
-350.0   120.0   33.333333333333336
-300.0   120.0   33.333333333333336
-350.0   150.0   33.333333333333336
-350.0   120.0   50.0
-300.0   120.0   33.333333333333336
-300.0   150.0   33.333333333333336
-350.0   150.0   33.333333333333336
-300.0   150.0   50.0
-350.0   120.0   50.0
-350.0   150.0   50.0
-300.0   150.0   50.0
-350.0   150.0   33.333333333333336
-350.0   120.0   50.0
-300.0   150.0   50.0
-300.0   120.0   50.0
-300.0   120.0   33.333333333333336
-350.0   120.0   50.0
-300.0   150.0   50.0
-300.0   120.0   33.333333333333336
-350.0   150.0   33.333333333333336
-300.0   0.0   0.0
-250.0   0.0   0.0
-300.0   30.0   0.0
-300.0   0.0   16.666666666666668
-250.0   0.0   0.0
-250.0   30.0   0.0
-300.0   30.0   0.0
-250.0   30.0   16.666666666666668
-300.0   0.0   16.666666666666668
-300.0   30.0   16.666666666666668
-250.0   30.0   16.666666666666668
-300.0   30.0   0.0
-300.0   0.0   16.666666666666668
-250.0   30.0   16.666666666666668
-250.0   0.0   16.666666666666668
-250.0   0.0   0.0
-300.0   0.0   16.666666666666668
-250.0   30.0   16.666666666666668
-250.0   0.0   0.0
-300.0   30.0   0.0
-300.0   0.0   16.666666666666668
-250.0   0.0   16.666666666666668
-300.0   30.0   16.666666666666668
-300.0   0.0   33.333333333333336
-250.0   0.0   16.666666666666668
-250.0   30.0   16.666666666666668
-300.0   30.0   16.666666666666668
-250.0   30.0   33.333333333333336
-300.0   0.0   33.333333333333336
-300.0   30.0   33.333333333333336
-250.0   30.0   33.333333333333336
-300.0   30.0   16.666666666666668
-300.0   0.0   33.333333333333336
-250.0   30.0   33.333333333333336
-250.0   0.0   33.333333333333336
-250.0   0.0   16.666666666666668
-300.0   0.0   33.333333333333336
-250.0   30.0   33.333333333333336
-250.0   0.0   16.666666666666668
-300.0   30.0   16.666666666666668
-300.0   0.0   33.333333333333336
-250.0   0.0   33.333333333333336
-300.0   30.0   33.333333333333336
-300.0   0.0   50.0
-250.0   0.0   33.333333333333336
-250.0   30.0   33.333333333333336
-300.0   30.0   33.333333333333336
-250.0   30.0   50.0
-300.0   0.0   50.0
-300.0   30.0   50.0
-250.0   30.0   50.0
-300.0   30.0   33.333333333333336
-300.0   0.0   50.0
-250.0   30.0   50.0
-250.0   0.0   50.0
-250.0   0.0   33.333333333333336
-300.0   0.0   50.0
-250.0   30.0   50.0
-250.0   0.0   33.333333333333336
-300.0   30.0   33.333333333333336
-300.0   30.0   0.0
-250.0   30.0   0.0
-300.0   60.0   0.0
-300.0   30.0   16.666666666666668
-250.0   30.0   0.0
-250.0   60.0   0.0
-300.0   60.0   0.0
-250.0   60.0   16.666666666666668
-300.0   30.0   16.666666666666668
-300.0   60.0   16.666666666666668
-250.0   60.0   16.666666666666668
-300.0   60.0   0.0
-300.0   30.0   16.666666666666668
-250.0   60.0   16.666666666666668
-250.0   30.0   16.666666666666668
-250.0   30.0   0.0
-300.0   30.0   16.666666666666668
-250.0   60.0   16.666666666666668
-250.0   30.0   0.0
-300.0   60.0   0.0
-300.0   30.0   16.666666666666668
-250.0   30.0   16.666666666666668
-300.0   60.0   16.666666666666668
-300.0   30.0   33.333333333333336
-250.0   30.0   16.666666666666668
-250.0   60.0   16.666666666666668
-300.0   60.0   16.666666666666668
-250.0   60.0   33.333333333333336
-300.0   30.0   33.333333333333336
-300.0   60.0   33.333333333333336
-250.0   60.0   33.333333333333336
-300.0   60.0   16.666666666666668
-300.0   30.0   33.333333333333336
-250.0   60.0   33.333333333333336
-250.0   30.0   33.333333333333336
-250.0   30.0   16.666666666666668
-300.0   30.0   33.333333333333336
-250.0   60.0   33.333333333333336
-250.0   30.0   16.666666666666668
-300.0   60.0   16.666666666666668
-300.0   30.0   33.333333333333336
-250.0   30.0   33.333333333333336
-300.0   60.0   33.333333333333336
-300.0   30.0   50.0
-250.0   30.0   33.333333333333336
-250.0   60.0   33.333333333333336
-300.0   60.0   33.333333333333336
-250.0   60.0   50.0
-300.0   30.0   50.0
-300.0   60.0   50.0
-250.0   60.0   50.0
-300.0   60.0   33.333333333333336
-300.0   30.0   50.0
-250.0   60.0   50.0
-250.0   30.0   50.0
-250.0   30.0   33.333333333333336
-300.0   30.0   50.0
-250.0   60.0   50.0
-250.0   30.0   33.333333333333336
-300.0   60.0   33.333333333333336
-300.0   60.0   0.0
-250.0   60.0   0.0
-300.0   90.0   0.0
-300.0   60.0   16.666666666666668
-250.0   60.0   0.0
-250.0   90.0   0.0
-300.0   90.0   0.0
-250.0   90.0   16.666666666666668
-300.0   60.0   16.666666666666668
-300.0   90.0   16.666666666666668
-250.0   90.0   16.666666666666668
-300.0   90.0   0.0
-300.0   60.0   16.666666666666668
-250.0   90.0   16.666666666666668
-250.0   60.0   16.666666666666668
-250.0   60.0   0.0
-300.0   60.0   16.666666666666668
-250.0   90.0   16.666666666666668
-250.0   60.0   0.0
-300.0   90.0   0.0
-300.0   60.0   16.666666666666668
-250.0   60.0   16.666666666666668
-300.0   90.0   16.666666666666668
-300.0   60.0   33.333333333333336
-250.0   60.0   16.666666666666668
-250.0   90.0   16.666666666666668
-300.0   90.0   16.666666666666668
-250.0   90.0   33.333333333333336
-300.0   60.0   33.333333333333336
-300.0   90.0   33.333333333333336
-250.0   90.0   33.333333333333336
-300.0   90.0   16.666666666666668
-300.0   60.0   33.333333333333336
-250.0   90.0   33.333333333333336
-250.0   60.0   33.333333333333336
-250.0   60.0   16.666666666666668
-300.0   60.0   33.333333333333336
-250.0   90.0   33.333333333333336
-250.0   60.0   16.666666666666668
-300.0   90.0   16.666666666666668
-300.0   60.0   33.333333333333336
-250.0   60.0   33.333333333333336
-300.0   90.0   33.333333333333336
-300.0   60.0   50.0
-250.0   60.0   33.333333333333336
-250.0   90.0   33.333333333333336
-300.0   90.0   33.333333333333336
-250.0   90.0   50.0
-300.0   60.0   50.0
-300.0   90.0   50.0
-250.0   90.0   50.0
-300.0   90.0   33.333333333333336
-300.0   60.0   50.0
-250.0   90.0   50.0
-250.0   60.0   50.0
-250.0   60.0   33.333333333333336
-300.0   60.0   50.0
-250.0   90.0   50.0
-250.0   60.0   33.333333333333336
-300.0   90.0   33.333333333333336
-300.0   90.0   0.0
-250.0   90.0   0.0
-300.0   120.0   0.0
-300.0   90.0   16.666666666666668
-250.0   90.0   0.0
-250.0   120.0   0.0
-300.0   120.0   0.0
-250.0   120.0   16.666666666666668
-300.0   90.0   16.666666666666668
-300.0   120.0   16.666666666666668
-250.0   120.0   16.666666666666668
-300.0   120.0   0.0
-300.0   90.0   16.666666666666668
-250.0   120.0   16.666666666666668
-250.0   90.0   16.666666666666668
-250.0   90.0   0.0
-300.0   90.0   16.666666666666668
-250.0   120.0   16.666666666666668
-250.0   90.0   0.0
-300.0   120.0   0.0
-300.0   90.0   16.666666666666668
-250.0   90.0   16.666666666666668
-300.0   120.0   16.666666666666668
-300.0   90.0   33.333333333333336
-250.0   90.0   16.666666666666668
-250.0   120.0   16.666666666666668
-300.0   120.0   16.666666666666668
-250.0   120.0   33.333333333333336
-300.0   90.0   33.333333333333336
-300.0   120.0   33.333333333333336
-250.0   120.0   33.333333333333336
-300.0   120.0   16.666666666666668
-300.0   90.0   33.333333333333336
-250.0   120.0   33.333333333333336
-250.0   90.0   33.333333333333336
-250.0   90.0   16.666666666666668
-300.0   90.0   33.333333333333336
-250.0   120.0   33.333333333333336
-250.0   90.0   16.666666666666668
-300.0   120.0   16.666666666666668
-300.0   90.0   33.333333333333336
-250.0   90.0   33.333333333333336
-300.0   120.0   33.333333333333336
-300.0   90.0   50.0
-250.0   90.0   33.333333333333336
-250.0   120.0   33.333333333333336
-300.0   120.0   33.333333333333336
-250.0   120.0   50.0
-300.0   90.0   50.0
-300.0   120.0   50.0
-250.0   120.0   50.0
-300.0   120.0   33.333333333333336
-300.0   90.0   50.0
-250.0   120.0   50.0
-250.0   90.0   50.0
-250.0   90.0   33.333333333333336
-300.0   90.0   50.0
-250.0   120.0   50.0
-250.0   90.0   33.333333333333336
-300.0   120.0   33.333333333333336
-300.0   120.0   0.0
-250.0   120.0   0.0
-300.0   150.0   0.0
-300.0   120.0   16.666666666666668
-250.0   120.0   0.0
-250.0   150.0   0.0
-300.0   150.0   0.0
-250.0   150.0   16.666666666666668
-300.0   120.0   16.666666666666668
-300.0   150.0   16.666666666666668
-250.0   150.0   16.666666666666668
-300.0   150.0   0.0
-300.0   120.0   16.666666666666668
-250.0   150.0   16.666666666666668
-250.0   120.0   16.666666666666668
-250.0   120.0   0.0
-300.0   120.0   16.666666666666668
-250.0   150.0   16.666666666666668
-250.0   120.0   0.0
-300.0   150.0   0.0
-300.0   120.0   16.666666666666668
-250.0   120.0   16.666666666666668
-300.0   150.0   16.666666666666668
-300.0   120.0   33.333333333333336
-250.0   120.0   16.666666666666668
-250.0   150.0   16.666666666666668
-300.0   150.0   16.666666666666668
-250.0   150.0   33.333333333333336
-300.0   120.0   33.333333333333336
-300.0   150.0   33.333333333333336
-250.0   150.0   33.333333333333336
-300.0   150.0   16.666666666666668
-300.0   120.0   33.333333333333336
-250.0   150.0   33.333333333333336
-250.0   120.0   33.333333333333336
-250.0   120.0   16.666666666666668
-300.0   120.0   33.333333333333336
-250.0   150.0   33.333333333333336
-250.0   120.0   16.666666666666668
-300.0   150.0   16.666666666666668
-300.0   120.0   33.333333333333336
-250.0   120.0   33.333333333333336
-300.0   150.0   33.333333333333336
-300.0   120.0   50.0
-250.0   120.0   33.333333333333336
-250.0   150.0   33.333333333333336
-300.0   150.0   33.333333333333336
-250.0   150.0   50.0
-300.0   120.0   50.0
-300.0   150.0   50.0
-250.0   150.0   50.0
-300.0   150.0   33.333333333333336
-300.0   120.0   50.0
-250.0   150.0   50.0
-250.0   120.0   50.0
-250.0   120.0   33.333333333333336
-300.0   120.0   50.0
-250.0   150.0   50.0
-250.0   120.0   33.333333333333336
-300.0   150.0   33.333333333333336
-250.0   0.0   0.0
-200.0   0.0   0.0
-250.0   30.0   0.0
-250.0   0.0   16.666666666666668
-200.0   0.0   0.0
-200.0   30.0   0.0
-250.0   30.0   0.0
-200.0   30.0   16.666666666666668
-250.0   0.0   16.666666666666668
-250.0   30.0   16.666666666666668
-200.0   30.0   16.666666666666668
-250.0   30.0   0.0
-250.0   0.0   16.666666666666668
-200.0   30.0   16.666666666666668
-200.0   0.0   16.666666666666668
-200.0   0.0   0.0
-250.0   0.0   16.666666666666668
-200.0   30.0   16.666666666666668
-200.0   0.0   0.0
-250.0   30.0   0.0
-250.0   0.0   16.666666666666668
-200.0   0.0   16.666666666666668
-250.0   30.0   16.666666666666668
-250.0   0.0   33.333333333333336
-200.0   0.0   16.666666666666668
-200.0   30.0   16.666666666666668
-250.0   30.0   16.666666666666668
-200.0   30.0   33.333333333333336
-250.0   0.0   33.333333333333336
-250.0   30.0   33.333333333333336
-200.0   30.0   33.333333333333336
-250.0   30.0   16.666666666666668
-250.0   0.0   33.333333333333336
-200.0   30.0   33.333333333333336
-200.0   0.0   33.333333333333336
-200.0   0.0   16.666666666666668
-250.0   0.0   33.333333333333336
-200.0   30.0   33.333333333333336
-200.0   0.0   16.666666666666668
-250.0   30.0   16.666666666666668
-250.0   0.0   33.333333333333336
-200.0   0.0   33.333333333333336
-250.0   30.0   33.333333333333336
-250.0   0.0   50.0
-200.0   0.0   33.333333333333336
-200.0   30.0   33.333333333333336
-250.0   30.0   33.333333333333336
-200.0   30.0   50.0
-250.0   0.0   50.0
-250.0   30.0   50.0
-200.0   30.0   50.0
-250.0   30.0   33.333333333333336
-250.0   0.0   50.0
-200.0   30.0   50.0
-200.0   0.0   50.0
-200.0   0.0   33.333333333333336
-250.0   0.0   50.0
-200.0   30.0   50.0
-200.0   0.0   33.333333333333336
-250.0   30.0   33.333333333333336
-250.0   30.0   0.0
-200.0   30.0   0.0
-250.0   60.0   0.0
-250.0   30.0   16.666666666666668
-200.0   30.0   0.0
-200.0   60.0   0.0
-250.0   60.0   0.0
-200.0   60.0   16.666666666666668
-250.0   30.0   16.666666666666668
-250.0   60.0   16.666666666666668
-200.0   60.0   16.666666666666668
-250.0   60.0   0.0
-250.0   30.0   16.666666666666668
-200.0   60.0   16.666666666666668
-200.0   30.0   16.666666666666668
-200.0   30.0   0.0
-250.0   30.0   16.666666666666668
-200.0   60.0   16.666666666666668
-200.0   30.0   0.0
-250.0   60.0   0.0
-250.0   30.0   16.666666666666668
-200.0   30.0   16.666666666666668
-250.0   60.0   16.666666666666668
-250.0   30.0   33.333333333333336
-200.0   30.0   16.666666666666668
-200.0   60.0   16.666666666666668
-250.0   60.0   16.666666666666668
-200.0   60.0   33.333333333333336
-250.0   30.0   33.333333333333336
-250.0   60.0   33.333333333333336
-200.0   60.0   33.333333333333336
-250.0   60.0   16.666666666666668
-250.0   30.0   33.333333333333336
-200.0   60.0   33.333333333333336
-200.0   30.0   33.333333333333336
-200.0   30.0   16.666666666666668
-250.0   30.0   33.333333333333336
-200.0   60.0   33.333333333333336
-200.0   30.0   16.666666666666668
-250.0   60.0   16.666666666666668
-250.0   30.0   33.333333333333336
-200.0   30.0   33.333333333333336
-250.0   60.0   33.333333333333336
-250.0   30.0   50.0
-200.0   30.0   33.333333333333336
-200.0   60.0   33.333333333333336
-250.0   60.0   33.333333333333336
-200.0   60.0   50.0
-250.0   30.0   50.0
-250.0   60.0   50.0
-200.0   60.0   50.0
-250.0   60.0   33.333333333333336
-250.0   30.0   50.0
-200.0   60.0   50.0
-200.0   30.0   50.0
-200.0   30.0   33.333333333333336
-250.0   30.0   50.0
-200.0   60.0   50.0
-200.0   30.0   33.333333333333336
-250.0   60.0   33.333333333333336
-250.0   60.0   0.0
-200.0   60.0   0.0
-250.0   90.0   0.0
-250.0   60.0   16.666666666666668
-200.0   60.0   0.0
-200.0   90.0   0.0
-250.0   90.0   0.0
-200.0   90.0   16.666666666666668
-250.0   60.0   16.666666666666668
-250.0   90.0   16.666666666666668
-200.0   90.0   16.666666666666668
-250.0   90.0   0.0
-250.0   60.0   16.666666666666668
-200.0   90.0   16.666666666666668
-200.0   60.0   16.666666666666668
-200.0   60.0   0.0
-250.0   60.0   16.666666666666668
-200.0   90.0   16.666666666666668
-200.0   60.0   0.0
-250.0   90.0   0.0
-250.0   60.0   16.666666666666668
-200.0   60.0   16.666666666666668
-250.0   90.0   16.666666666666668
-250.0   60.0   33.333333333333336
-200.0   60.0   16.666666666666668
-200.0   90.0   16.666666666666668
-250.0   90.0   16.666666666666668
-200.0   90.0   33.333333333333336
-250.0   60.0   33.333333333333336
-250.0   90.0   33.333333333333336
-200.0   90.0   33.333333333333336
-250.0   90.0   16.666666666666668
-250.0   60.0   33.333333333333336
-200.0   90.0   33.333333333333336
-200.0   60.0   33.333333333333336
-200.0   60.0   16.666666666666668
-250.0   60.0   33.333333333333336
-200.0   90.0   33.333333333333336
-200.0   60.0   16.666666666666668
-250.0   90.0   16.666666666666668
-250.0   60.0   33.333333333333336
-200.0   60.0   33.333333333333336
-250.0   90.0   33.333333333333336
-250.0   60.0   50.0
-200.0   60.0   33.333333333333336
-200.0   90.0   33.333333333333336
-250.0   90.0   33.333333333333336
-200.0   90.0   50.0
-250.0   60.0   50.0
-250.0   90.0   50.0
-200.0   90.0   50.0
-250.0   90.0   33.333333333333336
-250.0   60.0   50.0
-200.0   90.0   50.0
-200.0   60.0   50.0
-200.0   60.0   33.333333333333336
-250.0   60.0   50.0
-200.0   90.0   50.0
-200.0   60.0   33.333333333333336
-250.0   90.0   33.333333333333336
-250.0   90.0   0.0
-200.0   90.0   0.0
-250.0   120.0   0.0
-250.0   90.0   16.666666666666668
-200.0   90.0   0.0
-200.0   120.0   0.0
-250.0   120.0   0.0
-200.0   120.0   16.666666666666668
-250.0   90.0   16.666666666666668
-250.0   120.0   16.666666666666668
-200.0   120.0   16.666666666666668
-250.0   120.0   0.0
-250.0   90.0   16.666666666666668
-200.0   120.0   16.666666666666668
-200.0   90.0   16.666666666666668
-200.0   90.0   0.0
-250.0   90.0   16.666666666666668
-200.0   120.0   16.666666666666668
-200.0   90.0   0.0
-250.0   120.0   0.0
-250.0   90.0   16.666666666666668
-200.0   90.0   16.666666666666668
-250.0   120.0   16.666666666666668
-250.0   90.0   33.333333333333336
-200.0   90.0   16.666666666666668
-200.0   120.0   16.666666666666668
-250.0   120.0   16.666666666666668
-200.0   120.0   33.333333333333336
-250.0   90.0   33.333333333333336
-250.0   120.0   33.333333333333336
-200.0   120.0   33.333333333333336
-250.0   120.0   16.666666666666668
-250.0   90.0   33.333333333333336
-200.0   120.0   33.333333333333336
-200.0   90.0   33.333333333333336
-200.0   90.0   16.666666666666668
-250.0   90.0   33.333333333333336
-200.0   120.0   33.333333333333336
-200.0   90.0   16.666666666666668
-250.0   120.0   16.666666666666668
-250.0   90.0   33.333333333333336
-200.0   90.0   33.333333333333336
-250.0   120.0   33.333333333333336
-250.0   90.0   50.0
-200.0   90.0   33.333333333333336
-200.0   120.0   33.333333333333336
-250.0   120.0   33.333333333333336
-200.0   120.0   50.0
-250.0   90.0   50.0
-250.0   120.0   50.0
-200.0   120.0   50.0
-250.0   120.0   33.333333333333336
-250.0   90.0   50.0
-200.0   120.0   50.0
-200.0   90.0   50.0
-200.0   90.0   33.333333333333336
-250.0   90.0   50.0
-200.0   120.0   50.0
-200.0   90.0   33.333333333333336
-250.0   120.0   33.333333333333336
-250.0   120.0   0.0
-200.0   120.0   0.0
-250.0   150.0   0.0
-250.0   120.0   16.666666666666668
-200.0   120.0   0.0
-200.0   150.0   0.0
-250.0   150.0   0.0
-200.0   150.0   16.666666666666668
-250.0   120.0   16.666666666666668
-250.0   150.0   16.666666666666668
-200.0   150.0   16.666666666666668
-250.0   150.0   0.0
-250.0   120.0   16.666666666666668
-200.0   150.0   16.666666666666668
-200.0   120.0   16.666666666666668
-200.0   120.0   0.0
-250.0   120.0   16.666666666666668
-200.0   150.0   16.666666666666668
-200.0   120.0   0.0
-250.0   150.0   0.0
-250.0   120.0   16.666666666666668
-200.0   120.0   16.666666666666668
-250.0   150.0   16.666666666666668
-250.0   120.0   33.333333333333336
-200.0   120.0   16.666666666666668
-200.0   150.0   16.666666666666668
-250.0   150.0   16.666666666666668
-200.0   150.0   33.333333333333336
-250.0   120.0   33.333333333333336
-250.0   150.0   33.333333333333336
-200.0   150.0   33.333333333333336
-250.0   150.0   16.666666666666668
-250.0   120.0   33.333333333333336
-200.0   150.0   33.333333333333336
-200.0   120.0   33.333333333333336
-200.0   120.0   16.666666666666668
-250.0   120.0   33.333333333333336
-200.0   150.0   33.333333333333336
-200.0   120.0   16.666666666666668
-250.0   150.0   16.666666666666668
-250.0   120.0   33.333333333333336
-200.0   120.0   33.333333333333336
-250.0   150.0   33.333333333333336
-250.0   120.0   50.0
-200.0   120.0   33.333333333333336
-200.0   150.0   33.333333333333336
-250.0   150.0   33.333333333333336
-200.0   150.0   50.0
-250.0   120.0   50.0
-250.0   150.0   50.0
-200.0   150.0   50.0
-250.0   150.0   33.333333333333336
-250.0   120.0   50.0
-200.0   150.0   50.0
-200.0   120.0   50.0
-200.0   120.0   33.333333333333336
-250.0   120.0   50.0
-200.0   150.0   50.0
-200.0   120.0   33.333333333333336
-250.0   150.0   33.333333333333336
-200.0   0.0   0.0
-150.0   0.0   0.0
-200.0   30.0   0.0
-200.0   0.0   16.666666666666668
-150.0   0.0   0.0
-150.0   30.0   0.0
-200.0   30.0   0.0
-150.0   30.0   16.666666666666668
-200.0   0.0   16.666666666666668
-200.0   30.0   16.666666666666668
-150.0   30.0   16.666666666666668
-200.0   30.0   0.0
-200.0   0.0   16.666666666666668
-150.0   30.0   16.666666666666668
-150.0   0.0   16.666666666666668
-150.0   0.0   0.0
-200.0   0.0   16.666666666666668
-150.0   30.0   16.666666666666668
-150.0   0.0   0.0
-200.0   30.0   0.0
-200.0   0.0   16.666666666666668
-150.0   0.0   16.666666666666668
-200.0   30.0   16.666666666666668
-200.0   0.0   33.333333333333336
-150.0   0.0   16.666666666666668
-150.0   30.0   16.666666666666668
-200.0   30.0   16.666666666666668
-150.0   30.0   33.333333333333336
-200.0   0.0   33.333333333333336
-200.0   30.0   33.333333333333336
-150.0   30.0   33.333333333333336
-200.0   30.0   16.666666666666668
-200.0   0.0   33.333333333333336
-150.0   30.0   33.333333333333336
-150.0   0.0   33.333333333333336
-150.0   0.0   16.666666666666668
-200.0   0.0   33.333333333333336
-150.0   30.0   33.333333333333336
-150.0   0.0   16.666666666666668
-200.0   30.0   16.666666666666668
-200.0   0.0   33.333333333333336
-150.0   0.0   33.333333333333336
-200.0   30.0   33.333333333333336
-200.0   0.0   50.0
-150.0   0.0   33.333333333333336
-150.0   30.0   33.333333333333336
-200.0   30.0   33.333333333333336
-150.0   30.0   50.0
-200.0   0.0   50.0
-200.0   30.0   50.0
-150.0   30.0   50.0
-200.0   30.0   33.333333333333336
-200.0   0.0   50.0
-150.0   30.0   50.0
-150.0   0.0   50.0
-150.0   0.0   33.333333333333336
-200.0   0.0   50.0
-150.0   30.0   50.0
-150.0   0.0   33.333333333333336
-200.0   30.0   33.333333333333336
-200.0   30.0   0.0
-150.0   30.0   0.0
-200.0   60.0   0.0
-200.0   30.0   16.666666666666668
-150.0   30.0   0.0
-150.0   60.0   0.0
-200.0   60.0   0.0
-150.0   60.0   16.666666666666668
-200.0   30.0   16.666666666666668
-200.0   60.0   16.666666666666668
-150.0   60.0   16.666666666666668
-200.0   60.0   0.0
-200.0   30.0   16.666666666666668
-150.0   60.0   16.666666666666668
-150.0   30.0   16.666666666666668
-150.0   30.0   0.0
-200.0   30.0   16.666666666666668
-150.0   60.0   16.666666666666668
-150.0   30.0   0.0
-200.0   60.0   0.0
-200.0   30.0   16.666666666666668
-150.0   30.0   16.666666666666668
-200.0   60.0   16.666666666666668
-200.0   30.0   33.333333333333336
-150.0   30.0   16.666666666666668
-150.0   60.0   16.666666666666668
-200.0   60.0   16.666666666666668
-150.0   60.0   33.333333333333336
-200.0   30.0   33.333333333333336
-200.0   60.0   33.333333333333336
-150.0   60.0   33.333333333333336
-200.0   60.0   16.666666666666668
-200.0   30.0   33.333333333333336
-150.0   60.0   33.333333333333336
-150.0   30.0   33.333333333333336
-150.0   30.0   16.666666666666668
-200.0   30.0   33.333333333333336
-150.0   60.0   33.333333333333336
-150.0   30.0   16.666666666666668
-200.0   60.0   16.666666666666668
-200.0   30.0   33.333333333333336
-150.0   30.0   33.333333333333336
-200.0   60.0   33.333333333333336
-200.0   30.0   50.0
-150.0   30.0   33.333333333333336
-150.0   60.0   33.333333333333336
-200.0   60.0   33.333333333333336
-150.0   60.0   50.0
-200.0   30.0   50.0
-200.0   60.0   50.0
-150.0   60.0   50.0
-200.0   60.0   33.333333333333336
-200.0   30.0   50.0
-150.0   60.0   50.0
-150.0   30.0   50.0
-150.0   30.0   33.333333333333336
-200.0   30.0   50.0
-150.0   60.0   50.0
-150.0   30.0   33.333333333333336
-200.0   60.0   33.333333333333336
-200.0   60.0   0.0
-150.0   60.0   0.0
-200.0   90.0   0.0
-200.0   60.0   16.666666666666668
-150.0   60.0   0.0
-150.0   90.0   0.0
-200.0   90.0   0.0
-150.0   90.0   16.666666666666668
-200.0   60.0   16.666666666666668
-200.0   90.0   16.666666666666668
-150.0   90.0   16.666666666666668
-200.0   90.0   0.0
-200.0   60.0   16.666666666666668
-150.0   90.0   16.666666666666668
-150.0   60.0   16.666666666666668
-150.0   60.0   0.0
-200.0   60.0   16.666666666666668
-150.0   90.0   16.666666666666668
-150.0   60.0   0.0
-200.0   90.0   0.0
-200.0   60.0   16.666666666666668
-150.0   60.0   16.666666666666668
-200.0   90.0   16.666666666666668
-200.0   60.0   33.333333333333336
-150.0   60.0   16.666666666666668
-150.0   90.0   16.666666666666668
-200.0   90.0   16.666666666666668
-150.0   90.0   33.333333333333336
-200.0   60.0   33.333333333333336
-200.0   90.0   33.333333333333336
-150.0   90.0   33.333333333333336
-200.0   90.0   16.666666666666668
-200.0   60.0   33.333333333333336
-150.0   90.0   33.333333333333336
-150.0   60.0   33.333333333333336
-150.0   60.0   16.666666666666668
-200.0   60.0   33.333333333333336
-150.0   90.0   33.333333333333336
-150.0   60.0   16.666666666666668
-200.0   90.0   16.666666666666668
-200.0   60.0   33.333333333333336
-150.0   60.0   33.333333333333336
-200.0   90.0   33.333333333333336
-200.0   60.0   50.0
-150.0   60.0   33.333333333333336
-150.0   90.0   33.333333333333336
-200.0   90.0   33.333333333333336
-150.0   90.0   50.0
-200.0   60.0   50.0
-200.0   90.0   50.0
-150.0   90.0   50.0
-200.0   90.0   33.333333333333336
-200.0   60.0   50.0
-150.0   90.0   50.0
-150.0   60.0   50.0
-150.0   60.0   33.333333333333336
-200.0   60.0   50.0
-150.0   90.0   50.0
-150.0   60.0   33.333333333333336
-200.0   90.0   33.333333333333336
-200.0   90.0   0.0
-150.0   90.0   0.0
-200.0   120.0   0.0
-200.0   90.0   16.666666666666668
-150.0   90.0   0.0
-150.0   120.0   0.0
-200.0   120.0   0.0
-150.0   120.0   16.666666666666668
-200.0   90.0   16.666666666666668
-200.0   120.0   16.666666666666668
-150.0   120.0   16.666666666666668
-200.0   120.0   0.0
-200.0   90.0   16.666666666666668
-150.0   120.0   16.666666666666668
-150.0   90.0   16.666666666666668
-150.0   90.0   0.0
-200.0   90.0   16.666666666666668
-150.0   120.0   16.666666666666668
-150.0   90.0   0.0
-200.0   120.0   0.0
-200.0   90.0   16.666666666666668
-150.0   90.0   16.666666666666668
-200.0   120.0   16.666666666666668
-200.0   90.0   33.333333333333336
-150.0   90.0   16.666666666666668
-150.0   120.0   16.666666666666668
-200.0   120.0   16.666666666666668
-150.0   120.0   33.333333333333336
-200.0   90.0   33.333333333333336
-200.0   120.0   33.333333333333336
-150.0   120.0   33.333333333333336
-200.0   120.0   16.666666666666668
-200.0   90.0   33.333333333333336
-150.0   120.0   33.333333333333336
-150.0   90.0   33.333333333333336
-150.0   90.0   16.666666666666668
-200.0   90.0   33.333333333333336
-150.0   120.0   33.333333333333336
-150.0   90.0   16.666666666666668
-200.0   120.0   16.666666666666668
-200.0   90.0   33.333333333333336
-150.0   90.0   33.333333333333336
-200.0   120.0   33.333333333333336
-200.0   90.0   50.0
-150.0   90.0   33.333333333333336
-150.0   120.0   33.333333333333336
-200.0   120.0   33.333333333333336
-150.0   120.0   50.0
-200.0   90.0   50.0
-200.0   120.0   50.0
-150.0   120.0   50.0
-200.0   120.0   33.333333333333336
-200.0   90.0   50.0
-150.0   120.0   50.0
-150.0   90.0   50.0
-150.0   90.0   33.333333333333336
-200.0   90.0   50.0
-150.0   120.0   50.0
-150.0   90.0   33.333333333333336
-200.0   120.0   33.333333333333336
-200.0   120.0   0.0
-150.0   120.0   0.0
-200.0   150.0   0.0
-200.0   120.0   16.666666666666668
-150.0   120.0   0.0
-150.0   150.0   0.0
-200.0   150.0   0.0
-150.0   150.0   16.666666666666668
-200.0   120.0   16.666666666666668
-200.0   150.0   16.666666666666668
-150.0   150.0   16.666666666666668
-200.0   150.0   0.0
-200.0   120.0   16.666666666666668
-150.0   150.0   16.666666666666668
-150.0   120.0   16.666666666666668
-150.0   120.0   0.0
-200.0   120.0   16.666666666666668
-150.0   150.0   16.666666666666668
-150.0   120.0   0.0
-200.0   150.0   0.0
-200.0   120.0   16.666666666666668
-150.0   120.0   16.666666666666668
-200.0   150.0   16.666666666666668
-200.0   120.0   33.333333333333336
-150.0   120.0   16.666666666666668
-150.0   150.0   16.666666666666668
-200.0   150.0   16.666666666666668
-150.0   150.0   33.333333333333336
-200.0   120.0   33.333333333333336
-200.0   150.0   33.333333333333336
-150.0   150.0   33.333333333333336
-200.0   150.0   16.666666666666668
-200.0   120.0   33.333333333333336
-150.0   150.0   33.333333333333336
-150.0   120.0   33.333333333333336
-150.0   120.0   16.666666666666668
-200.0   120.0   33.333333333333336
-150.0   150.0   33.333333333333336
-150.0   120.0   16.666666666666668
-200.0   150.0   16.666666666666668
-200.0   120.0   33.333333333333336
-150.0   120.0   33.333333333333336
-200.0   150.0   33.333333333333336
-200.0   120.0   50.0
-150.0   120.0   33.333333333333336
-150.0   150.0   33.333333333333336
-200.0   150.0   33.333333333333336
-150.0   150.0   50.0
-200.0   120.0   50.0
-200.0   150.0   50.0
-150.0   150.0   50.0
-200.0   150.0   33.333333333333336
-200.0   120.0   50.0
-150.0   150.0   50.0
-150.0   120.0   50.0
-150.0   120.0   33.333333333333336
-200.0   120.0   50.0
-150.0   150.0   50.0
-150.0   120.0   33.333333333333336
-200.0   150.0   33.333333333333336
-150.0   0.0   0.0
-100.0   0.0   0.0
-150.0   30.0   0.0
-150.0   0.0   16.666666666666668
-100.0   0.0   0.0
-100.0   30.0   0.0
-150.0   30.0   0.0
-100.0   30.0   16.666666666666668
-150.0   0.0   16.666666666666668
-150.0   30.0   16.666666666666668
-100.0   30.0   16.666666666666668
-150.0   30.0   0.0
-150.0   0.0   16.666666666666668
-100.0   30.0   16.666666666666668
-100.0   0.0   16.666666666666668
-100.0   0.0   0.0
-150.0   0.0   16.666666666666668
-100.0   30.0   16.666666666666668
-100.0   0.0   0.0
-150.0   30.0   0.0
-150.0   0.0   16.666666666666668
-100.0   0.0   16.666666666666668
-150.0   30.0   16.666666666666668
-150.0   0.0   33.333333333333336
-100.0   0.0   16.666666666666668
-100.0   30.0   16.666666666666668
-150.0   30.0   16.666666666666668
-100.0   30.0   33.333333333333336
-150.0   0.0   33.333333333333336
-150.0   30.0   33.333333333333336
-100.0   30.0   33.333333333333336
-150.0   30.0   16.666666666666668
-150.0   0.0   33.333333333333336
-100.0   30.0   33.333333333333336
-100.0   0.0   33.333333333333336
-100.0   0.0   16.666666666666668
-150.0   0.0   33.333333333333336
-100.0   30.0   33.333333333333336
-100.0   0.0   16.666666666666668
-150.0   30.0   16.666666666666668
-150.0   0.0   33.333333333333336
-100.0   0.0   33.333333333333336
-150.0   30.0   33.333333333333336
-150.0   0.0   50.0
-100.0   0.0   33.333333333333336
-100.0   30.0   33.333333333333336
-150.0   30.0   33.333333333333336
-100.0   30.0   50.0
-150.0   0.0   50.0
-150.0   30.0   50.0
-100.0   30.0   50.0
-150.0   30.0   33.333333333333336
-150.0   0.0   50.0
-100.0   30.0   50.0
-100.0   0.0   50.0
-100.0   0.0   33.333333333333336
-150.0   0.0   50.0
-100.0   30.0   50.0
-100.0   0.0   33.333333333333336
-150.0   30.0   33.333333333333336
-150.0   30.0   0.0
-100.0   30.0   0.0
-150.0   60.0   0.0
-150.0   30.0   16.666666666666668
-100.0   30.0   0.0
-100.0   60.0   0.0
-150.0   60.0   0.0
-100.0   60.0   16.666666666666668
-150.0   30.0   16.666666666666668
-150.0   60.0   16.666666666666668
-100.0   60.0   16.666666666666668
-150.0   60.0   0.0
-150.0   30.0   16.666666666666668
-100.0   60.0   16.666666666666668
-100.0   30.0   16.666666666666668
-100.0   30.0   0.0
-150.0   30.0   16.666666666666668
-100.0   60.0   16.666666666666668
-100.0   30.0   0.0
-150.0   60.0   0.0
-150.0   30.0   16.666666666666668
-100.0   30.0   16.666666666666668
-150.0   60.0   16.666666666666668
-150.0   30.0   33.333333333333336
-100.0   30.0   16.666666666666668
-100.0   60.0   16.666666666666668
-150.0   60.0   16.666666666666668
-100.0   60.0   33.333333333333336
-150.0   30.0   33.333333333333336
-150.0   60.0   33.333333333333336
-100.0   60.0   33.333333333333336
-150.0   60.0   16.666666666666668
-150.0   30.0   33.333333333333336
-100.0   60.0   33.333333333333336
-100.0   30.0   33.333333333333336
-100.0   30.0   16.666666666666668
-150.0   30.0   33.333333333333336
-100.0   60.0   33.333333333333336
-100.0   30.0   16.666666666666668
-150.0   60.0   16.666666666666668
-150.0   30.0   33.333333333333336
-100.0   30.0   33.333333333333336
-150.0   60.0   33.333333333333336
-150.0   30.0   50.0
-100.0   30.0   33.333333333333336
-100.0   60.0   33.333333333333336
-150.0   60.0   33.333333333333336
-100.0   60.0   50.0
-150.0   30.0   50.0
-150.0   60.0   50.0
-100.0   60.0   50.0
-150.0   60.0   33.333333333333336
-150.0   30.0   50.0
-100.0   60.0   50.0
-100.0   30.0   50.0
-100.0   30.0   33.333333333333336
-150.0   30.0   50.0
-100.0   60.0   50.0
-100.0   30.0   33.333333333333336
-150.0   60.0   33.333333333333336
-150.0   60.0   0.0
-100.0   60.0   0.0
-150.0   90.0   0.0
-150.0   60.0   16.666666666666668
-100.0   60.0   0.0
-100.0   90.0   0.0
-150.0   90.0   0.0
-100.0   90.0   16.666666666666668
-150.0   60.0   16.666666666666668
-150.0   90.0   16.666666666666668
-100.0   90.0   16.666666666666668
-150.0   90.0   0.0
-150.0   60.0   16.666666666666668
-100.0   90.0   16.666666666666668
-100.0   60.0   16.666666666666668
-100.0   60.0   0.0
-150.0   60.0   16.666666666666668
-100.0   90.0   16.666666666666668
-100.0   60.0   0.0
-150.0   90.0   0.0
-150.0   60.0   16.666666666666668
-100.0   60.0   16.666666666666668
-150.0   90.0   16.666666666666668
-150.0   60.0   33.333333333333336
-100.0   60.0   16.666666666666668
-100.0   90.0   16.666666666666668
-150.0   90.0   16.666666666666668
-100.0   90.0   33.333333333333336
-150.0   60.0   33.333333333333336
-150.0   90.0   33.333333333333336
-100.0   90.0   33.333333333333336
-150.0   90.0   16.666666666666668
-150.0   60.0   33.333333333333336
-100.0   90.0   33.333333333333336
-100.0   60.0   33.333333333333336
-100.0   60.0   16.666666666666668
-150.0   60.0   33.333333333333336
-100.0   90.0   33.333333333333336
-100.0   60.0   16.666666666666668
-150.0   90.0   16.666666666666668
-150.0   60.0   33.333333333333336
-100.0   60.0   33.333333333333336
-150.0   90.0   33.333333333333336
-150.0   60.0   50.0
-100.0   60.0   33.333333333333336
-100.0   90.0   33.333333333333336
-150.0   90.0   33.333333333333336
-100.0   90.0   50.0
-150.0   60.0   50.0
-150.0   90.0   50.0
-100.0   90.0   50.0
-150.0   90.0   33.333333333333336
-150.0   60.0   50.0
-100.0   90.0   50.0
-100.0   60.0   50.0
-100.0   60.0   33.333333333333336
-150.0   60.0   50.0
-100.0   90.0   50.0
-100.0   60.0   33.333333333333336
-150.0   90.0   33.333333333333336
-150.0   90.0   0.0
-100.0   90.0   0.0
-150.0   120.0   0.0
-150.0   90.0   16.666666666666668
-100.0   90.0   0.0
-100.0   120.0   0.0
-150.0   120.0   0.0
-100.0   120.0   16.666666666666668
-150.0   90.0   16.666666666666668
-150.0   120.0   16.666666666666668
-100.0   120.0   16.666666666666668
-150.0   120.0   0.0
-150.0   90.0   16.666666666666668
-100.0   120.0   16.666666666666668
-100.0   90.0   16.666666666666668
-100.0   90.0   0.0
-150.0   90.0   16.666666666666668
-100.0   120.0   16.666666666666668
-100.0   90.0   0.0
-150.0   120.0   0.0
-150.0   90.0   16.666666666666668
-100.0   90.0   16.666666666666668
-150.0   120.0   16.666666666666668
-150.0   90.0   33.333333333333336
-100.0   90.0   16.666666666666668
-100.0   120.0   16.666666666666668
-150.0   120.0   16.666666666666668
-100.0   120.0   33.333333333333336
-150.0   90.0   33.333333333333336
-150.0   120.0   33.333333333333336
-100.0   120.0   33.333333333333336
-150.0   120.0   16.666666666666668
-150.0   90.0   33.333333333333336
-100.0   120.0   33.333333333333336
-100.0   90.0   33.333333333333336
-100.0   90.0   16.666666666666668
-150.0   90.0   33.333333333333336
-100.0   120.0   33.333333333333336
-100.0   90.0   16.666666666666668
-150.0   120.0   16.666666666666668
-150.0   90.0   33.333333333333336
-100.0   90.0   33.333333333333336
-150.0   120.0   33.333333333333336
-150.0   90.0   50.0
-100.0   90.0   33.333333333333336
-100.0   120.0   33.333333333333336
-150.0   120.0   33.333333333333336
-100.0   120.0   50.0
-150.0   90.0   50.0
-150.0   120.0   50.0
-100.0   120.0   50.0
-150.0   120.0   33.333333333333336
-150.0   90.0   50.0
-100.0   120.0   50.0
-100.0   90.0   50.0
-100.0   90.0   33.333333333333336
-150.0   90.0   50.0
-100.0   120.0   50.0
-100.0   90.0   33.333333333333336
-150.0   120.0   33.333333333333336
-150.0   120.0   0.0
-100.0   120.0   0.0
-150.0   150.0   0.0
-150.0   120.0   16.666666666666668
-100.0   120.0   0.0
-100.0   150.0   0.0
-150.0   150.0   0.0
-100.0   150.0   16.666666666666668
-150.0   120.0   16.666666666666668
-150.0   150.0   16.666666666666668
-100.0   150.0   16.666666666666668
-150.0   150.0   0.0
-150.0   120.0   16.666666666666668
-100.0   150.0   16.666666666666668
-100.0   120.0   16.666666666666668
-100.0   120.0   0.0
-150.0   120.0   16.666666666666668
-100.0   150.0   16.666666666666668
-100.0   120.0   0.0
-150.0   150.0   0.0
-150.0   120.0   16.666666666666668
-100.0   120.0   16.666666666666668
-150.0   150.0   16.666666666666668
-150.0   120.0   33.333333333333336
-100.0   120.0   16.666666666666668
-100.0   150.0   16.666666666666668
-150.0   150.0   16.666666666666668
-100.0   150.0   33.333333333333336
-150.0   120.0   33.333333333333336
-150.0   150.0   33.333333333333336
-100.0   150.0   33.333333333333336
-150.0   150.0   16.666666666666668
-150.0   120.0   33.333333333333336
-100.0   150.0   33.333333333333336
-100.0   120.0   33.333333333333336
-100.0   120.0   16.666666666666668
-150.0   120.0   33.333333333333336
-100.0   150.0   33.333333333333336
-100.0   120.0   16.666666666666668
-150.0   150.0   16.666666666666668
-150.0   120.0   33.333333333333336
-100.0   120.0   33.333333333333336
-150.0   150.0   33.333333333333336
-150.0   120.0   50.0
-100.0   120.0   33.333333333333336
-100.0   150.0   33.333333333333336
-150.0   150.0   33.333333333333336
-100.0   150.0   50.0
-150.0   120.0   50.0
-150.0   150.0   50.0
-100.0   150.0   50.0
-150.0   150.0   33.333333333333336
-150.0   120.0   50.0
-100.0   150.0   50.0
-100.0   120.0   50.0
-100.0   120.0   33.333333333333336
-150.0   120.0   50.0
-100.0   150.0   50.0
-100.0   120.0   33.333333333333336
-150.0   150.0   33.333333333333336
-100.0   0.0   0.0
-50.0   0.0   0.0
-100.0   30.0   0.0
-100.0   0.0   16.666666666666668
-50.0   0.0   0.0
-50.0   30.0   0.0
-100.0   30.0   0.0
-50.0   30.0   16.666666666666668
-100.0   0.0   16.666666666666668
-100.0   30.0   16.666666666666668
-50.0   30.0   16.666666666666668
-100.0   30.0   0.0
-100.0   0.0   16.666666666666668
-50.0   30.0   16.666666666666668
-50.0   0.0   16.666666666666668
-50.0   0.0   0.0
-100.0   0.0   16.666666666666668
-50.0   30.0   16.666666666666668
-50.0   0.0   0.0
-100.0   30.0   0.0
-100.0   0.0   16.666666666666668
-50.0   0.0   16.666666666666668
-100.0   30.0   16.666666666666668
-100.0   0.0   33.333333333333336
-50.0   0.0   16.666666666666668
-50.0   30.0   16.666666666666668
-100.0   30.0   16.666666666666668
-50.0   30.0   33.333333333333336
-100.0   0.0   33.333333333333336
-100.0   30.0   33.333333333333336
-50.0   30.0   33.333333333333336
-100.0   30.0   16.666666666666668
-100.0   0.0   33.333333333333336
-50.0   30.0   33.333333333333336
-50.0   0.0   33.333333333333336
-50.0   0.0   16.666666666666668
-100.0   0.0   33.333333333333336
-50.0   30.0   33.333333333333336
-50.0   0.0   16.666666666666668
-100.0   30.0   16.666666666666668
-100.0   0.0   33.333333333333336
-50.0   0.0   33.333333333333336
-100.0   30.0   33.333333333333336
-100.0   0.0   50.0
-50.0   0.0   33.333333333333336
-50.0   30.0   33.333333333333336
-100.0   30.0   33.333333333333336
-50.0   30.0   50.0
-100.0   0.0   50.0
-100.0   30.0   50.0
-50.0   30.0   50.0
-100.0   30.0   33.333333333333336
-100.0   0.0   50.0
-50.0   30.0   50.0
-50.0   0.0   50.0
-50.0   0.0   33.333333333333336
-100.0   0.0   50.0
-50.0   30.0   50.0
-50.0   0.0   33.333333333333336
-100.0   30.0   33.333333333333336
-100.0   30.0   0.0
-50.0   30.0   0.0
-100.0   60.0   0.0
-100.0   30.0   16.666666666666668
-50.0   30.0   0.0
-50.0   60.0   0.0
-100.0   60.0   0.0
-50.0   60.0   16.666666666666668
-100.0   30.0   16.666666666666668
-100.0   60.0   16.666666666666668
-50.0   60.0   16.666666666666668
-100.0   60.0   0.0
-100.0   30.0   16.666666666666668
-50.0   60.0   16.666666666666668
-50.0   30.0   16.666666666666668
-50.0   30.0   0.0
-100.0   30.0   16.666666666666668
-50.0   60.0   16.666666666666668
-50.0   30.0   0.0
-100.0   60.0   0.0
-100.0   30.0   16.666666666666668
-50.0   30.0   16.666666666666668
-100.0   60.0   16.666666666666668
-100.0   30.0   33.333333333333336
-50.0   30.0   16.666666666666668
-50.0   60.0   16.666666666666668
-100.0   60.0   16.666666666666668
-50.0   60.0   33.333333333333336
-100.0   30.0   33.333333333333336
-100.0   60.0   33.333333333333336
-50.0   60.0   33.333333333333336
-100.0   60.0   16.666666666666668
-100.0   30.0   33.333333333333336
-50.0   60.0   33.333333333333336
-50.0   30.0   33.333333333333336
-50.0   30.0   16.666666666666668
-100.0   30.0   33.333333333333336
-50.0   60.0   33.333333333333336
-50.0   30.0   16.666666666666668
-100.0   60.0   16.666666666666668
-100.0   30.0   33.333333333333336
-50.0   30.0   33.333333333333336
-100.0   60.0   33.333333333333336
-100.0   30.0   50.0
-50.0   30.0   33.333333333333336
-50.0   60.0   33.333333333333336
-100.0   60.0   33.333333333333336
-50.0   60.0   50.0
-100.0   30.0   50.0
-100.0   60.0   50.0
-50.0   60.0   50.0
-100.0   60.0   33.333333333333336
-100.0   30.0   50.0
-50.0   60.0   50.0
-50.0   30.0   50.0
-50.0   30.0   33.333333333333336
-100.0   30.0   50.0
-50.0   60.0   50.0
-50.0   30.0   33.333333333333336
-100.0   60.0   33.333333333333336
-100.0   60.0   0.0
-50.0   60.0   0.0
-100.0   90.0   0.0
-100.0   60.0   16.666666666666668
-50.0   60.0   0.0
-50.0   90.0   0.0
-100.0   90.0   0.0
-50.0   90.0   16.666666666666668
-100.0   60.0   16.666666666666668
-100.0   90.0   16.666666666666668
-50.0   90.0   16.666666666666668
-100.0   90.0   0.0
-100.0   60.0   16.666666666666668
-50.0   90.0   16.666666666666668
-50.0   60.0   16.666666666666668
-50.0   60.0   0.0
-100.0   60.0   16.666666666666668
-50.0   90.0   16.666666666666668
-50.0   60.0   0.0
-100.0   90.0   0.0
-100.0   60.0   16.666666666666668
-50.0   60.0   16.666666666666668
-100.0   90.0   16.666666666666668
-100.0   60.0   33.333333333333336
-50.0   60.0   16.666666666666668
-50.0   90.0   16.666666666666668
-100.0   90.0   16.666666666666668
-50.0   90.0   33.333333333333336
-100.0   60.0   33.333333333333336
-100.0   90.0   33.333333333333336
-50.0   90.0   33.333333333333336
-100.0   90.0   16.666666666666668
-100.0   60.0   33.333333333333336
-50.0   90.0   33.333333333333336
-50.0   60.0   33.333333333333336
-50.0   60.0   16.666666666666668
-100.0   60.0   33.333333333333336
-50.0   90.0   33.333333333333336
-50.0   60.0   16.666666666666668
-100.0   90.0   16.666666666666668
-100.0   60.0   33.333333333333336
-50.0   60.0   33.333333333333336
-100.0   90.0   33.333333333333336
-100.0   60.0   50.0
-50.0   60.0   33.333333333333336
-50.0   90.0   33.333333333333336
-100.0   90.0   33.333333333333336
-50.0   90.0   50.0
-100.0   60.0   50.0
-100.0   90.0   50.0
-50.0   90.0   50.0
-100.0   90.0   33.333333333333336
-100.0   60.0   50.0
-50.0   90.0   50.0
-50.0   60.0   50.0
-50.0   60.0   33.333333333333336
-100.0   60.0   50.0
-50.0   90.0   50.0
-50.0   60.0   33.333333333333336
-100.0   90.0   33.333333333333336
-100.0   90.0   0.0
-50.0   90.0   0.0
-100.0   120.0   0.0
-100.0   90.0   16.666666666666668
-50.0   90.0   0.0
-50.0   120.0   0.0
-100.0   120.0   0.0
-50.0   120.0   16.666666666666668
-100.0   90.0   16.666666666666668
-100.0   120.0   16.666666666666668
-50.0   120.0   16.666666666666668
-100.0   120.0   0.0
-100.0   90.0   16.666666666666668
-50.0   120.0   16.666666666666668
-50.0   90.0   16.666666666666668
-50.0   90.0   0.0
-100.0   90.0   16.666666666666668
-50.0   120.0   16.666666666666668
-50.0   90.0   0.0
-100.0   120.0   0.0
-100.0   90.0   16.666666666666668
-50.0   90.0   16.666666666666668
-100.0   120.0   16.666666666666668
-100.0   90.0   33.333333333333336
-50.0   90.0   16.666666666666668
-50.0   120.0   16.666666666666668
-100.0   120.0   16.666666666666668
-50.0   120.0   33.333333333333336
-100.0   90.0   33.333333333333336
-100.0   120.0   33.333333333333336
-50.0   120.0   33.333333333333336
-100.0   120.0   16.666666666666668
-100.0   90.0   33.333333333333336
-50.0   120.0   33.333333333333336
-50.0   90.0   33.333333333333336
-50.0   90.0   16.666666666666668
-100.0   90.0   33.333333333333336
-50.0   120.0   33.333333333333336
-50.0   90.0   16.666666666666668
-100.0   120.0   16.666666666666668
-100.0   90.0   33.333333333333336
-50.0   90.0   33.333333333333336
-100.0   120.0   33.333333333333336
-100.0   90.0   50.0
-50.0   90.0   33.333333333333336
-50.0   120.0   33.333333333333336
-100.0   120.0   33.333333333333336
-50.0   120.0   50.0
-100.0   90.0   50.0
-100.0   120.0   50.0
-50.0   120.0   50.0
-100.0   120.0   33.333333333333336
-100.0   90.0   50.0
-50.0   120.0   50.0
-50.0   90.0   50.0
-50.0   90.0   33.333333333333336
-100.0   90.0   50.0
-50.0   120.0   50.0
-50.0   90.0   33.333333333333336
-100.0   120.0   33.333333333333336
-100.0   120.0   0.0
-50.0   120.0   0.0
-100.0   150.0   0.0
-100.0   120.0   16.666666666666668
-50.0   120.0   0.0
-50.0   150.0   0.0
-100.0   150.0   0.0
-50.0   150.0   16.666666666666668
-100.0   120.0   16.666666666666668
-100.0   150.0   16.666666666666668
-50.0   150.0   16.666666666666668
-100.0   150.0   0.0
-100.0   120.0   16.666666666666668
-50.0   150.0   16.666666666666668
-50.0   120.0   16.666666666666668
-50.0   120.0   0.0
-100.0   120.0   16.666666666666668
-50.0   150.0   16.666666666666668
-50.0   120.0   0.0
-100.0   150.0   0.0
-100.0   120.0   16.666666666666668
-50.0   120.0   16.666666666666668
-100.0   150.0   16.666666666666668
-100.0   120.0   33.333333333333336
-50.0   120.0   16.666666666666668
-50.0   150.0   16.666666666666668
-100.0   150.0   16.666666666666668
-50.0   150.0   33.333333333333336
-100.0   120.0   33.333333333333336
-100.0   150.0   33.333333333333336
-50.0   150.0   33.333333333333336
-100.0   150.0   16.666666666666668
-100.0   120.0   33.333333333333336
-50.0   150.0   33.333333333333336
-50.0   120.0   33.333333333333336
-50.0   120.0   16.666666666666668
-100.0   120.0   33.333333333333336
-50.0   150.0   33.333333333333336
-50.0   120.0   16.666666666666668
-100.0   150.0   16.666666666666668
-100.0   120.0   33.333333333333336
-50.0   120.0   33.333333333333336
-100.0   150.0   33.333333333333336
-100.0   120.0   50.0
-50.0   120.0   33.333333333333336
-50.0   150.0   33.333333333333336
-100.0   150.0   33.333333333333336
-50.0   150.0   50.0
-100.0   120.0   50.0
-100.0   150.0   50.0
-50.0   150.0   50.0
-100.0   150.0   33.333333333333336
-100.0   120.0   50.0
-50.0   150.0   50.0
-50.0   120.0   50.0
-50.0   120.0   33.333333333333336
-100.0   120.0   50.0
-50.0   150.0   50.0
-50.0   120.0   33.333333333333336
-100.0   150.0   33.333333333333336
-50.0   0.0   0.0
0.0   0.0   0.0
-50.0   30.0   0.0
-50.0   0.0   16.666666666666668
0.0   0.0   0.0
0.0   30.0   0.0
-50.0   30.0   0.0
0.0   30.0   16.666666666666668
-50.0   0.0   16.666666666666668
-50.0   30.0   16.666666666666668
0.0   30.0   16.666666666666668
-50.0   30.0   0.0
-50.0   0.0   16.666666666666668
0.0   30.0   16.666666666666668
0.0   0.0   16.666666666666668
0.0   0.0   0.0
-50.0   0.0   16.666666666666668
0.0   30.0   16.666666666666668
0.0   0.0   0.0
-50.0   30.0   0.0
-50.0   0.0   16.666666666666668
0.0   0.0   16.666666666666668
-50.0   30.0   16.666666666666668
-50.0   0.0   33.333333333333336
0.0   0.0   16.666666666666668
0.0   30.0   16.666666666666668
-50.0   30.0   16.666666666666668
0.0   30.0   33.333333333333336
-50.0   0.0   33.333333333333336
-50.0   30.0   33.333333333333336
0.0   30.0   33.333333333333336
-50.0   30.0   16.666666666666668
-50.0   0.0   33.333333333333336
0.0   30.0   33.333333333333336
0.0   0.0   33.333333333333336
0.0   0.0   16.666666666666668
-50.0   0.0   33.333333333333336
0.0   30.0   33.333333333333336
0.0   0.0   16.666666666666668
-50.0   30.0   16.666666666666668
-50.0   0.0   33.333333333333336
0.0   0.0   33.333333333333336
-50.0   30.0   33.333333333333336
-50.0   0.0   50.0
0.0   0.0   33.333333333333336
0.0   30.0   33.333333333333336
-50.0   30.0   33.333333333333336
0.0   30.0   50.0
-50.0   0.0   50.0
-50.0   30.0   50.0
0.0   30.0   50.0
-50.0   30.0   33.333333333333336
-50.0   0.0   50.0
0.0   30.0   50.0
0.0   0.0   50.0
0.0   0.0   33.333333333333336
-50.0   0.0   50.0
0.0   30.0   50.0
0.0   0.0   33.333333333333336
-50.0   30.0   33.333333333333336
-50.0   30.0   0.0
0.0   30.0   0.0
-50.0   60.0   0.0
-50.0   30.0   16.666666666666668
0.0   30.0   0.0
0.0   60.0   0.0
-50.0   60.0   0.0
0.0   60.0   16.666666666666668
-50.0   30.0   16.666666666666668
-50.0   60.0   16.666666666666668
0.0   60.0   16.666666666666668
-50.0   60.0   0.0
-50.0   30.0   16.666666666666668
0.0   60.0   16.666666666666668
0.0   30.0   16.666666666666668
0.0   30.0   0.0
-50.0   30.0   16.666666666666668
0.0   60.0   16.666666666666668
0.0   30.0   0.0
-50.0   60.0   0.0
-50.0   30.0   16.666666666666668
0.0   30.0   16.666666666666668
-50.0   60.0   16.666666666666668
-50.0   30.0   33.333333333333336
0.0   30.0   16.666666666666668
0.0   60.0   16.666666666666668
-50.0   60.0   16.666666666666668
0.0   60.0   33.333333333333336
-50.0   30.0   33.333333333333336
-50.0   60.0   33.333333333333336
0.0   60.0   33.333333333333336
-50.0   60.0   16.666666666666668
-50.0   30.0   33.333333333333336
0.0   60.0   33.333333333333336
0.0   30.0   33.333333333333336
0.0   30.0   16.666666666666668
-50.0   30.0   33.333333333333336
0.0   60.0   33.333333333333336
0.0   30.0   16.666666666666668
-50.0   60.0   16.666666666666668
-50.0   30.0   33.333333333333336
0.0   30.0   33.333333333333336
-50.0   60.0   33.333333333333336
-50.0   30.0   50.0
0.0   30.0   33.333333333333336
0.0   60.0   33.333333333333336
-50.0   60.0   33.333333333333336
0.0   60.0   50.0
-50.0   30.0   50.0
-50.0   60.0   50.0
0.0   60.0   50.0
-50.0   60.0   33.333333333333336
-50.0   30.0   50.0
0.0   60.0   50.0
0.0   30.0   50.0
0.0   30.0   33.333333333333336
-50.0   30.0   50.0
0.0   60.0   50.0
0.0   30.0   33.333333333333336
-50.0   60.0   33.333333333333336
-50.0   60.0   0.0
0.0   60.0   0.0
-50.0   90.0   0.0
-50.0   60.0   16.666666666666668
0.0   60.0   0.0
0.0   90.0   0.0
-50.0   90.0   0.0
0.0   90.0   16.666666666666668
-50.0   60.0   16.666666666666668
-50.0   90.0   16.666666666666668
0.0   90.0   16.666666666666668
-50.0   90.0   0.0
-50.0   60.0   16.666666666666668
0.0   90.0   16.666666666666668
0.0   60.0   16.666666666666668
0.0   60.0   0.0
-50.0   60.0   16.666666666666668
0.0   90.0   16.666666666666668
0.0   60.0   0.0
-50.0   90.0   0.0
-50.0   60.0   16.666666666666668
0.0   60.0   16.666666666666668
-50.0   90.0   16.666666666666668
-50.0   60.0   33.333333333333336
0.0   60.0   16.666666666666668
0.0   90.0   16.666666666666668
-50.0   90.0   16.666666666666668
0.0   90.0   33.333333333333336
-50.0   60.0   33.333333333333336
-50.0   90.0   33.333333333333336
0.0   90.0   33.333333333333336
-50.0   90.0   16.666666666666668
-50.0   60.0   33.333333333333336
0.0   90.0   33.333333333333336
0.0   60.0   33.333333333333336
0.0   60.0   16.666666666666668
-50.0   60.0   33.333333333333336
0.0   90.0   33.333333333333336
0.0   60.0   16.666666666666668
-50.0   90.0   16.666666666666668
-50.0   60.0   33.333333333333336
0.0   60.0   33.333333333333336
-50.0   90.0   33.333333333333336
-50.0   60.0   50.0
0.0   60.0   33.333333333333336
0.0   90.0   33.333333333333336
-50.0   90.0   33.333333333333336
0.0   90.0   50.0
-50.0   60.0   50.0
-50.0   90.0   50.0
0.0   90.0   50.0
-50.0   90.0   33.333333333333336
-50.0   60.0   50.0
0.0   90.0   50.0
0.0   60.0   50.0
0.0   60.0   33.333333333333336
-50.0   60.0   50.0
0.0   90.0   50.0
0.0   60.0   33.333333333333336
-50.0   90.0   33.333333333333336
-50.0   90.0   0.0
0.0   90.0   0.0
-50.0   120.0   0.0
-50.0   90.0   16.666666666666668
0.0   90.0   0.0
0.0   120.0   0.0
-50.0   120.0   0.0
0.0   120.0   16.666666666666668
-50.0   90.0   16.666666666666668
-50.0   120.0   16.666666666666668
0.0   120.0   16.666666666666668
-50.0   120.0   0.0
-50.0   90.0   16.666666666666668
0.0   120.0   16.666666666666668
0.0   90.0   16.666666666666668
0.0   90.0   0.0
-50.0   90.0   16.666666666666668
0.0   120.0   16.666666666666668
0.0   90.0   0.0
-50.0   120.0   0.0
-50.0   90.0   16.666666666666668
0.0   90.0   16.666666666666668
-50.0   120.0   16.666666666666668
-50.0   90.0   33.333333333333336
0.0   90.0   16.666666666666668
0.0   120.0   16.666666666666668
-50.0   120.0   16.666666666666668
0.0   120.0   33.333333333333336
-50.0   90.0   33.333333333333336
-50.0   120.0   33.333333333333336
0.0   120.0   33.333333333333336
-50.0   120.0   16.666666666666668
-50.0   90.0   33.333333333333336
0.0   120.0   33.333333333333336
0.0   90.0   33.333333333333336
0.0   90.0   16.666666666666668
-50.0   90.0   33.333333333333336
0.0   120.0   33.333333333333336
0.0   90.0   16.666666666666668
-50.0   120.0   16.666666666666668
-50.0   90.0   33.333333333333336
0.0   90.0   33.333333333333336
-50.0   120.0   33.333333333333336
-50.0   90.0   50.0
0.0   90.0   33.333333333333336
0.0   120.0   33.333333333333336
-50.0   120.0   33.333333333333336
0.0   120.0   50.0
-50.0   90.0   50.0
-50.0   120.0   50.0
0.0   120.0   50.0
-50.0   120.0   33.333333333333336
-50.0   90.0   50.0
0.0   120.0   50.0
0.0   90.0   50.0
0.0   90.0   33.333333333333336
-50.0   90.0   50.0
0.0   120.0   50.0
0.0   90.0   33.333333333333336
-50.0   120.0   33.333333333333336
-50.0   120.0   0.0
0.0   120.0   0.0
-50.0   150.0   0.0
-50.0   120.0   16.666666666666668
0.0   120.0   0.0
0.0   150.0   0.0
-50.0   150.0   0.0
0.0   150.0   16.666666666666668
-50.0   120.0   16.666666666666668
-50.0   150.0   16.666666666666668
0.0   150.0   16.666666666666668
-50.0   150.0   0.0
-50.0   120.0   16.666666666666668
0.0   150.0   16.666666666666668
0.0   120.0   16.666666666666668
0.0   120.0   0.0
-50.0   120.0   16.666666666666668
0.0   150.0   16.666666666666668
0.0   120.0   0.0
-50.0   150.0   0.0
-50.0   120.0   16.666666666666668
0.0   120.0   16.666666666666668
-50.0   150.0   16.666666666666668
-50.0   120.0   33.333333333333336
0.0   120.0   16.666666666666668
0.0   150.0   16.666666666666668
-50.0   150.0   16.666666666666668
0.0   150.0   33.333333333333336
-50.0   120.0   33.333333333333336
-50.0   150.0   33.333333333333336
0.0   150.0   33.333333333333336
-50.0   150.0   16.666666666666668
-50.0   120.0   33.333333333333336
0.0   150.0   33.333333333333336
0.0   120.0   33.333333333333336
0.0   120.0   16.666666666666668
-50.0   120.0   33.333333333333336
0.0   150.0   33.333333333333336
0.0   120.0   16.666666666666668
-50.0   150.0   16.666666666666668
-50.0   120.0   33.333333333333336
0.0   120.0   33.333333333333336
-50.0   150.0   33.333333333333336
-50.0   120.0   50.0
0.0   120.0   33.333333333333336
0.0   150.0   33.333333333333336
-50.0   150.0   33.333333333333336
0.0   150.0   50.0
-50.0   120.0   50.0
-50.0   150.0   50.0
0.0   150.0   50.0
-50.0   150.0   33.333333333333336
-50.0   120.0   50.0
0.0   150.0   50.0
0.0   120.0   50.0
0.0   120.0   33.333333333333336
-50.0   120.0   50.0
0.0   150.0   50.0
0.0   120.0   33.333333333333336
-50.0   150.0   33.333333333333336
0.0   0.0   0.0
50.0   0.0   0.0
0.0   30.0   0.0
0.0   0.0   16.666666666666668
50.0   0.0   0.0
50.0   30.0   0.0
0.0   30.0   0.0
50.0   30.0   16.666666666666668
0.0   0.0   16.666666666666668
0.0   30.0   16.666666666666668
50.0   30.0   16.666666666666668
0.0   30.0   0.0
0.0   0.0   16.666666666666668
50.0   30.0   16.666666666666668
50.0   0.0   16.666666666666668
50.0   0.0   0.0
0.0   0.0   16.666666666666668
50.0   30.0   16.666666666666668
50.0   0.0   0.0
0.0   30.0   0.0
0.0   0.0   16.666666666666668
50.0   0.0   16.666666666666668
0.0   30.0   16.666666666666668
0.0   0.0   33.333333333333336
50.0   0.0   16.666666666666668
50.0   30.0   16.666666666666668
0.0   30.0   16.666666666666668
50.0   30.0   33.333333333333336
0.0   0.0   33.333333333333336
0.0   30.0   33.333333333333336
50.0   30.0   33.333333333333336
0.0   30.0   16.666666666666668
0.0   0.0   33.333333333333336
50.0   30.0   33.333333333333336
50.0   0.0   33.333333333333336
50.0   0.0   16.666666666666668
0.0   0.0   33.333333333333336
50.0   30.0   33.333333333333336
50.0   0.0   16.666666666666668
0.0   30.0   16.666666666666668
0.0   0.0   33.333333333333336
50.0   0.0   33.333333333333336
0.0   30.0   33.333333333333336
0.0   0.0   50.0
50.0   0.0   33.333333333333336
50.0   30.0   33.333333333333336
0.0   30.0   33.333333333333336
50.0   30.0   50.0
0.0   0.0   50.0
0.0   30.0   50.0
50.0   30.0   50.0
0.0   30.0   33.333333333333336
0.0   0.0   50.0
50.0   30.0   50.0
50.0   0.0   50.0
50.0   0.0   33.333333333333336
0.0   0.0   50.0
50.0   30.0   50.0
50.0   0.0   33.333333333333336
0.0   30.0   33.333333333333336
0.0   30.0   0.0
50.0   30.0   0.0
0.0   60.0   0.0
0.0   30.0   16.666666666666668
50.0   30.0   0.0
50.0   60.0   0.0
0.0   60.0   0.0
50.0   60.0   16.666666666666668
0.0   30.0   16.666666666666668
0.0   60.0   16.666666666666668
50.0   60.0   16.666666666666668
0.0   60.0   0.0
0.0   30.0   16.666666666666668
50.0   60.0   16.666666666666668
50.0   30.0   16.666666666666668
50.0   30.0   0.0
0.0   30.0   16.666666666666668
50.0   60.0   16.666666666666668
50.0   30.0   0.0
0.0   60.0   0.0
0.0   30.0   16.666666666666668
50.0   30.0   16.666666666666668
0.0   60.0   16.666666666666668
0.0   30.0   33.333333333333336
50.0   30.0   16.666666666666668
50.0   60.0   16.666666666666668
0.0   60.0   16.666666666666668
50.0   60.0   33.333333333333336
0.0   30.0   33.333333333333336
0.0   60.0   33.333333333333336
50.0   60.0   33.333333333333336
0.0   60.0   16.666666666666668
0.0   30.0   33.333333333333336
50.0   60.0   33.333333333333336
50.0   30.0   33.333333333333336
50.0   30.0   16.666666666666668
0.0   30.0   33.333333333333336
50.0   60.0   33.333333333333336
50.0   30.0   16.666666666666668
0.0   60.0   16.666666666666668
0.0   30.0   33.333333333333336
50.0   30.0   33.333333333333336
0.0   60.0   33.333333333333336
0.0   30.0   50.0
50.0   30.0   33.333333333333336
50.0   60.0   33.333333333333336
0.0   60.0   33.333333333333336
50.0   60.0   50.0
0.0   30.0   50.0
0.0   60.0   50.0
50.0   60.0   50.0
0.0   60.0   33.333333333333336
0.0   30.0   50.0
50.0   60.0   50.0
50.0   30.0   50.0
50.0   30.0   33.333333333333336
0.0   30.0   50.0
50.0   60.0   50.0
50.0   30.0   33.333333333333336
0.0   60.0   33.333333333333336
0.0   60.0   0.0
50.0   60.0   0.0
0.0   90.0   0.0
0.0   60.0   16.666666666666668
50.0   60.0   0.0
50.0   90.0   0.0
0.0   90.0   0.0
50.0   90.0   16.666666666666668
0.0   60.0   16.666666666666668
0.0   90.0   16.666666666666668
50.0   90.0   16.666666666666668
0.0   90.0   0.0
0.0   60.0   16.666666666666668
50.0   90.0   16.666666666666668
50.0   60.0   16.666666666666668
50.0   60.0   0.0
0.0   60.0   16.666666666666668
50.0   90.0   16.666666666666668
50.0   60.0   0.0
0.0   90.0   0.0
0.0   60.0   16.666666666666668
50.0   60.0   16.666666666666668
0.0   90.0   16.666666666666668
0.0   60.0   33.333333333333336
50.0   60.0   16.666666666666668
50.0   90.0   16.666666666666668
0.0   90.0   16.666666666666668
50.0   90.0   33.333333333333336
0.0   60.0   33.333333333333336
0.0   90.0   33.333333333333336
50.0   90.0   33.333333333333336
0.0   90.0   16.666666666666668
0.0   60.0   33.333333333333336
50.0   90.0   33.333333333333336
50.0   60.0   33.333333333333336
50.0   60.0   16.666666666666668
0.0   60.0   33.333333333333336
50.0   90.0   33.333333333333336
50.0   60.0   16.666666666666668
0.0   90.0   16.666666666666668
0.0   60.0   33.333333333333336
50.0   60.0   33.333333333333336
0.0   90.0   33.333333333333336
0.0   60.0   50.0
50.0   60.0   33.333333333333336
50.0   90.0   33.333333333333336
0.0   90.0   33.333333333333336
50.0   90.0   50.0
0.0   60.0   50.0
0.0   90.0   50.0
50.0   90.0   50.0
0.0   90.0   33.333333333333336
0.0   60.0   50.0
50.0   90.0   50.0
50.0   60.0   50.0
50.0   60.0   33.333333333333336
0.0   60.0   50.0
50.0   90.0   50.0
50.0   60.0   33.333333333333336
0.0   90.0   33.333333333333336
0.0   90.0   0.0
50.0   90.0   0.0
0.0   120.0   0.0
0.0   90.0   16.666666666666668
50.0   90.0   0.0
50.0   120.0   0.0
0.0   120.0   0.0
50.0   120.0   16.666666666666668
0.0   90.0   16.666666666666668
0.0   120.0   16.666666666666668
50.0   120.0   16.666666666666668
0.0   120.0   0.0
0.0   90.0   16.666666666666668
50.0   120.0   16.666666666666668
50.0   90.0   16.666666666666668
50.0   90.0   0.0
0.0   90.0   16.666666666666668
50.0   120.0   16.666666666666668
50.0   90.0   0.0
0.0   120.0   0.0
0.0   90.0   16.666666666666668
50.0   90.0   16.666666666666668
0.0   120.0   16.666666666666668
0.0   90.0   33.333333333333336
50.0   90.0   16.666666666666668
50.0   120.0   16.666666666666668
0.0   120.0   16.666666666666668
50.0   120.0   33.333333333333336
0.0   90.0   33.333333333333336
0.0   120.0   33.333333333333336
50.0   120.0   33.333333333333336
0.0   120.0   16.666666666666668
0.0   90.0   33.333333333333336
50.0   120.0   33.333333333333336
50.0   90.0   33.333333333333336
50.0   90.0   16.666666666666668
0.0   90.0   33.333333333333336
50.0   120.0   33.333333333333336
50.0   90.0   16.666666666666668
0.0   120.0   16.666666666666668
0.0   90.0   33.333333333333336
50.0   90.0   33.333333333333336
0.0   120.0   33.333333333333336
0.0   90.0   50.0
50.0   90.0   33.333333333333336
50.0   120.0   33.333333333333336
0.0   120.0   33.333333333333336
50.0   120.0   50.0
0.0   90.0   50.0
0.0   120.0   50.0
50.0   120.0   50.0
0.0   120.0   33.333333333333336
0.0   90.0   50.0
50.0   120.0   50.0
50.0   90.0   50.0
50.0   90.0   33.333333333333336
0.0   90.0   50.0
50.0   120.0   50.0
50.0   90.0   33.333333333333336
0.0   120.0   33.333333333333336
0.0   120.0   0.0
50.0   120.0   0.0
0.0   150.0   0.0
0.0   120.0   16.666666666666668
50.0   120.0   0.0
50.0   150.0   0.0
0.0   150.0   0.0
50.0   150.0   16.666666666666668
0.0   120.0   16.666666666666668
0.0   150.0   16.666666666666668
50.0   150.0   16.666666666666668
0.0   150.0   0.0
0.0   120.0   16.666666666666668
50.0   150.0   16.666666666666668
50.0   120.0   16.666666666666668
50.0   120.0   0.0
0.0   120.0   16.666666666666668
50.0   150.0   16.666666666666668
50.0   120.0   0.0
0.0   150.0   0.0
0.0   120.0   16.666666666666668
50.0   120.0   16.666666666666668
0.0   150.0   16.666666666666668
0.0   120.0   33.333333333333336
50.0   120.0   16.666666666666668
50.0   150.0   16.666666666666668
0.0   150.0   16.666666666666668
50.0   150.0   33.333333333333336
0.0   120.0   33.333333333333336
0.0   150.0   33.333333333333336
50.0   150.0   33.333333333333336
0.0   150.0   16.666666666666668
0.0   120.0   33.333333333333336
50.0   150.0   33.333333333333336
50.0   120.0   33.333333333333336
50.0   120.0   16.666666666666668
0.0   120.0   33.333333333333336
50.0   150.0   33.333333333333336
50.0   120.0   16.666666666666668
0.0   150.0   16.666666666666668
0.0   120.0   33.333333333333336
50.0   120.0   33.333333333333336
0.0   150.0   33.333333333333336
0.0   120.0   50.0
50.0   120.0   33.333333333333336
50.0   150.0   33.333333333333336
0.0   150.0   33.333333333333336
50.0   150.0   50.0
0.0   120.0   50.0
0.0   150.0   50.0
50.0   150.0   50.0
0.0   150.0   33.333333333333336
0.0   120.0   50.0
50.0   150.0   50.0
50.0   120.0   50.0
50.0   120.0   33.333333333333336
0.0   120.0   50.0
50.0   150.0   50.0
50.0   120.0   33.333333333333336
0.0   150.0   33.333333333333336
50.0   0.0   0.0
100.0   0.0   0.0
50.0   30.0   0.0
50.0   0.0   16.666666666666668
100.0   0.0   0.0
100.0   30.0   0.0
50.0   30.0   0.0
100.0   30.0   16.666666666666668
50.0   0.0   16.666666666666668
50.0   30.0   16.666666666666668
100.0   30.0   16.666666666666668
50.0   30.0   0.0
50.0   0.0   16.666666666666668
100.0   30.0   16.666666666666668
100.0   0.0   16.666666666666668
100.0   0.0   0.0
50.0   0.0   16.666666666666668
100.0   30.0   16.666666666666668
100.0   0.0   0.0
50.0   30.0   0.0
50.0   0.0   16.666666666666668
100.0   0.0   16.666666666666668
50.0   30.0   16.666666666666668
50.0   0.0   33.333333333333336
100.0   0.0   16.666666666666668
100.0   30.0   16.666666666666668
50.0   30.0   16.666666666666668
100.0   30.0   33.333333333333336
50.0   0.0   33.333333333333336
50.0   30.0   33.333333333333336
100.0   30.0   33.333333333333336
50.0   30.0   16.666666666666668
50.0   0.0   33.333333333333336
100.0   30.0   33.333333333333336
100.0   0.0   33.333333333333336
100.0   0.0   16.666666666666668
50.0   0.0   33.333333333333336
100.0   30.0   33.333333333333336
100.0   0.0   16.666666666666668
50.0   30.0   16.666666666666668
50.0   0.0   33.333333333333336
100.0   0.0   33.333333333333336
50.0   30.0   33.333333333333336
50.0   0.0   50.0
100.0   0.0   33.333333333333336
100.0   30.0   33.333333333333336
50.0   30.0   33.333333333333336
100.0   30.0   50.0
50.0   0.0   50.0
50.0   30.0   50.0
100.0   30.0   50.0
50.0   30.0   33.333333333333336
50.0   0.0   50.0
100.0   30.0   50.0
100.0   0.0   50.0
100.0   0.0   33.333333333333336
50.0   0.0   50.0
100.0   30.0   50.0
100.0   0.0   33.333333333333336
50.0   30.0   33.333333333333336
50.0   30.0   0.0
100.0   30.0   0.0
50.0   60.0   0.0
50.0   30.0   16.666666666666668
100.0   30.0   0.0
100.0   60.0   0.0
50.0   60.0   0.0
100.0   60.0   16.666666666666668
50.0   30.0   16.666666666666668
50.0   60.0   16.666666666666668
100.0   60.0   16.666666666666668
50.0   60.0   0.0
50.0   30.0   16.666666666666668
100.0   60.0   16.666666666666668
100.0   30.0   16.666666666666668
100.0   30.0   0.0
50.0   30.0   16.666666666666668
100.0   60.0   16.666666666666668
100.0   30.0   0.0
50.0   60.0   0.0
50.0   30.0   16.666666666666668
100.0   30.0   16.666666666666668
50.0   60.0   16.666666666666668
50.0   30.0   33.333333333333336
100.0   30.0   16.666666666666668
100.0   60.0   16.666666666666668
50.0   60.0   16.666666666666668
100.0   60.0   33.333333333333336
50.0   30.0   33.333333333333336
50.0   60.0   33.333333333333336
100.0   60.0   33.333333333333336
50.0   60.0   16.666666666666668
50.0   30.0   33.333333333333336
100.0   60.0   33.333333333333336
100.0   30.0   33.333333333333336
100.0   30.0   16.666666666666668
50.0   30.0   33.333333333333336
100.0   60.0   33.333333333333336
100.0   30.0   16.666666666666668
50.0   60.0   16.666666666666668
50.0   30.0   33.333333333333336
100.0   30.0   33.333333333333336
50.0   60.0   33.333333333333336
50.0   30.0   50.0
100.0   30.0   33.333333333333336
100.0   60.0   33.333333333333336
50.0   60.0   33.333333333333336
100.0   60.0   50.0
50.0   30.0   50.0
50.0   60.0   50.0
100.0   60.0   50.0
50.0   60.0   33.333333333333336
50.0   30.0   50.0
100.0   60.0   50.0
100.0   30.0   50.0
100.0   30.0   33.333333333333336
50.0   30.0   50.0
100.0   60.0   50.0
100.0   30.0   33.333333333333336
50.0   60.0   33.333333333333336
50.0   60.0   0.0
100.0   60.0   0.0
50.0   90.0   0.0
50.0   60.0   16.666666666666668
100.0   60.0   0.0
100.0   90.0   0.0
50.0   90.0   0.0
100.0   90.0   16.666666666666668
50.0   60.0   16.666666666666668
50.0   90.0   16.666666666666668
100.0   90.0   16.666666666666668
50.0   90.0   0.0
50.0   60.0   16.666666666666668
100.0   90.0   16.666666666666668
100.0   60.0   16.666666666666668
100.0   60.0   0.0
50.0   60.0   16.666666666666668
100.0   90.0   16.666666666666668
100.0   60.0   0.0
50.0   90.0   0.0
50.0   60.0   16.666666666666668
100.0   60.0   16.666666666666668
50.0   90.0   16.666666666666668
50.0   60.0   33.333333333333336
100.0   60.0   16.666666666666668
100.0   90.0   16.666666666666668
50.0   90.0   16.666666666666668
100.0   90.0   33.333333333333336
50.0   60.0   33.333333333333336
50.0   90.0   33.333333333333336
100.0   90.0   33.333333333333336
50.0   90.0   16.666666666666668
50.0   60.0   33.333333333333336
100.0   90.0   33.333333333333336
100.0   60.0   33.333333333333336
100.0   60.0   16.666666666666668
50.0   60.0   33.333333333333336
100.0   90.0   33.333333333333336
100.0   60.0   16.666666666666668
50.0   90.0   16.666666666666668
50.0   60.0   33.333333333333336
100.0   60.0   33.333333333333336
50.0   90.0   33.333333333333336
50.0   60.0   50.0
100.0   60.0   33.333333333333336
100.0   90.0   33.333333333333336
50.0   90.0   33.333333333333336
100.0   90.0   50.0
50.0   60.0   50.0
50.0   90.0   50.0
100.0   90.0   50.0
50.0   90.0   33.333333333333336
50.0   60.0   50.0
100.0   90.0   50.0
100.0   60.0   50.0
100.0   60.0   33.333333333333336
50.0   60.0   50.0
100.0   90.0   50.0
100.0   60.0   33.333333333333336
50.0   90.0   33.333333333333336
50.0   90.0   0.0
100.0   90.0   0.0
50.0   120.0   0.0
50.0   90.0   16.666666666666668
100.0   90.0   0.0
100.0   120.0   0.0
50.0   120.0   0.0
100.0   120.0   16.666666666666668
50.0   90.0   16.666666666666668
50.0   120.0   16.666666666666668
100.0   120.0   16.666666666666668
50.0   120.0   0.0
50.0   90.0   16.666666666666668
100.0   120.0   16.666666666666668
100.0   90.0   16.666666666666668
100.0   90.0   0.0
50.0   90.0   16.666666666666668
100.0   120.0   16.666666666666668
100.0   90.0   0.0
50.0   120.0   0.0
50.0   90.0   16.666666666666668
100.0   90.0   16.666666666666668
50.0   120.0   16.666666666666668
50.0   90.0   33.333333333333336
100.0   90.0   16.666666666666668
100.0   120.0   16.666666666666668
50.0   120.0   16.666666666666668
100.0   120.0   33.333333333333336
50.0   90.0   33.333333333333336
50.0   120.0   33.333333333333336
100.0   120.0   33.333333333333336
50.0   120.0   16.666666666666668
50.0   90.0   33.333333333333336
100.0   120.0   33.333333333333336
100.0   90.0   33.333333333333336
100.0   90.0   16.666666666666668
50.0   90.0   33.333333333333336
100.0   120.0   33.333333333333336
100.0   90.0   16.666666666666668
50.0   120.0   16.666666666666668
50.0   90.0   33.333333333333336
100.0   90.0   33.333333333333336
50.0   120.0   33.333333333333336
50.0   90.0   50.0
100.0   90.0   33.333333333333336
100.0   120.0   33.333333333333336
50.0   120.0   33.333333333333336
100.0   120.0   50.0
50.0   90.0   50.0
50.0   120.0   50.0
100.0   120.0   50.0
50.0   120.0   33.333333333333336
50.0   90.0   50.0
100.0   120.0   50.0
100.0   90.0   50.0
100.0   90.0   33.333333333333336
50.0   90.0   50.0
100.0   120.0   50.0
100.0   90.0   33.333333333333336
50.0   120.0   33.333333333333336
50.0   120.0   0.0
100.0   120.0   0.0
50.0   150.0   0.0
50.0   120.0   16.666666666666668
100.0   120.0   0.0
100.0   150.0   0.0
50.0   150.0   0.0
100.0   150.0   16.666666666666668
50.0   120.0   16.666666666666668
50.0   150.0   16.666666666666668
100.0   150.0   16.666666666666668
50.0   150.0   0.0
50.0   120.0   16.666666666666668
100.0   150.0   16.666666666666668
100.0   120.0   16.666666666666668
100.0   120.0   0.0
50.0   120.0   16.666666666666668
100.0   150.0   16.666666666666668
100.0   120.0   0.0
50.0   150.0   0.0
50.0   120.0   16.666666666666668
100.0   120.0   16.666666666666668
50.0   150.0   16.666666666666668
50.0   120.0   33.333333333333336
100.0   120.0   16.666666666666668
100.0   150.0   16.666666666666668
50.0   150.0   16.666666666666668
100.0   150.0   33.333333333333336
50.0   120.0   33.333333333333336
50.0   150.0   33.333333333333336
100.0   150.0   33.333333333333336
50.0   150.0   16.666666666666668
50.0   120.0   33.333333333333336
100.0   150.0   33.333333333333336
100.0   120.0   33.333333333333336
100.0   120.0   16.666666666666668
50.0   120.0   33.333333333333336
100.0   150.0   33.333333333333336
100.0   120.0   16.666666666666668
50.0   150.0   16.666666666666668
50.0   120.0   33.333333333333336
100.0   120.0   33.333333333333336
50.0   150.0   33.333333333333336
50.0   120.0   50.0
100.0   120.0   33.333333333333336
100.0   150.0   33.333333333333336
50.0   150.0   33.333333333333336
100.0   150.0   50.0
50.0   120.0   50.0
50.0   150.0   50.0
100.0   150.0   50.0
50.0   150.0   33.333333333333336
50.0   120.0   50.0
100.0   150.0   50.0
100.0   120.0   50.0
100.0   120.0   33.333333333333336
50.0   120.0   50.0
100.0   150.0   50.0
100.0   120.0   33.333333333333336
50.0   150.0   33.333333333333336
100.0   0.0   0.0
150.0   0.0   0.0
100.0   30.0   0.0
100.0   0.0   16.666666666666668
150.0   0.0   0.0
150.0   30.0   0.0
100.0   30.0   0.0
150.0   30.0   16.666666666666668
100.0   0.0   16.666666666666668
100.0   30.0   16.666666666666668
150.0   30.0   16.666666666666668
100.0   30.0   0.0
100.0   0.0   16.666666666666668
150.0   30.0   16.666666666666668
150.0   0.0   16.666666666666668
150.0   0.0   0.0
100.0   0.0   16.666666666666668
150.0   30.0   16.666666666666668
150.0   0.0   0.0
100.0   30.0   0.0
100.0   0.0   16.666666666666668
150.0   0.0   16.666666666666668
100.0   30.0   16.666666666666668
100.0   0.0   33.333333333333336
150.0   0.0   16.666666666666668
150.0   30.0   16.666666666666668
100.0   30.0   16.666666666666668
150.0   30.0   33.333333333333336
100.0   0.0   33.333333333333336
100.0   30.0   33.333333333333336
150.0   30.0   33.333333333333336
100.0   30.0   16.666666666666668
100.0   0.0   33.333333333333336
150.0   30.0   33.333333333333336
150.0   0.0   33.333333333333336
150.0   0.0   16.666666666666668
100.0   0.0   33.333333333333336
150.0   30.0   33.333333333333336
150.0   0.0   16.666666666666668
100.0   30.0   16.666666666666668
100.0   0.0   33.333333333333336
150.0   0.0   33.333333333333336
100.0   30.0   33.333333333333336
100.0   0.0   50.0
150.0   0.0   33.333333333333336
150.0   30.0   33.333333333333336
100.0   30.0   33.333333333333336
150.0   30.0   50.0
100.0   0.0   50.0
100.0   30.0   50.0
150.0   30.0   50.0
100.0   30.0   33.333333333333336
100.0   0.0   50.0
150.0   30.0   50.0
150.0   0.0   50.0
150.0   0.0   33.333333333333336
100.0   0.0   50.0
150.0   30.0   50.0
150.0   0.0   33.333333333333336
100.0   30.0   33.333333333333336
100.0   30.0   0.0
150.0   30.0   0.0
100.0   60.0   0.0
100.0   30.0   16.666666666666668
150.0   30.0   0.0
150.0   60.0   0.0
100.0   60.0   0.0
150.0   60.0   16.666666666666668
100.0   30.0   16.666666666666668
100.0   60.0   16.666666666666668
150.0   60.0   16.666666666666668
100.0   60.0   0.0
100.0   30.0   16.666666666666668
150.0   60.0   16.666666666666668
150.0   30.0   16.666666666666668
150.0   30.0   0.0
100.0   30.0   16.666666666666668
150.0   60.0   16.666666666666668
150.0   30.0   0.0
100.0   60.0   0.0
100.0   30.0   16.666666666666668
150.0   30.0   16.666666666666668
100.0   60.0   16.666666666666668
100.0   30.0   33.333333333333336
150.0   30.0   16.666666666666668
150.0   60.0   16.666666666666668
100.0   60.0   16.666666666666668
150.0   60.0   33.333333333333336
100.0   30.0   33.333333333333336
100.0   60.0   33.333333333333336
150.0   60.0   33.333333333333336
100.0   60.0   16.666666666666668
100.0   30.0   33.333333333333336
150.0   60.0   33.333333333333336
150.0   30.0   33.333333333333336
150.0   30.0   16.666666666666668
100.0   30.0   33.333333333333336
150.0   60.0   33.333333333333336
150.0   30.0   16.666666666666668
100.0   60.0   16.666666666666668
100.0   30.0   33.333333333333336
150.0   30.0   33.333333333333336
100.0   60.0   33.333333333333336
100.0   30.0   50.0
150.0   30.0   33.333333333333336
150.0   60.0   33.333333333333336
100.0   60.0   33.333333333333336
150.0   60.0   50.0
100.0   30.0   50.0
100.0   60.0   50.0
150.0   60.0   50.0
100.0   60.0   33.333333333333336
100.0   30.0   50.0
150.0   60.0   50.0
150.0   30.0   50.0
150.0   30.0   33.333333333333336
100.0   30.0   50.0
150.0   60.0   50.0
150.0   30.0   33.333333333333336
100.0   60.0   33.333333333333336
100.0   60.0   0.0
150.0   60.0   0.0
100.0   90.0   0.0
100.0   60.0   16.666666666666668
150.0   60.0   0.0
150.0   90.0   0.0
100.0   90.0   0.0
150.0   90.0   16.666666666666668
100.0   60.0   16.666666666666668
100.0   90.0   16.666666666666668
150.0   90.0   16.666666666666668
100.0   90.0   0.0
100.0   60.0   16.666666666666668
150.0   90.0   16.666666666666668
150.0   60.0   16.666666666666668
150.0   60.0   0.0
100.0   60.0   16.666666666666668
150.0   90.0   16.666666666666668
150.0   60.0   0.0
100.0   90.0   0.0
100.0   60.0   16.666666666666668
150.0   60.0   16.666666666666668
100.0   90.0   16.666666666666668
100.0   60.0   33.333333333333336
150.0   60.0   16.666666666666668
150.0   90.0   16.666666666666668
100.0   90.0   16.666666666666668
150.0   90.0   33.333333333333336
100.0   60.0   33.333333333333336
100.0   90.0   33.333333333333336
150.0   90.0   33.333333333333336
100.0   90.0   16.666666666666668
100.0   60.0   33.333333333333336
150.0   90.0   33.333333333333336
150.0   60.0   33.333333333333336
150.0   60.0   16.666666666666668
100.0   60.0   33.333333333333336
150.0   90.0   33.333333333333336
150.0   60.0   16.666666666666668
100.0   90.0   16.666666666666668
100.0   60.0   33.333333333333336
150.0   60.0   33.333333333333336
100.0   90.0   33.333333333333336
100.0   60.0   50.0
150.0   60.0   33.333333333333336
150.0   90.0   33.333333333333336
100.0   90.0   33.333333333333336
150.0   90.0   50.0
100.0   60.0   50.0
100.0   90.0   50.0
150.0   90.0   50.0
100.0   90.0   33.333333333333336
100.0   60.0   50.0
150.0   90.0   50.0
150.0   60.0   50.0
150.0   60.0   33.333333333333336
100.0   60.0   50.0
150.0   90.0   50.0
150.0   60.0   33.333333333333336
100.0   90.0   33.333333333333336
100.0   90.0   0.0
150.0   90.0   0.0
100.0   120.0   0.0
100.0   90.0   16.666666666666668
150.0   90.0   0.0
150.0   120.0   0.0
100.0   120.0   0.0
150.0   120.0   16.666666666666668
100.0   90.0   16.666666666666668
100.0   120.0   16.666666666666668
150.0   120.0   16.666666666666668
100.0   120.0   0.0
100.0   90.0   16.666666666666668
150.0   120.0   16.666666666666668
150.0   90.0   16.666666666666668
150.0   90.0   0.0
100.0   90.0   16.666666666666668
150.0   120.0   16.666666666666668
150.0   90.0   0.0
100.0   120.0   0.0
100.0   90.0   16.666666666666668
150.0   90.0   16.666666666666668
100.0   120.0   16.666666666666668
100.0   90.0   33.333333333333336
150.0   90.0   16.666666666666668
150.0   120.0   16.666666666666668
100.0   120.0   16.666666666666668
150.0   120.0   33.333333333333336
100.0   90.0   33.333333333333336
100.0   120.0   33.333333333333336
150.0   120.0   33.333333333333336
100.0   120.0   16.666666666666668
100.0   90.0   33.333333333333336
150.0   120.0   33.333333333333336
150.0   90.0   33.333333333333336
150.0   90.0   16.666666666666668
100.0   90.0   33.333333333333336
150.0   120.0   33.333333333333336
150.0   90.0   16.666666666666668
100.0   120.0   16.666666666666668
100.0   90.0   33.333333333333336
150.0   90.0   33.333333333333336
100.0   120.0   33.333333333333336
100.0   90.0   50.0
150.0   90.0   33.333333333333336
150.0   120.0   33.333333333333336
100.0   120.0   33.333333333333336
150.0   120.0   50.0
100.0   90.0   50.0
100.0   120.0   50.0
150.0   120.0   50.0
100.0   120.0   33.333333333333336
100.0   90.0   50.0
150.0   120.0   50.0
150.0   90.0   50.0
150.0   90.0   33.333333333333336
100.0   90.0   50.0
150.0   120.0   50.0
150.0   90.0   33.333333333333336
100.0   120.0   33.333333333333336
100.0   120.0   0.0
150.0   120.0   0.0
100.0   150.0   0.0
100.0   120.0   16.666666666666668
150.0   120.0   0.0
150.0   150.0   0.0
100.0   150.0   0.0
150.0   150.0   16.666666666666668
100.0   120.0   16.666666666666668
100.0   150.0   16.666666666666668
150.0   150.0   16.666666666666668
100.0   150.0   0.0
100.0   120.0   16.666666666666668
150.0   150.0   16.666666666666668
150.0   120.0   16.666666666666668
150.0   120.0   0.0
100.0   120.0   16.666666666666668
150.0   150.0   16.666666666666668
150.0   120.0   0.0
100.0   150.0   0.0
100.0   120.0   16.666666666666668
150.0   120.0   16.666666666666668
100.0   150.0   16.666666666666668
100.0   120.0   33.333333333333336
150.0   120.0   16.666666666666668
150.0   150.0   16.666666666666668
100.0   150.0   16.666666666666668
150.0   150.0   33.333333333333336
100.0   120.0   33.333333333333336
100.0   150.0   33.333333333333336
150.0   150.0   33.333333333333336
100.0   150.0   16.666666666666668
100.0   120.0   33.333333333333336
150.0   150.0   33.333333333333336
150.0   120.0   33.333333333333336
150.0   120.0   16.666666666666668
100.0   120.0   33.333333333333336
150.0   150.0   33.333333333333336
150.0   120.0   16.666666666666668
100.0   150.0   16.666666666666668
100.0   120.0   33.333333333333336
150.0   120.0   33.333333333333336
100.0   150.0   33.333333333333336
100.0   120.0   50.0
150.0   120.0   33.333333333333336
150.0   150.0   33.333333333333336
100.0   150.0   33.333333333333336
150.0   150.0   50.0
100.0   120.0   50.0
100.0   150.0   50.0
150.0   150.0   50.0
100.0   150.0   33.333333333333336
100.0   120.0   50.0
150.0   150.0   50.0
150.0   120.0   50.0
150.0   120.0   33.333333333333336
100.0   120.0   50.0
150.0   150.0   50.0
150.0   120.0   33.333333333333336
100.0   150.0   33.333333333333336
150.0   0.0   0.0
200.0   0.0   0.0
150.0   30.0   0.0
150.0   0.0   16.666666666666668
200.0   0.0   0.0
200.0   30.0   0.0
150.0   30.0   0.0
200.0   30.0   16.666666666666668
150.0   0.0   16.666666666666668
150.0   30.0   16.666666666666668
200.0   30.0   16.666666666666668
150.0   30.0   0.0
150.0   0.0   16.666666666666668
200.0   30.0   16.666666666666668
200.0   0.0   16.666666666666668
200.0   0.0   0.0
150.0   0.0   16.666666666666668
200.0   30.0   16.666666666666668
200.0   0.0   0.0
150.0   30.0   0.0
150.0   0.0   16.666666666666668
200.0   0.0   16.666666666666668
150.0   30.0   16.666666666666668
150.0   0.0   33.333333333333336
200.0   0.0   16.666666666666668
200.0   30.0   16.666666666666668
150.0   30.0   16.666666666666668
200.0   30.0   33.333333333333336
150.0   0.0   33.333333333333336
150.0   30.0   33.333333333333336
200.0   30.0   33.333333333333336
150.0   30.0   16.666666666666668
150.0   0.0   33.333333333333336
200.0   30.0   33.333333333333336
200.0   0.0   33.333333333333336
200.0   0.0   16.666666666666668
150.0   0.0   33.333333333333336
200.0   30.0   33.333333333333336
200.0   0.0   16.666666666666668
150.0   30.0   16.666666666666668
150.0   0.0   33.333333333333336
200.0   0.0   33.333333333333336
150.0   30.0   33.333333333333336
150.0   0.0   50.0
200.0   0.0   33.333333333333336
200.0   30.0   33.333333333333336
150.0   30.0   33.333333333333336
200.0   30.0   50.0
150.0   0.0   50.0
150.0   30.0   50.0
200.0   30.0   50.0
150.0   30.0   33.333333333333336
150.0   0.0   50.0
200.0   30.0   50.0
200.0   0.0   50.0
200.0   0.0   33.333333333333336
150.0   0.0   50.0
200.0   30.0   50.0
200.0   0.0   33.333333333333336
150.0   30.0   33.333333333333336
150.0   30.0   0.0
200.0   30.0   0.0
150.0   60.0   0.0
150.0   30.0   16.666666666666668
200.0   30.0   0.0
200.0   60.0   0.0
150.0   60.0   0.0
200.0   60.0   16.666666666666668
150.0   30.0   16.666666666666668
150.0   60.0   16.666666666666668
200.0   60.0   16.666666666666668
150.0   60.0   0.0
150.0   30.0   16.666666666666668
200.0   60.0   16.666666666666668
200.0   30.0   16.666666666666668
200.0   30.0   0.0
150.0   30.0   16.666666666666668
200.0   60.0   16.666666666666668
200.0   30.0   0.0
150.0   60.0   0.0
150.0   30.0   16.666666666666668
200.0   30.0   16.666666666666668
150.0   60.0   16.666666666666668
150.0   30.0   33.333333333333336
200.0   30.0   16.666666666666668
200.0   60.0   16.666666666666668
150.0   60.0   16.666666666666668
200.0   60.0   33.333333333333336
150.0   30.0   33.333333333333336
150.0   60.0   33.333333333333336
200.0   60.0   33.333333333333336
150.0   60.0   16.666666666666668
150.0   30.0   33.333333333333336
200.0   60.0   33.333333333333336
200.0   30.0   33.333333333333336
200.0   30.0   16.666666666666668
150.0   30.0   33.333333333333336
200.0   60.0   33.333333333333336
200.0   30.0   16.666666666666668
150.0   60.0   16.666666666666668
150.0   30.0   33.333333333333336
200.0   30.0   33.333333333333336
150.0   60.0   33.333333333333336
150.0   30.0   50.0
200.0   30.0   33.333333333333336
200.0   60.0   33.333333333333336
150.0   60.0   33.333333333333336
200.0   60.0   50.0
150.0   30.0   50.0
150.0   60.0   50.0
200.0   60.0   50.0
150.0   60.0   33.333333333333336
150.0   30.0   50.0
200.0   60.0   50.0
200.0   30.0   50.0
200.0   30.0   33.333333333333336
150.0   30.0   50.0
200.0   60.0   50.0
200.0   30.0   33.333333333333336
150.0   60.0   33.333333333333336
150.0   60.0   0.0
200.0   60.0   0.0
150.0   90.0   0.0
150.0   60.0   16.666666666666668
200.0   60.0   0.0
200.0   90.0   0.0
150.0   90.0   0.0
200.0   90.0   16.666666666666668
150.0   60.0   16.666666666666668
150.0   90.0   16.666666666666668
200.0   90.0   16.666666666666668
150.0   90.0   0.0
150.0   60.0   16.666666666666668
200.0   90.0   16.666666666666668
200.0   60.0   16.666666666666668
200.0   60.0   0.0
150.0   60.0   16.666666666666668
200.0   90.0   16.666666666666668
200.0   60.0   0.0
150.0   90.0   0.0
150.0   60.0   16.666666666666668
200.0   60.0   16.666666666666668
150.0   90.0   16.666666666666668
150.0   60.0   33.333333333333336
200.0   60.0   16.666666666666668
200.0   90.0   16.666666666666668
150.0   90.0   16.666666666666668
200.0   90.0   33.333333333333336
150.0   60.0   33.333333333333336
150.0   90.0   33.333333333333336
200.0   90.0   33.333333333333336
150.0   90.0   16.666666666666668
150.0   60.0   33.333333333333336
200.0   90.0   33.333333333333336
200.0   60.0   33.333333333333336
200.0   60.0   16.666666666666668
150.0   60.0   33.333333333333336
200.0   90.0   33.333333333333336
200.0   60.0   16.666666666666668
150.0   90.0   16.666666666666668
150.0   60.0   33.333333333333336
200.0   60.0   33.333333333333336
150.0   90.0   33.333333333333336
150.0   60.0   50.0
200.0   60.0   33.333333333333336
200.0   90.0   33.333333333333336
150.0   90.0   33.333333333333336
200.0   90.0   50.0
150.0   60.0   50.0
150.0   90.0   50.0
200.0   90.0   50.0
150.0   90.0   33.333333333333336
150.0   60.0   50.0
200.0   90.0   50.0
200.0   60.0   50.0
200.0   60.0   33.333333333333336
150.0   60.0   50.0
200.0   90.0   50.0
200.0   60.0   33.333333333333336
150.0   90.0   33.333333333333336
150.0   90.0   0.0
200.0   90.0   0.0
150.0   120.0   0.0
150.0   90.0   16.666666666666668
200.0   90.0   0.0
200.0   120.0   0.0
150.0   120.0   0.0
200.0   120.0   16.666666666666668
150.0   90.0   16.666666666666668
150.0   120.0   16.666666666666668
200.0   120.0   16.666666666666668
150.0   120.0   0.0
150.0   90.0   16.666666666666668
200.0   120.0   16.666666666666668
200.0   90.0   16.666666666666668
200.0   90.0   0.0
150.0   90.0   16.666666666666668
200.0   120.0   16.666666666666668
200.0   90.0   0.0
150.0   120.0   0.0
150.0   90.0   16.666666666666668
200.0   90.0   16.666666666666668
150.0   120.0   16.666666666666668
150.0   90.0   33.333333333333336
200.0   90.0   16.666666666666668
200.0   120.0   16.666666666666668
150.0   120.0   16.666666666666668
200.0   120.0   33.333333333333336
150.0   90.0   33.333333333333336
150.0   120.0   33.333333333333336
200.0   120.0   33.333333333333336
150.0   120.0   16.666666666666668
150.0   90.0   33.333333333333336
200.0   120.0   33.333333333333336
200.0   90.0   33.333333333333336
200.0   90.0   16.666666666666668
150.0   90.0   33.333333333333336
200.0   120.0   33.333333333333336
200.0   90.0   16.666666666666668
150.0   120.0   16.666666666666668
150.0   90.0   33.333333333333336
200.0   90.0   33.333333333333336
150.0   120.0   33.333333333333336
150.0   90.0   50.0
200.0   90.0   33.333333333333336
200.0   120.0   33.333333333333336
150.0   120.0   33.333333333333336
200.0   120.0   50.0
150.0   90.0   50.0
150.0   120.0   50.0
200.0   120.0   50.0
150.0   120.0   33.333333333333336
150.0   90.0   50.0
200.0   120.0   50.0
200.0   90.0   50.0
200.0   90.0   33.333333333333336
150.0   90.0   50.0
200.0   120.0   50.0
200.0   90.0   33.333333333333336
150.0   120.0   33.333333333333336
150.0   120.0   0.0
200.0   120.0   0.0
150.0   150.0   0.0
150.0   120.0   16.666666666666668
200.0   120.0   0.0
200.0   150.0   0.0
150.0   150.0   0.0
200.0   150.0   16.666666666666668
150.0   120.0   16.666666666666668
150.0   150.0   16.666666666666668
200.0   150.0   16.666666666666668
150.0   150.0   0.0
150.0   120.0   16.666666666666668
200.0   150.0   16.666666666666668
200.0   120.0   16.666666666666668
200.0   120.0   0.0
150.0   120.0   16.666666666666668
200.0   150.0   16.666666666666668
200.0   120.0   0.0
150.0   150.0   0.0
150.0   120.0   16.666666666666668
200.0   120.0   16.666666666666668
150.0   150.0   16.666666666666668
150.0   120.0   33.333333333333336
200.0   120.0   16.666666666666668
200.0   150.0   16.666666666666668
150.0   150.0   16.666666666666668
200.0   150.0   33.333333333333336
150.0   120.0   33.333333333333336
150.0   150.0   33.333333333333336
200.0   150.0   33.333333333333336
150.0   150.0   16.666666666666668
150.0   120.0   33.333333333333336
200.0   150.0   33.333333333333336
200.0   120.0   33.333333333333336
200.0   120.0   16.666666666666668
150.0   120.0   33.333333333333336
200.0   150.0   33.333333333333336
200.0   120.0   16.666666666666668
150.0   150.0   16.666666666666668
150.0   120.0   33.333333333333336
200.0   120.0   33.333333333333336
150.0   150.0   33.333333333333336
150.0   120.0   50.0
200.0   120.0   33.333333333333336
200.0   150.0   33.333333333333336
150.0   150.0   33.333333333333336
200.0   150.0   50.0
150.0   120.0   50.0
150.0   150.0   50.0
200.0   150.0   50.0
150.0   150.0   33.333333333333336
150.0   120.0   50.0
200.0   150.0   50.0
200.0   120.0   50.0
200.0   120.0   33.333333333333336
150.0   120.0   50.0
200.0   150.0   50.0
200.0   120.0   33.333333333333336
150.0   150.0   33.333333333333336
200.0   0.0   0.0
250.0   0.0   0.0
200.0   30.0   0.0
200.0   0.0   16.666666666666668
250.0   0.0   0.0
250.0   30.0   0.0
200.0   30.0   0.0
250.0   30.0   16.666666666666668
200.0   0.0   16.666666666666668
200.0   30.0   16.666666666666668
250.0   30.0   16.666666666666668
200.0   30.0   0.0
200.0   0.0   16.666666666666668
250.0   30.0   16.666666666666668
250.0   0.0   16.666666666666668
250.0   0.0   0.0
200.0   0.0   16.666666666666668
250.0   30.0   16.666666666666668
250.0   0.0   0.0
200.0   30.0   0.0
200.0   0.0   16.666666666666668
250.0   0.0   16.666666666666668
200.0   30.0   16.666666666666668
200.0   0.0   33.333333333333336
250.0   0.0   16.666666666666668
250.0   30.0   16.666666666666668
200.0   30.0   16.666666666666668
250.0   30.0   33.333333333333336
200.0   0.0   33.333333333333336
200.0   30.0   33.333333333333336
250.0   30.0   33.333333333333336
200.0   30.0   16.666666666666668
200.0   0.0   33.333333333333336
250.0   30.0   33.333333333333336
250.0   0.0   33.333333333333336
250.0   0.0   16.666666666666668
200.0   0.0   33.333333333333336
250.0   30.0   33.333333333333336
250.0   0.0   16.666666666666668
200.0   30.0   16.666666666666668
200.0   0.0   33.333333333333336
250.0   0.0   33.333333333333336
200.0   30.0   33.333333333333336
200.0   0.0   50.0
250.0   0.0   33.333333333333336
250.0   30.0   33.333333333333336
200.0   30.0   33.333333333333336
250.0   30.0   50.0
200.0   0.0   50.0
200.0   30.0   50.0
250.0   30.0   50.0
200.0   30.0   33.333333333333336
200.0   0.0   50.0
250.0   30.0   50.0
250.0   0.0   50.0
250.0   0.0   33.333333333333336
200.0   0.0   50.0
250.0   30.0   50.0
250.0   0.0   33.333333333333336
200.0   30.0   33.333333333333336
200.0   30.0   0.0
250.0   30.0   0.0
200.0   60.0   0.0
200.0   30.0   16.666666666666668
250.0   30.0   0.0
250.0   60.0   0.0
200.0   60.0   0.0
250.0   60.0   16.666666666666668
200.0   30.0   16.666666666666668
200.0   60.0   16.666666666666668
250.0   60.0   16.666666666666668
200.0   60.0   0.0
200.0   30.0   16.666666666666668
250.0   60.0   16.666666666666668
250.0   30.0   16.666666666666668
250.0   30.0   0.0
200.0   30.0   16.666666666666668
250.0   60.0   16.666666666666668
250.0   30.0   0.0
200.0   60.0   0.0
200.0   30.0   16.666666666666668
250.0   30.0   16.666666666666668
200.0   60.0   16.666666666666668
200.0   30.0   33.333333333333336
250.0   30.0   16.666666666666668
250.0   60.0   16.666666666666668
200.0   60.0   16.666666666666668
250.0   60.0   33.333333333333336
200.0   30.0   33.333333333333336
200.0   60.0   33.333333333333336
250.0   60.0   33.333333333333336
200.0   60.0   16.666666666666668
200.0   30.0   33.333333333333336
250.0   60.0   33.333333333333336
250.0   30.0   33.333333333333336
250.0   30.0   16.666666666666668
200.0   30.0   33.333333333333336
250.0   60.0   33.333333333333336
250.0   30.0   16.666666666666668
200.0   60.0   16.666666666666668
200.0   30.0   33.333333333333336
250.0   30.0   33.333333333333336
200.0   60.0   33.333333333333336
200.0   30.0   50.0
250.0   30.0   33.333333333333336
250.0   60.0   33.333333333333336
200.0   60.0   33.333333333333336
250.0   60.0   50.0
200.0   30.0   50.0
200.0   60.0   50.0
250.0   60.0   50.0
200.0   60.0   33.333333333333336
200.0   30.0   50.0
250.0   60.0   50.0
250.0   30.0   50.0
250.0   30.0   33.333333333333336
200.0   30.0   50.0
250.0   60.0   50.0
250.0   30.0   33.333333333333336
200.0   60.0   33.333333333333336
200.0   60.0   0.0
250.0   60.0   0.0
200.0   90.0   0.0
200.0   60.0   16.666666666666668
250.0   60.0   0.0
250.0   90.0   0.0
200.0   90.0   0.0
250.0   90.0   16.666666666666668
200.0   60.0   16.666666666666668
200.0   90.0   16.666666666666668
250.0   90.0   16.666666666666668
200.0   90.0   0.0
200.0   60.0   16.666666666666668
250.0   90.0   16.666666666666668
250.0   60.0   16.666666666666668
250.0   60.0   0.0
200.0   60.0   16.666666666666668
250.0   90.0   16.666666666666668
250.0   60.0   0.0
200.0   90.0   0.0
200.0   60.0   16.666666666666668
250.0   60.0   16.666666666666668
200.0   90.0   16.666666666666668
200.0   60.0   33.333333333333336
250.0   60.0   16.666666666666668
250.0   90.0   16.666666666666668
200.0   90.0   16.666666666666668
250.0   90.0   33.333333333333336
200.0   60.0   33.333333333333336
200.0   90.0   33.333333333333336
250.0   90.0   33.333333333333336
200.0   90.0   16.666666666666668
200.0   60.0   33.333333333333336
250.0   90.0   33.333333333333336
250.0   60.0   33.333333333333336
250.0   60.0   16.666666666666668
200.0   60.0   33.333333333333336
250.0   90.0   33.333333333333336
250.0   60.0   16.666666666666668
200.0   90.0   16.666666666666668
200.0   60.0   33.333333333333336
250.0   60.0   33.333333333333336
200.0   90.0   33.333333333333336
200.0   60.0   50.0
250.0   60.0   33.333333333333336
250.0   90.0   33.333333333333336
200.0   90.0   33.333333333333336
250.0   90.0   50.0
200.0   60.0   50.0
200.0   90.0   50.0
250.0   90.0   50.0
200.0   90.0   33.333333333333336
200.0   60.0   50.0
250.0   90.0   50.0
250.0   60.0   50.0
250.0   60.0   33.333333333333336
200.0   60.0   50.0
250.0   90.0   50.0
250.0   60.0   33.333333333333336
200.0   90.0   33.333333333333336
200.0   90.0   0.0
250.0   90.0   0.0
200.0   120.0   0.0
200.0   90.0   16.666666666666668
250.0   90.0   0.0
250.0   120.0   0.0
200.0   120.0   0.0
250.0   120.0   16.666666666666668
200.0   90.0   16.666666666666668
200.0   120.0   16.666666666666668
250.0   120.0   16.666666666666668
200.0   120.0   0.0
200.0   90.0   16.666666666666668
250.0   120.0   16.666666666666668
250.0   90.0   16.666666666666668
250.0   90.0   0.0
200.0   90.0   16.666666666666668
250.0   120.0   16.666666666666668
250.0   90.0   0.0
200.0   120.0   0.0
200.0   90.0   16.666666666666668
250.0   90.0   16.666666666666668
200.0   120.0   16.666666666666668
200.0   90.0   33.333333333333336
250.0   90.0   16.666666666666668
250.0   120.0   16.666666666666668
200.0   120.0   16.666666666666668
250.0   120.0   33.333333333333336
200.0   90.0   33.333333333333336
200.0   120.0   33.333333333333336
250.0   120.0   33.333333333333336
200.0   120.0   16.666666666666668
200.0   90.0   33.333333333333336
250.0   120.0   33.333333333333336
250.0   90.0   33.333333333333336
250.0   90.0   16.666666666666668
200.0   90.0   33.333333333333336
250.0   120.0   33.333333333333336
250.0   90.0   16.666666666666668
200.0   120.0   16.666666666666668
200.0   90.0   33.333333333333336
250.0   90.0   33.333333333333336
200.0   120.0   33.333333333333336
200.0   90.0   50.0
250.0   90.0   33.333333333333336
250.0   120.0   33.333333333333336
200.0   120.0   33.333333333333336
250.0   120.0   50.0
200.0   90.0   50.0
200.0   120.0   50.0
250.0   120.0   50.0
200.0   120.0   33.333333333333336
200.0   90.0   50.0
250.0   120.0   50.0
250.0   90.0   50.0
250.0   90.0   33.333333333333336
200.0   90.0   50.0
250.0   120.0   50.0
250.0   90.0   33.333333333333336
200.0   120.0   33.333333333333336
200.0   120.0   0.0
250.0   120.0   0.0
200.0   150.0   0.0
200.0   120.0   16.666666666666668
250.0   120.0   0.0
250.0   150.0   0.0
200.0   150.0   0.0
250.0   150.0   16.666666666666668
200.0   120.0   16.666666666666668
200.0   150.0   16.666666666666668
250.0   150.0   16.666666666666668
200.0   150.0   0.0
200.0   120.0   16.666666666666668
250.0   150.0   16.666666666666668
250.0   120.0   16.666666666666668
250.0   120.0   0.0
200.0   120.0   16.666666666666668
250.0   150.0   16.666666666666668
250.0   120.0   0.0
200.0   150.0   0.0
200.0   120.0   16.666666666666668
250.0   120.0   16.666666666666668
200.0   150.0   16.666666666666668
200.0   120.0   33.333333333333336
250.0   120.0   16.666666666666668
250.0   150.0   16.666666666666668
200.0   150.0   16.666666666666668
250.0   150.0   33.333333333333336
200.0   120.0   33.333333333333336
200.0   150.0   33.333333333333336
250.0   150.0   33.333333333333336
200.0   150.0   16.666666666666668
200.0   120.0   33.333333333333336
250.0   150.0   33.333333333333336
250.0   120.0   33.333333333333336
250.0   120.0   16.666666666666668
200.0   120.0   33.333333333333336
250.0   150.0   33.333333333333336
250.0   120.0   16.666666666666668
200.0   150.0   16.666666666666668
200.0   120.0   33.333333333333336
250.0   120.0   33.333333333333336
200.0   150.0   33.333333333333336
200.0   120.0   50.0
250.0   120.0   33.333333333333336
250.0   150.0   33.333333333333336
200.0   150.0   33.333333333333336
250.0   150.0   50.0
200.0   120.0   50.0
200.0   150.0   50.0
250.0   150.0   50.0
200.0   150.0   33.333333333333336
200.0   120.0   50.0
250.0   150.0   50.0
250.0   120.0   50.0
250.0   120.0   33.333333333333336
200.0   120.0   50.0
250.0   150.0   50.0
250.0   120.0   33.333333333333336
200.0   150.0   33.333333333333336
250.0   0.0   0.0
300.0   0.0   0.0
250.0   30.0   0.0
250.0   0.0   16.666666666666668
300.0   0.0   0.0
300.0   30.0   0.0
250.0   30.0   0.0
300.0   30.0   16.666666666666668
250.0   0.0   16.666666666666668
250.0   30.0   16.666666666666668
300.0   30.0   16.666666666666668
250.0   30.0   0.0
250.0   0.0   16.666666666666668
300.0   30.0   16.666666666666668
300.0   0.0   16.666666666666668
300.0   0.0   0.0
250.0   0.0   16.666666666666668
300.0   30.0   16.666666666666668
300.0   0.0   0.0
250.0   30.0   0.0
250.0   0.0   16.666666666666668
300.0   0.0   16.666666666666668
250.0   30.0   16.666666666666668
250.0   0.0   33.333333333333336
300.0   0.0   16.666666666666668
300.0   30.0   16.666666666666668
250.0   30.0   16.666666666666668
300.0   30.0   33.333333333333336
250.0   0.0   33.333333333333336
250.0   30.0   33.333333333333336
300.0   30.0   33.333333333333336
250.0   30.0   16.666666666666668
250.0   0.0   33.333333333333336
300.0   30.0   33.333333333333336
300.0   0.0   33.333333333333336
300.0   0.0   16.666666666666668
250.0   0.0   33.333333333333336
300.0   30.0   33.333333333333336
300.0   0.0   16.666666666666668
250.0   30.0   16.666666666666668
250.0   0.0   33.333333333333336
300.0   0.0   33.333333333333336
250.0   30.0   33.333333333333336
250.0   0.0   50.0
300.0   0.0   33.333333333333336
300.0   30.0   33.333333333333336
250.0   30.0   33.333333333333336
300.0   30.0   50.0
250.0   0.0   50.0
250.0   30.0   50.0
300.0   30.0   50.0
250.0   30.0   33.333333333333336
250.0   0.0   50.0
300.0   30.0   50.0
300.0   0.0   50.0
300.0   0.0   33.333333333333336
250.0   0.0   50.0
300.0   30.0   50.0
300.0   0.0   33.333333333333336
250.0   30.0   33.333333333333336
250.0   30.0   0.0
300.0   30.0   0.0
250.0   60.0   0.0
250.0   30.0   16.666666666666668
300.0   30.0   0.0
300.0   60.0   0.0
250.0   60.0   0.0
300.0   60.0   16.666666666666668
250.0   30.0   16.666666666666668
250.0   60.0   16.666666666666668
300.0   60.0   16.666666666666668
250.0   60.0   0.0
250.0   30.0   16.666666666666668
300.0   60.0   16.666666666666668
300.0   30.0   16.666666666666668
300.0   30.0   0.0
250.0   30.0   16.666666666666668
300.0   60.0   16.666666666666668
300.0   30.0   0.0
250.0   60.0   0.0
250.0   30.0   16.666666666666668
300.0   30.0   16.666666666666668
250.0   60.0   16.666666666666668
250.0   30.0   33.333333333333336
300.0   30.0   16.666666666666668
300.0   60.0   16.666666666666668
250.0   60.0   16.666666666666668
300.0   60.0   33.333333333333336
250.0   30.0   33.333333333333336
250.0   60.0   33.333333333333336
300.0   60.0   33.333333333333336
250.0   60.0   16.666666666666668
250.0   30.0   33.333333333333336
300.0   60.0   33.333333333333336
300.0   30.0   33.333333333333336
300.0   30.0   16.666666666666668
250.0   30.0   33.333333333333336
300.0   60.0   33.333333333333336
300.0   30.0   16.666666666666668
250.0   60.0   16.666666666666668
250.0   30.0   33.333333333333336
300.0   30.0   33.333333333333336
250.0   60.0   33.333333333333336
250.0   30.0   50.0
300.0   30.0   33.333333333333336
300.0   60.0   33.333333333333336
250.0   60.0   33.333333333333336
300.0   60.0   50.0
250.0   30.0   50.0
250.0   60.0   50.0
300.0   60.0   50.0
250.0   60.0   33.333333333333336
250.0   30.0   50.0
300.0   60.0   50.0
300.0   30.0   50.0
300.0   30.0   33.333333333333336
250.0   30.0   50.0
300.0   60.0   50.0
300.0   30.0   33.333333333333336
250.0   60.0   33.333333333333336
250.0   60.0   0.0
300.0   60.0   0.0
250.0   90.0   0.0
250.0   60.0   16.666666666666668
300.0   60.0   0.0
300.0   90.0   0.0
250.0   90.0   0.0
300.0   90.0   16.666666666666668
250.0   60.0   16.666666666666668
250.0   90.0   16.666666666666668
300.0   90.0   16.666666666666668
250.0   90.0   0.0
250.0   60.0   16.666666666666668
300.0   90.0   16.666666666666668
300.0   60.0   16.666666666666668
300.0   60.0   0.0
250.0   60.0   16.666666666666668
300.0   90.0   16.666666666666668
300.0   60.0   0.0
250.0   90.0   0.0
250.0   60.0   16.666666666666668
300.0   60.0   16.666666666666668
250.0   90.0   16.666666666666668
250.0   60.0   33.333333333333336
300.0   60.0   16.666666666666668
300.0   90.0   16.666666666666668
250.0   90.0   16.666666666666668
300.0   90.0   33.333333333333336
250.0   60.0   33.333333333333336
250.0   90.0   33.333333333333336
300.0   90.0   33.333333333333336
250.0   90.0   16.666666666666668
250.0   60.0   33.333333333333336
300.0   90.0   33.333333333333336
300.0   60.0   33.333333333333336
300.0   60.0   16.666666666666668
250.0   60.0   33.333333333333336
300.0   90.0   33.333333333333336
300.0   60.0   16.666666666666668
250.0   90.0   16.666666666666668
250.0   60.0   33.333333333333336
300.0   60.0   33.333333333333336
250.0   90.0   33.333333333333336
250.0   60.0   50.0
300.0   60.0   33.333333333333336
300.0   90.0   33.333333333333336
250.0   90.0   33.333333333333336
300.0   90.0   50.0
250.0   60.0   50.0
250.0   90.0   50.0
300.0   90.0   50.0
250.0   90.0   33.333333333333336
250.0   60.0   50.0
300.0   90.0   50.0
300.0   60.0   50.0
300.0   60.0   33.333333333333336
250.0   60.0   50.0
300.0   90.0   50.0
300.0   60.0   33.333333333333336
250.0   90.0   33.333333333333336
250.0   90.0   0.0
300.0   90.0   0.0
250.0   120.0   0.0
250.0   90.0   16.666666666666668
300.0   90.0   0.0
300.0   120.0   0.0
250.0   120.0   0.0
300.0   120.0   16.666666666666668
250.0   90.0   16.666666666666668
250.0   120.0   16.666666666666668
300.0   120.0   16.666666666666668
250.0   120.0   0.0
250.0   90.0   16.666666666666668
300.0   120.0   16.666666666666668
300.0   90.0   16.666666666666668
300.0   90.0   0.0
250.0   90.0   16.666666666666668
300.0   120.0   16.666666666666668
300.0   90.0   0.0
250.0   120.0   0.0
250.0   90.0   16.666666666666668
300.0   90.0   16.666666666666668
250.0   120.0   16.666666666666668
250.0   90.0   33.333333333333336
300.0   90.0   16.666666666666668
300.0   120.0   16.666666666666668
250.0   120.0   16.666666666666668
300.0   120.0   33.333333333333336
250.0   90.0   33.333333333333336
250.0   120.0   33.333333333333336
300.0   120.0   33.333333333333336
250.0   120.0   16.666666666666668
250.0   90.0   33.333333333333336
300.0   120.0   33.333333333333336
300.0   90.0   33.333333333333336
300.0   90.0   16.666666666666668
250.0   90.0   33.333333333333336
300.0   120.0   33.333333333333336
300.0   90.0   16.666666666666668
250.0   120.0   16.666666666666668
250.0   90.0   33.333333333333336
300.0   90.0   33.333333333333336
250.0   120.0   33.333333333333336
250.0   90.0   50.0
300.0   90.0   33.333333333333336
300.0   120.0   33.333333333333336
250.0   120.0   33.333333333333336
300.0   120.0   50.0
250.0   90.0   50.0
250.0   120.0   50.0
300.0   120.0   50.0
250.0   120.0   33.333333333333336
250.0   90.0   50.0
300.0   120.0   50.0
300.0   90.0   50.0
300.0   90.0   33.333333333333336
250.0   90.0   50.0
300.0   120.0   50.0
300.0   90.0   33.333333333333336
250.0   120.0   33.333333333333336
250.0   120.0   0.0
300.0   120.0   0.0
250.0   150.0   0.0
250.0   120.0   16.666666666666668
300.0   120.0   0.0
300.0   150.0   0.0
250.0   150.0   0.0
300.0   150.0   16.666666666666668
250.0   120.0   16.666666666666668
250.0   150.0   16.666666666666668
300.0   150.0   16.666666666666668
250.0   150.0   0.0
250.0   120.0   16.666666666666668
300.0   150.0   16.666666666666668
300.0   120.0   16.666666666666668
300.0   120.0   0.0
250.0   120.0   16.666666666666668
300.0   150.0   16.666666666666668
300.0   120.0   0.0
250.0   150.0   0.0
250.0   120.0   16.666666666666668
300.0   120.0   16.666666666666668
250.0   150.0   16.666666666666668
250.0   120.0   33.333333333333336
300.0   120.0   16.666666666666668
300.0   150.0   16.666666666666668
250.0   150.0   16.666666666666668
300.0   150.0   33.333333333333336
250.0   120.0   33.333333333333336
250.0   150.0   33.333333333333336
300.0   150.0   33.333333333333336
250.0   150.0   16.666666666666668
250.0   120.0   33.333333333333336
300.0   150.0   33.333333333333336
300.0   120.0   33.333333333333336
300.0   120.0   16.666666666666668
250.0   120.0   33.333333333333336
300.0   150.0   33.333333333333336
300.0   120.0   16.666666666666668
250.0   150.0   16.666666666666668
250.0   120.0   33.333333333333336
300.0   120.0   33.333333333333336
250.0   150.0   33.333333333333336
250.0   120.0   50.0
300.0   120.0   33.333333333333336
300.0   150.0   33.333333333333336
250.0   150.0   33.333333333333336
300.0   150.0   50.0
250.0   120.0   50.0
250.0   150.0   50.0
300.0   150.0   50.0
250.0   150.0   33.333333333333336
250.0   120.0   50.0
300.0   150.0   50.0
300.0   120.0   50.0
300.0   120.0   33.333333333333336
250.0   120.0   50.0
300.0   150.0   50.0
300.0   120.0   33.333333333333336
250.0   150.0   33.333333333333336
300.0   0.0   0.0
350.0   0.0   0.0
300.0   30.0   0.0
300.0   0.0   16.666666666666668
350.0   0.0   0.0
350.0   30.0   0.0
300.0   30.0   0.0
350.0   30.0   16.666666666666668
300.0   0.0   16.666666666666668
300.0   30.0   16.666666666666668
350.0   30.0   16.666666666666668
300.0   30.0   0.0
300.0   0.0   16.666666666666668
350.0   30.0   16.666666666666668
350.0   0.0   16.666666666666668
350.0   0.0   0.0
300.0   0.0   16.666666666666668
350.0   30.0   16.666666666666668
350.0   0.0   0.0
300.0   30.0   0.0
300.0   0.0   16.666666666666668
350.0   0.0   16.666666666666668
300.0   30.0   16.666666666666668
300.0   0.0   33.333333333333336
350.0   0.0   16.666666666666668
350.0   30.0   16.666666666666668
300.0   30.0   16.666666666666668
350.0   30.0   33.333333333333336
300.0   0.0   33.333333333333336
300.0   30.0   33.333333333333336
350.0   30.0   33.333333333333336
300.0   30.0   16.666666666666668
300.0   0.0   33.333333333333336
350.0   30.0   33.333333333333336
350.0   0.0   33.333333333333336
350.0   0.0   16.666666666666668
300.0   0.0   33.333333333333336
350.0   30.0   33.333333333333336
350.0   0.0   16.666666666666668
300.0   30.0   16.666666666666668
300.0   0.0   33.333333333333336
350.0   0.0   33.333333333333336
300.0   30.0   33.333333333333336
300.0   0.0   50.0
350.0   0.0   33.333333333333336
350.0   30.0   33.333333333333336
300.0   30.0   33.333333333333336
350.0   30.0   50.0
300.0   0.0   50.0
300.0   30.0   50.0
350.0   30.0   50.0
300.0   30.0   33.333333333333336
300.0   0.0   50.0
350.0   30.0   50.0
350.0   0.0   50.0
350.0   0.0   33.333333333333336
300.0   0.0   50.0
350.0   30.0   50.0
350.0   0.0   33.333333333333336
300.0   30.0   33.333333333333336
300.0   30.0   0.0
350.0   30.0   0.0
300.0   60.0   0.0
300.0   30.0   16.666666666666668
350.0   30.0   0.0
350.0   60.0   0.0
300.0   60.0   0.0
350.0   60.0   16.666666666666668
300.0   30.0   16.666666666666668
300.0   60.0   16.666666666666668
350.0   60.0   16.666666666666668
300.0   60.0   0.0
300.0   30.0   16.666666666666668
350.0   60.0   16.666666666666668
350.0   30.0   16.666666666666668
350.0   30.0   0.0
300.0   30.0   16.666666666666668
350.0   60.0   16.666666666666668
350.0   30.0   0.0
300.0   60.0   0.0
300.0   30.0   16.666666666666668
350.0   30.0   16.666666666666668
300.0   60.0   16.666666666666668
300.0   30.0   33.333333333333336
350.0   30.0   16.666666666666668
350.0   60.0   16.666666666666668
300.0   60.0   16.666666666666668
350.0   60.0   33.333333333333336
300.0   30.0   33.333333333333336
300.0   60.0   33.333333333333336
350.0   60.0   33.333333333333336
300.0   60.0   16.666666666666668
300.0   30.0   33.333333333333336
350.0   60.0   33.333333333333336
350.0   30.0   33.333333333333336
350.0   30.0   16.666666666666668
300.0   30.0   33.333333333333336
350.0   60.0   33.333333333333336
350.0   30.0   16.666666666666668
300.0   60.0   16.666666666666668
300.0   30.0   33.333333333333336
350.0   30.0   33.333333333333336
300.0   60.0   33.333333333333336
300.0   30.0   50.0
350.0   30.0   33.333333333333336
350.0   60.0   33.333333333333336
300.0   60.0   33.333333333333336
350.0   60.0   50.0
300.0   30.0   50.0
300.0   60.0   50.0
350.0   60.0   50.0
300.0   60.0   33.333333333333336
300.0   30.0   50.0
350.0   60.0   50.0
350.0   30.0   50.0
350.0   30.0   33.333333333333336
300.0   30.0   50.0
350.0   60.0   50.0
350.0   30.0   33.333333333333336
300.0   60.0   33.333333333333336
300.0   60.0   0.0
350.0   60.0   0.0
300.0   90.0   0.0
300.0   60.0   16.666666666666668
350.0   60.0   0.0
350.0   90.0   0.0
300.0   90.0   0.0
350.0   90.0   16.666666666666668
300.0   60.0   16.666666666666668
300.0   90.0   16.666666666666668
350.0   90.0   16.666666666666668
300.0   90.0   0.0
300.0   60.0   16.666666666666668
350.0   90.0   16.666666666666668
350.0   60.0   16.666666666666668
350.0   60.0   0.0
300.0   60.0   16.666666666666668
350.0   90.0   16.666666666666668
350.0   60.0   0.0
300.0   90.0   0.0
300.0   60.0   16.666666666666668
350.0   60.0   16.666666666666668
300.0   90.0   16.666666666666668
300.0   60.0   33.333333333333336
350.0   60.0   16.666666666666668
350.0   90.0   16.666666666666668
300.0   90.0   16.666666666666668
350.0   90.0   33.333333333333336
300.0   60.0   33.333333333333336
300.0   90.0   33.333333333333336
350.0   90.0   33.333333333333336
300.0   90.0   16.666666666666668
300.0   60.0   33.333333333333336
350.0   90.0   33.333333333333336
350.0   60.0   33.333333333333336
350.0   60.0   16.666666666666668
300.0   60.0   33.333333333333336
350.0   90.0   33.333333333333336
350.0   60.0   16.666666666666668
300.0   90.0   16.666666666666668
300.0   60.0   33.333333333333336
350.0   60.0   33.333333333333336
300.0   90.0   33.333333333333336
300.0   60.0   50.0
350.0   60.0   33.333333333333336
350.0   90.0   33.333333333333336
300.0   90.0   33.333333333333336
350.0   90.0   50.0
300.0   60.0   50.0
300.0   90.0   50.0
350.0   90.0   50.0
300.0   90.0   33.333333333333336
300.0   60.0   50.0
350.0   90.0   50.0
350.0   60.0   50.0
350.0   60.0   33.333333333333336
300.0   60.0   50.0
350.0   90.0   50.0
350.0   60.0   33.333333333333336
300.0   90.0   33.333333333333336
300.0   90.0   0.0
350.0   90.0   0.0
300.0   120.0   0.0
300.0   90.0   16.666666666666668
350.0   90.0   0.0
350.0   120.0   0.0
300.0   120.0   0.0
350.0   120.0   16.666666666666668
300.0   90.0   16.666666666666668
300.0   120.0   16.666666666666668
350.0   120.0   16.666666666666668
300.0   120.0   0.0
300.0   90.0   16.666666666666668
350.0   120.0   16.666666666666668
350.0   90.0   16.666666666666668
350.0   90.0   0.0
300.0   90.0   16.666666666666668
350.0   120.0   16.666666666666668
350.0   90.0   0.0
300.0   120.0   0.0
300.0   90.0   16.666666666666668
350.0   90.0   16.666666666666668
300.0   120.0   16.666666666666668
300.0   90.0   33.333333333333336
350.0   90.0   16.666666666666668
350.0   120.0   16.666666666666668
300.0   120.0   16.666666666666668
350.0   120.0   33.333333333333336
300.0   90.0   33.333333333333336
300.0   120.0   33.333333333333336
350.0   120.0   33.333333333333336
300.0   120.0   16.666666666666668
300.0   90.0   33.333333333333336
350.0   120.0   33.333333333333336
350.0   90.0   33.333333333333336
350.0   90.0   16.666666666666668
300.0   90.0   33.333333333333336
350.0   120.0   33.333333333333336
350.0   90.0   16.666666666666668
300.0   120.0   16.666666666666668
300.0   90.0   33.333333333333336
350.0   90.0   33.333333333333336
300.0   120.0   33.333333333333336
300.0   90.0   50.0
350.0   90.0   33.333333333333336
350.0   120.0   33.333333333333336
300.0   120.0   33.333333333333336
350.0   120.0   50.0
300.0   90.0   50.0
300.0   120.0   50.0
350.0   120.0   50.0
300.0   120.0   33.333333333333336
300.0   90.0   50.0
350.0   120.0   50.0
350.0   90.0   50.0
350.0   90.0   33.333333333333336
300.0   90.0   50.0
350.0   120.0   50.0
350.0   90.0   33.333333333333336
300.0   120.0   33.333333333333336
300.0   120.0   0.0
350.0   120.0   0.0
300.0   150.0   0.0
300.0   120.0   16.666666666666668
350.0   120.0   0.0
350.0   150.0   0.0
300.0   150.0   0.0
350.0   150.0   16.666666666666668
300.0   120.0   16.666666666666668
300.0   150.0   16.666666666666668
350.0   150.0   16.666666666666668
300.0   150.0   0.0
300.0   120.0   16.666666666666668
350.0   150.0   16.666666666666668
350.0   120.0   16.666666666666668
350.0   120.0   0.0
300.0   120.0   16.666666666666668
350.0   150.0   16.666666666666668
350.0   120.0   0.0
300.0   150.0   0.0
300.0   120.0   16.666666666666668
350.0   120.0   16.666666666666668
300.0   150.0   16.666666666666668
300.0   120.0   33.333333333333336
350.0   120.0   16.666666666666668
350.0   150.0   16.666666666666668
300.0   150.0   16.666666666666668
350.0   150.0   33.333333333333336
300.0   120.0   33.333333333333336
300.0   150.0   33.333333333333336
350.0   150.0   33.333333333333336
300.0   150.0   16.666666666666668
300.0   120.0   33.333333333333336
350.0   150.0   33.333333333333336
350.0   120.0   33.333333333333336
350.0   120.0   16.666666666666668
300.0   120.0   33.333333333333336
350.0   150.0   33.333333333333336
350.0   120.0   16.666666666666668
300.0   150.0   16.666666666666668
300.0   120.0   33.333333333333336
350.0   120.0   33.333333333333336
300.0   150.0   33.333333333333336
300.0   120.0   50.0
350.0   120.0   33.333333333333336
350.0   150.0   33.333333333333336
300.0   150.0   33.333333333333336
350.0   150.0   50.0
300.0   120.0   50.0
300.0   150.0   50.0
350.0   150.0   50.0
300.0   150.0   33.333333333333336
300.0   120.0   50.0
350.0   150.0   50.0
350.0   120.0   50.0
350.0   120.0   33.333333333333336
300.0   120.0   50.0
350.0   150.0   50.0
350.0   120.0   33.333333333333336
300.0   150.0   33.333333333333336
350.0   0.0   0.0
400.0   0.0   0.0
350.0   30.0   0.0
350.0   0.0   16.666666666666668
400.0   0.0   0.0
400.0   30.0   0.0
350.0   30.0   0.0
400.0   30.0   16.666666666666668
350.0   0.0   16.666666666666668
350.0   30.0   16.666666666666668
400.0   30.0   16.666666666666668
350.0   30.0   0.0
350.0   0.0   16.666666666666668
400.0   30.0   16.666666666666668
400.0   0.0   16.666666666666668
400.0   0.0   0.0
350.0   0.0   16.666666666666668
400.0   30.0   16.666666666666668
400.0   0.0   0.0
350.0   30.0   0.0
350.0   0.0   16.666666666666668
400.0   0.0   16.666666666666668
350.0   30.0   16.666666666666668
350.0   0.0   33.333333333333336
400.0   0.0   16.666666666666668
400.0   30.0   16.666666666666668
350.0   30.0   16.666666666666668
400.0   30.0   33.333333333333336
350.0   0.0   33.333333333333336
350.0   30.0   33.333333333333336
400.0   30.0   33.333333333333336
350.0   30.0   16.666666666666668
350.0   0.0   33.333333333333336
400.0   30.0   33.333333333333336
400.0   0.0   33.333333333333336
400.0   0.0   16.666666666666668
350.0   0.0   33.333333333333336
400.0   30.0   33.333333333333336
400.0   0.0   16.666666666666668
350.0   30.0   16.666666666666668
350.0   0.0   33.333333333333336
400.0   0.0   33.333333333333336
350.0   30.0   33.333333333333336
350.0   0.0   50.0
400.0   0.0   33.333333333333336
400.0   30.0   33.333333333333336
350.0   30.0   33.333333333333336
400.0   30.0   50.0
350.0   0.0   50.0
350.0   30.0   50.0
400.0   30.0   50.0
350.0   30.0   33.333333333333336
350.0   0.0   50.0
400.0   30.0   50.0
400.0   0.0   50.0
400.0   0.0   33.333333333333336
350.0   0.0   50.0
400.0   30.0   50.0
400.0   0.0   33.333333333333336
350.0   30.0   33.333333333333336
350.0   30.0   0.0
400.0   30.0   0.0
350.0   60.0   0.0
350.0   30.0   16.666666666666668
400.0   30.0   0.0
400.0   60.0   0.0
350.0   60.0   0.0
400.0   60.0   16.666666666666668
350.0   30.0   16.666666666666668
350.0   60.0   16.666666666666668
400.0   60.0   16.666666666666668
350.0   60.0   0.0
350.0   30.0   16.666666666666668
400.0   60.0   16.666666666666668
400.0   30.0   16.666666666666668
400.0   30.0   0.0
350.0   30.0   16.666666666666668
400.0   60.0   16.666666666666668
400.0   30.0   0.0
350.0   60.0   0.0
350.0   30.0   16.666666666666668
400.0   30.0   16.666666666666668
350.0   60.0   16.666666666666668
350.0   30.0   33.333333333333336
400.0   30.0   16.666666666666668
400.0   60.0   16.666666666666668
350.0   60.0   16.666666666666668
400.0   60.0   33.333333333333336
350.0   30.0   33.333333333333336
350.0   60.0   33.333333333333336
400.0   60.0   33.333333333333336
350.0   60.0   16.666666666666668
350.0   30.0   33.333333333333336
400.0   60.0   33.333333333333336
400.0   30.0   33.333333333333336
400.0   30.0   16.666666666666668
350.0   30.0   33.333333333333336
400.0   60.0   33.333333333333336
400.0   30.0   16.666666666666668
350.0   60.0   16.666666666666668
350.0   30.0   33.333333333333336
400.0   30.0   33.333333333333336
350.0   60.0   33.333333333333336
350.0   30.0   50.0
400.0   30.0   33.333333333333336
400.0   60.0   33.333333333333336
350.0   60.0   33.333333333333336
400.0   60.0   50.0
350.0   30.0   50.0
350.0   60.0   50.0
400.0   60.0   50.0
350.0   60.0   33.333333333333336
350.0   30.0   50.0
400.0   60.0   50.0
400.0   30.0   50.0
400.0   30.0   33.333333333333336
350.0   30.0   50.0
400.0   60.0   50.0
400.0   30.0   33.333333333333336
350.0   60.0   33.333333333333336
350.0   60.0   0.0
400.0   60.0   0.0
350.0   90.0   0.0
350.0   60.0   16.666666666666668
400.0   60.0   0.0
400.0   90.0   0.0
350.0   90.0   0.0
400.0   90.0   16.666666666666668
350.0   60.0   16.666666666666668
350.0   90.0   16.666666666666668
400.0   90.0   16.666666666666668
350.0   90.0   0.0
350.0   60.0   16.666666666666668
400.0   90.0   16.666666666666668
400.0   60.0   16.666666666666668
400.0   60.0   0.0
350.0   60.0   16.666666666666668
400.0   90.0   16.666666666666668
400.0   60.0   0.0
350.0   90.0   0.0
350.0   60.0   16.666666666666668
400.0   60.0   16.666666666666668
350.0   90.0   16.666666666666668
350.0   60.0   33.333333333333336
400.0   60.0   16.666666666666668
400.0   90.0   16.666666666666668
350.0   90.0   16.666666666666668
400.0   90.0   33.333333333333336
350.0   60.0   33.333333333333336
350.0   90.0   33.333333333333336
400.0   90.0   33.333333333333336
350.0   90.0   16.666666666666668
350.0   60.0   33.333333333333336
400.0   90.0   33.333333333333336
400.0   60.0   33.333333333333336
400.0   60.0   16.666666666666668
350.0   60.0   33.333333333333336
400.0   90.0   33.333333333333336
400.0   60.0   16.666666666666668
350.0   90.0   16.666666666666668
350.0   60.0   33.333333333333336
400.0   60.0   33.333333333333336
350.0   90.0   33.333333333333336
350.0   60.0   50.0
400.0   60.0   33.333333333333336
400.0   90.0   33.333333333333336
350.0   90.0   33.333333333333336
400.0   90.0   50.0
350.0   60.0   50.0
350.0   90.0   50.0
400.0   90.0   50.0
350.0   90.0   33.333333333333336
350.0   60.0   50.0
400.0   90.0   50.0
400.0   60.0   50.0
400.0   60.0   33.333333333333336
350.0   60.0   50.0
400.0   90.0   50.0
400.0   60.0   33.333333333333336
350.0   90.0   33.333333333333336
350.0   90.0   0.0
400.0   90.0   0.0
350.0   120.0   0.0
350.0   90.0   16.666666666666668
400.0   90.0   0.0
400.0   120.0   0.0
350.0   120.0   0.0
400.0   120.0   16.666666666666668
350.0   90.0   16.666666666666668
350.0   120.0   16.666666666666668
400.0   120.0   16.666666666666668
350.0   120.0   0.0
350.0   90.0   16.666666666666668
400.0   120.0   16.666666666666668
400.0   90.0   16.666666666666668
400.0   90.0   0.0
350.0   90.0   16.666666666666668
400.0   120.0   16.666666666666668
400.0   90.0   0.0
350.0   120.0   0.0
350.0   90.0   16.666666666666668
400.0   90.0   16.666666666666668
350.0   120.0   16.666666666666668
350.0   90.0   33.333333333333336
400.0   90.0   16.666666666666668
400.0   120.0   16.666666666666668
350.0   120.0   16.666666666666668
400.0   120.0   33.333333333333336
350.0   90.0   33.333333333333336
350.0   120.0   33.333333333333336
400.0   120.0   33.333333333333336
350.0   120.0   16.666666666666668
350.0   90.0   33.333333333333336
400.0   120.0   33.333333333333336
400.0   90.0   33.333333333333336
400.0   90.0   16.666666666666668
350.0   90.0   33.333333333333336
400.0   120.0   33.333333333333336
400.0   90.0   16.666666666666668
350.0   120.0   16.666666666666668
350.0   90.0   33.333333333333336
400.0   90.0   33.333333333333336
350.0   120.0   33.333333333333336
350.0   90.0   50.0
400.0   90.0   33.333333333333336
400.0   120.0   33.333333333333336
350.0   120.0   33.333333333333336
400.0   120.0   50.0
350.0   90.0   50.0
350.0   120.0   50.0
400.0   120.0   50.0
350.0   120.0   33.333333333333336
350.0   90.0   50.0
400.0   120.0   50.0
400.0   90.0   50.0
400.0   90.0   33.333333333333336
350.0   90.0   50.0
400.0   120.0   50.0
400.0   90.0   33.333333333333336
350.0   120.0   33.333333333333336
350.0   120.0   0.0
400.0   120.0   0.0
350.0   150.0   0.0
350.0   120.0   16.666666666666668
400.0   120.0   0.0
400.0   150.0   0.0
350.0   150.0   0.0
400.0   150.0   16.666666666666668
350.0   120.0   16.666666666666668
350.0   150.0   16.666666666666668
400.0   150.0   16.666666666666668
350.0   150.0   0.0
350.0   120.0   16.666666666666668
400.0   150.0   16.666666666666668
400.0   120.0   16.666666666666668
400.0   120.0   0.0
350.0   120.0   16.666666666666668
400.0   150.0   16.666666666666668
400.0   120.0   0.0
350.0   150.0   0.0
350.0   120.0   16.666666666666668
400.0   120.0   16.666666666666668
350.0   150.0   16.666666666666668
350.0   120.0   33.333333333333336
400.0   120.0   16.666666666666668
400.0   150.0   16.666666666666668
350.0   150.0   16.666666666666668
400.0   150.0   33.333333333333336
350.0   120.0   33.333333333333336
350.0   150.0   33.333333333333336
400.0   150.0   33.333333333333336
350.0   150.0   16.666666666666668
350.0   120.0   33.333333333333336
400.0   150.0   33.333333333333336
400.0   120.0   33.333333333333336
400.0   120.0   16.666666666666668
350.0   120.0   33.333333333333336
400.0   150.0   33.333333333333336
400.0   120.0   16.666666666666668
350.0   150.0   16.666666666666668
350.0   120.0   33.333333333333336
400.0   120.0   33.333333333333336
350.0   150.0   33.333333333333336
350.0   120.0   50.0
400.0   120.0   33.333333333333336
400.0   150.0   33.333333333333336
350.0   150.0   33.333333333333336
400.0   150.0   50.0
350.0   120.0   50.0
350.0   150.0   50.0
400.0   150.0   50.0
350.0   150.0   33.333333333333336
350.0   120.0   50.0
400.0   150.0   50.0
400.0   120.0   50.0
400.0   120.0   33.333333333333336
350.0   120.0   50.0
400.0   150.0   50.0
400.0   120.0   33.333333333333336
350.0   150.0   33.333333333333336
400.0   0.0   0.0
450.0   0.0   0.0
400.0   30.0   0.0
400.0   0.0   16.666666666666668
450.0   0.0   0.0
450.0   30.0   0.0
400.0   30.0   0.0
450.0   30.0   16.666666666666668
400.0   0.0   16.666666666666668
400.0   30.0   16.666666666666668
450.0   30.0   16.666666666666668
400.0   30.0   0.0
400.0   0.0   16.666666666666668
450.0   30.0   16.666666666666668
450.0   0.0   16.666666666666668
450.0   0.0   0.0
400.0   0.0   16.666666666666668
450.0   30.0   16.666666666666668
450.0   0.0   0.0
400.0   30.0   0.0
400.0   0.0   16.666666666666668
450.0   0.0   16.666666666666668
400.0   30.0   16.666666666666668
400.0   0.0   33.333333333333336
450.0   0.0   16.666666666666668
450.0   30.0   16.666666666666668
400.0   30.0   16.666666666666668
450.0   30.0   33.333333333333336
400.0   0.0   33.333333333333336
400.0   30.0   33.333333333333336
450.0   30.0   33.333333333333336
400.0   30.0   16.666666666666668
400.0   0.0   33.333333333333336
450.0   30.0   33.333333333333336
450.0   0.0   33.333333333333336
450.0   0.0   16.666666666666668
400.0   0.0   33.333333333333336
450.0   30.0   33.333333333333336
450.0   0.0   16.666666666666668
400.0   30.0   16.666666666666668
400.0   0.0   33.333333333333336
450.0   0.0   33.333333333333336
400.0   30.0   33.333333333333336
400.0   0.0   50.0
450.0   0.0   33.333333333333336
450.0   30.0   33.333333333333336
400.0   30.0   33.333333333333336
450.0   30.0   50.0
400.0   0.0   50.0
400.0   30.0   50.0
450.0   30.0   50.0
400.0   30.0   33.333333333333336
400.0   0.0   50.0
450.0   30.0   50.0
450.0   0.0   50.0
450.0   0.0   33.333333333333336
400.0   0.0   50.0
450.0   30.0   50.0
450.0   0.0   33.333333333333336
400.0   30.0   33.333333333333336
400.0   30.0   0.0
450.0   30.0   0.0
400.0   60.0   0.0
400.0   30.0   16.666666666666668
450.0   30.0   0.0
450.0   60.0   0.0
400.0   60.0   0.0
450.0   60.0   16.666666666666668
400.0   30.0   16.666666666666668
400.0   60.0   16.666666666666668
450.0   60.0   16.666666666666668
400.0   60.0   0.0
400.0   30.0   16.666666666666668
450.0   60.0   16.666666666666668
450.0   30.0   16.666666666666668
450.0   30.0   0.0
400.0   30.0   16.666666666666668
450.0   60.0   16.666666666666668
450.0   30.0   0.0
400.0   60.0   0.0
400.0   30.0   16.666666666666668
450.0   30.0   16.666666666666668
400.0   60.0   16.666666666666668
400.0   30.0   33.333333333333336
450.0   30.0   16.666666666666668
450.0   60.0   16.666666666666668
400.0   60.0   16.666666666666668
450.0   60.0   33.333333333333336
400.0   30.0   33.333333333333336
400.0   60.0   33.333333333333336
450.0   60.0   33.333333333333336
400.0   60.0   16.666666666666668
400.0   30.0   33.333333333333336
450.0   60.0   33.333333333333336
450.0   30.0   33.333333333333336
450.0   30.0   16.666666666666668
400.0   30.0   33.333333333333336
450.0   60.0   33.333333333333336
450.0   30.0   16.666666666666668
400.0   60.0   16.666666666666668
400.0   30.0   33.333333333333336
450.0   30.0   33.333333333333336
400.0   60.0   33.333333333333336
400.0   30.0   50.0
450.0   30.0   33.333333333333336
450.0   60.0   33.333333333333336
400.0   60.0   33.333333333333336
450.0   60.0   50.0
400.0   30.0   50.0
400.0   60.0   50.0
450.0   60.0   50.0
400.0   60.0   33.333333333333336
400.0   30.0   50.0
450.0   60.0   50.0
450.0   30.0   50.0
450.0   30.0   33.333333333333336
400.0   30.0   50.0
450.0   60.0   50.0
450.0   30.0   33.333333333333336
400.0   60.0   33.333333333333336
400.0   60.0   0.0
450.0   60.0   0.0
400.0   90.0   0.0
400.0   60.0   16.666666666666668
450.0   60.0   0.0
450.0   90.0   0.0
400.0   90.0   0.0
450.0   90.0   16.666666666666668
400.0   60.0   16.666666666666668
400.0   90.0   16.666666666666668
450.0   90.0   16.666666666666668
400.0   90.0   0.0
400.0   60.0   16.666666666666668
450.0   90.0   16.666666666666668
450.0   60.0   16.666666666666668
450.0   60.0   0.0
400.0   60.0   16.666666666666668
450.0   90.0   16.666666666666668
450.0   60.0   0.0
400.0   90.0   0.0
400.0   60.0   16.666666666666668
450.0   60.0   16.666666666666668
400.0   90.0   16.666666666666668
400.0   60.0   33.333333333333336
450.0   60.0   16.666666666666668
450.0   90.0   16.666666666666668
400.0   90.0   16.666666666666668
450.0   90.0   33.333333333333336
400.0   60.0   33.333333333333336
400.0   90.0   33.333333333333336
450.0   90.0   33.333333333333336
400.0   90.0   16.666666666666668
400.0   60.0   33.333333333333336
450.0   90.0   33.333333333333336
450.0   60.0   33.333333333333336
450.0   60.0   16.666666666666668
400.0   60.0   33.333333333333336
450.0   90.0   33.333333333333336
450.0   60.0   16.666666666666668
400.0   90.0   16.666666666666668
400.0   60.0   33.333333333333336
450.0   60.0   33.333333333333336
400.0   90.0   33.333333333333336
400.0   60.0   50.0
450.0   60.0   33.333333333333336
450.0   90.0   33.333333333333336
400.0   90.0   33.333333333333336
450.0   90.0   50.0
400.0   60.0   50.0
400.0   90.0   50.0
450.0   90.0   50.0
400.0   90.0   33.333333333333336
400.0   60.0   50.0
450.0   90.0   50.0
450.0   60.0   50.0
450.0   60.0   33.333333333333336
400.0   60.0   50.0
450.0   90.0   50.0
450.0   60.0   33.333333333333336
400.0   90.0   33.333333333333336
400.0   90.0   0.0
450.0   90.0   0.0
400.0   120.0   0.0
400.0   90.0   16.666666666666668
450.0   90.0   0.0
450.0   120.0   0.0
400.0   120.0   0.0
450.0   120.0   16.666666666666668
400.0   90.0   16.666666666666668
400.0   120.0   16.666666666666668
450.0   120.0   16.666666666666668
400.0   120.0   0.0
400.0   90.0   16.666666666666668
450.0   120.0   16.666666666666668
450.0   90.0   16.666666666666668
450.0   90.0   0.0
400.0   90.0   16.666666666666668
450.0   120.0   16.666666666666668
450.0   90.0   0.0
400.0   120.0   0.0
400.0   90.0   16.666666666666668
450.0   90.0   16.666666666666668
400.0   120.0   16.666666666666668
400.0   90.0   33.333333333333336
450.0   90.0   16.666666666666668
450.0   120.0   16.666666666666668
400.0   120.0   16.666666666666668
450.0   120.0   33.333333333333336
400.0   90.0   33.333333333333336
400.0   120.0   33.333333333333336
450.0   120.0   33.333333333333336
400.0   120.0   16.666666666666668
400.0   90.0   33.333333333333336
450.0   120.0   33.333333333333336
450.0   90.0   33.333333333333336
450.0   90.0   16.666666666666668
400.0   90.0   33.333333333333336
450.0   120.0   33.333333333333336
450.0   90.0   16.666666666666668
400.0   120.0   16.666666666666668
400.0   90.0   33.333333333333336
450.0   90.0   33.333333333333336
400.0   120.0   33.333333333333336
400.0   90.0   50.0
450.0   90.0   33.333333333333336
450.0   120.0   33.333333333333336
400.0   120.0   33.333333333333336
450.0   120.0   50.0
400.0   90.0   50.0
400.0   120.0   50.0
450.0   120.0   50.0
400.0   120.0   33.333333333333336
400.0   90.0   50.0
450.0   120.0   50.0
450.0   90.0   50.0
450.0   90.0   33.333333333333336
400.0   90.0   50.0
450.0   120.0   50.0
450.0   90.0   33.333333333333336
400.0   120.0   33.333333333333336
400.0   120.0   0.0
450.0   120.0   0.0
400.0   150.0   0.0
400.0   120.0   16.666666666666668
450.0   120.0   0.0
450.0   150.0   0.0
400.0   150.0   0.0
450.0   150.0   16.666666666666668
400.0   120.0   16.666666666666668
400.0   150.0   16.666666666666668
450.0   150.0   16.666666666666668
400.0   150.0   0.0
400.0   120.0   16.666666666666668
450.0   150.0   16.666666666666668
450.0   120.0   16.666666666666668
450.0   120.0   0.0
400.0   120.0   16.666666666666668
450.0   150.0   16.666666666666668
450.0   120.0   0.0
400.0   150.0   0.0
400.0   120.0   16.666666666666668
450.0   120.0   16.666666666666668
400.0   150.0   16.666666666666668
400.0   120.0   33.333333333333336
450.0   120.0   16.666666666666668
450.0   150.0   16.666666666666668
400.0   150.0   16.666666666666668
450.0   150.0   33.333333333333336
400.0   120.0   33.333333333333336
400.0   150.0   33.333333333333336
450.0   150.0   33.333333333333336
400.0   150.0   16.666666666666668
400.0   120.0   33.333333333333336
450.0   150.0   33.333333333333336
450.0   120.0   33.333333333333336
450.0   120.0   16.666666666666668
400.0   120.0   33.333333333333336
450.0   150.0   33.333333333333336
450.0   120.0   16.666666666666668
400.0   150.0   16.666666666666668
400.0   120.0   33.333333333333336
450.0   120.0   33.333333333333336
400.0   150.0   33.333333333333336
400.0   120.0   50.0
450.0   120.0   33.333333333333336
450.0   150.0   33.333333333333336
400.0   150.0   33.333333333333336
450.0   150.0   50.0
400.0   120.0   50.0
400.0   150.0   50.0
450.0   150.0   50.0
400.0   150.0   33.333333333333336
400.0   120.0   50.0
450.0   150.0   50.0
450.0   120.0   50.0
450.0   120.0   33.333333333333336
400.0   120.0   50.0
450.0   150.0   50.0
450.0   120.0   33.333333333333336
400.0   150.0   33.333333333333336
450.0   0.0   0.0
500.0   0.0   0.0
450.0   30.0   0.0
450.0   0.0   16.666666666666668
500.0   0.0   0.0
500.0   30.0   0.0
450.0   30.0   0.0
500.0   30.0   16.666666666666668
450.0   0.0   16.666666666666668
450.0   30.0   16.666666666666668
500.0   30.0   16.666666666666668
450.0   30.0   0.0
450.0   0.0   16.666666666666668
500.0   30.0   16.666666666666668
500.0   0.0   16.666666666666668
500.0   0.0   0.0
450.0   0.0   16.666666666666668
500.0   30.0   16.666666666666668
500.0   0.0   0.0
450.0   30.0   0.0
450.0   0.0   16.666666666666668
500.0   0.0   16.666666666666668
450.0   30.0   16.666666666666668
450.0   0.0   33.333333333333336
500.0   0.0   16.666666666666668
500.0   30.0   16.666666666666668
450.0   30.0   16.666666666666668
500.0   30.0   33.333333333333336
450.0   0.0   33.333333333333336
450.0   30.0   33.333333333333336
500.0   30.0   33.333333333333336
450.0   30.0   16.666666666666668
450.0   0.0   33.333333333333336
500.0   30.0   33.333333333333336
500.0   0.0   33.333333333333336
500.0   0.0   16.666666666666668
450.0   0.0   33.333333333333336
500.0   30.0   33.333333333333336
500.0   0.0   16.666666666666668
450.0   30.0   16.666666666666668
450.0   0.0   33.333333333333336
500.0   0.0   33.333333333333336
450.0   30.0   33.333333333333336
450.0   0.0   50.0
500.0   0.0   33.333333333333336
500.0   30.0   33.333333333333336
450.0   30.0   33.333333333333336
500.0   30.0   50.0
450.0   0.0   50.0
450.0   30.0   50.0
500.0   30.0   50.0
450.0   30.0   33.333333333333336
450.0   0.0   50.0
500.0   30.0   50.0
500.0   0.0   50.0
500.0   0.0   33.333333333333336
450.0   0.0   50.0
500.0   30.0   50.0
500.0   0.0   33.333333333333336
450.0   30.0   33.333333333333336
450.0   30.0   0.0
500.0   30.0   0.0
450.0   60.0   0.0
450.0   30.0   16.666666666666668
500.0   30.0   0.0
500.0   60.0   0.0
450.0   60.0   0.0
500.0   60.0   16.666666666666668
450.0   30.0   16.666666666666668
450.0   60.0   16.666666666666668
500.0   60.0   16.666666666666668
450.0   60.0   0.0
450.0   30.0   16.666666666666668
500.0   60.0   16.666666666666668
500.0   30.0   16.666666666666668
500.0   30.0   0.0
450.0   30.0   16.666666666666668
500.0   60.0   16.666666666666668
500.0   30.0   0.0
450.0   60.0   0.0
450.0   30.0   16.666666666666668
500.0   30.0   16.666666666666668
450.0   60.0   16.666666666666668
450.0   30.0   33.333333333333336
500.0   30.0   16.666666666666668
500.0   60.0   16.666666666666668
450.0   60.0   16.666666666666668
500.0   60.0   33.333333333333336
450.0   30.0   33.333333333333336
450.0   60.0   33.333333333333336
500.0   60.0   33.333333333333336
450.0   60.0   16.666666666666668
450.0   30.0   33.333333333333336
500.0   60.0   33.333333333333336
500.0   30.0   33.333333333333336
500.0   30.0   16.666666666666668
450.0   30.0   33.333333333333336
500.0   60.0   33.333333333333336
500.0   30.0   16.666666666666668
450.0   60.0   16.666666666666668
450.0   30.0   33.333333333333336
500.0   30.0   33.333333333333336
450.0   60.0   33.333333333333336
450.0   30.0   50.0
500.0   30.0   33.333333333333336
500.0   60.0   33.333333333333336
450.0   60.0   33.333333333333336
500.0   60.0   50.0
450.0   30.0   50.0
450.0   60.0   50.0
500.0   60.0   50.0
450.0   60.0   33.333333333333336
450.0   30.0   50.0
500.0   60.0   50.0
500.0   30.0   50.0
500.0   30.0   33.333333333333336
450.0   30.0   50.0
500.0   60.0   50.0
500.0   30.0   33.333333333333336
450.0   60.0   33.333333333333336
450.0   60.0   0.0
500.0   60.0   0.0
450.0   90.0   0.0
450.0   60.0   16.666666666666668
500.0   60.0   0.0
500.0   90.0   0.0
450.0   90.0   0.0
500.0   90.0   16.666666666666668
450.0   60.0   16.666666666666668
450.0   90.0   16.666666666666668
500.0   90.0   16.666666666666668
450.0   90.0   0.0
450.0   60.0   16.666666666666668
500.0   90.0   16.666666666666668
500.0   60.0   16.666666666666668
500.0   60.0   0.0
450.0   60.0   16.666666666666668
500.0   90.0   16.666666666666668
500.0   60.0   0.0
450.0   90.0   0.0
450.0   60.0   16.666666666666668
500.0   60.0   16.666666666666668
450.0   90.0   16.666666666666668
450.0   60.0   33.333333333333336
500.0   60.0   16.666666666666668
500.0   90.0   16.666666666666668
450.0   90.0   16.666666666666668
500.0   90.0   33.333333333333336
450.0   60.0   33.333333333333336
450.0   90.0   33.333333333333336
500.0   90.0   33.333333333333336
450.0   90.0   16.666666666666668
450.0   60.0   33.333333333333336
500.0   90.0   33.333333333333336
500.0   60.0   33.333333333333336
500.0   60.0   16.666666666666668
450.0   60.0   33.333333333333336
500.0   90.0   33.333333333333336
500.0   60.0   16.666666666666668
450.0   90.0   16.666666666666668
450.0   60.0   33.333333333333336
500.0   60.0   33.333333333333336
450.0   90.0   33.333333333333336
450.0   60.0   50.0
500.0   60.0   33.333333333333336
500.0   90.0   33.333333333333336
450.0   90.0   33.333333333333336
500.0   90.0   50.0
450.0   60.0   50.0
450.0   90.0   50.0
500.0   90.0   50.0
450.0   90.0   33.333333333333336
450.0   60.0   50.0
500.0   90.0   50.0
500.0   60.0   50.0
500.0   60.0   33.333333333333336
450.0   60.0   50.0
500.0   90.0   50.0
500.0   60.0   33.333333333333336
450.0   90.0   33.333333333333336
450.0   90.0   0.0
500.0   90.0   0.0
450.0   120.0   0.0
450.0   90.0   16.666666666666668
500.0   90.0   0.0
500.0   120.0   0.0
450.0   120.0   0.0
500.0   120.0   16.666666666666668
450.0   90.0   16.666666666666668
450.0   120.0   16.666666666666668
500.0   120.0   16.666666666666668
450.0   120.0   0.0
450.0   90.0   16.666666666666668
500.0   120.0   16.666666666666668
500.0   90.0   16.666666666666668
500.0   90.0   0.0
450.0   90.0   16.666666666666668
500.0   120.0   16.666666666666668
500.0   90.0   0.0
450.0   120.0   0.0
450.0   90.0   16.666666666666668
500.0   90.0   16.666666666666668
450.0   120.0   16.666666666666668
450.0   90.0   33.333333333333336
500.0   90.0   16.666666666666668
500.0   120.0   16.666666666666668
450.0   120.0   16.666666666666668
500.0   120.0   33.333333333333336
450.0   90.0   33.333333333333336
450.0   120.0   33.333333333333336
500.0   120.0   33.333333333333336
450.0   120.0   16.666666666666668
450.0   90.0   33.333333333333336
500.0   120.0   33.333333333333336
500.0   90.0   33.333333333333336
500.0   90.0   16.666666666666668
450.0   90.0   33.333333333333336
500.0   120.0   33.333333333333336
500.0   90.0   16.666666666666668
450.0   120.0   16.666666666666668
450.0   90.0   33.333333333333336
500.0   90.0   33.333333333333336
450.0   120.0   33.333333333333336
450.0   90.0   50.0
500.0   90.0   33.333333333333336
500.0   120.0   33.333333333333336
450.0   120.0   33.333333333333336
500.0   120.0   50.0
450.0   90.0   50.0
450.0   120.0   50.0
500.0   120.0   50.0
450.0   120.0   33.333333333333336
450.0   90.0   50.0
500.0   120.0   50.0
500.0   90.0   50.0
500.0   90.0   33.333333333333336
450.0   90.0   50.0
500.0   120.0   50.0
500.0   90.0   33.333333333333336
450.0   120.0   33.333333333333336
450.0   120.0   0.0
500.0   120.0   0.0
450.0   150.0   0.0
450.0   120.0   16.666666666666668
500.0   120.0   0.0
500.0   150.0   0.0
450.0   150.0   0.0
500.0   150.0   16.666666666666668
450.0   120.0   16.666666666666668
450.0   150.0   16.666666666666668
500.0   150.0   16.666666666666668
450.0   150.0   0.0
450.0   120.0   16.666666666666668
500.0   150.0   16.666666666666668
500.0   120.0   16.666666666666668
500.0   120.0   0.0
450.0   120.0   16.666666666666668
500.0   150.0   16.666666666666668
500.0   120.0   0.0
450.0   150.0   0.0
450.0   120.0   16.666666666666668
500.0   120.0   16.666666666666668
450.0   150.0   16.666666666666668
450.0   120.0   33.333333333333336
500.0   120.0   16.666666666666668
500.0   150.0   16.666666666666668
450.0   150.0   16.666666666666668
500.0   150.0   33.333333333333336
450.0   120.0   33.333333333333336
450.0   150.0   33.333333333333336
500.0   150.0   33.333333333333336
450.0   150.0   16.666666666666668
450.0   120.0   33.333333333333336
500.0   150.0   33.333333333333336
500.0   120.0   33.333333333333336
500.0   120.0   16.666666666666668
450.0   120.0   33.333333333333336
500.0   150.0   33.333333333333336
500.0   120.0   16.666666666666668
450.0   150.0   16.666666666666668
450.0   120.0   33.333333333333336
500.0   120.0   33.333333333333336
450.0   150.0   33.333333333333336
450.0   120.0   50.0
500.0   120.0   33.333333333333336
500.0   150.0   33.333333333333336
450.0   150.0   33.333333333333336
500.0   150.0   50.0
450.0   120.0   50.0
450.0   150.0   50.0
500.0   150.0   50.0
450.0   150.0   33.333333333333336
450.0   120.0   50.0
500.0   150.0   50.0
500.0   120.0   50.0
500.0   120.0   33.333333333333336
450.0   120.0   50.0
500.0   150.0   50.0
500.0   120.0   33.333333333333336
450.0   150.0   33.333333333333336
             </DataArray>   
          </Points>  
          <Cells>  
             <DataArray type="Int32" Name="connectivity" format="ascii">   
0   1   2   3
4   5   6   7
8   9   10   11
12   13   14   15
16   17   18   19
20   21   22   23
24   25   26   27
28   29   30   31
32   33   34   35
36   37   38   39
40   41   42   43
44   45   46   47
48   49   50   51
52   53   54   55
56   57   58   59
60   61   62   63
64   65   66   67
68   69   70   71
72   73   74   75
76   77   78   79
80   81   82   83
84   85   86   87
88   89   90   91
92   93   94   95
96   97   98   99
100   101   102   103
104   105   106   107
108   109   110   111
112   113   114   115
116   117   118   119
120   121   122   123
124   125   126   127
128   129   130   131
132   133   134   135
136   137   138   139
140   141   142   143
144   145   146   147
148   149   150   151
152   153   154   155
156   157   158   159
160   161   162   163
164   165   166   167
168   169   170   171
172   173   174   175
176   177   178   179
180   181   182   183
184   185   186   187
188   189   190   191
192   193   194   195
196   197   198   199
200   201   202   203
204   205   206   207
208   209   210   211
212   213   214   215
216   217   218   219
220   221   222   223
224   225   226   227
228   229   230   231
232   233   234   235
236   237   238   239
240   241   242   243
244   245   246   247
248   249   250   251
252   253   254   255
256   257   258   259
260   261   262   263
264   265   266   267
268   269   270   271
272   273   274   275
276   277   278   279
280   281   282   283
284   285   286   287
288   289   290   291
292   293   294   295
296   297   298   299
300   301   302   303
304   305   306   307
308   309   310   311
312   313   314   315
316   317   318   319
320   321   322   323
324   325   326   327
328   329   330   331
332   333   334   335
336   337   338   339
340   341   342   343
344   345   346   347
348   349   350   351
352   353   354   355
356   357   358   359
360   361   362   363
364   365   366   367
368   369   370   371
372   373   374   375
376   377   378   379
380   381   382   383
384   385   386   387
388   389   390   391
392   393   394   395
396   397   398   399
400   401   402   403
404   405   406   407
408   409   410   411
412   413   414   415
416   417   418   419
420   421   422   423
424   425   426   427
428   429   430   431
432   433   434   435
436   437   438   439
440   441   442   443
444   445   446   447
448   449   450   451
452   453   454   455
456   457   458   459
460   461   462   463
464   465   466   467
468   469   470   471
472   473   474   475
476   477   478   479
480   481   482   483
484   485   486   487
488   489   490   491
492   493   494   495
496   497   498   499
500   501   502   503
504   505   506   507
508   509   510   511
512   513   514   515
516   517   518   519
520   521   522   523
524   525   526   527
528   529   530   531
532   533   534   535
536   537   538   539
540   541   542   543
544   545   546   547
548   549   550   551
552   553   554   555
556   557   558   559
560   561   562   563
564   565   566   567
568   569   570   571
572   573   574   575
576   577   578   579
580   581   582   583
584   585   586   587
588   589   590   591
592   593   594   595
596   597   598   599
600   601   602   603
604   605   606   607
608   609   610   611
612   613   614   615
616   617   618   619
620   621   622   623
624   625   626   627
628   629   630   631
632   633   634   635
636   637   638   639
640   641   642   643
644   645   646   647
648   649   650   651
652   653   654   655
656   657   658   659
660   661   662   663
664   665   666   667
668   669   670   671
672   673   674   675
676   677   678   679
680   681   682   683
684   685   686   687
688   689   690   691
692   693   694   695
696   697   698   699
700   701   702   703
704   705   706   707
708   709   710   711
712   713   714   715
716   717   718   719
720   721   722   723
724   725   726   727
728   729   730   731
732   733   734   735
736   737   738   739
740   741   742   743
744   745   746   747
748   749   750   751
752   753   754   755
756   757   758   759
760   761   762   763
764   765   766   767
768   769   770   771
772   773   774   775
776   777   778   779
780   781   782   783
784   785   786   787
788   789   790   791
792   793   794   795
796   797   798   799
800   801   802   803
804   805   806   807
808   809   810   811
812   813   814   815
816   817   818   819
820   821   822   823
824   825   826   827
828   829   830   831
832   833   834   835
836   837   838   839
840   841   842   843
844   845   846   847
848   849   850   851
852   853   854   855
856   857   858   859
860   861   862   863
864   865   866   867
868   869   870   871
872   873   874   875
876   877   878   879
880   881   882   883
884   885   886   887
888   889   890   891
892   893   894   895
896   897   898   899
900   901   902   903
904   905   906   907
908   909   910   911
912   913   914   915
916   917   918   919
920   921   922   923
924   925   926   927
928   929   930   931
932   933   934   935
936   937   938   939
940   941   942   943
944   945   946   947
948   949   950   951
952   953   954   955
956   957   958   959
960   961   962   963
964   965   966   967
968   969   970   971
972   973   974   975
976   977   978   979
980   981   982   983
984   985   986   987
988   989   990   991
992   993   994   995
996   997   998   999
1000   1001   1002   1003
1004   1005   1006   1007
1008   1009   1010   1011
1012   1013   1014   1015
1016   1017   1018   1019
1020   1021   1022   1023
1024   1025   1026   1027
1028   1029   1030   1031
1032   1033   1034   1035
1036   1037   1038   1039
1040   1041   1042   1043
1044   1045   1046   1047
1048   1049   1050   1051
1052   1053   1054   1055
1056   1057   1058   1059
1060   1061   1062   1063
1064   1065   1066   1067
1068   1069   1070   1071
1072   1073   1074   1075
1076   1077   1078   1079
1080   1081   1082   1083
1084   1085   1086   1087
1088   1089   1090   1091
1092   1093   1094   1095
1096   1097   1098   1099
1100   1101   1102   1103
1104   1105   1106   1107
1108   1109   1110   1111
1112   1113   1114   1115
1116   1117   1118   1119
1120   1121   1122   1123
1124   1125   1126   1127
1128   1129   1130   1131
1132   1133   1134   1135
1136   1137   1138   1139
1140   1141   1142   1143
1144   1145   1146   1147
1148   1149   1150   1151
1152   1153   1154   1155
1156   1157   1158   1159
1160   1161   1162   1163
1164   1165   1166   1167
1168   1169   1170   1171
1172   1173   1174   1175
1176   1177   1178   1179
1180   1181   1182   1183
1184   1185   1186   1187
1188   1189   1190   1191
1192   1193   1194   1195
1196   1197   1198   1199
1200   1201   1202   1203
1204   1205   1206   1207
1208   1209   1210   1211
1212   1213   1214   1215
1216   1217   1218   1219
1220   1221   1222   1223
1224   1225   1226   1227
1228   1229   1230   1231
1232   1233   1234   1235
1236   1237   1238   1239
1240   1241   1242   1243
1244   1245   1246   1247
1248   1249   1250   1251
1252   1253   1254   1255
1256   1257   1258   1259
1260   1261   1262   1263
1264   1265   1266   1267
1268   1269   1270   1271
1272   1273   1274   1275
1276   1277   1278   1279
1280   1281   1282   1283
1284   1285   1286   1287
1288   1289   1290   1291
1292   1293   1294   1295
1296   1297   1298   1299
1300   1301   1302   1303
1304   1305   1306   1307
1308   1309   1310   1311
1312   1313   1314   1315
1316   1317   1318   1319
1320   1321   1322   1323
1324   1325   1326   1327
1328   1329   1330   1331
1332   1333   1334   1335
1336   1337   1338   1339
1340   1341   1342   1343
1344   1345   1346   1347
1348   1349   1350   1351
1352   1353   1354   1355
1356   1357   1358   1359
1360   1361   1362   1363
1364   1365   1366   1367
1368   1369   1370   1371
1372   1373   1374   1375
1376   1377   1378   1379
1380   1381   1382   1383
1384   1385   1386   1387
1388   1389   1390   1391
1392   1393   1394   1395
1396   1397   1398   1399
1400   1401   1402   1403
1404   1405   1406   1407
1408   1409   1410   1411
1412   1413   1414   1415
1416   1417   1418   1419
1420   1421   1422   1423
1424   1425   1426   1427
1428   1429   1430   1431
1432   1433   1434   1435
1436   1437   1438   1439
1440   1441   1442   1443
1444   1445   1446   1447
1448   1449   1450   1451
1452   1453   1454   1455
1456   1457   1458   1459
1460   1461   1462   1463
1464   1465   1466   1467
1468   1469   1470   1471
1472   1473   1474   1475
1476   1477   1478   1479
1480   1481   1482   1483
1484   1485   1486   1487
1488   1489   1490   1491
1492   1493   1494   1495
1496   1497   1498   1499
1500   1501   1502   1503
1504   1505   1506   1507
1508   1509   1510   1511
1512   1513   1514   1515
1516   1517   1518   1519
1520   1521   1522   1523
1524   1525   1526   1527
1528   1529   1530   1531
1532   1533   1534   1535
1536   1537   1538   1539
1540   1541   1542   1543
1544   1545   1546   1547
1548   1549   1550   1551
1552   1553   1554   1555
1556   1557   1558   1559
1560   1561   1562   1563
1564   1565   1566   1567
1568   1569   1570   1571
1572   1573   1574   1575
1576   1577   1578   1579
1580   1581   1582   1583
1584   1585   1586   1587
1588   1589   1590   1591
1592   1593   1594   1595
1596   1597   1598   1599
1600   1601   1602   1603
1604   1605   1606   1607
1608   1609   1610   1611
1612   1613   1614   1615
1616   1617   1618   1619
1620   1621   1622   1623
1624   1625   1626   1627
1628   1629   1630   1631
1632   1633   1634   1635
1636   1637   1638   1639
1640   1641   1642   1643
1644   1645   1646   1647
1648   1649   1650   1651
1652   1653   1654   1655
1656   1657   1658   1659
1660   1661   1662   1663
1664   1665   1666   1667
1668   1669   1670   1671
1672   1673   1674   1675
1676   1677   1678   1679
1680   1681   1682   1683
1684   1685   1686   1687
1688   1689   1690   1691
1692   1693   1694   1695
1696   1697   1698   1699
1700   1701   1702   1703
1704   1705   1706   1707
1708   1709   1710   1711
1712   1713   1714   1715
1716   1717   1718   1719
1720   1721   1722   1723
1724   1725   1726   1727
1728   1729   1730   1731
1732   1733   1734   1735
1736   1737   1738   1739
1740   1741   1742   1743
1744   1745   1746   1747
1748   1749   1750   1751
1752   1753   1754   1755
1756   1757   1758   1759
1760   1761   1762   1763
1764   1765   1766   1767
1768   1769   1770   1771
1772   1773   1774   1775
1776   1777   1778   1779
1780   1781   1782   1783
1784   1785   1786   1787
1788   1789   1790   1791
1792   1793   1794   1795
1796   1797   1798   1799
1800   1801   1802   1803
1804   1805   1806   1807
1808   1809   1810   1811
1812   1813   1814   1815
1816   1817   1818   1819
1820   1821   1822   1823
1824   1825   1826   1827
1828   1829   1830   1831
1832   1833   1834   1835
1836   1837   1838   1839
1840   1841   1842   1843
1844   1845   1846   1847
1848   1849   1850   1851
1852   1853   1854   1855
1856   1857   1858   1859
1860   1861   1862   1863
1864   1865   1866   1867
1868   1869   1870   1871
1872   1873   1874   1875
1876   1877   1878   1879
1880   1881   1882   1883
1884   1885   1886   1887
1888   1889   1890   1891
1892   1893   1894   1895
1896   1897   1898   1899
1900   1901   1902   1903
1904   1905   1906   1907
1908   1909   1910   1911
1912   1913   1914   1915
1916   1917   1918   1919
1920   1921   1922   1923
1924   1925   1926   1927
1928   1929   1930   1931
1932   1933   1934   1935
1936   1937   1938   1939
1940   1941   1942   1943
1944   1945   1946   1947
1948   1949   1950   1951
1952   1953   1954   1955
1956   1957   1958   1959
1960   1961   1962   1963
1964   1965   1966   1967
1968   1969   1970   1971
1972   1973   1974   1975
1976   1977   1978   1979
1980   1981   1982   1983
1984   1985   1986   1987
1988   1989   1990   1991
1992   1993   1994   1995
1996   1997   1998   1999
2000   2001   2002   2003
2004   2005   2006   2007
2008   2009   2010   2011
2012   2013   2014   2015
2016   2017   2018   2019
2020   2021   2022   2023
2024   2025   2026   2027
2028   2029   2030   2031
2032   2033   2034   2035
2036   2037   2038   2039
2040   2041   2042   2043
2044   2045   2046   2047
2048   2049   2050   2051
2052   2053   2054   2055
2056   2057   2058   2059
2060   2061   2062   2063
2064   2065   2066   2067
2068   2069   2070   2071
2072   2073   2074   2075
2076   2077   2078   2079
2080   2081   2082   2083
2084   2085   2086   2087
2088   2089   2090   2091
2092   2093   2094   2095
2096   2097   2098   2099
2100   2101   2102   2103
2104   2105   2106   2107
2108   2109   2110   2111
2112   2113   2114   2115
2116   2117   2118   2119
2120   2121   2122   2123
2124   2125   2126   2127
2128   2129   2130   2131
2132   2133   2134   2135
2136   2137   2138   2139
2140   2141   2142   2143
2144   2145   2146   2147
2148   2149   2150   2151
2152   2153   2154   2155
2156   2157   2158   2159
2160   2161   2162   2163
2164   2165   2166   2167
2168   2169   2170   2171
2172   2173   2174   2175
2176   2177   2178   2179
2180   2181   2182   2183
2184   2185   2186   2187
2188   2189   2190   2191
2192   2193   2194   2195
2196   2197   2198   2199
2200   2201   2202   2203
2204   2205   2206   2207
2208   2209   2210   2211
2212   2213   2214   2215
2216   2217   2218   2219
2220   2221   2222   2223
2224   2225   2226   2227
2228   2229   2230   2231
2232   2233   2234   2235
2236   2237   2238   2239
2240   2241   2242   2243
2244   2245   2246   2247
2248   2249   2250   2251
2252   2253   2254   2255
2256   2257   2258   2259
2260   2261   2262   2263
2264   2265   2266   2267
2268   2269   2270   2271
2272   2273   2274   2275
2276   2277   2278   2279
2280   2281   2282   2283
2284   2285   2286   2287
2288   2289   2290   2291
2292   2293   2294   2295
2296   2297   2298   2299
2300   2301   2302   2303
2304   2305   2306   2307
2308   2309   2310   2311
2312   2313   2314   2315
2316   2317   2318   2319
2320   2321   2322   2323
2324   2325   2326   2327
2328   2329   2330   2331
2332   2333   2334   2335
2336   2337   2338   2339
2340   2341   2342   2343
2344   2345   2346   2347
2348   2349   2350   2351
2352   2353   2354   2355
2356   2357   2358   2359
2360   2361   2362   2363
2364   2365   2366   2367
2368   2369   2370   2371
2372   2373   2374   2375
2376   2377   2378   2379
2380   2381   2382   2383
2384   2385   2386   2387
2388   2389   2390   2391
2392   2393   2394   2395
2396   2397   2398   2399
2400   2401   2402   2403
2404   2405   2406   2407
2408   2409   2410   2411
2412   2413   2414   2415
2416   2417   2418   2419
2420   2421   2422   2423
2424   2425   2426   2427
2428   2429   2430   2431
2432   2433   2434   2435
2436   2437   2438   2439
2440   2441   2442   2443
2444   2445   2446   2447
2448   2449   2450   2451
2452   2453   2454   2455
2456   2457   2458   2459
2460   2461   2462   2463
2464   2465   2466   2467
2468   2469   2470   2471
2472   2473   2474   2475
2476   2477   2478   2479
2480   2481   2482   2483
2484   2485   2486   2487
2488   2489   2490   2491
2492   2493   2494   2495
2496   2497   2498   2499
2500   2501   2502   2503
2504   2505   2506   2507
2508   2509   2510   2511
2512   2513   2514   2515
2516   2517   2518   2519
2520   2521   2522   2523
2524   2525   2526   2527
2528   2529   2530   2531
2532   2533   2534   2535
2536   2537   2538   2539
2540   2541   2542   2543
2544   2545   2546   2547
2548   2549   2550   2551
2552   2553   2554   2555
2556   2557   2558   2559
2560   2561   2562   2563
2564   2565   2566   2567
2568   2569   2570   2571
2572   2573   2574   2575
2576   2577   2578   2579
2580   2581   2582   2583
2584   2585   2586   2587
2588   2589   2590   2591
2592   2593   2594   2595
2596   2597   2598   2599
2600   2601   2602   2603
2604   2605   2606   2607
2608   2609   2610   2611
2612   2613   2614   2615
2616   2617   2618   2619
2620   2621   2622   2623
2624   2625   2626   2627
2628   2629   2630   2631
2632   2633   2634   2635
2636   2637   2638   2639
2640   2641   2642   2643
2644   2645   2646   2647
2648   2649   2650   2651
2652   2653   2654   2655
2656   2657   2658   2659
2660   2661   2662   2663
2664   2665   2666   2667
2668   2669   2670   2671
2672   2673   2674   2675
2676   2677   2678   2679
2680   2681   2682   2683
2684   2685   2686   2687
2688   2689   2690   2691
2692   2693   2694   2695
2696   2697   2698   2699
2700   2701   2702   2703
2704   2705   2706   2707
2708   2709   2710   2711
2712   2713   2714   2715
2716   2717   2718   2719
2720   2721   2722   2723
2724   2725   2726   2727
2728   2729   2730   2731
2732   2733   2734   2735
2736   2737   2738   2739
2740   2741   2742   2743
2744   2745   2746   2747
2748   2749   2750   2751
2752   2753   2754   2755
2756   2757   2758   2759
2760   2761   2762   2763
2764   2765   2766   2767
2768   2769   2770   2771
2772   2773   2774   2775
2776   2777   2778   2779
2780   2781   2782   2783
2784   2785   2786   2787
2788   2789   2790   2791
2792   2793   2794   2795
2796   2797   2798   2799
2800   2801   2802   2803
2804   2805   2806   2807
2808   2809   2810   2811
2812   2813   2814   2815
2816   2817   2818   2819
2820   2821   2822   2823
2824   2825   2826   2827
2828   2829   2830   2831
2832   2833   2834   2835
2836   2837   2838   2839
2840   2841   2842   2843
2844   2845   2846   2847
2848   2849   2850   2851
2852   2853   2854   2855
2856   2857   2858   2859
2860   2861   2862   2863
2864   2865   2866   2867
2868   2869   2870   2871
2872   2873   2874   2875
2876   2877   2878   2879
2880   2881   2882   2883
2884   2885   2886   2887
2888   2889   2890   2891
2892   2893   2894   2895
2896   2897   2898   2899
2900   2901   2902   2903
2904   2905   2906   2907
2908   2909   2910   2911
2912   2913   2914   2915
2916   2917   2918   2919
2920   2921   2922   2923
2924   2925   2926   2927
2928   2929   2930   2931
2932   2933   2934   2935
2936   2937   2938   2939
2940   2941   2942   2943
2944   2945   2946   2947
2948   2949   2950   2951
2952   2953   2954   2955
2956   2957   2958   2959
2960   2961   2962   2963
2964   2965   2966   2967
2968   2969   2970   2971
2972   2973   2974   2975
2976   2977   2978   2979
2980   2981   2982   2983
2984   2985   2986   2987
2988   2989   2990   2991
2992   2993   2994   2995
2996   2997   2998   2999
3000   3001   3002   3003
3004   3005   3006   3007
3008   3009   3010   3011
3012   3013   3014   3015
3016   3017   3018   3019
3020   3021   3022   3023
3024   3025   3026   3027
3028   3029   3030   3031
3032   3033   3034   3035
3036   3037   3038   3039
3040   3041   3042   3043
3044   3045   3046   3047
3048   3049   3050   3051
3052   3053   3054   3055
3056   3057   3058   3059
3060   3061   3062   3063
3064   3065   3066   3067
3068   3069   3070   3071
3072   3073   3074   3075
3076   3077   3078   3079
3080   3081   3082   3083
3084   3085   3086   3087
3088   3089   3090   3091
3092   3093   3094   3095
3096   3097   3098   3099
3100   3101   3102   3103
3104   3105   3106   3107
3108   3109   3110   3111
3112   3113   3114   3115
3116   3117   3118   3119
3120   3121   3122   3123
3124   3125   3126   3127
3128   3129   3130   3131
3132   3133   3134   3135
3136   3137   3138   3139
3140   3141   3142   3143
3144   3145   3146   3147
3148   3149   3150   3151
3152   3153   3154   3155
3156   3157   3158   3159
3160   3161   3162   3163
3164   3165   3166   3167
3168   3169   3170   3171
3172   3173   3174   3175
3176   3177   3178   3179
3180   3181   3182   3183
3184   3185   3186   3187
3188   3189   3190   3191
3192   3193   3194   3195
3196   3197   3198   3199
3200   3201   3202   3203
3204   3205   3206   3207
3208   3209   3210   3211
3212   3213   3214   3215
3216   3217   3218   3219
3220   3221   3222   3223
3224   3225   3226   3227
3228   3229   3230   3231
3232   3233   3234   3235
3236   3237   3238   3239
3240   3241   3242   3243
3244   3245   3246   3247
3248   3249   3250   3251
3252   3253   3254   3255
3256   3257   3258   3259
3260   3261   3262   3263
3264   3265   3266   3267
3268   3269   3270   3271
3272   3273   3274   3275
3276   3277   3278   3279
3280   3281   3282   3283
3284   3285   3286   3287
3288   3289   3290   3291
3292   3293   3294   3295
3296   3297   3298   3299
3300   3301   3302   3303
3304   3305   3306   3307
3308   3309   3310   3311
3312   3313   3314   3315
3316   3317   3318   3319
3320   3321   3322   3323
3324   3325   3326   3327
3328   3329   3330   3331
3332   3333   3334   3335
3336   3337   3338   3339
3340   3341   3342   3343
3344   3345   3346   3347
3348   3349   3350   3351
3352   3353   3354   3355
3356   3357   3358   3359
3360   3361   3362   3363
3364   3365   3366   3367
3368   3369   3370   3371
3372   3373   3374   3375
3376   3377   3378   3379
3380   3381   3382   3383
3384   3385   3386   3387
3388   3389   3390   3391
3392   3393   3394   3395
3396   3397   3398   3399
3400   3401   3402   3403
3404   3405   3406   3407
3408   3409   3410   3411
3412   3413   3414   3415
3416   3417   3418   3419
3420   3421   3422   3423
3424   3425   3426   3427
3428   3429   3430   3431
3432   3433   3434   3435
3436   3437   3438   3439
3440   3441   3442   3443
3444   3445   3446   3447
3448   3449   3450   3451
3452   3453   3454   3455
3456   3457   3458   3459
3460   3461   3462   3463
3464   3465   3466   3467
3468   3469   3470   3471
3472   3473   3474   3475
3476   3477   3478   3479
3480   3481   3482   3483
3484   3485   3486   3487
3488   3489   3490   3491
3492   3493   3494   3495
3496   3497   3498   3499
3500   3501   3502   3503
3504   3505   3506   3507
3508   3509   3510   3511
3512   3513   3514   3515
3516   3517   3518   3519
3520   3521   3522   3523
3524   3525   3526   3527
3528   3529   3530   3531
3532   3533   3534   3535
3536   3537   3538   3539
3540   3541   3542   3543
3544   3545   3546   3547
3548   3549   3550   3551
3552   3553   3554   3555
3556   3557   3558   3559
3560   3561   3562   3563
3564   3565   3566   3567
3568   3569   3570   3571
3572   3573   3574   3575
3576   3577   3578   3579
3580   3581   3582   3583
3584   3585   3586   3587
3588   3589   3590   3591
3592   3593   3594   3595
3596   3597   3598   3599
3600   3601   3602   3603
3604   3605   3606   3607
3608   3609   3610   3611
3612   3613   3614   3615
3616   3617   3618   3619
3620   3621   3622   3623
3624   3625   3626   3627
3628   3629   3630   3631
3632   3633   3634   3635
3636   3637   3638   3639
3640   3641   3642   3643
3644   3645   3646   3647
3648   3649   3650   3651
3652   3653   3654   3655
3656   3657   3658   3659
3660   3661   3662   3663
3664   3665   3666   3667
3668   3669   3670   3671
3672   3673   3674   3675
3676   3677   3678   3679
3680   3681   3682   3683
3684   3685   3686   3687
3688   3689   3690   3691
3692   3693   3694   3695
3696   3697   3698   3699
3700   3701   3702   3703
3704   3705   3706   3707
3708   3709   3710   3711
3712   3713   3714   3715
3716   3717   3718   3719
3720   3721   3722   3723
3724   3725   3726   3727
3728   3729   3730   3731
3732   3733   3734   3735
3736   3737   3738   3739
3740   3741   3742   3743
3744   3745   3746   3747
3748   3749   3750   3751
3752   3753   3754   3755
3756   3757   3758   3759
3760   3761   3762   3763
3764   3765   3766   3767
3768   3769   3770   3771
3772   3773   3774   3775
3776   3777   3778   3779
3780   3781   3782   3783
3784   3785   3786   3787
3788   3789   3790   3791
3792   3793   3794   3795
3796   3797   3798   3799
3800   3801   3802   3803
3804   3805   3806   3807
3808   3809   3810   3811
3812   3813   3814   3815
3816   3817   3818   3819
3820   3821   3822   3823
3824   3825   3826   3827
3828   3829   3830   3831
3832   3833   3834   3835
3836   3837   3838   3839
3840   3841   3842   3843
3844   3845   3846   3847
3848   3849   3850   3851
3852   3853   3854   3855
3856   3857   3858   3859
3860   3861   3862   3863
3864   3865   3866   3867
3868   3869   3870   3871
3872   3873   3874   3875
3876   3877   3878   3879
3880   3881   3882   3883
3884   3885   3886   3887
3888   3889   3890   3891
3892   3893   3894   3895
3896   3897   3898   3899
3900   3901   3902   3903
3904   3905   3906   3907
3908   3909   3910   3911
3912   3913   3914   3915
3916   3917   3918   3919
3920   3921   3922   3923
3924   3925   3926   3927
3928   3929   3930   3931
3932   3933   3934   3935
3936   3937   3938   3939
3940   3941   3942   3943
3944   3945   3946   3947
3948   3949   3950   3951
3952   3953   3954   3955
3956   3957   3958   3959
3960   3961   3962   3963
3964   3965   3966   3967
3968   3969   3970   3971
3972   3973   3974   3975
3976   3977   3978   3979
3980   3981   3982   3983
3984   3985   3986   3987
3988   3989   3990   3991
3992   3993   3994   3995
3996   3997   3998   3999
4000   4001   4002   4003
4004   4005   4006   4007
4008   4009   4010   4011
4012   4013   4014   4015
4016   4017   4018   4019
4020   4021   4022   4023
4024   4025   4026   4027
4028   4029   4030   4031
4032   4033   4034   4035
4036   4037   4038   4039
4040   4041   4042   4043
4044   4045   4046   4047
4048   4049   4050   4051
4052   4053   4054   4055
4056   4057   4058   4059
4060   4061   4062   4063
4064   4065   4066   4067
4068   4069   4070   4071
4072   4073   4074   4075
4076   4077   4078   4079
4080   4081   4082   4083
4084   4085   4086   4087
4088   4089   4090   4091
4092   4093   4094   4095
4096   4097   4098   4099
4100   4101   4102   4103
4104   4105   4106   4107
4108   4109   4110   4111
4112   4113   4114   4115
4116   4117   4118   4119
4120   4121   4122   4123
4124   4125   4126   4127
4128   4129   4130   4131
4132   4133   4134   4135
4136   4137   4138   4139
4140   4141   4142   4143
4144   4145   4146   4147
4148   4149   4150   4151
4152   4153   4154   4155
4156   4157   4158   4159
4160   4161   4162   4163
4164   4165   4166   4167
4168   4169   4170   4171
4172   4173   4174   4175
4176   4177   4178   4179
4180   4181   4182   4183
4184   4185   4186   4187
4188   4189   4190   4191
4192   4193   4194   4195
4196   4197   4198   4199
4200   4201   4202   4203
4204   4205   4206   4207
4208   4209   4210   4211
4212   4213   4214   4215
4216   4217   4218   4219
4220   4221   4222   4223
4224   4225   4226   4227
4228   4229   4230   4231
4232   4233   4234   4235
4236   4237   4238   4239
4240   4241   4242   4243
4244   4245   4246   4247
4248   4249   4250   4251
4252   4253   4254   4255
4256   4257   4258   4259
4260   4261   4262   4263
4264   4265   4266   4267
4268   4269   4270   4271
4272   4273   4274   4275
4276   4277   4278   4279
4280   4281   4282   4283
4284   4285   4286   4287
4288   4289   4290   4291
4292   4293   4294   4295
4296   4297   4298   4299
4300   4301   4302   4303
4304   4305   4306   4307
4308   4309   4310   4311
4312   4313   4314   4315
4316   4317   4318   4319
4320   4321   4322   4323
4324   4325   4326   4327
4328   4329   4330   4331
4332   4333   4334   4335
4336   4337   4338   4339
4340   4341   4342   4343
4344   4345   4346   4347
4348   4349   4350   4351
4352   4353   4354   4355
4356   4357   4358   4359
4360   4361   4362   4363
4364   4365   4366   4367
4368   4369   4370   4371
4372   4373   4374   4375
4376   4377   4378   4379
4380   4381   4382   4383
4384   4385   4386   4387
4388   4389   4390   4391
4392   4393   4394   4395
4396   4397   4398   4399
4400   4401   4402   4403
4404   4405   4406   4407
4408   4409   4410   4411
4412   4413   4414   4415
4416   4417   4418   4419
4420   4421   4422   4423
4424   4425   4426   4427
4428   4429   4430   4431
4432   4433   4434   4435
4436   4437   4438   4439
4440   4441   4442   4443
4444   4445   4446   4447
4448   4449   4450   4451
4452   4453   4454   4455
4456   4457   4458   4459
4460   4461   4462   4463
4464   4465   4466   4467
4468   4469   4470   4471
4472   4473   4474   4475
4476   4477   4478   4479
4480   4481   4482   4483
4484   4485   4486   4487
4488   4489   4490   4491
4492   4493   4494   4495
4496   4497   4498   4499
4500   4501   4502   4503
4504   4505   4506   4507
4508   4509   4510   4511
4512   4513   4514   4515
4516   4517   4518   4519
4520   4521   4522   4523
4524   4525   4526   4527
4528   4529   4530   4531
4532   4533   4534   4535
4536   4537   4538   4539
4540   4541   4542   4543
4544   4545   4546   4547
4548   4549   4550   4551
4552   4553   4554   4555
4556   4557   4558   4559
4560   4561   4562   4563
4564   4565   4566   4567
4568   4569   4570   4571
4572   4573   4574   4575
4576   4577   4578   4579
4580   4581   4582   4583
4584   4585   4586   4587
4588   4589   4590   4591
4592   4593   4594   4595
4596   4597   4598   4599
4600   4601   4602   4603
4604   4605   4606   4607
4608   4609   4610   4611
4612   4613   4614   4615
4616   4617   4618   4619
4620   4621   4622   4623
4624   4625   4626   4627
4628   4629   4630   4631
4632   4633   4634   4635
4636   4637   4638   4639
4640   4641   4642   4643
4644   4645   4646   4647
4648   4649   4650   4651
4652   4653   4654   4655
4656   4657   4658   4659
4660   4661   4662   4663
4664   4665   4666   4667
4668   4669   4670   4671
4672   4673   4674   4675
4676   4677   4678   4679
4680   4681   4682   4683
4684   4685   4686   4687
4688   4689   4690   4691
4692   4693   4694   4695
4696   4697   4698   4699
4700   4701   4702   4703
4704   4705   4706   4707
4708   4709   4710   4711
4712   4713   4714   4715
4716   4717   4718   4719
4720   4721   4722   4723
4724   4725   4726   4727
4728   4729   4730   4731
4732   4733   4734   4735
4736   4737   4738   4739
4740   4741   4742   4743
4744   4745   4746   4747
4748   4749   4750   4751
4752   4753   4754   4755
4756   4757   4758   4759
4760   4761   4762   4763
4764   4765   4766   4767
4768   4769   4770   4771
4772   4773   4774   4775
4776   4777   4778   4779
4780   4781   4782   4783
4784   4785   4786   4787
4788   4789   4790   4791
4792   4793   4794   4795
4796   4797   4798   4799
4800   4801   4802   4803
4804   4805   4806   4807
4808   4809   4810   4811
4812   4813   4814   4815
4816   4817   4818   4819
4820   4821   4822   4823
4824   4825   4826   4827
4828   4829   4830   4831
4832   4833   4834   4835
4836   4837   4838   4839
4840   4841   4842   4843
4844   4845   4846   4847
4848   4849   4850   4851
4852   4853   4854   4855
4856   4857   4858   4859
4860   4861   4862   4863
4864   4865   4866   4867
4868   4869   4870   4871
4872   4873   4874   4875
4876   4877   4878   4879
4880   4881   4882   4883
4884   4885   4886   4887
4888   4889   4890   4891
4892   4893   4894   4895
4896   4897   4898   4899
4900   4901   4902   4903
4904   4905   4906   4907
4908   4909   4910   4911
4912   4913   4914   4915
4916   4917   4918   4919
4920   4921   4922   4923
4924   4925   4926   4927
4928   4929   4930   4931
4932   4933   4934   4935
4936   4937   4938   4939
4940   4941   4942   4943
4944   4945   4946   4947
4948   4949   4950   4951
4952   4953   4954   4955
4956   4957   4958   4959
4960   4961   4962   4963
4964   4965   4966   4967
4968   4969   4970   4971
4972   4973   4974   4975
4976   4977   4978   4979
4980   4981   4982   4983
4984   4985   4986   4987
4988   4989   4990   4991
4992   4993   4994   4995
4996   4997   4998   4999
5000   5001   5002   5003
5004   5005   5006   5007
5008   5009   5010   5011
5012   5013   5014   5015
5016   5017   5018   5019
5020   5021   5022   5023
5024   5025   5026   5027
5028   5029   5030   5031
5032   5033   5034   5035
5036   5037   5038   5039
5040   5041   5042   5043
5044   5045   5046   5047
5048   5049   5050   5051
5052   5053   5054   5055
5056   5057   5058   5059
5060   5061   5062   5063
5064   5065   5066   5067
5068   5069   5070   5071
5072   5073   5074   5075
5076   5077   5078   5079
5080   5081   5082   5083
5084   5085   5086   5087
5088   5089   5090   5091
5092   5093   5094   5095
5096   5097   5098   5099
5100   5101   5102   5103
5104   5105   5106   5107
5108   5109   5110   5111
5112   5113   5114   5115
5116   5117   5118   5119
5120   5121   5122   5123
5124   5125   5126   5127
5128   5129   5130   5131
5132   5133   5134   5135
5136   5137   5138   5139
5140   5141   5142   5143
5144   5145   5146   5147
5148   5149   5150   5151
5152   5153   5154   5155
5156   5157   5158   5159
5160   5161   5162   5163
5164   5165   5166   5167
5168   5169   5170   5171
5172   5173   5174   5175
5176   5177   5178   5179
5180   5181   5182   5183
5184   5185   5186   5187
5188   5189   5190   5191
5192   5193   5194   5195
5196   5197   5198   5199
5200   5201   5202   5203
5204   5205   5206   5207
5208   5209   5210   5211
5212   5213   5214   5215
5216   5217   5218   5219
5220   5221   5222   5223
5224   5225   5226   5227
5228   5229   5230   5231
5232   5233   5234   5235
5236   5237   5238   5239
5240   5241   5242   5243
5244   5245   5246   5247
5248   5249   5250   5251
5252   5253   5254   5255
5256   5257   5258   5259
5260   5261   5262   5263
5264   5265   5266   5267
5268   5269   5270   5271
5272   5273   5274   5275
5276   5277   5278   5279
5280   5281   5282   5283
5284   5285   5286   5287
5288   5289   5290   5291
5292   5293   5294   5295
5296   5297   5298   5299
5300   5301   5302   5303
5304   5305   5306   5307
5308   5309   5310   5311
5312   5313   5314   5315
5316   5317   5318   5319
5320   5321   5322   5323
5324   5325   5326   5327
5328   5329   5330   5331
5332   5333   5334   5335
5336   5337   5338   5339
5340   5341   5342   5343
5344   5345   5346   5347
5348   5349   5350   5351
5352   5353   5354   5355
5356   5357   5358   5359
5360   5361   5362   5363
5364   5365   5366   5367
5368   5369   5370   5371
5372   5373   5374   5375
5376   5377   5378   5379
5380   5381   5382   5383
5384   5385   5386   5387
5388   5389   5390   5391
5392   5393   5394   5395
5396   5397   5398   5399
5400   5401   5402   5403
5404   5405   5406   5407
5408   5409   5410   5411
5412   5413   5414   5415
5416   5417   5418   5419
5420   5421   5422   5423
5424   5425   5426   5427
5428   5429   5430   5431
5432   5433   5434   5435
5436   5437   5438   5439
5440   5441   5442   5443
5444   5445   5446   5447
5448   5449   5450   5451
5452   5453   5454   5455
5456   5457   5458   5459
5460   5461   5462   5463
5464   5465   5466   5467
5468   5469   5470   5471
5472   5473   5474   5475
5476   5477   5478   5479
5480   5481   5482   5483
5484   5485   5486   5487
5488   5489   5490   5491
5492   5493   5494   5495
5496   5497   5498   5499
5500   5501   5502   5503
5504   5505   5506   5507
5508   5509   5510   5511
5512   5513   5514   5515
5516   5517   5518   5519
5520   5521   5522   5523
5524   5525   5526   5527
5528   5529   5530   5531
5532   5533   5534   5535
5536   5537   5538   5539
5540   5541   5542   5543
5544   5545   5546   5547
5548   5549   5550   5551
5552   5553   5554   5555
5556   5557   5558   5559
5560   5561   5562   5563
5564   5565   5566   5567
5568   5569   5570   5571
5572   5573   5574   5575
5576   5577   5578   5579
5580   5581   5582   5583
5584   5585   5586   5587
5588   5589   5590   5591
5592   5593   5594   5595
5596   5597   5598   5599
5600   5601   5602   5603
5604   5605   5606   5607
5608   5609   5610   5611
5612   5613   5614   5615
5616   5617   5618   5619
5620   5621   5622   5623
5624   5625   5626   5627
5628   5629   5630   5631
5632   5633   5634   5635
5636   5637   5638   5639
5640   5641   5642   5643
5644   5645   5646   5647
5648   5649   5650   5651
5652   5653   5654   5655
5656   5657   5658   5659
5660   5661   5662   5663
5664   5665   5666   5667
5668   5669   5670   5671
5672   5673   5674   5675
5676   5677   5678   5679
5680   5681   5682   5683
5684   5685   5686   5687
5688   5689   5690   5691
5692   5693   5694   5695
5696   5697   5698   5699
5700   5701   5702   5703
5704   5705   5706   5707
5708   5709   5710   5711
5712   5713   5714   5715
5716   5717   5718   5719
5720   5721   5722   5723
5724   5725   5726   5727
5728   5729   5730   5731
5732   5733   5734   5735
5736   5737   5738   5739
5740   5741   5742   5743
5744   5745   5746   5747
5748   5749   5750   5751
5752   5753   5754   5755
5756   5757   5758   5759
5760   5761   5762   5763
5764   5765   5766   5767
5768   5769   5770   5771
5772   5773   5774   5775
5776   5777   5778   5779
5780   5781   5782   5783
5784   5785   5786   5787
5788   5789   5790   5791
5792   5793   5794   5795
5796   5797   5798   5799
5800   5801   5802   5803
5804   5805   5806   5807
5808   5809   5810   5811
5812   5813   5814   5815
5816   5817   5818   5819
5820   5821   5822   5823
5824   5825   5826   5827
5828   5829   5830   5831
5832   5833   5834   5835
5836   5837   5838   5839
5840   5841   5842   5843
5844   5845   5846   5847
5848   5849   5850   5851
5852   5853   5854   5855
5856   5857   5858   5859
5860   5861   5862   5863
5864   5865   5866   5867
5868   5869   5870   5871
5872   5873   5874   5875
5876   5877   5878   5879
5880   5881   5882   5883
5884   5885   5886   5887
5888   5889   5890   5891
5892   5893   5894   5895
5896   5897   5898   5899
5900   5901   5902   5903
5904   5905   5906   5907
5908   5909   5910   5911
5912   5913   5914   5915
5916   5917   5918   5919
5920   5921   5922   5923
5924   5925   5926   5927
5928   5929   5930   5931
5932   5933   5934   5935
5936   5937   5938   5939
5940   5941   5942   5943
5944   5945   5946   5947
5948   5949   5950   5951
5952   5953   5954   5955
5956   5957   5958   5959
5960   5961   5962   5963
5964   5965   5966   5967
5968   5969   5970   5971
5972   5973   5974   5975
5976   5977   5978   5979
5980   5981   5982   5983
5984   5985   5986   5987
5988   5989   5990   5991
5992   5993   5994   5995
5996   5997   5998   5999
              </DataArray>   
              <DataArray type="Int32" Name="offsets" format="ascii">   
4
8
12
16
20
24
28
32
36
40
44
48
52
56
60
64
68
72
76
80
84
88
92
96
100
104
108
112
116
120
124
128
132
136
140
144
148
152
156
160
164
168
172
176
180
184
188
192
196
200
204
208
212
216
220
224
228
232
236
240
244
248
252
256
260
264
268
272
276
280
284
288
292
296
300
304
308
312
316
320
324
328
332
336
340
344
348
352
356
360
364
368
372
376
380
384
388
392
396
400
404
408
412
416
420
424
428
432
436
440
444
448
452
456
460
464
468
472
476
480
484
488
492
496
500
504
508
512
516
520
524
528
532
536
540
544
548
552
556
560
564
568
572
576
580
584
588
592
596
600
604
608
612
616
620
624
628
632
636
640
644
648
652
656
660
664
668
672
676
680
684
688
692
696
700
704
708
712
716
720
724
728
732
736
740
744
748
752
756
760
764
768
772
776
780
784
788
792
796
800
804
808
812
816
820
824
828
832
836
840
844
848
852
856
860
864
868
872
876
880
884
888
892
896
900
904
908
912
916
920
924
928
932
936
940
944
948
952
956
960
964
968
972
976
980
984
988
992
996
1000
1004
1008
1012
1016
1020
1024
1028
1032
1036
1040
1044
1048
1052
1056
1060
1064
1068
1072
1076
1080
1084
1088
1092
1096
1100
1104
1108
1112
1116
1120
1124
1128
1132
1136
1140
1144
1148
1152
1156
1160
1164
1168
1172
1176
1180
1184
1188
1192
1196
1200
1204
1208
1212
1216
1220
1224
1228
1232
1236
1240
1244
1248
1252
1256
1260
1264
1268
1272
1276
1280
1284
1288
1292
1296
1300
1304
1308
1312
1316
1320
1324
1328
1332
1336
1340
1344
1348
1352
1356
1360
1364
1368
1372
1376
1380
1384
1388
1392
1396
1400
1404
1408
1412
1416
1420
1424
1428
1432
1436
1440
1444
1448
1452
1456
1460
1464
1468
1472
1476
1480
1484
1488
1492
1496
1500
1504
1508
1512
1516
1520
1524
1528
1532
1536
1540
1544
1548
1552
1556
1560
1564
1568
1572
1576
1580
1584
1588
1592
1596
1600
1604
1608
1612
1616
1620
1624
1628
1632
1636
1640
1644
1648
1652
1656
1660
1664
1668
1672
1676
1680
1684
1688
1692
1696
1700
1704
1708
1712
1716
1720
1724
1728
1732
1736
1740
1744
1748
1752
1756
1760
1764
1768
1772
1776
1780
1784
1788
1792
1796
1800
1804
1808
1812
1816
1820
1824
1828
1832
1836
1840
1844
1848
1852
1856
1860
1864
1868
1872
1876
1880
1884
1888
1892
1896
1900
1904
1908
1912
1916
1920
1924
1928
1932
1936
1940
1944
1948
1952
1956
1960
1964
1968
1972
1976
1980
1984
1988
1992
1996
2000
2004
2008
2012
2016
2020
2024
2028
2032
2036
2040
2044
2048
2052
2056
2060
2064
2068
2072
2076
2080
2084
2088
2092
2096
2100
2104
2108
2112
2116
2120
2124
2128
2132
2136
2140
2144
2148
2152
2156
2160
2164
2168
2172
2176
2180
2184
2188
2192
2196
2200
2204
2208
2212
2216
2220
2224
2228
2232
2236
2240
2244
2248
2252
2256
2260
2264
2268
2272
2276
2280
2284
2288
2292
2296
2300
2304
2308
2312
2316
2320
2324
2328
2332
2336
2340
2344
2348
2352
2356
2360
2364
2368
2372
2376
2380
2384
2388
2392
2396
2400
2404
2408
2412
2416
2420
2424
2428
2432
2436
2440
2444
2448
2452
2456
2460
2464
2468
2472
2476
2480
2484
2488
2492
2496
2500
2504
2508
2512
2516
2520
2524
2528
2532
2536
2540
2544
2548
2552
2556
2560
2564
2568
2572
2576
2580
2584
2588
2592
2596
2600
2604
2608
2612
2616
2620
2624
2628
2632
2636
2640
2644
2648
2652
2656
2660
2664
2668
2672
2676
2680
2684
2688
2692
2696
2700
2704
2708
2712
2716
2720
2724
2728
2732
2736
2740
2744
2748
2752
2756
2760
2764
2768
2772
2776
2780
2784
2788
2792
2796
2800
2804
2808
2812
2816
2820
2824
2828
2832
2836
2840
2844
2848
2852
2856
2860
2864
2868
2872
2876
2880
2884
2888
2892
2896
2900
2904
2908
2912
2916
2920
2924
2928
2932
2936
2940
2944
2948
2952
2956
2960
2964
2968
2972
2976
2980
2984
2988
2992
2996
3000
3004
3008
3012
3016
3020
3024
3028
3032
3036
3040
3044
3048
3052
3056
3060
3064
3068
3072
3076
3080
3084
3088
3092
3096
3100
3104
3108
3112
3116
3120
3124
3128
3132
3136
3140
3144
3148
3152
3156
3160
3164
3168
3172
3176
3180
3184
3188
3192
3196
3200
3204
3208
3212
3216
3220
3224
3228
3232
3236
3240
3244
3248
3252
3256
3260
3264
3268
3272
3276
3280
3284
3288
3292
3296
3300
3304
3308
3312
3316
3320
3324
3328
3332
3336
3340
3344
3348
3352
3356
3360
3364
3368
3372
3376
3380
3384
3388
3392
3396
3400
3404
3408
3412
3416
3420
3424
3428
3432
3436
3440
3444
3448
3452
3456
3460
3464
3468
3472
3476
3480
3484
3488
3492
3496
3500
3504
3508
3512
3516
3520
3524
3528
3532
3536
3540
3544
3548
3552
3556
3560
3564
3568
3572
3576
3580
3584
3588
3592
3596
3600
3604
3608
3612
3616
3620
3624
3628
3632
3636
3640
3644
3648
3652
3656
3660
3664
3668
3672
3676
3680
3684
3688
3692
3696
3700
3704
3708
3712
3716
3720
3724
3728
3732
3736
3740
3744
3748
3752
3756
3760
3764
3768
3772
3776
3780
3784
3788
3792
3796
3800
3804
3808
3812
3816
3820
3824
3828
3832
3836
3840
3844
3848
3852
3856
3860
3864
3868
3872
3876
3880
3884
3888
3892
3896
3900
3904
3908
3912
3916
3920
3924
3928
3932
3936
3940
3944
3948
3952
3956
3960
3964
3968
3972
3976
3980
3984
3988
3992
3996
4000
4004
4008
4012
4016
4020
4024
4028
4032
4036
4040
4044
4048
4052
4056
4060
4064
4068
4072
4076
4080
4084
4088
4092
4096
4100
4104
4108
4112
4116
4120
4124
4128
4132
4136
4140
4144
4148
4152
4156
4160
4164
4168
4172
4176
4180
4184
4188
4192
4196
4200
4204
4208
4212
4216
4220
4224
4228
4232
4236
4240
4244
4248
4252
4256
4260
4264
4268
4272
4276
4280
4284
4288
4292
4296
4300
4304
4308
4312
4316
4320
4324
4328
4332
4336
4340
4344
4348
4352
4356
4360
4364
4368
4372
4376
4380
4384
4388
4392
4396
4400
4404
4408
4412
4416
4420
4424
4428
4432
4436
4440
4444
4448
4452
4456
4460
4464
4468
4472
4476
4480
4484
4488
4492
4496
4500
4504
4508
4512
4516
4520
4524
4528
4532
4536
4540
4544
4548
4552
4556
4560
4564
4568
4572
4576
4580
4584
4588
4592
4596
4600
4604
4608
4612
4616
4620
4624
4628
4632
4636
4640
4644
4648
4652
4656
4660
4664
4668
4672
4676
4680
4684
4688
4692
4696
4700
4704
4708
4712
4716
4720
4724
4728
4732
4736
4740
4744
4748
4752
4756
4760
4764
4768
4772
4776
4780
4784
4788
4792
4796
4800
4804
4808
4812
4816
4820
4824
4828
4832
4836
4840
4844
4848
4852
4856
4860
4864
4868
4872
4876
4880
4884
4888
4892
4896
4900
4904
4908
4912
4916
4920
4924
4928
4932
4936
4940
4944
4948
4952
4956
4960
4964
4968
4972
4976
4980
4984
4988
4992
4996
5000
5004
5008
5012
5016
5020
5024
5028
5032
5036
5040
5044
5048
5052
5056
5060
5064
5068
5072
5076
5080
5084
5088
5092
5096
5100
5104
5108
5112
5116
5120
5124
5128
5132
5136
5140
5144
5148
5152
5156
5160
5164
5168
5172
5176
5180
5184
5188
5192
5196
5200
5204
5208
5212
5216
5220
5224
5228
5232
5236
5240
5244
5248
5252
5256
5260
5264
5268
5272
5276
5280
5284
5288
5292
5296
5300
5304
5308
5312
5316
5320
5324
5328
5332
5336
5340
5344
5348
5352
5356
5360
5364
5368
5372
5376
5380
5384
5388
5392
5396
5400
5404
5408
5412
5416
5420
5424
5428
5432
5436
5440
5444
5448
5452
5456
5460
5464
5468
5472
5476
5480
5484
5488
5492
5496
5500
5504
5508
5512
5516
5520
5524
5528
5532
5536
5540
5544
5548
5552
5556
5560
5564
5568
5572
5576
5580
5584
5588
5592
5596
5600
5604
5608
5612
5616
5620
5624
5628
5632
5636
5640
5644
5648
5652
5656
5660
5664
5668
5672
5676
5680
5684
5688
5692
5696
5700
5704
5708
5712
5716
5720
5724
5728
5732
5736
5740
5744
5748
5752
5756
5760
5764
5768
5772
5776
5780
5784
5788
5792
5796
5800
5804
5808
5812
5816
5820
5824
5828
5832
5836
5840
5844
5848
5852
5856
5860
5864
5868
5872
5876
5880
5884
5888
5892
5896
5900
5904
5908
5912
5916
5920
5924
5928
5932
5936
5940
5944
5948
5952
5956
5960
5964
5968
5972
5976
5980
5984
5988
5992
5996
6000
              </DataArray>   
              <DataArray type="UInt8" Name="types" format="ascii">   
10
10
10
10
10
10
10
10
10
10
10
10
10
10
10
10
10
10
10
10
10
10
10
10
10
10
10
10
10
10
10
10
10
10
10
10
10
10
10
10
10
10
10
10
10
10
10
10
10
10
10
10
10
10
10
10
10
10
10
10
10
10
10
10
10
10
10
10
10
10
10
10
10
10
10
10
10
10
10
10
10
10
10
10
10
10
10
10
10
10
10
10
10
10
10
10
10
10
10
10
10
10
10
10
10
10
10
10
10
10
10
10
10
10
10
10
10
10
10
10
10
10
10
10
10
10
10
10
10
10
10
10
10
10
10
10
10
10
10
10
10
10
10
10
10
10
10
10
10
10
10
10
10
10
10
10
10
10
10
10
10
10
10
10
10
10
10
10
10
10
10
10
10
10
10
10
10
10
10
10
10
10
10
10
10
10
10
10
10
10
10
10
10
10
10
10
10
10
10
10
10
10
10
10
10
10
10
10
10
10
10
10
10
10
10
10
10
10
10
10
10
10
10
10
10
10
10
10
10
10
10
10
10
10
10
10
10
10
10
10
10
10
10
10
10
10
10
10
10
10
10
10
10
10
10
10
10
10
10
10
10
10
10
10
10
10
10
10
10
10
10
10
10
10
10
10
10
10
10
10
10
10
10
10
10
10
10
10
10
10
10
10
10
10
10
10
10
10
10
10
10
10
10
10
10
10
10
10
10
10
10
10
10
10
10
10
10
10
10
10
10
10
10
10
10
10
10
10
10
10
10
10
10
10
10
10
10
10
10
10
10
10
10
10
10
10
10
10
10
10
10
10
10
10
10
10
10
10
10
10
10
10
10
10
10
10
10
10
10
10
10
10
10
10
10
10
10
10
10
10
10
10
10
10
10
10
10
10
10
10
10
10
10
10
10
10
10
10
10
10
10
10
10
10
10
10
10
10
10
10
10
10
10
10
10
10
10
10
10
10
10
10
10
10
10
10
10
10
10
10
10
10
10
10
10
10
10
10
10
10
10
10
10
10
10
10
10
10
10
10
10
10
10
10
10
10
10
10
10
10
10
10
10
10
10
10
10
10
10
10
10
10
10
10
10
10
10
10
10
10
10
10
10
10
10
10
10
10
10
10
10
10
10
10
10
10
10
10
10
10
10
10
10
10
10
10
10
10
10
10
10
10
10
10
10
10
10
10
10
10
10
10
10
10
10
10
10
10
10
10
10
10
10
10
10
10
10
10
10
10
10
10
10
10
10
10
10
10
10
10
10
10
10
10
10
10
10
10
10
10
10
10
10
10
10
10
10
10
10
10
10
10
10
10
10
10
10
10
10
10
10
10
10
10
10
10
10
10
10
10
10
10
10
10
10
10
10
10
10
10
10
10
10
10
10
10
10
10
10
10
10
10
10
10
10
10
10
10
10
10
10
10
10
10
10
10
10
10
10
10
10
10
10
10
10
10
10
10
10
10
10
10
10
10
10
10
10
10
10
10
10
10
10
10
10
10
10
10
10
10
10
10
10
10
10
10
10
10
10
10
10
10
10
10
10
10
10
10
10
10
10
10
10
10
10
10
10
10
10
10
10
10
10
10
10
10
10
10
10
10
10
10
10
10
10
10
10
10
10
10
10
10
10
10
10
10
10
10
10
10
10
10
10
10
10
10
10
10
10
10
10
10
10
10
10
10
10
10
10
10
10
10
10
10
10
10
10
10
10
10
10
10
10
10
10
10
10
10
10
10
10
10
10
10
10
10
10
10
10
10
10
10
10
10
10
10
10
10
10
10
10
10
10
10
10
10
10
10
10
10
10
10
10
10
10
10
10
10
10
10
10
10
10
10
10
10
10
10
10
10
10
10
10
10
10
10
10
10
10
10
10
10
10
10
10
10
10
10
10
10
10
10
10
10
10
10
10
10
10
10
10
10
10
10
10
10
10
10
10
10
10
10
10
10
10
10
10
10
10
10
10
10
10
10
10
10
10
10
10
10
10
10
10
10
10
10
10
10
10
10
10
10
10
10
10
10
10
10
10
10
10
10
10
10
10
10
10
10
10
10
10
10
10
10
10
10
10
10
10
10
10
10
10
10
10
10
10
10
10
10
10
10
10
10
10
10
10
10
10
10
10
10
10
10
10
10
10
10
10
10
10
10
10
10
10
10
10
10
10
10
10
10
10
10
10
10
10
10
10
10
10
10
10
10
10
10
10
10
10
10
10
10
10
10
10
10
10
10
10
10
10
10
10
10
10
10
10
10
10
10
10
10
10
10
10
10
10
10
10
10
10
10
10
10
10
10
10
10
10
10
10
10
10
10
10
10
10
10
10
10
10
10
10
10
10
10
10
10
10
10
10
10
10
10
10
10
10
10
10
10
10
10
10
10
10
10
10
10
10
10
10
10
10
10
10
10
10
10
10
10
10
10
10
10
10
10
10
10
10
10
10
10
10
10
10
10
10
10
10
10
10
10
10
10
10
10
10
10
10
10
10
10
10
10
10
10
10
10
10
10
10
10
10
10
10
10
10
10
10
10
10
10
10
10
10
10
10
10
10
10
10
10
10
10
10
10
10
10
10
10
10
10
10
10
10
10
10
10
10
10
10
10
10
10
10
10
10
10
10
10
10
10
10
10
10
10
10
10
10
10
10
10
10
10
10
10
10
10
10
10
10
10
10
10
10
10
10
10
10
10
10
10
10
10
10
10
10
10
10
10
10
10
10
10
10
10
10
10
10
10
10
10
10
10
10
10
10
10
10
10
10
10
10
10
10
10
10
10
10
10
10
10
10
10
10
10
10
10
10
10
10
10
10
10
10
10
10
10
10
10
10
10
10
10
10
10
10
10
10
10
10
10
10
10
10
10
10
10
10
10
10
10
10
10
10
10
10
10
10
10
10
10
10
10
10
10
10
10
10
10
10
10
10
10
10
10
10
10
10
10
10
10
10
10
10
10
10
10
10
10
10
10
10
10
10
10
10
10
10
10
10
10
10
10
10
10
10
10
10
10
10
10
10
10
10
10
10
10
10
10
10
10
10
10
10
10
10
10
10
10
10
10
10
10
10
10
10
10
10
10
10
10
10
10
10
10
10
10
10
10
10
10
10
10
10
10
10
10
10
10
10
10
10
10
10
10
10
10
10
10
10
10
10
10
10
10
10
10
10
10
10
10
10
10
10
10
10
10
10
10
10
10
10
10
10
10
10
10
10
10
10
10
10
10
10
10
10
10
10
10
10
10
10
10
10
10
10
10
10
10
10
10
10
10
10
10
10
10
10
10
10
10
10
10
10
10
10
10
10
10
10
10
10
10
10
10
10
10
10
10
10
10
10
10
10
10
10
10
10
10
10
10
10
10
10
10
10
10
10
10
10
10
10
10
10
10
10
10
10
10
10
10
10
10
10
10
10
10
10
10
              </DataArray>   
          </Cells>  
          <PointData>  
             <DataArray type="Float64" NumberOfComponents="3" Name="Strains" format="ascii">   
-3.8045948465422947e-05   0.0   -2.5126140459848074e-05
-3.8045948465422947e-05   0.0   -2.5126140459848074e-05
-3.8045948465422947e-05   0.0   -2.5126140459848074e-05
-3.8045948465422947e-05   0.0   -2.5126140459848074e-05
-2.4193891593192983e-05   4.193993296948733e-06   4.770169720377167e-07
-2.4193891593192983e-05   4.193993296948733e-06   4.770169720377167e-07
-2.4193891593192983e-05   4.193993296948733e-06   4.770169720377167e-07
-2.4193891593192983e-05   4.193993296948733e-06   4.770169720377167e-07
-2.3704772803599948e-05   0.0   -2.3734733555816818e-05
-2.3704772803599948e-05   0.0   -2.3734733555816818e-05
-2.3704772803599948e-05   0.0   -2.3734733555816818e-05
-2.3704772803599948e-05   0.0   -2.3734733555816818e-05
-3.980372581660409e-05   5.042914426638885e-06   7.110614320686068e-08
-3.980372581660409e-05   5.042914426638885e-06   7.110614320686068e-08
-3.980372581660409e-05   5.042914426638885e-06   7.110614320686068e-08
-3.980372581660409e-05   5.042914426638885e-06   7.110614320686068e-08
-3.0875360634511395e-05   1.1595057533593788e-06   -1.2479457289646581e-05
-3.0875360634511395e-05   1.1595057533593788e-06   -1.2479457289646581e-05
-3.0875360634511395e-05   1.1595057533593788e-06   -1.2479457289646581e-05
-3.0875360634511395e-05   1.1595057533593788e-06   -1.2479457289646581e-05
-3.980372581660416e-05   0.0   -2.6760482211800155e-05
-3.980372581660416e-05   0.0   -2.6760482211800155e-05
-3.980372581660416e-05   0.0   -2.6760482211800155e-05
-3.980372581660416e-05   0.0   -2.6760482211800155e-05
-2.3704772803599948e-05   5.042914426638892e-06   3.0968547991901902e-06
-2.3704772803599948e-05   5.042914426638892e-06   3.0968547991901902e-06
-2.3704772803599948e-05   5.042914426638892e-06   3.0968547991901902e-06
-2.3704772803599948e-05   5.042914426638892e-06   3.0968547991901902e-06
-2.376011706158895e-05   0.0   -2.4312579089180102e-05
-2.376011706158895e-05   0.0   -2.4312579089180102e-05
-2.376011706158895e-05   0.0   -2.4312579089180102e-05
-2.376011706158895e-05   0.0   -2.4312579089180102e-05
-4.1032912810295676e-05   5.405421547778787e-06   1.2321608966639437e-06
-4.1032912810295676e-05   5.405421547778787e-06   1.2321608966639437e-06
-4.1032912810295676e-05   5.405421547778787e-06   1.2321608966639437e-06
-4.1032912810295676e-05   5.405421547778787e-06   1.2321608966639437e-06
-3.17819214390965e-05   2.039919268850042e-06   -1.2166856687977427e-05
-3.17819214390965e-05   2.039919268850042e-06   -1.2166856687977427e-05
-3.17819214390965e-05   2.039919268850042e-06   -1.2166856687977427e-05
-3.17819214390965e-05   2.039919268850042e-06   -1.2166856687977427e-05
-4.1032912810295744e-05   0.0   -2.755583201784738e-05
-4.1032912810295744e-05   0.0   -2.755583201784738e-05
-4.1032912810295744e-05   0.0   -2.755583201784738e-05
-4.1032912810295744e-05   0.0   -2.755583201784738e-05
-2.376011706158891e-05   5.405421547778787e-06   4.4754138253312145e-06
-2.376011706158891e-05   5.405421547778787e-06   4.4754138253312145e-06
-2.376011706158891e-05   5.405421547778787e-06   4.4754138253312145e-06
-2.376011706158891e-05   5.405421547778787e-06   4.4754138253312145e-06
-2.3734656170006402e-05   0.0   -2.4462876940901318e-05
-2.3734656170006402e-05   0.0   -2.4462876940901318e-05
-2.3734656170006402e-05   0.0   -2.4462876940901318e-05
-2.3734656170006402e-05   0.0   -2.4462876940901318e-05
-4.369234006006548e-05   6.166310537511397e-06   5.10014322002376e-06
-4.369234006006548e-05   6.166310537511397e-06   5.10014322002376e-06
-4.369234006006548e-05   6.166310537511397e-06   5.10014322002376e-06
-4.369234006006548e-05   6.166310537511397e-06   5.10014322002376e-06
-3.238378449015102e-05   2.5774625641217166e-06   -1.159414061246653e-05
-3.238378449015102e-05   2.5774625641217166e-06   -1.159414061246653e-05
-3.238378449015102e-05   2.5774625641217166e-06   -1.159414061246653e-05
-3.238378449015102e-05   2.5774625641217166e-06   -1.159414061246653e-05
-2.4193891593193027e-05   0.0   -2.260974448167883e-05
-2.4193891593193027e-05   0.0   -2.260974448167883e-05
-2.4193891593193027e-05   0.0   -2.260974448167883e-05
-2.4193891593193027e-05   0.0   -2.260974448167883e-05
-1.1031336526615798e-05   1.534184743844269e-06   2.4835814225642654e-07
-1.1031336526615798e-05   1.534184743844269e-06   2.4835814225642654e-07
-1.1031336526615798e-05   1.534184743844269e-06   2.4835814225642654e-07
-1.1031336526615798e-05   1.534184743844269e-06   2.4835814225642654e-07
-1.0598567858863943e-05   0.0   -2.242010629487762e-05
-1.0598567858863943e-05   0.0   -2.242010629487762e-05
-1.0598567858863943e-05   0.0   -2.242010629487762e-05
-1.0598567858863943e-05   0.0   -2.242010629487762e-05
-2.3704772803599948e-05   2.1910454348986004e-06   -1.8910586479235056e-06
-2.3704772803599948e-05   2.1910454348986004e-06   -1.8910586479235056e-06
-2.3704772803599948e-05   2.1910454348986004e-06   -1.8910586479235056e-06
-2.3704772803599948e-05   2.1910454348986004e-06   -1.8910586479235056e-06
-1.7396229726028464e-05   1.5803182233430912e-07   -1.1185488943003995e-05
-1.7396229726028464e-05   1.5803182233430912e-07   -1.1185488943003995e-05
-1.7396229726028464e-05   1.5803182233430912e-07   -1.1185488943003995e-05
-1.7396229726028464e-05   1.5803182233430912e-07   -1.1185488943003995e-05
-2.3704772803599927e-05   0.0   -2.3734733555816795e-05
-2.3704772803599927e-05   0.0   -2.3734733555816795e-05
-2.3704772803599927e-05   0.0   -2.3734733555816795e-05
-2.3704772803599927e-05   0.0   -2.3734733555816795e-05
-1.0598567858863943e-05   2.1910454348985937e-06   -5.764313869843474e-07
-1.0598567858863943e-05   2.1910454348985937e-06   -5.764313869843474e-07
-1.0598567858863943e-05   2.1910454348985937e-06   -5.764313869843474e-07
-1.0598567858863943e-05   2.1910454348985937e-06   -5.764313869843474e-07
-1.0350807716189295e-05   0.0   -2.2699159367696822e-05
-1.0350807716189295e-05   0.0   -2.2699159367696822e-05
-1.0350807716189295e-05   0.0   -2.2699159367696822e-05
-1.0350807716189295e-05   0.0   -2.2699159367696822e-05
-2.376011706158895e-05   2.6890328691387335e-06   -1.9637301801807112e-06
-2.376011706158895e-05   2.6890328691387335e-06   -1.9637301801807112e-06
-2.376011706158895e-05   2.6890328691387335e-06   -1.9637301801807112e-06
-2.376011706158895e-05   2.6890328691387335e-06   -1.9637301801807112e-06
-1.7027790259894597e-05   8.629784900999632e-07   -1.2088642222247938e-05
-1.7027790259894597e-05   8.629784900999632e-07   -1.2088642222247938e-05
-1.7027790259894597e-05   8.629784900999632e-07   -1.2088642222247938e-05
-1.7027790259894597e-05   8.629784900999632e-07   -1.2088642222247938e-05
-2.376011706158895e-05   0.0   -2.4312579089180102e-05
-2.376011706158895e-05   0.0   -2.4312579089180102e-05
-2.376011706158895e-05   0.0   -2.4312579089180102e-05
-2.376011706158895e-05   0.0   -2.4312579089180102e-05
-1.0350807716189313e-05   2.6890328691387335e-06   -3.503104586974718e-07
-1.0350807716189313e-05   2.6890328691387335e-06   -3.503104586974718e-07
-1.0350807716189313e-05   2.6890328691387335e-06   -3.503104586974718e-07
-1.0350807716189313e-05   2.6890328691387335e-06   -3.503104586974718e-07
-1.0123301742571202e-05   0.0   -2.2583837067844527e-05
-1.0123301742571202e-05   0.0   -2.2583837067844527e-05
-1.0123301742571202e-05   0.0   -2.2583837067844527e-05
-1.0123301742571202e-05   0.0   -2.2583837067844527e-05
-2.3734656170006337e-05   3.1317331217612838e-06   -1.7772862285093187e-06
-2.3734656170006337e-05   3.1317331217612838e-06   -1.7772862285093187e-06
-2.3734656170006337e-05   3.1317331217612838e-06   -1.7772862285093187e-06
-2.3734656170006337e-05   3.1317331217612838e-06   -1.7772862285093187e-06
-1.694170940208007e-05   1.440618351112965e-06   -1.2084195312664188e-05
-1.694170940208007e-05   1.440618351112965e-06   -1.2084195312664188e-05
-1.694170940208007e-05   1.440618351112965e-06   -1.2084195312664188e-05
-1.694170940208007e-05   1.440618351112965e-06   -1.2084195312664188e-05
-1.1031336526615817e-05   0.0   -2.168923363537227e-05
-1.1031336526615817e-05   0.0   -2.168923363537227e-05
-1.1031336526615817e-05   0.0   -2.168923363537227e-05
-1.1031336526615817e-05   0.0   -2.168923363537227e-05
1.3949707477926618e-06   -1.995675393802541e-07   -1.0984620349862668e-06
1.3949707477926618e-06   -1.995675393802541e-07   -1.0984620349862668e-06
1.3949707477926618e-06   -1.995675393802541e-07   -1.0984620349862668e-06
1.3949707477926618e-06   -1.995675393802541e-07   -1.0984620349862668e-06
1.67654059634872e-06   0.0   -2.2186247333194504e-05
1.67654059634872e-06   0.0   -2.2186247333194504e-05
1.67654059634872e-06   0.0   -2.2186247333194504e-05
1.67654059634872e-06   0.0   -2.2186247333194504e-05
-1.0598567858863943e-05   3.897649361384644e-07   -1.9615922028565132e-06
-1.0598567858863943e-05   3.897649361384644e-07   -1.9615922028565132e-06
-1.0598567858863943e-05   3.897649361384644e-07   -1.9615922028565132e-06
-1.0598567858863943e-05   3.897649361384644e-07   -1.9615922028565132e-06
-4.677397965133538e-06   -4.1417808151859316e-07   -1.1347842881812943e-05
-4.677397965133538e-06   -4.1417808151859316e-07   -1.1347842881812943e-05
-4.677397965133538e-06   -4.1417808151859316e-07   -1.1347842881812943e-05
-4.677397965133538e-06   -4.1417808151859316e-07   -1.1347842881812943e-05
-1.0598567858863961e-05   0.0   -2.242010629487766e-05
-1.0598567858863961e-05   0.0   -2.242010629487766e-05
-1.0598567858863961e-05   0.0   -2.242010629487766e-05
-1.0598567858863961e-05   0.0   -2.242010629487766e-05
1.6765405963487229e-06   3.897649361384644e-07   -1.7277332411734331e-06
1.6765405963487229e-06   3.897649361384644e-07   -1.7277332411734331e-06
1.6765405963487229e-06   3.897649361384644e-07   -1.7277332411734331e-06
1.6765405963487229e-06   3.897649361384644e-07   -1.7277332411734331e-06
1.9002943516377266e-06   0.0   -2.2153622868982438e-05
1.9002943516377266e-06   0.0   -2.2153622868982438e-05
1.9002943516377266e-06   0.0   -2.2153622868982438e-05
1.9002943516377266e-06   0.0   -2.2153622868982438e-05
-1.0350807716189278e-05   9.092274978573047e-07   -2.2806559213184553e-06
-1.0350807716189278e-05   9.092274978573047e-07   -2.2806559213184553e-06
-1.0350807716189278e-05   9.092274978573047e-07   -2.2806559213184553e-06
-1.0350807716189278e-05   9.092274978573047e-07   -2.2806559213184553e-06
-4.349136753613108e-06   2.220695215793187e-07   -1.187114607317863e-05
-4.349136753613108e-06   2.220695215793187e-07   -1.187114607317863e-05
-4.349136753613108e-06   2.220695215793187e-07   -1.187114607317863e-05
-4.349136753613108e-06   2.220695215793187e-07   -1.187114607317863e-05
-1.0350807716189313e-05   0.0   -2.2699159367696862e-05
-1.0350807716189313e-05   0.0   -2.2699159367696862e-05
-1.0350807716189313e-05   0.0   -2.2699159367696862e-05
-1.0350807716189313e-05   0.0   -2.2699159367696862e-05
1.90029435163773e-06   9.092274978573115e-07   -1.7351194226040739e-06
1.90029435163773e-06   9.092274978573115e-07   -1.7351194226040739e-06
1.90029435163773e-06   9.092274978573115e-07   -1.7351194226040739e-06
1.90029435163773e-06   9.092274978573115e-07   -1.7351194226040739e-06
2.197536148056789e-06   0.0   -2.1677709060050095e-05
2.197536148056789e-06   0.0   -2.1677709060050095e-05
2.197536148056789e-06   0.0   -2.1677709060050095e-05
2.197536148056789e-06   0.0   -2.1677709060050095e-05
-1.0123301742571194e-05   1.5102133463240234e-06   -2.049107250131204e-06
-1.0123301742571194e-05   1.5102133463240234e-06   -2.049107250131204e-06
-1.0123301742571194e-05   1.5102133463240234e-06   -2.049107250131204e-06
-1.0123301742571194e-05   1.5102133463240234e-06   -2.049107250131204e-06
-4.076635784066253e-06   8.512085897056065e-07   -1.1731480993668382e-05
-4.076635784066253e-06   8.512085897056065e-07   -1.1731480993668382e-05
-4.076635784066253e-06   8.512085897056065e-07   -1.1731480993668382e-05
-4.076635784066253e-06   8.512085897056065e-07   -1.1731480993668382e-05
1.3949707477926643e-06   0.0   -2.180897415900042e-05
1.3949707477926643e-06   0.0   -2.180897415900042e-05
1.3949707477926643e-06   0.0   -2.180897415900042e-05
1.3949707477926643e-06   0.0   -2.180897415900042e-05
1.4893329481922729e-05   -1.7468960589477511e-06   -3.598472374855359e-07
1.4893329481922729e-05   -1.7468960589477511e-06   -3.598472374855359e-07
1.4893329481922729e-05   -1.7468960589477511e-06   -3.598472374855359e-07
1.4893329481922729e-05   -1.7468960589477511e-06   -3.598472374855359e-07
1.4934040206124303e-05   0.0   -2.2974458247250124e-05
1.4934040206124303e-05   0.0   -2.2974458247250124e-05
1.4934040206124303e-05   0.0   -2.2974458247250124e-05
1.4934040206124303e-05   0.0   -2.2974458247250124e-05
1.6765405963487229e-06   -1.3136848567592405e-06   -9.041465023528543e-08
1.6765405963487229e-06   -1.3136848567592405e-06   -9.041465023528543e-08
1.6765405963487229e-06   -1.3136848567592405e-06   -9.041465023528543e-08
1.6765405963487229e-06   -1.3136848567592405e-06   -9.041465023528543e-08
8.164505476958484e-06   -9.712367402080863e-07   -1.1109158321182231e-05
8.164505476958484e-06   -9.712367402080863e-07   -1.1109158321182231e-05
8.164505476958484e-06   -9.712367402080863e-07   -1.1109158321182231e-05
8.164505476958484e-06   -9.712367402080863e-07   -1.1109158321182231e-05
1.6765405963487256e-06   0.0   -2.218624733319458e-05
1.6765405963487256e-06   0.0   -2.218624733319458e-05
1.6765405963487256e-06   0.0   -2.218624733319458e-05
1.6765405963487256e-06   0.0   -2.218624733319458e-05
1.4934040206124278e-05   -1.3136848567592405e-06   -8.786255642908257e-07
1.4934040206124278e-05   -1.3136848567592405e-06   -8.786255642908257e-07
1.4934040206124278e-05   -1.3136848567592405e-06   -8.786255642908257e-07
1.4934040206124278e-05   -1.3136848567592405e-06   -8.786255642908257e-07
1.4882341193302417e-05   0.0   -2.264649358835077e-05
1.4882341193302417e-05   0.0   -2.264649358835077e-05
1.4882341193302417e-05   0.0   -2.264649358835077e-05
1.4882341193302417e-05   0.0   -2.264649358835077e-05
1.90029435163773e-06   -8.21451198947153e-07   -5.168781328746665e-07
1.90029435163773e-06   -8.21451198947153e-07   -5.168781328746665e-07
1.90029435163773e-06   -8.21451198947153e-07   -5.168781328746665e-07
1.90029435163773e-06   -8.21451198947153e-07   -5.168781328746665e-07
8.279440894825572e-06   -3.8353854596349e-07   -1.1411536629977925e-05
8.279440894825572e-06   -3.8353854596349e-07   -1.1411536629977925e-05
8.279440894825572e-06   -3.8353854596349e-07   -1.1411536629977925e-05
8.279440894825572e-06   -3.8353854596349e-07   -1.1411536629977925e-05
1.90029435163773e-06   0.0   -2.2153622868982476e-05
1.90029435163773e-06   0.0   -2.2153622868982476e-05
1.90029435163773e-06   0.0   -2.2153622868982476e-05
1.90029435163773e-06   0.0   -2.2153622868982476e-05
1.4882341193302392e-05   -8.21451198947153e-07   -1.0097488522429583e-06
1.4882341193302392e-05   -8.21451198947153e-07   -1.0097488522429583e-06
1.4882341193302392e-05   -8.21451198947153e-07   -1.0097488522429583e-06
1.4882341193302392e-05   -8.21451198947153e-07   -1.0097488522429583e-06
1.5182348856750553e-05   0.0   -2.1774156812796687e-05
1.5182348856750553e-05   0.0   -2.1774156812796687e-05
1.5182348856750553e-05   0.0   -2.1774156812796687e-05
1.5182348856750553e-05   0.0   -2.1774156812796687e-05
2.1975361480567927e-06   -1.607462545775946e-07   -3.6354545560536706e-08
2.1975361480567927e-06   -1.607462545775946e-07   -3.6354545560536706e-08
2.1975361480567927e-06   -1.607462545775946e-07   -3.6354545560536706e-08
2.1975361480567927e-06   -1.607462545775946e-07   -3.6354545560536706e-08
8.54132160419414e-06   3.1622171348815687e-07   -1.089551108662889e-05
8.54132160419414e-06   3.1622171348815687e-07   -1.089551108662889e-05
8.54132160419414e-06   3.1622171348815687e-07   -1.089551108662889e-05
8.54132160419414e-06   3.1622171348815687e-07   -1.089551108662889e-05
1.489332948192278e-05   0.0   -2.2857111794369075e-05
1.489332948192278e-05   0.0   -2.2857111794369075e-05
1.489332948192278e-05   0.0   -2.2857111794369075e-05
1.489332948192278e-05   0.0   -2.2857111794369075e-05
3.369904635580968e-05   -4.437945085597575e-06   5.822982610750653e-06
3.369904635580968e-05   -4.437945085597575e-06   5.822982610750653e-06
3.369904635580968e-05   -4.437945085597575e-06   5.822982610750653e-06
3.369904635580968e-05   -4.437945085597575e-06   5.822982610750653e-06
3.166732381246716e-05   0.0   -2.523554041305508e-05
3.166732381246716e-05   0.0   -2.523554041305508e-05
3.166732381246716e-05   0.0   -2.523554041305508e-05
3.166732381246716e-05   0.0   -2.523554041305508e-05
1.4934040206124278e-05   -3.768470276341586e-06   4.914347763321291e-06
1.4934040206124278e-05   -3.768470276341586e-06   4.914347763321291e-06
1.4934040206124278e-05   -3.768470276341586e-06   4.914347763321291e-06
1.4934040206124278e-05   -3.768470276341586e-06   4.914347763321291e-06
2.328032664719497e-05   -1.982023848905004e-06   -1.0067997494925086e-05
2.328032664719497e-05   -1.982023848905004e-06   -1.0067997494925086e-05
2.328032664719497e-05   -1.982023848905004e-06   -1.0067997494925086e-05
2.328032664719497e-05   -1.982023848905004e-06   -1.0067997494925086e-05
1.4934040206124291e-05   0.0   -2.2974458247250103e-05
1.4934040206124291e-05   0.0   -2.2974458247250103e-05
1.4934040206124291e-05   0.0   -2.2974458247250103e-05
1.4934040206124291e-05   0.0   -2.2974458247250103e-05
3.166732381246716e-05   -3.768470276341593e-06   2.6532655975163412e-06
3.166732381246716e-05   -3.768470276341593e-06   2.6532655975163412e-06
3.166732381246716e-05   -3.768470276341593e-06   2.6532655975163412e-06
3.166732381246716e-05   -3.768470276341593e-06   2.6532655975163412e-06
3.0735953622551025e-05   0.0   -2.4711014126059485e-05
3.0735953622551025e-05   0.0   -2.4711014126059485e-05
3.0735953622551025e-05   0.0   -2.4711014126059485e-05
3.0735953622551025e-05   0.0   -2.4711014126059485e-05
1.4882341193302392e-05   -3.4408675628478565e-06   3.7761937937302383e-06
1.4882341193302392e-05   -3.4408675628478565e-06   3.7761937937302383e-06
1.4882341193302392e-05   -3.4408675628478565e-06   3.7761937937302383e-06
1.4882341193302392e-05   -3.4408675628478565e-06   3.7761937937302383e-06
2.283499691433765e-05   -1.4471298990078014e-06   -1.0674475006299182e-05
2.283499691433765e-05   -1.4471298990078014e-06   -1.0674475006299182e-05
2.283499691433765e-05   -1.4471298990078014e-06   -1.0674475006299182e-05
2.283499691433765e-05   -1.4471298990078014e-06   -1.0674475006299182e-05
1.4882341193302417e-05   0.0   -2.264649358835077e-05
1.4882341193302417e-05   0.0   -2.264649358835077e-05
1.4882341193302417e-05   0.0   -2.264649358835077e-05
1.4882341193302417e-05   0.0   -2.264649358835077e-05
3.073595362255098e-05   -3.4408675628478565e-06   1.7116732560215278e-06
3.073595362255098e-05   -3.4408675628478565e-06   1.7116732560215278e-06
3.073595362255098e-05   -3.4408675628478565e-06   1.7116732560215278e-06
3.073595362255098e-05   -3.4408675628478565e-06   1.7116732560215278e-06
2.9340835418682295e-05   0.0   -2.337345219718792e-05
2.9340835418682295e-05   0.0   -2.337345219718792e-05
2.9340835418682295e-05   0.0   -2.337345219718792e-05
2.9340835418682295e-05   0.0   -2.337345219718792e-05
1.5182348856750512e-05   -2.6654923073187134e-06   1.8233207904228941e-06
1.5182348856750512e-05   -2.6654923073187134e-06   1.8233207904228941e-06
1.5182348856750512e-05   -2.6654923073187134e-06   1.8233207904228941e-06
1.5182348856750512e-05   -2.6654923073187134e-06   1.8233207904228941e-06
2.211158830599232e-05   -6.057988406976233e-07   -1.0961227704952752e-05
2.211158830599232e-05   -6.057988406976233e-07   -1.0961227704952752e-05
2.211158830599232e-05   -6.057988406976233e-07   -1.0961227704952752e-05
2.211158830599232e-05   -6.057988406976233e-07   -1.0961227704952752e-05
-3.289439692176022e-05   4.193993296948733e-06   -2.168706439975377e-05
-3.289439692176022e-05   4.193993296948733e-06   -2.168706439975377e-05
-3.289439692176022e-05   4.193993296948733e-06   -2.168706439975377e-05
-3.289439692176022e-05   4.193993296948733e-06   -2.168706439975377e-05
-2.1079011729704846e-05   3.7645709132960086e-06   -2.2524091765197793e-06
-2.1079011729704846e-05   3.7645709132960086e-06   -2.2524091765197793e-06
-2.1079011729704846e-05   3.7645709132960086e-06   -2.2524091765197793e-06
-2.1079011729704846e-05   3.7645709132960086e-06   -2.2524091765197793e-06
-2.1603227561004863e-05   5.042914426638878e-06   -1.822352984910401e-05
-2.1603227561004863e-05   5.042914426638878e-06   -1.822352984910401e-05
-2.1603227561004863e-05   5.042914426638878e-06   -1.822352984910401e-05
-2.1603227561004863e-05   5.042914426638878e-06   -1.822352984910401e-05
-3.323762112828714e-05   4.524724351154415e-06   1.4780401416571814e-06
-3.323762112828714e-05   4.524724351154415e-06   1.4780401416571814e-06
-3.323762112828714e-05   4.524724351154415e-06   1.4780401416571814e-06
-3.323762112828714e-05   4.524724351154415e-06   1.4780401416571814e-06
-2.612536417099544e-05   4.3840435695932295e-06   -1.0291312984892393e-05
-2.612536417099544e-05   4.3840435695932295e-06   -1.0291312984892393e-05
-2.612536417099544e-05   4.3840435695932295e-06   -1.0291312984892393e-05
-2.612536417099544e-05   4.3840435695932295e-06   -1.0291312984892393e-05
-3.323762112828714e-05   5.042914426638878e-06   -1.7912615803813318e-05
-3.323762112828714e-05   5.042914426638878e-06   -1.7912615803813318e-05
-3.323762112828714e-05   5.042914426638878e-06   -1.7912615803813318e-05
-3.323762112828714e-05   5.042914426638878e-06   -1.7912615803813318e-05
-2.1603227561004938e-05   4.5247243511544285e-06   1.1671260963665408e-06
-2.1603227561004938e-05   4.5247243511544285e-06   1.1671260963665408e-06
-2.1603227561004938e-05   4.5247243511544285e-06   1.1671260963665408e-06
-2.1603227561004938e-05   4.5247243511544285e-06   1.1671260963665408e-06
-2.1706561520420983e-05   5.40542154777878e-06   -1.639118282601427e-05
-2.1706561520420983e-05   5.40542154777878e-06   -1.639118282601427e-05
-2.1706561520420983e-05   5.40542154777878e-06   -1.639118282601427e-05
-2.1706561520420983e-05   5.40542154777878e-06   -1.639118282601427e-05
-3.346043395757561e-05   4.868049398795108e-06   3.521027858633578e-06
-3.346043395757561e-05   4.868049398795108e-06   3.521027858633578e-06
-3.346043395757561e-05   4.868049398795108e-06   3.521027858633578e-06
-3.346043395757561e-05   4.868049398795108e-06   3.521027858633578e-06
-2.688516995650282e-05   4.861691669121141e-06   -7.43393083868332e-06
-2.688516995650282e-05   4.861691669121141e-06   -7.43393083868332e-06
-2.688516995650282e-05   4.861691669121141e-06   -7.43393083868332e-06
-2.688516995650282e-05   4.861691669121141e-06   -7.43393083868332e-06
-3.346043395757555e-05   5.40542154777878e-06   -1.606875953662407e-05
-3.346043395757555e-05   5.40542154777878e-06   -1.606875953662407e-05
-3.346043395757555e-05   5.40542154777878e-06   -1.606875953662407e-05
-3.346043395757555e-05   5.40542154777878e-06   -1.606875953662407e-05
-2.1706561520421017e-05   4.868049398795108e-06   3.198604569243333e-06
-2.1706561520421017e-05   4.868049398795108e-06   3.198604569243333e-06
-2.1706561520421017e-05   4.868049398795108e-06   3.198604569243333e-06
-2.1706561520421017e-05   4.868049398795108e-06   3.198604569243333e-06
-2.157606391525463e-05   6.166310537511397e-06   -1.2133120622788952e-05
-2.157606391525463e-05   6.166310537511397e-06   -1.2133120622788952e-05
-2.157606391525463e-05   6.166310537511397e-06   -1.2133120622788952e-05
-2.157606391525463e-05   6.166310537511397e-06   -1.2133120622788952e-05
-3.251637008925032e-05   5.144477269567404e-06   6.713822961303496e-06
-3.251637008925032e-05   5.144477269567404e-06   6.713822961303496e-06
-3.251637008925032e-05   5.144477269567404e-06   6.713822961303496e-06
-3.251637008925032e-05   5.144477269567404e-06   6.713822961303496e-06
-2.6175804865738964e-05   5.336553830073854e-06   -3.96903168085263e-06
-2.6175804865738964e-05   5.336553830073854e-06   -3.96903168085263e-06
-2.6175804865738964e-05   5.336553830073854e-06   -3.96903168085263e-06
-2.6175804865738964e-05   5.336553830073854e-06   -3.96903168085263e-06
-2.1079011729704846e-05   1.5341847438442622e-06   -2.309388750603325e-05
-2.1079011729704846e-05   1.5341847438442622e-06   -2.309388750603325e-05
-2.1079011729704846e-05   1.5341847438442622e-06   -2.309388750603325e-05
-2.1079011729704846e-05   1.5341847438442622e-06   -2.309388750603325e-05
-1.0007024254989297e-05   1.7519329842281952e-06   -4.509926103943616e-06
-1.0007024254989297e-05   1.7519329842281952e-06   -4.509926103943616e-06
-1.0007024254989297e-05   1.7519329842281952e-06   -4.509926103943616e-06
-1.0007024254989297e-05   1.7519329842281952e-06   -4.509926103943616e-06
-1.0239569656390804e-05   2.1910454348985937e-06   -2.3055594594608185e-05
-1.0239569656390804e-05   2.1910454348985937e-06   -2.3055594594608185e-05
-1.0239569656390804e-05   2.1910454348985937e-06   -2.3055594594608185e-05
-1.0239569656390804e-05   2.1910454348985937e-06   -2.3055594594608185e-05
-2.1603227561004863e-05   2.4507932709144973e-06   -4.272013455194233e-06
-2.1603227561004863e-05   2.4507932709144973e-06   -4.272013455194233e-06
-2.1603227561004863e-05   2.4507932709144973e-06   -4.272013455194233e-06
-2.1603227561004863e-05   2.4507932709144973e-06   -4.272013455194233e-06
-1.5687465753968458e-05   1.9727899070051626e-06   -1.3844814448576033e-05
-1.5687465753968458e-05   1.9727899070051626e-06   -1.3844814448576033e-05
-1.5687465753968458e-05   1.9727899070051626e-06   -1.3844814448576033e-05
-1.5687465753968458e-05   1.9727899070051626e-06   -1.3844814448576033e-05
-2.1603227561004843e-05   2.1910454348985937e-06   -2.321144329621765e-05
-2.1603227561004843e-05   2.1910454348985937e-06   -2.321144329621765e-05
-2.1603227561004843e-05   2.1910454348985937e-06   -2.321144329621765e-05
-2.1603227561004843e-05   2.1910454348985937e-06   -2.321144329621765e-05
-1.0239569656390786e-05   2.4507932709144973e-06   -4.116164753584645e-06
-1.0239569656390786e-05   2.4507932709144973e-06   -4.116164753584645e-06
-1.0239569656390786e-05   2.4507932709144973e-06   -4.116164753584645e-06
-1.0239569656390786e-05   2.4507932709144973e-06   -4.116164753584645e-06
-1.0307791239139146e-05   2.6890328691387335e-06   -2.2625722759451566e-05
-1.0307791239139146e-05   2.6890328691387335e-06   -2.2625722759451566e-05
-1.0307791239139146e-05   2.6890328691387335e-06   -2.2625722759451566e-05
-1.0307791239139146e-05   2.6890328691387335e-06   -2.2625722759451566e-05
-2.1706561520420983e-05   3.030039655929802e-06   -3.832376362723064e-06
-2.1706561520420983e-05   3.030039655929802e-06   -3.832376362723064e-06
-2.1706561520420983e-05   3.030039655929802e-06   -3.832376362723064e-06
-2.1706561520420983e-05   3.030039655929802e-06   -3.832376362723064e-06
-1.5803957199740187e-05   2.5071612650687375e-06   -1.335632319600777e-05
-1.5803957199740187e-05   2.5071612650687375e-06   -1.335632319600777e-05
-1.5803957199740187e-05   2.5071612650687375e-06   -1.335632319600777e-05
-1.5803957199740187e-05   2.5071612650687375e-06   -1.335632319600777e-05
-2.1706561520420983e-05   2.6890328691387268e-06   -2.2830326831526178e-05
-2.1706561520420983e-05   2.6890328691387268e-06   -2.2830326831526178e-05
-2.1706561520420983e-05   2.6890328691387268e-06   -2.2830326831526178e-05
-2.1706561520420983e-05   2.6890328691387268e-06   -2.2830326831526178e-05
-1.0307791239139161e-05   3.030039655929802e-06   -3.6277722906484794e-06
-1.0307791239139161e-05   3.030039655929802e-06   -3.6277722906484794e-06
-1.0307791239139161e-05   3.030039655929802e-06   -3.6277722906484794e-06
-1.0307791239139161e-05   3.030039655929802e-06   -3.6277722906484794e-06
-1.027610438210928e-05   3.1317331217612838e-06   -2.239701164390208e-05
-1.027610438210928e-05   3.1317331217612838e-06   -2.239701164390208e-05
-1.027610438210928e-05   3.1317331217612838e-06   -2.239701164390208e-05
-1.027610438210928e-05   3.1317331217612838e-06   -2.239701164390208e-05
-2.157606391525465e-05   3.653941038305928e-06   -3.877070505253264e-06
-2.157606391525465e-05   3.653941038305928e-06   -3.877070505253264e-06
-2.157606391525465e-05   3.653941038305928e-06   -3.877070505253264e-06
-2.157606391525465e-05   3.653941038305928e-06   -3.877070505253264e-06
-1.5890310410247364e-05   2.9908608156429254e-06   -1.295547821333428e-05
-1.5890310410247364e-05   2.9908608156429254e-06   -1.295547821333428e-05
-1.5890310410247364e-05   2.9908608156429254e-06   -1.295547821333428e-05
-1.5890310410247364e-05   2.9908608156429254e-06   -1.295547821333428e-05
-1.0007024254989279e-05   -1.995675393802541e-07   -2.419031821541744e-05
-1.0007024254989279e-05   -1.995675393802541e-07   -2.419031821541744e-05
-1.0007024254989279e-05   -1.995675393802541e-07   -2.419031821541744e-05
-1.0007024254989279e-05   -1.995675393802541e-07   -2.419031821541744e-05
9.241771778907471e-07   -5.403324592330406e-08   -5.884328584543221e-06
9.241771778907471e-07   -5.403324592330406e-08   -5.884328584543221e-06
9.241771778907471e-07   -5.403324592330406e-08   -5.884328584543221e-06
9.241771778907471e-07   -5.403324592330406e-08   -5.884328584543221e-06
8.854545084462415e-07   3.897649361384644e-07   -2.4320481189545347e-05
8.854545084462415e-07   3.897649361384644e-07   -2.4320481189545347e-05
8.854545084462415e-07   3.897649361384644e-07   -2.4320481189545347e-05
8.854545084462415e-07   3.897649361384644e-07   -2.4320481189545347e-05
-1.0239569656390786e-05   5.902219710300367e-07   -5.899048469085257e-06
-1.0239569656390786e-05   5.902219710300367e-07   -5.899048469085257e-06
-1.0239569656390786e-05   5.902219710300367e-07   -5.899048469085257e-06
-1.0239569656390786e-05   5.902219710300367e-07   -5.899048469085257e-06
-4.636384282869417e-06   1.9662791326666618e-07   -1.5001534323629508e-05
-4.636384282869417e-06   1.9662791326666618e-07   -1.5001534323629508e-05
-4.636384282869417e-06   1.9662791326666618e-07   -1.5001534323629508e-05
-4.636384282869417e-06   1.9662791326666618e-07   -1.5001534323629508e-05
-1.0239569656390786e-05   3.897649361384644e-07   -2.444075541048032e-05
-1.0239569656390786e-05   3.897649361384644e-07   -2.444075541048032e-05
-1.0239569656390786e-05   3.897649361384644e-07   -2.444075541048032e-05
-1.0239569656390786e-05   3.897649361384644e-07   -2.444075541048032e-05
8.854545084462428e-07   5.902219710300502e-07   -5.7787742481502774e-06
8.854545084462428e-07   5.902219710300502e-07   -5.7787742481502774e-06
8.854545084462428e-07   5.902219710300502e-07   -5.7787742481502774e-06
8.854545084462428e-07   5.902219710300502e-07   -5.7787742481502774e-06
8.310446671934463e-07   9.092274978573047e-07   -2.436964299464798e-05
8.310446671934463e-07   9.092274978573047e-07   -2.436964299464798e-05
8.310446671934463e-07   9.092274978573047e-07   -2.436964299464798e-05
8.310446671934463e-07   9.092274978573047e-07   -2.436964299464798e-05
-1.0307791239139126e-05   1.2199362102315481e-06   -5.99134171151822e-06
-1.0307791239139126e-05   1.2199362102315481e-06   -5.99134171151822e-06
-1.0307791239139126e-05   1.2199362102315481e-06   -5.99134171151822e-06
-1.0307791239139126e-05   1.2199362102315481e-06   -5.99134171151822e-06
-4.71626568829149e-06   7.420987682271317e-07   -1.5023848497728294e-05
-4.71626568829149e-06   7.420987682271317e-07   -1.5023848497728294e-05
-4.71626568829149e-06   7.420987682271317e-07   -1.5023848497728294e-05
-4.71626568829149e-06   7.420987682271317e-07   -1.5023848497728294e-05
-1.0307791239139126e-05   9.092274978573047e-07   -2.455606822207252e-05
-1.0307791239139126e-05   9.092274978573047e-07   -2.455606822207252e-05
-1.0307791239139126e-05   9.092274978573047e-07   -2.455606822207252e-05
-1.0307791239139126e-05   9.092274978573047e-07   -2.455606822207252e-05
8.310446671934463e-07   1.2199362102315481e-06   -5.8049164840937185e-06
8.310446671934463e-07   1.2199362102315481e-06   -5.8049164840937185e-06
8.310446671934463e-07   1.2199362102315481e-06   -5.8049164840937185e-06
8.310446671934463e-07   1.2199362102315481e-06   -5.8049164840937185e-06
7.140887859657691e-07   1.5102133463240167e-06   -2.4328540785474962e-05
7.140887859657691e-07   1.5102133463240167e-06   -2.4328540785474962e-05
7.140887859657691e-07   1.5102133463240167e-06   -2.4328540785474962e-05
7.140887859657691e-07   1.5102133463240167e-06   -2.4328540785474962e-05
-1.0276104382109272e-05   1.8757662681669518e-06   -6.2308839251223395e-06
-1.0276104382109272e-05   1.8757662681669518e-06   -6.2308839251223395e-06
-1.0276104382109272e-05   1.8757662681669518e-06   -6.2308839251223395e-06
-1.0276104382109272e-05   1.8757662681669518e-06   -6.2308839251223395e-06
-4.761983315186199e-06   1.302471309809521e-06   -1.5077108728312984e-05
-4.761983315186199e-06   1.302471309809521e-06   -1.5077108728312984e-05
-4.761983315186199e-06   1.302471309809521e-06   -1.5077108728312984e-05
-4.761983315186199e-06   1.302471309809521e-06   -1.5077108728312984e-05
9.241771778907471e-07   -1.7468960589477511e-06   -2.2316245206473898e-05
9.241771778907471e-07   -1.7468960589477511e-06   -2.2316245206473898e-05
9.241771778907471e-07   -1.7468960589477511e-06   -2.2316245206473898e-05
9.241771778907471e-07   -1.7468960589477511e-06   -2.2316245206473898e-05
1.2188634722009365e-05   -1.7954209816977904e-06   -3.5712642532595434e-06
1.2188634722009365e-05   -1.7954209816977904e-06   -3.5712642532595434e-06
1.2188634722009365e-05   -1.7954209816977904e-06   -3.5712642532595434e-06
1.2188634722009365e-05   -1.7954209816977904e-06   -3.5712642532595434e-06
1.2296100375160261e-05   -1.3136848567592405e-06   -2.262020491260547e-05
1.2296100375160261e-05   -1.3136848567592405e-06   -2.262020491260547e-05
1.2296100375160261e-05   -1.3136848567592405e-06   -2.262020491260547e-05
1.2296100375160261e-05   -1.3136848567592405e-06   -2.262020491260547e-05
8.854545084462428e-07   -1.2087553800896615e-06   -3.665419487417167e-06
8.854545084462428e-07   -1.2087553800896615e-06   -3.665419487417167e-06
8.854545084462428e-07   -1.2087553800896615e-06   -3.665419487417167e-06
8.854545084462428e-07   -1.2087553800896615e-06   -3.665419487417167e-06
6.489709214348236e-06   -1.4490636513596203e-06   -1.286165903449186e-05
6.489709214348236e-06   -1.4490636513596203e-06   -1.286165903449186e-05
6.489709214348236e-06   -1.4490636513596203e-06   -1.286165903449186e-05
6.489709214348236e-06   -1.4490636513596203e-06   -1.286165903449186e-05
8.854545084462415e-07   -1.3136848567592405e-06   -2.2683162598607216e-05
8.854545084462415e-07   -1.3136848567592405e-06   -2.2683162598607216e-05
8.854545084462415e-07   -1.3136848567592405e-06   -2.2683162598607216e-05
8.854545084462415e-07   -1.3136848567592405e-06   -2.2683162598607216e-05
1.2296100375160261e-05   -1.2087553800896615e-06   -3.602461801415383e-06
1.2296100375160261e-05   -1.2087553800896615e-06   -3.602461801415383e-06
1.2296100375160261e-05   -1.2087553800896615e-06   -3.602461801415383e-06
1.2296100375160261e-05   -1.2087553800896615e-06   -3.602461801415383e-06
1.2243249703306495e-05   -8.21451198947153e-07   -2.3039469611361595e-05
1.2243249703306495e-05   -8.21451198947153e-07   -2.3039469611361595e-05
1.2243249703306495e-05   -8.21451198947153e-07   -2.3039469611361595e-05
1.2243249703306495e-05   -8.21451198947153e-07   -2.3039469611361595e-05
8.310446671934463e-07   -6.348977096854586e-07   -4.131059978063523e-06
8.310446671934463e-07   -6.348977096854586e-07   -4.131059978063523e-06
8.310446671934463e-07   -6.348977096854586e-07   -4.131059978063523e-06
8.310446671934463e-07   -6.348977096854586e-07   -4.131059978063523e-06
6.426625721820926e-06   -9.819172494388953e-07   -1.324881667859058e-05
6.426625721820926e-06   -9.819172494388953e-07   -1.324881667859058e-05
6.426625721820926e-06   -9.819172494388953e-07   -1.324881667859058e-05
6.426625721820926e-06   -9.819172494388953e-07   -1.324881667859058e-05
8.310446671934463e-07   -8.214511989471462e-07   -2.3151401704918585e-05
8.310446671934463e-07   -8.214511989471462e-07   -2.3151401704918585e-05
8.310446671934463e-07   -8.214511989471462e-07   -2.3151401704918585e-05
8.310446671934463e-07   -8.214511989471462e-07   -2.3151401704918585e-05
1.2243249703306495e-05   -6.348977096854586e-07   -4.019127884506536e-06
1.2243249703306495e-05   -6.348977096854586e-07   -4.019127884506536e-06
1.2243249703306495e-05   -6.348977096854586e-07   -4.019127884506536e-06
1.2243249703306495e-05   -6.348977096854586e-07   -4.019127884506536e-06
1.189104730306062e-05   -1.607462545775946e-07   -2.308113924793154e-05
1.189104730306062e-05   -1.607462545775946e-07   -2.308113924793154e-05
1.189104730306062e-05   -1.607462545775946e-07   -2.308113924793154e-05
1.189104730306062e-05   -1.607462545775946e-07   -2.308113924793154e-05
7.140887859657691e-07   7.388181336776586e-08   -4.593651893540686e-06
7.140887859657691e-07   7.388181336776586e-08   -4.593651893540686e-06
7.140887859657691e-07   7.388181336776586e-08   -4.593651893540686e-06
7.140887859657691e-07   7.388181336776586e-08   -4.593651893540686e-06
6.36242891864157e-06   -4.3638816125797183e-07   -1.3701390129891567e-05
6.36242891864157e-06   -4.3638816125797183e-07   -1.3701390129891567e-05
6.36242891864157e-06   -4.3638816125797183e-07   -1.3701390129891567e-05
6.36242891864157e-06   -4.3638816125797183e-07   -1.3701390129891567e-05
1.2188634722009365e-05   -4.4379450855975685e-06   -1.3499763260529203e-05
1.2188634722009365e-05   -4.4379450855975685e-06   -1.3499763260529203e-05
1.2188634722009365e-05   -4.4379450855975685e-06   -1.3499763260529203e-05
1.2188634722009365e-05   -4.4379450855975685e-06   -1.3499763260529203e-05
2.3292190497199056e-05   -3.330965759976639e-06   5.670350626826176e-06
2.3292190497199056e-05   -3.330965759976639e-06   5.670350626826176e-06
2.3292190497199056e-05   -3.330965759976639e-06   5.670350626826176e-06
2.3292190497199056e-05   -3.330965759976639e-06   5.670350626826176e-06
2.4195963950268465e-05   -3.768470276341593e-06   -1.637561245460206e-05
2.4195963950268465e-05   -3.768470276341593e-06   -1.637561245460206e-05
2.4195963950268465e-05   -3.768470276341593e-06   -1.637561245460206e-05
2.4195963950268465e-05   -3.768470276341593e-06   -1.637561245460206e-05
1.2296100375160283e-05   -3.015771725689399e-06   3.005874373520249e-06
1.2296100375160283e-05   -3.015771725689399e-06   3.005874373520249e-06
1.2296100375160283e-05   -3.015771725689399e-06   3.005874373520249e-06
1.2296100375160283e-05   -3.015771725689399e-06   3.005874373520249e-06
1.7156082702366876e-05   -3.621369137774592e-06   -4.730737724572945e-06
1.7156082702366876e-05   -3.621369137774592e-06   -4.730737724572945e-06
1.7156082702366876e-05   -3.621369137774592e-06   -4.730737724572945e-06
1.7156082702366876e-05   -3.621369137774592e-06   -4.730737724572945e-06
1.2296100375160251e-05   -3.7684702763415793e-06   -1.6827231584993322e-05
1.2296100375160251e-05   -3.7684702763415793e-06   -1.6827231584993322e-05
1.2296100375160251e-05   -3.7684702763415793e-06   -1.6827231584993322e-05
1.2296100375160251e-05   -3.7684702763415793e-06   -1.6827231584993322e-05
2.4195963950268417e-05   -3.015771725689399e-06   3.4574935039116092e-06
2.4195963950268417e-05   -3.015771725689399e-06   3.4574935039116092e-06
2.4195963950268417e-05   -3.015771725689399e-06   3.4574935039116092e-06
2.4195963950268417e-05   -3.015771725689399e-06   3.4574935039116092e-06
2.411661621478525e-05   -3.4408675628478565e-06   -1.7800425171242725e-05
2.411661621478525e-05   -3.4408675628478565e-06   -1.7800425171242725e-05
2.411661621478525e-05   -3.4408675628478565e-06   -1.7800425171242725e-05
2.411661621478525e-05   -3.4408675628478565e-06   -1.7800425171242725e-05
1.2243249703306495e-05   -2.6856979059383955e-06   1.5354172204095488e-06
1.2243249703306495e-05   -2.6856979059383955e-06   1.5354172204095488e-06
1.2243249703306495e-05   -2.6856979059383955e-06   1.5354172204095488e-06
1.2243249703306495e-05   -2.6856979059383955e-06   1.5354172204095488e-06
1.7766522706425627e-05   -3.1938980510604856e-06   -7.365117697715762e-06
1.7766522706425627e-05   -3.1938980510604856e-06   -7.365117697715762e-06
1.7766522706425627e-05   -3.1938980510604856e-06   -7.365117697715762e-06
1.7766522706425627e-05   -3.1938980510604856e-06   -7.365117697715762e-06
1.2243249703306473e-05   -3.4408675628478497e-06   -1.8253526965388355e-05
1.2243249703306473e-05   -3.4408675628478497e-06   -1.8253526965388355e-05
1.2243249703306473e-05   -3.4408675628478497e-06   -1.8253526965388355e-05
1.2243249703306473e-05   -3.4408675628478497e-06   -1.8253526965388355e-05
2.411661621478521e-05   -2.685697905938382e-06   1.9885190145551787e-06
2.411661621478521e-05   -2.685697905938382e-06   1.9885190145551787e-06
2.411661621478521e-05   -2.685697905938382e-06   1.9885190145551787e-06
2.411661621478521e-05   -2.685697905938382e-06   1.9885190145551787e-06
2.3983801731723698e-05   -2.6654923073187134e-06   -2.071128762150529e-05
2.3983801731723698e-05   -2.6654923073187134e-06   -2.071128762150529e-05
2.3983801731723698e-05   -2.6654923073187134e-06   -2.071128762150529e-05
2.3983801731723698e-05   -2.6654923073187134e-06   -2.071128762150529e-05
1.189104730306061e-05   -1.975944744491589e-06   -9.704254447630907e-07
1.189104730306061e-05   -1.975944744491589e-06   -9.704254447630907e-07
1.189104730306061e-05   -1.975944744491589e-06   -9.704254447630907e-07
1.189104730306061e-05   -1.975944744491589e-06   -9.704254447630907e-07
1.7265962783856676e-05   -2.7469723327961713e-06   -9.46600135977378e-06
1.7265962783856676e-05   -2.7469723327961713e-06   -9.46600135977378e-06
1.7265962783856676e-05   -2.7469723327961713e-06   -9.46600135977378e-06
1.7265962783856676e-05   -2.7469723327961713e-06   -9.46600135977378e-06
-2.6108054209392835e-05   3.7645709132960086e-06   -1.8092068795356926e-05
-2.6108054209392835e-05   3.7645709132960086e-06   -1.8092068795356926e-05
-2.6108054209392835e-05   3.7645709132960086e-06   -1.8092068795356926e-05
-2.6108054209392835e-05   3.7645709132960086e-06   -1.8092068795356926e-05
-1.7139233360421955e-05   2.868240488048177e-06   -3.6818323022208644e-06
-1.7139233360421955e-05   2.868240488048177e-06   -3.6818323022208644e-06
-1.7139233360421955e-05   2.868240488048177e-06   -3.6818323022208644e-06
-1.7139233360421955e-05   2.868240488048177e-06   -3.6818323022208644e-06
-1.721847344051794e-05   4.524724351154415e-06   -1.5026164879254064e-05
-1.721847344051794e-05   4.524724351154415e-06   -1.5026164879254064e-05
-1.721847344051794e-05   4.524724351154415e-06   -1.5026164879254064e-05
-1.721847344051794e-05   4.524724351154415e-06   -1.5026164879254064e-05
-2.5701860159814147e-05   3.474228764701329e-06   -2.5688966188854403e-07
-2.5701860159814147e-05   3.474228764701329e-06   -2.5688966188854403e-07
-2.5701860159814147e-05   3.474228764701329e-06   -2.5688966188854403e-07
-2.5701860159814147e-05   3.474228764701329e-06   -2.5688966188854403e-07
-2.0630311566954823e-05   3.830255734531488e-06   -8.923086831885605e-06
-2.0630311566954823e-05   3.830255734531488e-06   -8.923086831885605e-06
-2.0630311566954823e-05   3.830255734531488e-06   -8.923086831885605e-06
-2.0630311566954823e-05   3.830255734531488e-06   -8.923086831885605e-06
-2.5701860159814147e-05   4.524724351154415e-06   -1.4395867527382234e-05
-2.5701860159814147e-05   4.524724351154415e-06   -1.4395867527382234e-05
-2.5701860159814147e-05   4.524724351154415e-06   -1.4395867527382234e-05
-2.5701860159814147e-05   4.524724351154415e-06   -1.4395867527382234e-05
-1.721847344051794e-05   3.474228764701329e-06   -8.871870137604077e-07
-1.721847344051794e-05   3.474228764701329e-06   -8.871870137604077e-07
-1.721847344051794e-05   3.474228764701329e-06   -8.871870137604077e-07
-1.721847344051794e-05   3.474228764701329e-06   -8.871870137604077e-07
-1.7197180995348603e-05   4.868049398795108e-06   -1.2858216686844714e-05
-1.7197180995348603e-05   4.868049398795108e-06   -1.2858216686844714e-05
-1.7197180995348603e-05   4.868049398795108e-06   -1.2858216686844714e-05
-1.7197180995348603e-05   4.868049398795108e-06   -1.2858216686844714e-05
-2.530796158869496e-05   3.7412563237467097e-06   1.3358268137615806e-06
-2.530796158869496e-05   3.7412563237467097e-06   1.3358268137615806e-06
-2.530796158869496e-05   3.7412563237467097e-06   1.3358268137615806e-06
-2.530796158869496e-05   3.7412563237467097e-06   1.3358268137615806e-06
-2.0802859774793944e-05   4.1814825676798054e-06   -6.436811955766646e-06
-2.0802859774793944e-05   4.1814825676798054e-06   -6.436811955766646e-06
-2.0802859774793944e-05   4.1814825676798054e-06   -6.436811955766646e-06
-2.0802859774793944e-05   4.1814825676798054e-06   -6.436811955766646e-06
-2.530796158869496e-05   4.868049398795108e-06   -1.2182140841815681e-05
-2.530796158869496e-05   4.868049398795108e-06   -1.2182140841815681e-05
-2.530796158869496e-05   4.868049398795108e-06   -1.2182140841815681e-05
-2.530796158869496e-05   4.868049398795108e-06   -1.2182140841815681e-05
-1.719718099534863e-05   3.7412563237467097e-06   6.597509687325878e-07
-1.719718099534863e-05   3.7412563237467097e-06   6.597509687325878e-07
-1.719718099534863e-05   3.7412563237467097e-06   6.597509687325878e-07
-1.719718099534863e-05   3.7412563237467097e-06   6.597509687325878e-07
-1.721186729374911e-05   5.144477269567404e-06   -9.82877015806696e-06
-1.721186729374911e-05   5.144477269567404e-06   -9.82877015806696e-06
-1.721186729374911e-05   5.144477269567404e-06   -9.82877015806696e-06
-1.721186729374911e-05   5.144477269567404e-06   -9.82877015806696e-06
-2.479648506885151e-05   4.0066622037051485e-06   3.4949485066210282e-06
-2.479648506885151e-05   4.0066622037051485e-06   3.4949485066210282e-06
-2.479648506885151e-05   4.0066622037051485e-06   3.4949485066210282e-06
-2.479648506885151e-05   4.0066622037051485e-06   3.4949485066210282e-06
-2.032425350212533e-05   4.368347406481122e-06   -4.175781892921313e-06
-2.032425350212533e-05   4.368347406481122e-06   -4.175781892921313e-06
-2.032425350212533e-05   4.368347406481122e-06   -4.175781892921313e-06
-2.032425350212533e-05   4.368347406481122e-06   -4.175781892921313e-06
-1.7139233360421955e-05   1.7519329842281952e-06   -2.1018032922159825e-05
-1.7139233360421955e-05   1.7519329842281952e-06   -2.1018032922159825e-05
-1.7139233360421955e-05   1.7519329842281952e-06   -2.1018032922159825e-05
-1.7139233360421955e-05   1.7519329842281952e-06   -2.1018032922159825e-05
-8.74827314781765e-06   1.433320855092371e-06   -7.224266511967471e-06
-8.74827314781765e-06   1.433320855092371e-06   -7.224266511967471e-06
-8.74827314781765e-06   1.433320855092371e-06   -7.224266511967471e-06
-8.74827314781765e-06   1.433320855092371e-06   -7.224266511967471e-06
-8.851563345372928e-06   2.4507932709144973e-06   -2.071779721554828e-05
-8.851563345372928e-06   2.4507932709144973e-06   -2.071779721554828e-05
-8.851563345372928e-06   2.4507932709144973e-06   -2.071779721554828e-05
-8.851563345372928e-06   2.4507932709144973e-06   -2.071779721554828e-05
-1.721847344051794e-05   2.0299719630253543e-06   -6.520454272239778e-06
-1.721847344051794e-05   2.0299719630253543e-06   -6.520454272239778e-06
-1.721847344051794e-05   2.0299719630253543e-06   -6.520454272239778e-06
-1.721847344051794e-05   2.0299719630253543e-06   -6.520454272239778e-06
-1.2877738198868805e-05   2.02472578855696e-06   -1.3751865303640634e-05
-1.2877738198868805e-05   2.02472578855696e-06   -1.3751865303640634e-05
-1.2877738198868805e-05   2.02472578855696e-06   -1.3751865303640634e-05
-1.2877738198868805e-05   2.02472578855696e-06   -1.3751865303640634e-05
-1.7218473440517927e-05   2.4507932709144973e-06   -2.0465304430814733e-05
-1.7218473440517927e-05   2.4507932709144973e-06   -2.0465304430814733e-05
-1.7218473440517927e-05   2.4507932709144973e-06   -2.0465304430814733e-05
-1.7218473440517927e-05   2.4507932709144973e-06   -2.0465304430814733e-05
-8.851563345372941e-06   2.0299719630253272e-06   -6.7729470569732786e-06
-8.851563345372941e-06   2.0299719630253272e-06   -6.7729470569732786e-06
-8.851563345372941e-06   2.0299719630253272e-06   -6.7729470569732786e-06
-8.851563345372941e-06   2.0299719630253272e-06   -6.7729470569732786e-06
-8.917522736033844e-06   3.030039655929802e-06   -2.017059859031354e-05
-8.917522736033844e-06   3.030039655929802e-06   -2.017059859031354e-05
-8.917522736033844e-06   3.030039655929802e-06   -2.017059859031354e-05
-8.917522736033844e-06   3.030039655929802e-06   -2.017059859031354e-05
-1.7197180995348603e-05   2.561038036759226e-06   -6.0897671866199255e-06
-1.7197180995348603e-05   2.561038036759226e-06   -6.0897671866199255e-06
-1.7197180995348603e-05   2.561038036759226e-06   -6.0897671866199255e-06
-1.7197180995348603e-05   2.561038036759226e-06   -6.0897671866199255e-06
-1.2898889699610166e-05   2.5162591397684487e-06   -1.3226718674656114e-05
-1.2898889699610166e-05   2.5162591397684487e-06   -1.3226718674656114e-05
-1.2898889699610166e-05   2.5162591397684487e-06   -1.3226718674656114e-05
-1.2898889699610166e-05   2.5162591397684487e-06   -1.3226718674656114e-05
-1.7197180995348603e-05   3.030039655929802e-06   -1.9889197618811173e-05
-1.7197180995348603e-05   3.030039655929802e-06   -1.9889197618811173e-05
-1.7197180995348603e-05   3.030039655929802e-06   -1.9889197618811173e-05
-1.7197180995348603e-05   3.030039655929802e-06   -1.9889197618811173e-05
-8.917522736033861e-06   2.561038036759226e-06   -6.371168158122227e-06
-8.917522736033861e-06   2.561038036759226e-06   -6.371168158122227e-06
-8.917522736033861e-06   2.561038036759226e-06   -6.371168158122227e-06
-8.917522736033861e-06   2.561038036759226e-06   -6.371168158122227e-06
-9.003973067392055e-06   3.653941038305928e-06   -2.0122722977449604e-05
-9.003973067392055e-06   3.653941038305928e-06   -2.0122722977449604e-05
-9.003973067392055e-06   3.653941038305928e-06   -2.0122722977449604e-05
-9.003973067392055e-06   3.653941038305928e-06   -2.0122722977449604e-05
-1.7211867293749088e-05   3.1270088489853862e-06   -6.126739953262253e-06
-1.7211867293749088e-05   3.1270088489853862e-06   -6.126739953262253e-06
-1.7211867293749088e-05   3.1270088489853862e-06   -6.126739953262253e-06
-1.7211867293749088e-05   3.1270088489853862e-06   -6.126739953262253e-06
-1.304895986442079e-05   3.0040048622816592e-06   -1.2991116610120399e-05
-1.304895986442079e-05   3.0040048622816592e-06   -1.2991116610120399e-05
-1.304895986442079e-05   3.0040048622816592e-06   -1.2991116610120399e-05
-1.304895986442079e-05   3.0040048622816592e-06   -1.2991116610120399e-05
-8.748273147817636e-06   -5.4033245923317615e-08   -2.2670923256315077e-05
-8.748273147817636e-06   -5.4033245923317615e-08   -2.2670923256315077e-05
-8.748273147817636e-06   -5.4033245923317615e-08   -2.2670923256315077e-05
-8.748273147817636e-06   -5.4033245923317615e-08   -2.2670923256315077e-05
-4.480038625055417e-07   7.69236720449143e-08   -8.758566963347323e-06
-4.480038625055417e-07   7.69236720449143e-08   -8.758566963347323e-06
-4.480038625055417e-07   7.69236720449143e-08   -8.758566963347323e-06
-4.480038625055417e-07   7.69236720449143e-08   -8.758566963347323e-06
-5.305059067055419e-07   5.902219710300502e-07   -2.245572469686136e-05
-5.305059067055419e-07   5.902219710300502e-07   -2.245572469686136e-05
-5.305059067055419e-07   5.902219710300502e-07   -2.245572469686136e-05
-5.305059067055419e-07   5.902219710300502e-07   -2.245572469686136e-05
-8.851563345372914e-06   6.651490280092337e-07   -8.632251866603211e-06
-8.851563345372914e-06   6.651490280092337e-07   -8.632251866603211e-06
-8.851563345372914e-06   6.651490280092337e-07   -8.632251866603211e-06
-8.851563345372914e-06   6.651490280092337e-07   -8.632251866603211e-06
-4.618077570880985e-06   3.8822661659647037e-07   -1.5521908043908812e-05
-4.618077570880985e-06   3.8822661659647037e-07   -1.5521908043908812e-05
-4.618077570880985e-06   3.8822661659647037e-07   -1.5521908043908812e-05
-4.618077570880985e-06   3.8822661659647037e-07   -1.5521908043908812e-05
-8.851563345372928e-06   5.902219710300502e-07   -2.2500680931048856e-05
-8.851563345372928e-06   5.902219710300502e-07   -2.2500680931048856e-05
-8.851563345372928e-06   5.902219710300502e-07   -2.2500680931048856e-05
-8.851563345372928e-06   5.902219710300502e-07   -2.2500680931048856e-05
-5.305059067055419e-07   6.651490280092066e-07   -8.587295632415715e-06
-5.305059067055419e-07   6.651490280092066e-07   -8.587295632415715e-06
-5.305059067055419e-07   6.651490280092066e-07   -8.587295632415715e-06
-5.305059067055419e-07   6.651490280092066e-07   -8.587295632415715e-06
-5.890892548628557e-07   1.2199362102315481e-06   -2.2515101006979308e-05
-5.890892548628557e-07   1.2199362102315481e-06   -2.2515101006979308e-05
-5.890892548628557e-07   1.2199362102315481e-06   -2.2515101006979308e-05
-5.890892548628557e-07   1.2199362102315481e-06   -2.2515101006979308e-05
-8.917522736033844e-06   1.2517145505715633e-06   -8.653445542565e-06
-8.917522736033844e-06   1.2517145505715633e-06   -8.653445542565e-06
-8.917522736033844e-06   1.2517145505715633e-06   -8.653445542565e-06
-8.917522736033844e-06   1.2517145505715633e-06   -8.653445542565e-06
-4.725423623062942e-06   9.072215910916774e-07   -1.543358162182856e-05
-4.725423623062942e-06   9.072215910916774e-07   -1.543358162182856e-05
-4.725423623062942e-06   9.072215910916774e-07   -1.543358162182856e-05
-4.725423623062942e-06   9.072215910916774e-07   -1.543358162182856e-05
-8.917522736033844e-06   1.2199362102315481e-06   -2.2534168011183323e-05
-8.917522736033844e-06   1.2199362102315481e-06   -2.2534168011183323e-05
-8.917522736033844e-06   1.2199362102315481e-06   -2.2534168011183323e-05
-8.917522736033844e-06   1.2199362102315481e-06   -2.2534168011183323e-05
-5.890892548628557e-07   1.2517145505715904e-06   -8.634378538360948e-06
-5.890892548628557e-07   1.2517145505715904e-06   -8.634378538360948e-06
-5.890892548628557e-07   1.2517145505715904e-06   -8.634378538360948e-06
-5.890892548628557e-07   1.2517145505715904e-06   -8.634378538360948e-06
-6.828247736698006e-07   1.8757662681669518e-06   -2.2804231826959506e-05
-6.828247736698006e-07   1.8757662681669518e-06   -2.2804231826959506e-05
-6.828247736698006e-07   1.8757662681669518e-06   -2.2804231826959506e-05
-6.828247736698006e-07   1.8757662681669518e-06   -2.2804231826959506e-05
-9.003973067392059e-06   1.8518151353102497e-06   -8.921280657708423e-06
-9.003973067392059e-06   1.8518151353102497e-06   -8.921280657708423e-06
-9.003973067392059e-06   1.8518151353102497e-06   -8.921280657708423e-06
-9.003973067392059e-06   1.8518151353102497e-06   -8.921280657708423e-06
-4.8396272125801086e-06   1.4323909975199811e-06   -1.5610202599720747e-05
-4.8396272125801086e-06   1.4323909975199811e-06   -1.5610202599720747e-05
-4.8396272125801086e-06   1.4323909975199811e-06   -1.5610202599720747e-05
-4.8396272125801086e-06   1.4323909975199811e-06   -1.5610202599720747e-05
-4.480038625055423e-07   -1.7954209816977904e-06   -2.0250169820600457e-05
-4.480038625055423e-07   -1.7954209816977904e-06   -2.0250169820600457e-05
-4.480038625055423e-07   -1.7954209816977904e-06   -2.0250169820600457e-05
-4.480038625055423e-07   -1.7954209816977904e-06   -2.0250169820600457e-05
7.804461048305238e-06   -1.1985105409104352e-06   -6.137915371443465e-06
7.804461048305238e-06   -1.1985105409104352e-06   -6.137915371443465e-06
7.804461048305238e-06   -1.1985105409104352e-06   -6.137915371443465e-06
7.804461048305238e-06   -1.1985105409104352e-06   -6.137915371443465e-06
7.801420397454477e-06   -1.2087553800896615e-06   -2.0011936731884357e-05
7.801420397454477e-06   -1.2087553800896615e-06   -2.0011936731884357e-05
7.801420397454477e-06   -1.2087553800896615e-06   -2.0011936731884357e-05
7.801420397454477e-06   -1.2087553800896615e-06   -2.0011936731884357e-05
-5.305059067055419e-07   -6.58033373016596e-07   -6.455826095861522e-06
-5.305059067055419e-07   -6.58033373016596e-07   -6.455826095861522e-06
-5.305059067055419e-07   -6.58033373016596e-07   -6.455826095861522e-06
-5.305059067055419e-07   -6.58033373016596e-07   -6.455826095861522e-06
3.6293728665948983e-06   -1.1720733822981916e-06   -1.308053337912663e-05
3.6293728665948983e-06   -1.1720733822981916e-06   -1.308053337912663e-05
3.6293728665948983e-06   -1.1720733822981916e-06   -1.308053337912663e-05
3.6293728665948983e-06   -1.1720733822981916e-06   -1.308053337912663e-05
-5.305059067055419e-07   -1.2087553800896615e-06   -2.0342369936128215e-05
-5.305059067055419e-07   -1.2087553800896615e-06   -2.0342369936128215e-05
-5.305059067055419e-07   -1.2087553800896615e-06   -2.0342369936128215e-05
-5.305059067055419e-07   -1.2087553800896615e-06   -2.0342369936128215e-05
7.80142039745449e-06   -6.58033373016596e-07   -6.125392891617704e-06
7.80142039745449e-06   -6.58033373016596e-07   -6.125392891617704e-06
7.80142039745449e-06   -6.58033373016596e-07   -6.125392891617704e-06
7.80142039745449e-06   -6.58033373016596e-07   -6.125392891617704e-06
7.842724571426483e-06   -6.348977096854586e-07   -2.0537137037903997e-05
7.842724571426483e-06   -6.348977096854586e-07   -2.0537137037903997e-05
7.842724571426483e-06   -6.348977096854586e-07   -2.0537137037903997e-05
7.842724571426483e-06   -6.348977096854586e-07   -2.0537137037903997e-05
-5.89089254862857e-07   -1.2805193794356603e-07   -6.788221457133573e-06
-5.89089254862857e-07   -1.2805193794356603e-07   -6.788221457133573e-06
-5.89089254862857e-07   -1.2805193794356603e-07   -6.788221457133573e-06
-5.89089254862857e-07   -1.2805193794356603e-07   -6.788221457133573e-06
3.519162533004528e-06   -7.037246870453137e-07   -1.3289904120784812e-05
3.519162533004528e-06   -7.037246870453137e-07   -1.3289904120784812e-05
3.519162533004528e-06   -7.037246870453137e-07   -1.3289904120784812e-05
3.519162533004528e-06   -7.037246870453137e-07   -1.3289904120784812e-05
-5.890892548628557e-07   -6.348977096854586e-07   -2.0841244500949122e-05
-5.890892548628557e-07   -6.348977096854586e-07   -2.0841244500949122e-05
-5.890892548628557e-07   -6.348977096854586e-07   -2.0841244500949122e-05
-5.890892548628557e-07   -6.348977096854586e-07   -2.0841244500949122e-05
7.842724571426496e-06   -1.2805193794359314e-07   -6.484113994088407e-06
7.842724571426496e-06   -1.2805193794359314e-07   -6.484113994088407e-06
7.842724571426496e-06   -1.2805193794359314e-07   -6.484113994088407e-06
7.842724571426496e-06   -1.2805193794359314e-07   -6.484113994088407e-06
7.78588643006816e-06   7.388181336776586e-08   -2.113638647160046e-05
7.78588643006816e-06   7.388181336776586e-08   -2.113638647160046e-05
7.78588643006816e-06   7.388181336776586e-08   -2.113638647160046e-05
7.78588643006816e-06   7.388181336776586e-08   -2.113638647160046e-05
-6.828247736698019e-07   4.904569415063785e-07   -7.271812875587092e-06
-6.828247736698019e-07   4.904569415063785e-07   -7.271812875587092e-06
-6.828247736698019e-07   4.904569415063785e-07   -7.271812875587092e-06
-6.828247736698019e-07   4.904569415063785e-07   -7.271812875587092e-06
3.4821582616080896e-06   -2.0356979593882322e-07   -1.3797035225249689e-05
3.4821582616080896e-06   -2.0356979593882322e-07   -1.3797035225249689e-05
3.4821582616080896e-06   -2.0356979593882322e-07   -1.3797035225249689e-05
3.4821582616080896e-06   -2.0356979593882322e-07   -1.3797035225249689e-05
7.804461048305225e-06   -3.330965759976639e-06   -1.1314596271414873e-05
7.804461048305225e-06   -3.330965759976639e-06   -1.1314596271414873e-05
7.804461048305225e-06   -3.330965759976639e-06   -1.1314596271414873e-05
7.804461048305225e-06   -3.330965759976639e-06   -1.1314596271414873e-05
1.550786945110079e-05   -2.1654368735575297e-06   2.2237350650958774e-06
1.550786945110079e-05   -2.1654368735575297e-06   2.2237350650958774e-06
1.550786945110079e-05   -2.1654368735575297e-06   2.2237350650958774e-06
1.550786945110079e-05   -2.1654368735575297e-06   2.2237350650958774e-06
1.6042527693039798e-05   -3.0157717256893855e-06   -1.2705301982420418e-05
1.6042527693039798e-05   -3.0157717256893855e-06   -1.2705301982420418e-05
1.6042527693039798e-05   -3.0157717256893855e-06   -1.2705301982420418e-05
1.6042527693039798e-05   -3.0157717256893855e-06   -1.2705301982420418e-05
7.801420397454477e-06   -1.8519407681422682e-06   3.315782690268952e-07
7.801420397454477e-06   -1.8519407681422682e-06   3.315782690268952e-07
7.801420397454477e-06   -1.8519407681422682e-06   3.315782690268952e-07
7.801420397454477e-06   -1.8519407681422682e-06   3.315782690268952e-07
1.1285431636859689e-05   -2.55989368585759e-06   -5.050335379352643e-06
1.1285431636859689e-05   -2.55989368585759e-06   -5.050335379352643e-06
1.1285431636859689e-05   -2.55989368585759e-06   -5.050335379352643e-06
1.1285431636859689e-05   -2.55989368585759e-06   -5.050335379352643e-06
7.801420397454474e-06   -3.015771725689399e-06   -1.3403600556948633e-05
7.801420397454474e-06   -3.015771725689399e-06   -1.3403600556948633e-05
7.801420397454474e-06   -3.015771725689399e-06   -1.3403600556948633e-05
7.801420397454474e-06   -3.015771725689399e-06   -1.3403600556948633e-05
1.6042527693039798e-05   -1.8519407681422682e-06   1.029876843555114e-06
1.6042527693039798e-05   -1.8519407681422682e-06   1.029876843555114e-06
1.6042527693039798e-05   -1.8519407681422682e-06   1.029876843555114e-06
1.6042527693039798e-05   -1.8519407681422682e-06   1.029876843555114e-06
1.6455759753014527e-05   -2.685697905938382e-06   -1.4322426272916741e-05
1.6455759753014527e-05   -2.685697905938382e-06   -1.4322426272916741e-05
1.6455759753014527e-05   -2.685697905938382e-06   -1.4322426272916741e-05
1.6455759753014527e-05   -2.685697905938382e-06   -1.4322426272916741e-05
7.842724571426469e-06   -1.58542180581973e-06   -6.275332970078921e-07
7.842724571426469e-06   -1.58542180581973e-06   -6.275332970078921e-07
7.842724571426469e-06   -1.58542180581973e-06   -6.275332970078921e-07
7.842724571426469e-06   -1.58542180581973e-06   -6.275332970078921e-07
1.1675505954872643e-05   -2.357855911448851e-06   -6.552041806040651e-06
1.1675505954872643e-05   -2.357855911448851e-06   -6.552041806040651e-06
1.1675505954872643e-05   -2.357855911448851e-06   -6.552041806040651e-06
1.1675505954872643e-05   -2.357855911448851e-06   -6.552041806040651e-06
7.842724571426483e-06   -2.685697905938382e-06   -1.498259193298795e-05
7.842724571426483e-06   -2.685697905938382e-06   -1.498259193298795e-05
7.842724571426483e-06   -2.685697905938382e-06   -1.498259193298795e-05
7.842724571426483e-06   -2.685697905938382e-06   -1.498259193298795e-05
1.64557597530145e-05   -1.585421805819703e-06   3.263236306335054e-08
1.64557597530145e-05   -1.585421805819703e-06   3.263236306335054e-08
1.64557597530145e-05   -1.585421805819703e-06   3.263236306335054e-08
1.64557597530145e-05   -1.585421805819703e-06   3.263236306335054e-08
1.6898062975072463e-05   -1.975944744491589e-06   -1.7079166695733297e-05
1.6898062975072463e-05   -1.975944744491589e-06   -1.7079166695733297e-05
1.6898062975072463e-05   -1.975944744491589e-06   -1.7079166695733297e-05
1.6898062975072463e-05   -1.975944744491589e-06   -1.7079166695733297e-05
7.785886430068143e-06   -1.0179944647302844e-06   -2.4669759552495583e-06
7.785886430068143e-06   -1.0179944647302844e-06   -2.4669759552495583e-06
7.785886430068143e-06   -1.0179944647302844e-06   -2.4669759552495583e-06
7.785886430068143e-06   -1.0179944647302844e-06   -2.4669759552495583e-06
1.1632524798183222e-05   -2.0283309189852563e-06   -8.271838029555026e-06
1.1632524798183222e-05   -2.0283309189852563e-06   -8.271838029555026e-06
1.1632524798183222e-05   -2.0283309189852563e-06   -8.271838029555026e-06
1.1632524798183222e-05   -2.0283309189852563e-06   -8.271838029555026e-06
-1.867993930408559e-05   2.868240488048177e-06   -1.426466854385989e-05
-1.867993930408559e-05   2.868240488048177e-06   -1.426466854385989e-05
-1.867993930408559e-05   2.868240488048177e-06   -1.426466854385989e-05
-1.867993930408559e-05   2.868240488048177e-06   -1.426466854385989e-05
-1.2750987170685865e-05   1.8167793007106844e-06   -5.01395836726284e-06
-1.2750987170685865e-05   1.8167793007106844e-06   -5.01395836726284e-06
-1.2750987170685865e-05   1.8167793007106844e-06   -5.01395836726284e-06
-1.2750987170685865e-05   1.8167793007106844e-06   -5.01395836726284e-06
-1.2703945435908642e-05   3.474228764701329e-06   -1.211996198962267e-05
-1.2703945435908642e-05   3.474228764701329e-06   -1.211996198962267e-05
-1.2703945435908642e-05   3.474228764701329e-06   -1.211996198962267e-05
-1.2703945435908642e-05   3.474228764701329e-06   -1.211996198962267e-05
-1.8113617767799407e-05   2.3166044367818584e-06   -2.409266839719683e-06
-1.8113617767799407e-05   2.3166044367818584e-06   -2.409266839719683e-06
-1.8113617767799407e-05   2.3166044367818584e-06   -2.409266839719683e-06
-1.8113617767799407e-05   2.3166044367818584e-06   -2.409266839719683e-06
-1.4901707176833841e-05   2.763392329452265e-06   -8.030523893597879e-06
-1.4901707176833841e-05   2.763392329452265e-06   -8.030523893597879e-06
-1.4901707176833841e-05   2.763392329452265e-06   -8.030523893597879e-06
-1.4901707176833841e-05   2.763392329452265e-06   -8.030523893597879e-06
-1.8113617767799407e-05   3.474228764701329e-06   -1.1425387392870949e-05
-1.8113617767799407e-05   3.474228764701329e-06   -1.1425387392870949e-05
-1.8113617767799407e-05   3.474228764701329e-06   -1.1425387392870949e-05
-1.8113617767799407e-05   3.474228764701329e-06   -1.1425387392870949e-05
-1.270394543590867e-05   2.3166044367818584e-06   -3.103841436471382e-06
-1.270394543590867e-05   2.3166044367818584e-06   -3.103841436471382e-06
-1.270394543590867e-05   2.3166044367818584e-06   -3.103841436471382e-06
-1.270394543590867e-05   2.3166044367818584e-06   -3.103841436471382e-06
-1.260717782378438e-05   3.7412563237467097e-06   -1.0569127939521594e-05
-1.260717782378438e-05   3.7412563237467097e-06   -1.0569127939521594e-05
-1.260717782378438e-05   3.7412563237467097e-06   -1.0569127939521594e-05
-1.260717782378438e-05   3.7412563237467097e-06   -1.0569127939521594e-05
-1.769162033650359e-05   2.5505921377176914e-06   -1.3806585733722046e-06
-1.769162033650359e-05   2.5505921377176914e-06   -1.3806585733722046e-06
-1.769162033650359e-05   2.5505921377176914e-06   -1.3806585733722046e-06
-1.769162033650359e-05   2.5505921377176914e-06   -1.3806585733722046e-06
-1.490004005597939e-05   3.0425205892026214e-06   -6.328449445136799e-06
-1.490004005597939e-05   3.0425205892026214e-06   -6.328449445136799e-06
-1.490004005597939e-05   3.0425205892026214e-06   -6.328449445136799e-06
-1.490004005597939e-05   3.0425205892026214e-06   -6.328449445136799e-06
-1.769162033650359e-05   3.7412563237467097e-06   -9.854729427904218e-06
-1.769162033650359e-05   3.7412563237467097e-06   -9.854729427904218e-06
-1.769162033650359e-05   3.7412563237467097e-06   -9.854729427904218e-06
-1.769162033650359e-05   3.7412563237467097e-06   -9.854729427904218e-06
-1.2607177823784394e-05   2.5505921377176914e-06   -2.095057084989545e-06
-1.2607177823784394e-05   2.5505921377176914e-06   -2.095057084989545e-06
-1.2607177823784394e-05   2.5505921377176914e-06   -2.095057084989545e-06
-1.2607177823784394e-05   2.5505921377176914e-06   -2.095057084989545e-06
-1.2569318564308946e-05   4.006662203705176e-06   -8.426498102298628e-06
-1.2569318564308946e-05   4.006662203705176e-06   -8.426498102298628e-06
-1.2569318564308946e-05   4.006662203705176e-06   -8.426498102298628e-06
-1.2569318564308946e-05   4.006662203705176e-06   -8.426498102298628e-06
-1.714103296562386e-05   2.8465277430463998e-06   -1.1089342371182662e-07
-1.714103296562386e-05   2.8465277430463998e-06   -1.1089342371182662e-07
-1.714103296562386e-05   2.8465277430463998e-06   -1.1089342371182662e-07
-1.714103296562386e-05   2.8465277430463998e-06   -1.1089342371182662e-07
-1.4457889920431536e-05   3.1958755629118448e-06   -4.792407190951688e-06
-1.4457889920431536e-05   3.1958755629118448e-06   -4.792407190951688e-06
-1.4457889920431536e-05   3.1958755629118448e-06   -4.792407190951688e-06
-1.4457889920431536e-05   3.1958755629118448e-06   -4.792407190951688e-06
-1.2750987170685851e-05   1.433320855092371e-06   -1.8246812188527486e-05
-1.2750987170685851e-05   1.433320855092371e-06   -1.8246812188527486e-05
-1.2750987170685851e-05   1.433320855092371e-06   -1.8246812188527486e-05
-1.2750987170685851e-05   1.433320855092371e-06   -1.8246812188527486e-05
-7.367023954274459e-06   9.445185882566028e-07   -9.566821521276661e-06
-7.367023954274459e-06   9.445185882566028e-07   -9.566821521276661e-06
-7.367023954274459e-06   9.445185882566028e-07   -9.566821521276661e-06
-7.367023954274459e-06   9.445185882566028e-07   -9.566821521276661e-06
-7.370910250657556e-06   2.0299719630253272e-06   -1.8087437688190912e-05
-7.370910250657556e-06   2.0299719630253272e-06   -1.8087437688190912e-05
-7.370910250657556e-06   2.0299719630253272e-06   -1.8087437688190912e-05
-7.370910250657556e-06   2.0299719630253272e-06   -1.8087437688190912e-05
-1.2703945435908642e-05   1.4729578962104604e-06   -8.864837272683587e-06
-1.2703945435908642e-05   1.4729578962104604e-06   -8.864837272683587e-06
-1.2703945435908642e-05   1.4729578962104604e-06   -8.864837272683587e-06
-1.2703945435908642e-05   1.4729578962104604e-06   -8.864837272683587e-06
-9.955313615372721e-06   1.5710276723976738e-06   -1.3504732172622428e-05
-9.955313615372721e-06   1.5710276723976738e-06   -1.3504732172622428e-05
-9.955313615372721e-06   1.5710276723976738e-06   -1.3504732172622428e-05
-9.955313615372721e-06   1.5710276723976738e-06   -1.3504732172622428e-05
-1.2703945435908629e-05   2.0299719630253543e-06   -1.775322924810198e-05
-1.2703945435908629e-05   2.0299719630253543e-06   -1.775322924810198e-05
-1.2703945435908629e-05   2.0299719630253543e-06   -1.775322924810198e-05
-1.2703945435908629e-05   2.0299719630253543e-06   -1.775322924810198e-05
-7.370910250657556e-06   1.4729578962104604e-06   -9.199045712772493e-06
-7.370910250657556e-06   1.4729578962104604e-06   -9.199045712772493e-06
-7.370910250657556e-06   1.4729578962104604e-06   -9.199045712772493e-06
-7.370910250657556e-06   1.4729578962104604e-06   -9.199045712772493e-06
-7.3659095966866826e-06   2.561038036759226e-06   -1.7682324272841853e-05
-7.3659095966866826e-06   2.561038036759226e-06   -1.7682324272841853e-05
-7.3659095966866826e-06   2.561038036759226e-06   -1.7682324272841853e-05
-7.3659095966866826e-06   2.561038036759226e-06   -1.7682324272841853e-05
-1.260717782378438e-05   1.954907740146154e-06   -8.583199049711225e-06
-1.260717782378438e-05   1.954907740146154e-06   -8.583199049711225e-06
-1.260717782378438e-05   1.954907740146154e-06   -8.583199049711225e-06
-1.260717782378438e-05   1.954907740146154e-06   -8.583199049711225e-06
-9.909445045547056e-06   2.0060300605240916e-06   -1.3110093739000084e-05
-9.909445045547056e-06   2.0060300605240916e-06   -1.3110093739000084e-05
-9.909445045547056e-06   2.0060300605240916e-06   -1.3110093739000084e-05
-9.909445045547056e-06   2.0060300605240916e-06   -1.3110093739000084e-05
-1.260717782378438e-05   2.561038036759226e-06   -1.7318646094874053e-05
-1.260717782378438e-05   2.561038036759226e-06   -1.7318646094874053e-05
-1.260717782378438e-05   2.561038036759226e-06   -1.7318646094874053e-05
-1.260717782378438e-05   2.561038036759226e-06   -1.7318646094874053e-05
-7.3659095966866826e-06   1.954907740146154e-06   -8.946877227679012e-06
-7.3659095966866826e-06   1.954907740146154e-06   -8.946877227679012e-06
-7.3659095966866826e-06   1.954907740146154e-06   -8.946877227679012e-06
-7.3659095966866826e-06   1.954907740146154e-06   -8.946877227679012e-06
-7.372467509236737e-06   3.1270088489853862e-06   -1.7753980499656718e-05
-7.372467509236737e-06   3.1270088489853862e-06   -1.7753980499656718e-05
-7.372467509236737e-06   3.1270088489853862e-06   -1.7753980499656718e-05
-7.372467509236737e-06   3.1270088489853862e-06   -1.7753980499656718e-05
-1.2569318564308932e-05   2.4795372206651983e-06   -8.704079097544219e-06
-1.2569318564308932e-05   2.4795372206651983e-06   -8.704079097544219e-06
-1.2569318564308932e-05   2.4795372206651983e-06   -8.704079097544219e-06
-1.2569318564308932e-05   2.4795372206651983e-06   -8.704079097544219e-06
-9.974087516039876e-06   2.437536020912637e-06   -1.3004263458141147e-05
-9.974087516039876e-06   2.437536020912637e-06   -1.3004263458141147e-05
-9.974087516039876e-06   2.437536020912637e-06   -1.3004263458141147e-05
-9.974087516039876e-06   2.437536020912637e-06   -1.3004263458141147e-05
-7.367023954274476e-06   7.69236720448872e-08   -2.0152968150789802e-05
-7.367023954274476e-06   7.69236720448872e-08   -2.0152968150789802e-05
-7.367023954274476e-06   7.69236720448872e-08   -2.0152968150789802e-05
-7.367023954274476e-06   7.69236720448872e-08   -2.0152968150789802e-05
-2.0530531607342312e-06   1.658772409454082e-07   -1.1242978020215743e-05
-2.0530531607342312e-06   1.658772409454082e-07   -1.1242978020215743e-05
-2.0530531607342312e-06   1.658772409454082e-07   -1.1242978020215743e-05
-2.0530531607342312e-06   1.658772409454082e-07   -1.1242978020215743e-05
-2.0574703487316143e-06   6.651490280092066e-07   -1.992682805554652e-05
-2.0574703487316143e-06   6.651490280092066e-07   -1.992682805554652e-05
-2.0574703487316143e-06   6.651490280092066e-07   -1.992682805554652e-05
-2.0574703487316143e-06   6.651490280092066e-07   -1.992682805554652e-05
-7.370910250657556e-06   6.983397651331687e-07   -1.1091009327944307e-05
-7.370910250657556e-06   6.983397651331687e-07   -1.1091009327944307e-05
-7.370910250657556e-06   6.983397651331687e-07   -1.1091009327944307e-05
-7.370910250657556e-06   6.983397651331687e-07   -1.1091009327944307e-05
-4.680541118444795e-06   4.714141153457503e-07   -1.5438802491759795e-05
-4.680541118444795e-06   4.714141153457503e-07   -1.5438802491759795e-05
-4.680541118444795e-06   4.714141153457503e-07   -1.5438802491759795e-05
-4.680541118444795e-06   4.714141153457503e-07   -1.5438802491759795e-05
-7.370910250657566e-06   6.651490280092066e-07   -1.9946742497820906e-05
-7.370910250657566e-06   6.651490280092066e-07   -1.9946742497820906e-05
-7.370910250657566e-06   6.651490280092066e-07   -1.9946742497820906e-05
-7.370910250657566e-06   6.651490280092066e-07   -1.9946742497820906e-05
-2.0574703487316143e-06   6.983397651332229e-07   -1.1071094885669935e-05
-2.0574703487316143e-06   6.983397651332229e-07   -1.1071094885669935e-05
-2.0574703487316143e-06   6.983397651332229e-07   -1.1071094885669935e-05
-2.0574703487316143e-06   6.983397651332229e-07   -1.1071094885669935e-05
-2.0508026669968088e-06   1.2517145505715633e-06   -1.9976116769558432e-05
-2.0508026669968088e-06   1.2517145505715633e-06   -1.9976116769558432e-05
-2.0508026669968088e-06   1.2517145505715633e-06   -1.9976116769558432e-05
-2.0508026669968088e-06   1.2517145505715633e-06   -1.9976116769558432e-05
-7.3659095966866826e-06   1.2325226967818985e-06   -1.1106090107801522e-05
-7.3659095966866826e-06   1.2325226967818985e-06   -1.1106090107801522e-05
-7.3659095966866826e-06   1.2325226967818985e-06   -1.1106090107801522e-05
-7.3659095966866826e-06   1.2325226967818985e-06   -1.1106090107801522e-05
-4.712265760520436e-06   9.378679564348008e-07   -1.5352036990537015e-05
-4.712265760520436e-06   9.378679564348008e-07   -1.5352036990537015e-05
-4.712265760520436e-06   9.378679564348008e-07   -1.5352036990537015e-05
-4.712265760520436e-06   9.378679564348008e-07   -1.5352036990537015e-05
-7.3659095966866826e-06   1.2517145505715633e-06   -1.996460165728461e-05
-7.3659095966866826e-06   1.2517145505715633e-06   -1.996460165728461e-05
-7.3659095966866826e-06   1.2517145505715633e-06   -1.996460165728461e-05
-7.3659095966866826e-06   1.2517145505715633e-06   -1.996460165728461e-05
-2.0508026669968088e-06   1.2325226967818985e-06   -1.1117605220075305e-05
-2.0508026669968088e-06   1.2325226967818985e-06   -1.1117605220075305e-05
-2.0508026669968088e-06   1.2325226967818985e-06   -1.1117605220075305e-05
-2.0508026669968088e-06   1.2325226967818985e-06   -1.1117605220075305e-05
-2.0541991216974205e-06   1.8518151353102497e-06   -2.0277824194680138e-05
-2.0541991216974205e-06   1.8518151353102497e-06   -2.0277824194680138e-05
-2.0541991216974205e-06   1.8518151353102497e-06   -2.0277824194680138e-05
-2.0541991216974205e-06   1.8518151353102497e-06   -2.0277824194680138e-05
-7.372467509236747e-06   1.776044628360948e-06   -1.136858124461165e-05
-7.372467509236747e-06   1.776044628360948e-06   -1.136858124461165e-05
-7.372467509236747e-06   1.776044628360948e-06   -1.136858124461165e-05
-7.372467509236747e-06   1.776044628360948e-06   -1.136858124461165e-05
-4.753150410644702e-06   1.4104573158131361e-06   -1.551475735473638e-05
-4.753150410644702e-06   1.4104573158131361e-06   -1.551475735473638e-05
-4.753150410644702e-06   1.4104573158131361e-06   -1.551475735473638e-05
-4.753150410644702e-06   1.4104573158131361e-06   -1.551475735473638e-05
-2.053053160734228e-06   -1.1985105409104352e-06   -1.783709068201797e-05
-2.053053160734228e-06   -1.1985105409104352e-06   -1.783709068201797e-05
-2.053053160734228e-06   -1.1985105409104352e-06   -1.783709068201797e-05
-2.053053160734228e-06   -1.1985105409104352e-06   -1.783709068201797e-05
3.1761158859639496e-06   -5.45309439637558e-07   -8.729888276757316e-06
3.1761158859639496e-06   -5.45309439637558e-07   -8.729888276757316e-06
3.1761158859639496e-06   -5.45309439637558e-07   -8.729888276757316e-06
3.1761158859639496e-06   -5.45309439637558e-07   -8.729888276757316e-06
3.21854369039763e-06   -6.58033373016596e-07   -1.7426107698558912e-05
3.21854369039763e-06   -6.58033373016596e-07   -1.7426107698558912e-05
3.21854369039763e-06   -6.58033373016596e-07   -1.7426107698558912e-05
3.21854369039763e-06   -6.58033373016596e-07   -1.7426107698558912e-05
-2.057470348731611e-06   -4.261533896089426e-08   -9.002001787110234e-06
-2.057470348731611e-06   -4.261533896089426e-08   -9.002001787110234e-06
-2.057470348731611e-06   -4.261533896089426e-08   -9.002001787110234e-06
-2.057470348731611e-06   -4.261533896089426e-08   -9.002001787110234e-06
5.751405606267607e-07   -5.64661959067249e-07   -1.3076458663977087e-05
5.751405606267607e-07   -5.64661959067249e-07   -1.3076458663977087e-05
5.751405606267607e-07   -5.64661959067249e-07   -1.3076458663977087e-05
5.751405606267607e-07   -5.64661959067249e-07   -1.3076458663977087e-05
-2.0574703487316143e-06   -6.58033373016596e-07   -1.7795358518992314e-05
-2.0574703487316143e-06   -6.58033373016596e-07   -1.7795358518992314e-05
-2.0574703487316143e-06   -6.58033373016596e-07   -1.7795358518992314e-05
-2.0574703487316143e-06   -6.58033373016596e-07   -1.7795358518992314e-05
3.2185436903976367e-06   -4.261533896089426e-08   -8.632750966676872e-06
3.2185436903976367e-06   -4.261533896089426e-08   -8.632750966676872e-06
3.2185436903976367e-06   -4.261533896089426e-08   -8.632750966676872e-06
3.2185436903976367e-06   -4.261533896089426e-08   -8.632750966676872e-06
3.3204193174922363e-06   -1.2805193794356603e-07   -1.7789180389800904e-05
3.3204193174922363e-06   -1.2805193794356603e-07   -1.7789180389800904e-05
3.3204193174922363e-06   -1.2805193794356603e-07   -1.7789180389800904e-05
3.3204193174922363e-06   -1.2805193794356603e-07   -1.7789180389800904e-05
-2.050802666996805e-06   4.399135596066259e-07   -9.177923047515941e-06
-2.050802666996805e-06   4.399135596066259e-07   -9.177923047515941e-06
-2.050802666996805e-06   4.399135596066259e-07   -9.177923047515941e-06
-2.050802666996805e-06   4.399135596066259e-07   -9.177923047515941e-06
5.444714460890295e-07   -1.4621910812255025e-07   -1.3151700302021501e-05
5.444714460890295e-07   -1.4621910812255025e-07   -1.3151700302021501e-05
5.444714460890295e-07   -1.4621910812255025e-07   -1.3151700302021501e-05
5.444714460890295e-07   -1.4621910812255025e-07   -1.3151700302021501e-05
-2.0508026669968088e-06   -1.2805193794356603e-07   -1.812995968833105e-05
-2.0508026669968088e-06   -1.2805193794356603e-07   -1.812995968833105e-05
-2.0508026669968088e-06   -1.2805193794356603e-07   -1.812995968833105e-05
-2.0508026669968088e-06   -1.2805193794356603e-07   -1.812995968833105e-05
3.320419317492243e-06   4.399135596066259e-07   -8.837143748985788e-06
3.320419317492243e-06   4.399135596066259e-07   -8.837143748985788e-06
3.320419317492243e-06   4.399135596066259e-07   -8.837143748985788e-06
3.320419317492243e-06   4.399135596066259e-07   -8.837143748985788e-06
3.3707574235662053e-06   4.904569415063785e-07   -1.831320971091988e-05
3.3707574235662053e-06   4.904569415063785e-07   -1.831320971091988e-05
3.3707574235662053e-06   4.904569415063785e-07   -1.831320971091988e-05
3.3707574235662053e-06   4.904569415063785e-07   -1.831320971091988e-05
-2.0541991216974205e-06   9.917503113812134e-07   -9.57239149073868e-06
-2.0541991216974205e-06   9.917503113812134e-07   -9.57239149073868e-06
-2.0541991216974205e-06   9.917503113812134e-07   -9.57239149073868e-06
-2.0541991216974205e-06   9.917503113812134e-07   -9.57239149073868e-06
5.621857410144395e-07   3.001375864858586e-07   -1.35180652936546e-05
5.621857410144395e-07   3.001375864858586e-07   -1.35180652936546e-05
5.621857410144395e-07   3.001375864858586e-07   -1.35180652936546e-05
5.621857410144395e-07   3.001375864858586e-07   -1.35180652936546e-05
3.176115885963943e-06   -2.1654368735575297e-06   -9.782836916566386e-06
3.176115885963943e-06   -2.1654368735575297e-06   -9.782836916566386e-06
3.176115885963943e-06   -2.1654368735575297e-06   -9.782836916566386e-06
3.176115885963943e-06   -2.1654368735575297e-06   -9.782836916566386e-06
7.792328514125241e-06   -9.953626342390975e-07   -1.3871046593731738e-06
7.792328514125241e-06   -9.953626342390975e-07   -1.3871046593731738e-06
7.792328514125241e-06   -9.953626342390975e-07   -1.3871046593731738e-06
7.792328514125241e-06   -9.953626342390975e-07   -1.3871046593731738e-06
8.350610024940175e-06   -1.8519407681422682e-06   -1.024999226941807e-05
8.350610024940175e-06   -1.8519407681422682e-06   -1.024999226941807e-05
8.350610024940175e-06   -1.8519407681422682e-06   -1.024999226941807e-05
8.350610024940175e-06   -1.8519407681422682e-06   -1.024999226941807e-05
3.21854369039763e-06   -6.533669873150846e-07   -2.415692647010138e-06
3.21854369039763e-06   -6.533669873150846e-07   -2.415692647010138e-06
3.21854369039763e-06   -6.533669873150846e-07   -2.415692647010138e-06
3.21854369039763e-06   -6.533669873150846e-07   -2.415692647010138e-06
5.39414966803412e-06   -1.372392483176479e-06   -5.6102873122208105e-06
5.39414966803412e-06   -1.372392483176479e-06   -5.6102873122208105e-06
5.39414966803412e-06   -1.372392483176479e-06   -5.6102873122208105e-06
5.39414966803412e-06   -1.372392483176479e-06   -5.6102873122208105e-06
3.218543690397623e-06   -1.8519407681422682e-06   -1.0969136537914312e-05
3.218543690397623e-06   -1.8519407681422682e-06   -1.0969136537914312e-05
3.218543690397623e-06   -1.8519407681422682e-06   -1.0969136537914312e-05
3.218543690397623e-06   -1.8519407681422682e-06   -1.0969136537914312e-05
8.350610024940148e-06   -6.533669873151388e-07   -1.6965483785138548e-06
8.350610024940148e-06   -6.533669873151388e-07   -1.6965483785138548e-06
8.350610024940148e-06   -6.533669873151388e-07   -1.6965483785138548e-06
8.350610024940148e-06   -6.533669873151388e-07   -1.6965483785138548e-06
8.781549454814244e-06   -1.58542180581973e-06   -1.1232512539971541e-05
8.781549454814244e-06   -1.58542180581973e-06   -1.1232512539971541e-05
8.781549454814244e-06   -1.58542180581973e-06   -1.1232512539971541e-05
8.781549454814244e-06   -1.58542180581973e-06   -1.1232512539971541e-05
3.320419317492243e-06   -4.1860988457168664e-07   -2.830716130517027e-06
3.320419317492243e-06   -4.1860988457168664e-07   -2.830716130517027e-06
3.320419317492243e-06   -4.1860988457168664e-07   -2.830716130517027e-06
3.320419317492243e-06   -4.1860988457168664e-07   -2.830716130517027e-06
5.732926395245426e-06   -1.1961607960272975e-06   -6.385030713232278e-06
5.732926395245426e-06   -1.1961607960272975e-06   -6.385030713232278e-06
5.732926395245426e-06   -1.1961607960272975e-06   -6.385030713232278e-06
5.732926395245426e-06   -1.1961607960272975e-06   -6.385030713232278e-06
3.3204193174922363e-06   -1.58542180581973e-06   -1.1932599692720321e-05
3.3204193174922363e-06   -1.58542180581973e-06   -1.1932599692720321e-05
3.3204193174922363e-06   -1.58542180581973e-06   -1.1932599692720321e-05
3.3204193174922363e-06   -1.58542180581973e-06   -1.1932599692720321e-05
8.781549454814217e-06   -4.1860988457174085e-07   -2.130628977768125e-06
8.781549454814217e-06   -4.1860988457174085e-07   -2.130628977768125e-06
8.781549454814217e-06   -4.1860988457174085e-07   -2.130628977768125e-06
8.781549454814217e-06   -4.1860988457174085e-07   -2.130628977768125e-06
9.35597526718806e-06   -1.0179944647303115e-06   -1.31233187388751e-05
9.35597526718806e-06   -1.0179944647303115e-06   -1.31233187388751e-05
9.35597526718806e-06   -1.0179944647303115e-06   -1.31233187388751e-05
9.35597526718806e-06   -1.0179944647303115e-06   -1.31233187388751e-05
3.3707574235662053e-06   4.033741625393333e-08   -3.7829547947624306e-06
3.3707574235662053e-06   4.033741625393333e-08   -3.7829547947624306e-06
3.3707574235662053e-06   4.033741625393333e-08   -3.7829547947624306e-06
3.3707574235662053e-06   4.033741625393333e-08   -3.7829547947624306e-06
5.849898998982046e-06   -9.37589858853542e-07   -7.328101055391108e-06
5.849898998982046e-06   -9.37589858853542e-07   -7.328101055391108e-06
5.849898998982046e-06   -9.37589858853542e-07   -7.328101055391108e-06
5.849898998982046e-06   -9.37589858853542e-07   -7.328101055391108e-06
-1.1234774023485098e-05   1.8167793007106844e-06   -1.0577367066939606e-05
-1.1234774023485098e-05   1.8167793007106844e-06   -1.0577367066939606e-05
-1.1234774023485098e-05   1.8167793007106844e-06   -1.0577367066939606e-05
-1.1234774023485098e-05   1.8167793007106844e-06   -1.0577367066939606e-05
-8.338612008374047e-06   7.330160932476058e-07   -6.400688299565706e-06
-8.338612008374047e-06   7.330160932476058e-07   -6.400688299565706e-06
-8.338612008374047e-06   7.330160932476058e-07   -6.400688299565706e-06
-8.338612008374047e-06   7.330160932476058e-07   -6.400688299565706e-06
-8.21835915308113e-06   2.3166044367818584e-06   -9.331427546149915e-06
-8.21835915308113e-06   2.3166044367818584e-06   -9.331427546149915e-06
-8.21835915308113e-06   2.3166044367818584e-06   -9.331427546149915e-06
-8.21835915308113e-06   2.3166044367818584e-06   -9.331427546149915e-06
-1.061899266151966e-05   1.1473808059980707e-06   -4.628837520281978e-06
-1.061899266151966e-05   1.1473808059980707e-06   -4.628837520281978e-06
-1.061899266151966e-05   1.1473808059980707e-06   -4.628837520281978e-06
-1.061899266151966e-05   1.1473808059980707e-06   -4.628837520281978e-06
-9.195971295874347e-06   1.6310989904907297e-06   -7.290770707053576e-06
-9.195971295874347e-06   1.6310989904907297e-06   -7.290770707053576e-06
-9.195971295874347e-06   1.6310989904907297e-06   -7.290770707053576e-06
-9.195971295874347e-06   1.6310989904907297e-06   -7.290770707053576e-06
-1.061899266151966e-05   2.3166044367818584e-06   -8.629893367679666e-06
-1.061899266151966e-05   2.3166044367818584e-06   -8.629893367679666e-06
-1.061899266151966e-05   2.3166044367818584e-06   -8.629893367679666e-06
-1.061899266151966e-05   2.3166044367818584e-06   -8.629893367679666e-06
-8.218359153081144e-06   1.1473808059980707e-06   -5.330371698752294e-06
-8.218359153081144e-06   1.1473808059980707e-06   -5.330371698752294e-06
-8.218359153081144e-06   1.1473808059980707e-06   -5.330371698752294e-06
-8.218359153081144e-06   1.1473808059980707e-06   -5.330371698752294e-06
-8.045995481696013e-06   2.5505921377176914e-06   -8.331450295111622e-06
-8.045995481696013e-06   2.5505921377176914e-06   -8.331450295111622e-06
-8.045995481696013e-06   2.5505921377176914e-06   -8.331450295111622e-06
-8.045995481696013e-06   2.5505921377176914e-06   -8.331450295111622e-06
-1.0129950265013349e-05   1.3580872244474689e-06   -4.142689374953852e-06
-1.0129950265013349e-05   1.3580872244474689e-06   -4.142689374953852e-06
-1.0129950265013349e-05   1.3580872244474689e-06   -4.142689374953852e-06
-1.0129950265013349e-05   1.3580872244474689e-06   -4.142689374953852e-06
-9.03475124138111e-06   1.8552374304266531e-06   -6.266311204595172e-06
-9.03475124138111e-06   1.8552374304266531e-06   -6.266311204595172e-06
-9.03475124138111e-06   1.8552374304266531e-06   -6.266311204595172e-06
-9.03475124138111e-06   1.8552374304266531e-06   -6.266311204595172e-06
-1.0129950265013336e-05   2.5505921377176914e-06   -7.615947347149499e-06
-1.0129950265013336e-05   2.5505921377176914e-06   -7.615947347149499e-06
-1.0129950265013336e-05   2.5505921377176914e-06   -7.615947347149499e-06
-1.0129950265013336e-05   2.5505921377176914e-06   -7.615947347149499e-06
-8.045995481696026e-06   1.3580872244474689e-06   -4.8581923229160155e-06
-8.045995481696026e-06   1.3580872244474689e-06   -4.8581923229160155e-06
-8.045995481696026e-06   1.3580872244474689e-06   -4.8581923229160155e-06
-8.045995481696026e-06   1.3580872244474689e-06   -4.8581923229160155e-06
-7.93049308163611e-06   2.8465277430463455e-06   -7.051526930315513e-06
-7.93049308163611e-06   2.8465277430463455e-06   -7.051526930315513e-06
-7.93049308163611e-06   2.8465277430463455e-06   -7.051526930315513e-06
-7.93049308163611e-06   2.8465277430463455e-06   -7.051526930315513e-06
-9.50774823839319e-06   1.6925190039507884e-06   -3.730363092263009e-06
-9.50774823839319e-06   1.6925190039507884e-06   -3.730363092263009e-06
-9.50774823839319e-06   1.6925190039507884e-06   -3.730363092263009e-06
-9.50774823839319e-06   1.6925190039507884e-06   -3.730363092263009e-06
-8.614006199052159e-06   2.012756192542036e-06   -5.4120754709862195e-06
-8.614006199052159e-06   2.012756192542036e-06   -5.4120754709862195e-06
-8.614006199052159e-06   2.012756192542036e-06   -5.4120754709862195e-06
-8.614006199052159e-06   2.012756192542036e-06   -5.4120754709862195e-06
-8.338612008374047e-06   9.445185882566028e-07   -1.5487206785329822e-05
-8.338612008374047e-06   9.445185882566028e-07   -1.5487206785329822e-05
-8.338612008374047e-06   9.445185882566028e-07   -1.5487206785329822e-05
-8.338612008374047e-06   9.445185882566028e-07   -1.5487206785329822e-05
-5.980151804555993e-06   4.2811304939906897e-07   -1.1866283102280982e-05
-5.980151804555993e-06   4.2811304939906897e-07   -1.1866283102280982e-05
-5.980151804555993e-06   4.2811304939906897e-07   -1.1866283102280982e-05
-5.980151804555993e-06   4.2811304939906897e-07   -1.1866283102280982e-05
-5.903063305265104e-06   1.4729578962105147e-06   -1.543380805765055e-05
-5.903063305265104e-06   1.4729578962105147e-06   -1.543380805765055e-05
-5.903063305265104e-06   1.4729578962105147e-06   -1.543380805765055e-05
-5.903063305265104e-06   1.4729578962105147e-06   -1.543380805765055e-05
-8.218359153081144e-06   9.039834373963116e-07   -1.1233596969335272e-05
-8.218359153081144e-06   9.039834373963116e-07   -1.1233596969335272e-05
-8.218359153081144e-06   9.039834373963116e-07   -1.1233596969335272e-05
-8.218359153081144e-06   9.039834373963116e-07   -1.1233596969335272e-05
-7.040666577100727e-06   1.030539738302509e-06   -1.3272351709846662e-05
-7.040666577100727e-06   1.030539738302509e-06   -1.3272351709846662e-05
-7.040666577100727e-06   1.030539738302509e-06   -1.3272351709846662e-05
-7.040666577100727e-06   1.030539738302509e-06   -1.3272351709846662e-05
-8.218359153081117e-06   1.4729578962104604e-06   -1.5092423382361963e-05
-8.218359153081117e-06   1.4729578962104604e-06   -1.5092423382361963e-05
-8.218359153081117e-06   1.4729578962104604e-06   -1.5092423382361963e-05
-8.218359153081117e-06   1.4729578962104604e-06   -1.5092423382361963e-05
-5.903063305265111e-06   9.039834373963116e-07   -1.1574981644623777e-05
-5.903063305265111e-06   9.039834373963116e-07   -1.1574981644623777e-05
-5.903063305265111e-06   9.039834373963116e-07   -1.1574981644623777e-05
-5.903063305265111e-06   9.039834373963116e-07   -1.1574981644623777e-05
-5.817700695562386e-06   1.954907740146154e-06   -1.5183976483850044e-05
-5.817700695562386e-06   1.954907740146154e-06   -1.5183976483850044e-05
-5.817700695562386e-06   1.954907740146154e-06   -1.5183976483850044e-05
-5.817700695562386e-06   1.954907740146154e-06   -1.5183976483850044e-05
-8.04599548169604e-06   1.3476007001181865e-06   -1.1105767616277179e-05
-8.04599548169604e-06   1.3476007001181865e-06   -1.1105767616277179e-05
-8.04599548169604e-06   1.3476007001181865e-06   -1.1105767616277179e-05
-8.04599548169604e-06   1.3476007001181865e-06   -1.1105767616277179e-05
-6.938430932647863e-06   1.4165302567330955e-06   -1.2993066265326277e-05
-6.938430932647863e-06   1.4165302567330955e-06   -1.2993066265326277e-05
-6.938430932647863e-06   1.4165302567330955e-06   -1.2993066265326277e-05
-6.938430932647863e-06   1.4165302567330955e-06   -1.2993066265326277e-05
-8.045995481696013e-06   1.954907740146154e-06   -1.4819592259833266e-05
-8.045995481696013e-06   1.954907740146154e-06   -1.4819592259833266e-05
-8.045995481696013e-06   1.954907740146154e-06   -1.4819592259833266e-05
-8.045995481696013e-06   1.954907740146154e-06   -1.4819592259833266e-05
-5.817700695562386e-06   1.3476007001181865e-06   -1.1470151840293916e-05
-5.817700695562386e-06   1.3476007001181865e-06   -1.1470151840293916e-05
-5.817700695562386e-06   1.3476007001181865e-06   -1.1470151840293916e-05
-5.817700695562386e-06   1.3476007001181865e-06   -1.1470151840293916e-05
-5.7424286511342955e-06   2.4795372206651983e-06   -1.533136767259229e-05
-5.7424286511342955e-06   2.4795372206651983e-06   -1.533136767259229e-05
-5.7424286511342955e-06   2.4795372206651983e-06   -1.533136767259229e-05
-5.7424286511342955e-06   2.4795372206651983e-06   -1.533136767259229e-05
-7.930493081636123e-06   1.841644312599081e-06   -1.1301857876916199e-05
-7.930493081636123e-06   1.841644312599081e-06   -1.1301857876916199e-05
-7.930493081636123e-06   1.841644312599081e-06   -1.1301857876916199e-05
-7.930493081636123e-06   1.841644312599081e-06   -1.1301857876916199e-05
-6.900685501957212e-06   1.8087247351677462e-06   -1.2998452096588912e-05
-6.900685501957212e-06   1.8087247351677462e-06   -1.2998452096588912e-05
-6.900685501957212e-06   1.8087247351677462e-06   -1.2998452096588912e-05
-6.900685501957212e-06   1.8087247351677462e-06   -1.2998452096588912e-05
-5.980151804555966e-06   1.658772409454082e-07   -1.752657874892369e-05
-5.980151804555966e-06   1.658772409454082e-07   -1.752657874892369e-05
-5.980151804555966e-06   1.658772409454082e-07   -1.752657874892369e-05
-5.980151804555966e-06   1.658772409454082e-07   -1.752657874892369e-05
-3.677443802573195e-06   2.5018458938027253e-07   -1.3638147669891567e-05
-3.677443802573195e-06   2.5018458938027253e-07   -1.3638147669891567e-05
-3.677443802573195e-06   2.5018458938027253e-07   -1.3638147669891567e-05
-3.677443802573195e-06   2.5018458938027253e-07   -1.3638147669891567e-05
-3.6027101111433156e-06   6.983397651331687e-07   -1.7303092442181385e-05
-3.6027101111433156e-06   6.983397651331687e-07   -1.7303092442181385e-05
-3.6027101111433156e-06   6.983397651331687e-07   -1.7303092442181385e-05
-3.6027101111433156e-06   6.983397651331687e-07   -1.7303092442181385e-05
-5.903063305265104e-06   7.361384828683351e-07   -1.3491849682619264e-05
-5.903063305265104e-06   7.361384828683351e-07   -1.3491849682619264e-05
-5.903063305265104e-06   7.361384828683351e-07   -1.3491849682619264e-05
-5.903063305265104e-06   7.361384828683351e-07   -1.3491849682619264e-05
-4.759990370598549e-06   5.310121274045888e-07   -1.5273895427119023e-05
-4.759990370598549e-06   5.310121274045888e-07   -1.5273895427119023e-05
-4.759990370598549e-06   5.310121274045888e-07   -1.5273895427119023e-05
-4.759990370598549e-06   5.310121274045888e-07   -1.5273895427119023e-05
-5.9030633052650904e-06   6.983397651331687e-07   -1.732577167282235e-05
-5.9030633052650904e-06   6.983397651331687e-07   -1.732577167282235e-05
-5.9030633052650904e-06   6.983397651331687e-07   -1.732577167282235e-05
-5.9030633052650904e-06   6.983397651331687e-07   -1.732577167282235e-05
-3.6027101111433093e-06   7.361384828682808e-07   -1.3469170451978272e-05
-3.6027101111433093e-06   7.361384828682808e-07   -1.3469170451978272e-05
-3.6027101111433093e-06   7.361384828682808e-07   -1.3469170451978272e-05
-3.6027101111433093e-06   7.361384828682808e-07   -1.3469170451978272e-05
-3.517911199895448e-06   1.2325226967818985e-06   -1.7346928157136983e-05
-3.517911199895448e-06   1.2325226967818985e-06   -1.7346928157136983e-05
-3.517911199895448e-06   1.2325226967818985e-06   -1.7346928157136983e-05
-3.517911199895448e-06   1.2325226967818985e-06   -1.7346928157136983e-05
-5.817700695562372e-06   1.2262913748410892e-06   -1.351020687119419e-05
-5.817700695562372e-06   1.2262913748410892e-06   -1.351020687119419e-05
-5.817700695562372e-06   1.2262913748410892e-06   -1.351020687119419e-05
-5.817700695562372e-06   1.2262913748410892e-06   -1.351020687119419e-05
-4.711063040391557e-06   9.494002379490188e-07   -1.5188468281010286e-05
-4.711063040391557e-06   9.494002379490188e-07   -1.5188468281010286e-05
-4.711063040391557e-06   9.494002379490188e-07   -1.5188468281010286e-05
-4.711063040391557e-06   9.494002379490188e-07   -1.5188468281010286e-05
-5.817700695562365e-06   1.2325226967818985e-06   -1.7343189363972446e-05
-5.817700695562365e-06   1.2325226967818985e-06   -1.7343189363972446e-05
-5.817700695562365e-06   1.2325226967818985e-06   -1.7343189363972446e-05
-5.817700695562365e-06   1.2325226967818985e-06   -1.7343189363972446e-05
-3.517911199895442e-06   1.2262913748410892e-06   -1.3513945664358633e-05
-3.517911199895442e-06   1.2262913748410892e-06   -1.3513945664358633e-05
-3.517911199895442e-06   1.2262913748410892e-06   -1.3513945664358633e-05
-3.517911199895442e-06   1.2262913748410892e-06   -1.3513945664358633e-05
-3.4419327670327014e-06   1.7760446283608938e-06   -1.763866825876142e-05
-3.4419327670327014e-06   1.7760446283608938e-06   -1.763866825876142e-05
-3.4419327670327014e-06   1.7760446283608938e-06   -1.763866825876142e-05
-3.4419327670327014e-06   1.7760446283608938e-06   -1.763866825876142e-05
-5.7424286511342955e-06   1.7239089348712404e-06   -1.3773227035831587e-05
-5.7424286511342955e-06   1.7239089348712404e-06   -1.3773227035831587e-05
-5.7424286511342955e-06   1.7239089348712404e-06   -1.3773227035831587e-05
-5.7424286511342955e-06   1.7239089348712404e-06   -1.3773227035831587e-05
-4.671332053825459e-06   1.373371590602596e-06   -1.534806562478515e-05
-4.671332053825459e-06   1.373371590602596e-06   -1.534806562478515e-05
-4.671332053825459e-06   1.373371590602596e-06   -1.534806562478515e-05
-4.671332053825459e-06   1.373371590602596e-06   -1.534806562478515e-05
-3.677443802573182e-06   -5.45309439637558e-07   -1.5354825257168133e-05
-3.677443802573182e-06   -5.45309439637558e-07   -1.5354825257168133e-05
-3.677443802573182e-06   -5.45309439637558e-07   -1.5354825257168133e-05
-3.677443802573182e-06   -5.45309439637558e-07   -1.5354825257168133e-05
-1.453055440553347e-06   1.1561617296412764e-07   -1.1250955952907412e-05
-1.453055440553347e-06   1.1561617296412764e-07   -1.1250955952907412e-05
-1.453055440553347e-06   1.1561617296412764e-07   -1.1250955952907412e-05
-1.453055440553347e-06   1.1561617296412764e-07   -1.1250955952907412e-05
-1.3396708990728572e-06   -4.261533896089426e-08   -1.485603521281012e-05
-1.3396708990728572e-06   -4.261533896089426e-08   -1.485603521281012e-05
-1.3396708990728572e-06   -4.261533896089426e-08   -1.485603521281012e-05
-1.3396708990728572e-06   -4.261533896089426e-08   -1.485603521281012e-05
-3.6027101111433093e-06   5.87324879058361e-07   -1.1462267323504105e-05
-3.6027101111433093e-06   5.87324879058361e-07   -1.1462267323504105e-05
-3.6027101111433093e-06   5.87324879058361e-07   -1.1462267323504105e-05
-3.6027101111433093e-06   5.87324879058361e-07   -1.1462267323504105e-05
-2.4927395588124236e-06   7.775766985826968e-08   -1.3006477918535791e-05
-2.4927395588124236e-06   7.775766985826968e-08   -1.3006477918535791e-05
-2.4927395588124236e-06   7.775766985826968e-08   -1.3006477918535791e-05
-2.4927395588124236e-06   7.775766985826968e-08   -1.3006477918535791e-05
-3.6027101111433033e-06   -4.261533896089426e-08   -1.523399934362163e-05
-3.6027101111433033e-06   -4.261533896089426e-08   -1.523399934362163e-05
-3.6027101111433033e-06   -4.261533896089426e-08   -1.523399934362163e-05
-3.6027101111433033e-06   -4.261533896089426e-08   -1.523399934362163e-05
-1.3396708990728572e-06   5.87324879058361e-07   -1.108430319269265e-05
-1.3396708990728572e-06   5.87324879058361e-07   -1.108430319269265e-05
-1.3396708990728572e-06   5.87324879058361e-07   -1.108430319269265e-05
-1.3396708990728572e-06   5.87324879058361e-07   -1.108430319269265e-05
-1.1685308222676244e-06   4.399135596066801e-07   -1.5052674533924557e-05
-1.1685308222676244e-06   4.399135596066801e-07   -1.5052674533924557e-05
-1.1685308222676244e-06   4.399135596066801e-07   -1.5052674533924557e-05
-1.1685308222676244e-06   4.399135596066801e-07   -1.5052674533924557e-05
-3.517911199895442e-06   1.0308659773617139e-06   -1.1491612021864451e-05
-3.517911199895442e-06   1.0308659773617139e-06   -1.1491612021864451e-05
-3.517911199895442e-06   1.0308659773617139e-06   -1.1491612021864451e-05
-3.517911199895442e-06   1.0308659773617139e-06   -1.1491612021864451e-05
-2.425019532316846e-06   4.591949673243118e-07   -1.297009552847305e-05
-2.425019532316846e-06   4.591949673243118e-07   -1.297009552847305e-05
-2.425019532316846e-06   4.591949673243118e-07   -1.297009552847305e-05
-2.425019532316846e-06   4.591949673243118e-07   -1.297009552847305e-05
-3.517911199895436e-06   4.399135596066259e-07   -1.5407245984577512e-05
-3.517911199895436e-06   4.399135596066259e-07   -1.5407245984577512e-05
-3.517911199895436e-06   4.399135596066259e-07   -1.5407245984577512e-05
-3.517911199895436e-06   4.399135596066259e-07   -1.5407245984577512e-05
-1.1685308222676244e-06   1.0308659773617139e-06   -1.1137040571211469e-05
-1.1685308222676244e-06   1.0308659773617139e-06   -1.1137040571211469e-05
-1.1685308222676244e-06   1.0308659773617139e-06   -1.1137040571211469e-05
-1.1685308222676244e-06   1.0308659773617139e-06   -1.1137040571211469e-05
-1.04951573611638e-06   9.917503113812134e-07   -1.5473374826630894e-05
-1.04951573611638e-06   9.917503113812134e-07   -1.5473374826630894e-05
-1.04951573611638e-06   9.917503113812134e-07   -1.5473374826630894e-05
-1.04951573611638e-06   9.917503113812134e-07   -1.5473374826630894e-05
-3.4419327670327014e-06   1.5311526015279677e-06   -1.1809654482524947e-05
-3.4419327670327014e-06   1.5311526015279677e-06   -1.1809654482524947e-05
-3.4419327670327014e-06   1.5311526015279677e-06   -1.1809654482524947e-05
-3.4419327670327014e-06   1.5311526015279677e-06   -1.1809654482524947e-05
-2.3546378248888775e-06   8.577366695689014e-07   -1.3217763160255957e-05
-2.3546378248888775e-06   8.577366695689014e-07   -1.3217763160255957e-05
-2.3546378248888775e-06   8.577366695689014e-07   -1.3217763160255957e-05
-2.3546378248888775e-06   8.577366695689014e-07   -1.3217763160255957e-05
-1.4530554405533402e-06   -9.953626342391517e-07   -8.317530815813974e-06
-1.4530554405533402e-06   -9.953626342391517e-07   -8.317530815813974e-06
-1.4530554405533402e-06   -9.953626342391517e-07   -8.317530815813974e-06
-1.4530554405533402e-06   -9.953626342391517e-07   -8.317530815813974e-06
1.5646751842905715e-07   1.7001734062418268e-07   -4.935764565925347e-06
1.5646751842905715e-07   1.7001734062418268e-07   -4.935764565925347e-06
1.5646751842905715e-07   1.7001734062418268e-07   -4.935764565925347e-06
1.5646751842905715e-07   1.7001734062418268e-07   -4.935764565925347e-06
7.728777557609097e-07   -6.533669873151388e-07   -7.920511630002272e-06
7.728777557609097e-07   -6.533669873151388e-07   -7.920511630002272e-06
7.728777557609097e-07   -6.533669873151388e-07   -7.920511630002272e-06
7.728777557609097e-07   -6.533669873151388e-07   -7.920511630002272e-06
-1.3396708990728504e-06   5.440751179200225e-07   -5.118062468420303e-06
-1.3396708990728504e-06   5.440751179200225e-07   -5.118062468420303e-06
-1.3396708990728504e-06   5.440751179200225e-07   -5.118062468420303e-06
-1.3396708990728504e-06   5.440751179200225e-07   -5.118062468420303e-06
-4.5137527662353073e-07   -1.8438650530288453e-07   -6.161478198568929e-06
-4.5137527662353073e-07   -1.8438650530288453e-07   -6.161478198568929e-06
-4.5137527662353073e-07   -1.8438650530288453e-07   -6.161478198568929e-06
-4.5137527662353073e-07   -1.8438650530288453e-07   -6.161478198568929e-06
-1.3396708990728436e-06   -6.533669873151388e-07   -8.638976893143304e-06
-1.3396708990728436e-06   -6.533669873151388e-07   -8.638976893143304e-06
-1.3396708990728436e-06   -6.533669873151388e-07   -8.638976893143304e-06
-1.3396708990728436e-06   -6.533669873151388e-07   -8.638976893143304e-06
7.728777557609233e-07   5.440751179200767e-07   -4.399597205279244e-06
7.728777557609233e-07   5.440751179200767e-07   -4.399597205279244e-06
7.728777557609233e-07   5.440751179200767e-07   -4.399597205279244e-06
7.728777557609233e-07   5.440751179200767e-07   -4.399597205279244e-06
1.2600127891117003e-06   -4.1860988457174085e-07   -8.342793772979606e-06
1.2600127891117003e-06   -4.1860988457174085e-07   -8.342793772979606e-06
1.2600127891117003e-06   -4.1860988457174085e-07   -8.342793772979606e-06
1.2600127891117003e-06   -4.1860988457174085e-07   -8.342793772979606e-06
-1.1685308222676244e-06   7.538120195551504e-07   -4.998674229823483e-06
-1.1685308222676244e-06   7.538120195551504e-07   -4.998674229823483e-06
-1.1685308222676244e-06   7.538120195551504e-07   -4.998674229823483e-06
-1.1685308222676244e-06   7.538120195551504e-07   -4.998674229823483e-06
-1.4241733095135827e-07   -4.2017358881758175e-09   -6.254055128751199e-06
-1.4241733095135827e-07   -4.2017358881758175e-09   -6.254055128751199e-06
-1.4241733095135827e-07   -4.2017358881758175e-09   -6.254055128751199e-06
-1.4241733095135827e-07   -4.2017358881758175e-09   -6.254055128751199e-06
-1.1685308222676176e-06   -4.1860988457168664e-07   -9.046246915455741e-06
-1.1685308222676176e-06   -4.1860988457168664e-07   -9.046246915455741e-06
-1.1685308222676176e-06   -4.1860988457168664e-07   -9.046246915455741e-06
-1.1685308222676176e-06   -4.1860988457168664e-07   -9.046246915455741e-06
1.2600127891117138e-06   7.538120195551504e-07   -4.2952210873472944e-06
1.2600127891117138e-06   7.538120195551504e-07   -4.2952210873472944e-06
1.2600127891117138e-06   7.538120195551504e-07   -4.2952210873472944e-06
1.2600127891117138e-06   7.538120195551504e-07   -4.2952210873472944e-06
1.8772408462489597e-06   4.033741625393333e-08   -9.335235970983955e-06
1.8772408462489597e-06   4.033741625393333e-08   -9.335235970983955e-06
1.8772408462489597e-06   4.033741625393333e-08   -9.335235970983955e-06
1.8772408462489597e-06   4.033741625393333e-08   -9.335235970983955e-06
-1.04951573611638e-06   1.1228010522465015e-06   -5.106786515303788e-06
-1.04951573611638e-06   1.1228010522465015e-06   -5.106786515303788e-06
-1.04951573611638e-06   1.1228010522465015e-06   -5.106786515303788e-06
-1.04951573611638e-06   1.1228010522465015e-06   -5.106786515303788e-06
1.281005717824858e-07   1.9852410903481812e-07   -6.514914195875074e-06
1.281005717824858e-07   1.9852410903481812e-07   -6.514914195875074e-06
1.281005717824858e-07   1.9852410903481812e-07   -6.514914195875074e-06
1.281005717824858e-07   1.9852410903481812e-07   -6.514914195875074e-06
-3.836019702665425e-06   7.330160932476058e-07   -6.990767814447858e-06
-3.836019702665425e-06   7.330160932476058e-07   -6.990767814447858e-06
-3.836019702665425e-06   7.330160932476058e-07   -6.990767814447858e-06
-3.836019702665425e-06   7.330160932476058e-07   -6.990767814447858e-06
-3.962668383628541e-06   -3.5234881966446363e-07   -7.853067897133602e-06
-3.962668383628541e-06   -3.5234881966446363e-07   -7.853067897133602e-06
-3.962668383628541e-06   -3.5234881966446363e-07   -7.853067897133602e-06
-3.962668383628541e-06   -3.5234881966446363e-07   -7.853067897133602e-06
-3.7685557256750133e-06   1.1473808059980707e-06   -6.570181364099533e-06
-3.7685557256750133e-06   1.1473808059980707e-06   -6.570181364099533e-06
-3.7685557256750133e-06   1.1473808059980707e-06   -6.570181364099533e-06
-3.7685557256750133e-06   1.1473808059980707e-06   -6.570181364099533e-06
-3.1526621912951784e-06   -1.8620380017714787e-08   -6.897069876456575e-06
-3.1526621912951784e-06   -1.8620380017714787e-08   -6.897069876456575e-06
-3.1526621912951784e-06   -1.8620380017714787e-08   -6.897069876456575e-06
-3.1526621912951784e-06   -1.8620380017714787e-08   -6.897069876456575e-06
-3.5194566750977124e-06   5.050453830447168e-07   -6.5999451946232896e-06
-3.5194566750977124e-06   5.050453830447168e-07   -6.5999451946232896e-06
-3.5194566750977124e-06   5.050453830447168e-07   -6.5999451946232896e-06
-3.5194566750977124e-06   5.050453830447168e-07   -6.5999451946232896e-06
-3.1526621912951784e-06   1.1473808059980707e-06   -5.870580652490089e-06
-3.1526621912951784e-06   1.1473808059980707e-06   -5.870580652490089e-06
-3.1526621912951784e-06   1.1473808059980707e-06   -5.870580652490089e-06
-3.1526621912951784e-06   1.1473808059980707e-06   -5.870580652490089e-06
-3.768555725675027e-06   -1.8620380017823207e-08   -7.596670588066101e-06
-3.768555725675027e-06   -1.8620380017823207e-08   -7.596670588066101e-06
-3.768555725675027e-06   -1.8620380017823207e-08   -7.596670588066101e-06
-3.768555725675027e-06   -1.8620380017823207e-08   -7.596670588066101e-06
-3.5227866393372986e-06   1.3580872244474689e-06   -6.096488786813247e-06
-3.5227866393372986e-06   1.3580872244474689e-06   -6.096488786813247e-06
-3.5227866393372986e-06   1.3580872244474689e-06   -6.096488786813247e-06
-3.5227866393372986e-06   1.3580872244474689e-06   -6.096488786813247e-06
-2.5901031103297233e-06   1.7171977742124096e-07   -6.939140866943296e-06
-2.5901031103297233e-06   1.7171977742124096e-07   -6.939140866943296e-06
-2.5901031103297233e-06   1.7171977742124096e-07   -6.939140866943296e-06
-2.5901031103297233e-06   1.7171977742124096e-07   -6.939140866943296e-06
-3.198320947650108e-06   6.772453819918055e-07   -6.228759834152068e-06
-3.198320947650108e-06   6.772453819918055e-07   -6.228759834152068e-06
-3.198320947650108e-06   6.772453819918055e-07   -6.228759834152068e-06
-3.198320947650108e-06   6.772453819918055e-07   -6.228759834152068e-06
-2.5901031103297504e-06   1.3580872244474689e-06   -5.384668318597418e-06
-2.5901031103297504e-06   1.3580872244474689e-06   -5.384668318597418e-06
-2.5901031103297504e-06   1.3580872244474689e-06   -5.384668318597418e-06
-2.5901031103297504e-06   1.3580872244474689e-06   -5.384668318597418e-06
-3.522786639337312e-06   1.7171977742124096e-07   -7.65096133515907e-06
-3.522786639337312e-06   1.7171977742124096e-07   -7.65096133515907e-06
-3.522786639337312e-06   1.7171977742124096e-07   -7.65096133515907e-06
-3.522786639337312e-06   1.7171977742124096e-07   -7.65096133515907e-06
-3.333201838913994e-06   1.6925190039507884e-06   -5.659069273073478e-06
-3.333201838913994e-06   1.6925190039507884e-06   -5.659069273073478e-06
-3.333201838913994e-06   1.6925190039507884e-06   -5.659069273073478e-06
-3.333201838913994e-06   1.6925190039507884e-06   -5.659069273073478e-06
-1.8955199032466693e-06   5.508016730319809e-07   -7.370175433967679e-06
-1.8955199032466693e-06   5.508016730319809e-07   -7.370175433967679e-06
-1.8955199032466693e-06   5.508016730319809e-07   -7.370175433967679e-06
-1.8955199032466693e-06   5.508016730319809e-07   -7.370175433967679e-06
-2.7987868136294367e-06   8.442310382682228e-07   -6.0407882024711765e-06
-2.7987868136294367e-06   8.442310382682228e-07   -6.0407882024711765e-06
-2.7987868136294367e-06   8.442310382682228e-07   -6.0407882024711765e-06
-2.7987868136294367e-06   8.442310382682228e-07   -6.0407882024711765e-06
-3.962668383628528e-06   4.2811304939906897e-07   -1.2797738241595736e-05
-3.962668383628528e-06   4.2811304939906897e-07   -1.2797738241595736e-05
-3.962668383628528e-06   4.2811304939906897e-07   -1.2797738241595736e-05
-3.962668383628528e-06   4.2811304939906897e-07   -1.2797738241595736e-05
-4.623960202987989e-06   -7.125131295702362e-08   -1.4199509891275175e-05
-4.623960202987989e-06   -7.125131295702362e-08   -1.4199509891275175e-05
-4.623960202987989e-06   -7.125131295702362e-08   -1.4199509891275175e-05
-4.623960202987989e-06   -7.125131295702362e-08   -1.4199509891275175e-05
-4.468800376236199e-06   9.039834373963116e-07   -1.2805291951991239e-05
-4.468800376236199e-06   9.039834373963116e-07   -1.2805291951991239e-05
-4.468800376236199e-06   9.039834373963116e-07   -1.2805291951991239e-05
-4.468800376236199e-06   9.039834373963116e-07   -1.2805291951991239e-05
-3.768555725675027e-06   3.508412418820172e-07   -1.3640481052284526e-05
-3.768555725675027e-06   3.508412418820172e-07   -1.3640481052284526e-05
-3.768555725675027e-06   3.508412418820172e-07   -1.3640481052284526e-05
-3.768555725675027e-06   3.508412418820172e-07   -1.3640481052284526e-05
-4.157145478214552e-06   4.970065355184292e-07   -1.308053064090073e-05
-4.157145478214552e-06   4.970065355184292e-07   -1.308053064090073e-05
-4.157145478214552e-06   4.970065355184292e-07   -1.308053064090073e-05
-4.157145478214552e-06   4.970065355184292e-07   -1.308053064090073e-05
-3.768555725675027e-06   9.039834373963658e-07   -1.2473406634682565e-05
-3.768555725675027e-06   9.039834373963658e-07   -1.2473406634682565e-05
-3.768555725675027e-06   9.039834373963658e-07   -1.2473406634682565e-05
-3.768555725675027e-06   9.039834373963658e-07   -1.2473406634682565e-05
-4.468800376236186e-06   3.508412418820172e-07   -1.3972366369593173e-05
-4.468800376236186e-06   3.508412418820172e-07   -1.3972366369593173e-05
-4.468800376236186e-06   3.508412418820172e-07   -1.3972366369593173e-05
-4.468800376236186e-06   3.508412418820172e-07   -1.3972366369593173e-05
-4.307278949147694e-06   1.3476007001181865e-06   -1.2697676141946567e-05
-4.307278949147694e-06   1.3476007001181865e-06   -1.2697676141946567e-05
-4.307278949147694e-06   1.3476007001181865e-06   -1.2697676141946567e-05
-4.307278949147694e-06   1.3476007001181865e-06   -1.2697676141946567e-05
-3.522786639337312e-06   7.582472638311636e-07   -1.3651551263191557e-05
-3.522786639337312e-06   7.582472638311636e-07   -1.3651551263191557e-05
-3.522786639337312e-06   7.582472638311636e-07   -1.3651551263191557e-05
-3.522786639337312e-06   7.582472638311636e-07   -1.3651551263191557e-05
-4.001818876578651e-06   8.386273103907203e-07   -1.2901392229058468e-05
-4.001818876578651e-06   8.386273103907203e-07   -1.2901392229058468e-05
-4.001818876578651e-06   8.386273103907203e-07   -1.2901392229058468e-05
-4.001818876578651e-06   8.386273103907203e-07   -1.2901392229058468e-05
-3.5227866393372986e-06   1.3476007001182407e-06   -1.2344064080174261e-05
-3.5227866393372986e-06   1.3476007001182407e-06   -1.2344064080174261e-05
-3.5227866393372986e-06   1.3476007001182407e-06   -1.2344064080174261e-05
-3.5227866393372986e-06   1.3476007001182407e-06   -1.2344064080174261e-05
-4.307278949147687e-06   7.582472638311636e-07   -1.4005163324963782e-05
-4.307278949147687e-06   7.582472638311636e-07   -1.4005163324963782e-05
-4.307278949147687e-06   7.582472638311636e-07   -1.4005163324963782e-05
-4.307278949147687e-06   7.582472638311636e-07   -1.4005163324963782e-05
-4.155741788856573e-06   1.841644312599081e-06   -1.2908436669739165e-05
-4.155741788856573e-06   1.841644312599081e-06   -1.2908436669739165e-05
-4.155741788856573e-06   1.841644312599081e-06   -1.2908436669739165e-05
-4.155741788856573e-06   1.841644312599081e-06   -1.2908436669739165e-05
-3.3332018389140076e-06   1.224514553482478e-06   -1.3909058730840116e-05
-3.3332018389140076e-06   1.224514553482478e-06   -1.3909058730840116e-05
-3.3332018389140076e-06   1.224514553482478e-06   -1.3909058730840116e-05
-3.3332018389140076e-06   1.224514553482478e-06   -1.3909058730840116e-05
-3.865852827454914e-06   1.1981692743825946e-06   -1.3005499915811752e-05
-3.865852827454914e-06   1.1981692743825946e-06   -1.3005499915811752e-05
-3.865852827454914e-06   1.1981692743825946e-06   -1.3005499915811752e-05
-3.865852827454914e-06   1.1981692743825946e-06   -1.3005499915811752e-05
-4.623960202987982e-06   2.5018458938027253e-07   -1.4919805835680903e-05
-4.623960202987982e-06   2.5018458938027253e-07   -1.4919805835680903e-05
-4.623960202987982e-06   2.5018458938027253e-07   -1.4919805835680903e-05
-4.623960202987982e-06   2.5018458938027253e-07   -1.4919805835680903e-05
-5.312378662411504e-06   3.5708468159917264e-07   -1.6003029879388788e-05
-5.312378662411504e-06   3.5708468159917264e-07   -1.6003029879388788e-05
-5.312378662411504e-06   3.5708468159917264e-07   -1.6003029879388788e-05
-5.312378662411504e-06   3.5708468159917264e-07   -1.6003029879388788e-05
-5.160290284849096e-06   7.361384828682808e-07   -1.468703801792067e-05
-5.160290284849096e-06   7.361384828682808e-07   -1.468703801792067e-05
-5.160290284849096e-06   7.361384828682808e-07   -1.468703801792067e-05
-5.160290284849096e-06   7.361384828682808e-07   -1.468703801792067e-05
-4.468800376236186e-06   7.946751029785449e-07   -1.587464317100829e-05
-4.468800376236186e-06   7.946751029785449e-07   -1.587464317100829e-05
-4.468800376236186e-06   7.946751029785449e-07   -1.587464317100829e-05
-4.468800376236186e-06   7.946751029785449e-07   -1.587464317100829e-05
-4.8618620605979375e-06   6.030703194781668e-07   -1.5104577493638653e-05
-4.8618620605979375e-06   6.030703194781668e-07   -1.5104577493638653e-05
-4.8618620605979375e-06   6.030703194781668e-07   -1.5104577493638653e-05
-4.8618620605979375e-06   6.030703194781668e-07   -1.5104577493638653e-05
-4.468800376236179e-06   7.361384828682808e-07   -1.4722159989986746e-05
-4.468800376236179e-06   7.361384828682808e-07   -1.4722159989986746e-05
-4.468800376236179e-06   7.361384828682808e-07   -1.4722159989986746e-05
-4.468800376236179e-06   7.361384828682808e-07   -1.4722159989986746e-05
-5.160290284849096e-06   7.946751029785449e-07   -1.5839521198942154e-05
-5.160290284849096e-06   7.946751029785449e-07   -1.5839521198942154e-05
-5.160290284849096e-06   7.946751029785449e-07   -1.5839521198942154e-05
-5.160290284849096e-06   7.946751029785449e-07   -1.5839521198942154e-05
-4.999728106869799e-06   1.2262913748410892e-06   -1.47285007581192e-05
-4.999728106869799e-06   1.2262913748410892e-06   -1.47285007581192e-05
-4.999728106869799e-06   1.2262913748410892e-06   -1.47285007581192e-05
-4.999728106869799e-06   1.2262913748410892e-06   -1.47285007581192e-05
-4.307278949147687e-06   1.241675399387375e-06   -1.589181310238363e-05
-4.307278949147687e-06   1.241675399387375e-06   -1.589181310238363e-05
-4.307278949147687e-06   1.241675399387375e-06   -1.589181310238363e-05
-4.307278949147687e-06   1.241675399387375e-06   -1.589181310238363e-05
-4.73512187859172e-06   9.78313280518365e-07   -1.502072428198915e-05
-4.73512187859172e-06   9.78313280518365e-07   -1.502072428198915e-05
-4.73512187859172e-06   9.78313280518365e-07   -1.502072428198915e-05
-4.73512187859172e-06   9.78313280518365e-07   -1.502072428198915e-05
-4.30727894914768e-06   1.2262913748410892e-06   -1.4737731172846859e-05
-4.30727894914768e-06   1.2262913748410892e-06   -1.4737731172846859e-05
-4.30727894914768e-06   1.2262913748410892e-06   -1.4737731172846859e-05
-4.30727894914768e-06   1.2262913748410892e-06   -1.4737731172846859e-05
-4.99972810686979e-06   1.241675399387375e-06   -1.5882582687655933e-05
-4.99972810686979e-06   1.241675399387375e-06   -1.5882582687655933e-05
-4.99972810686979e-06   1.241675399387375e-06   -1.5882582687655933e-05
-4.99972810686979e-06   1.241675399387375e-06   -1.5882582687655933e-05
-4.848452679502934e-06   1.7239089348712404e-06   -1.5014437219896344e-05
-4.848452679502934e-06   1.7239089348712404e-06   -1.5014437219896344e-05
-4.848452679502934e-06   1.7239089348712404e-06   -1.5014437219896344e-05
-4.848452679502934e-06   1.7239089348712404e-06   -1.5014437219896344e-05
-4.15574178885658e-06   1.694963708068751e-06   -1.6151588234892167e-05
-4.15574178885658e-06   1.694963708068751e-06   -1.6151588234892167e-05
-4.15574178885658e-06   1.694963708068751e-06   -1.6151588234892167e-05
-4.15574178885658e-06   1.694963708068751e-06   -1.6151588234892167e-05
-4.619027942635901e-06   1.3588510276224194e-06   -1.517777703699186e-05
-4.619027942635901e-06   1.3588510276224194e-06   -1.517777703699186e-05
-4.619027942635901e-06   1.3588510276224194e-06   -1.517777703699186e-05
-4.619027942635901e-06   1.3588510276224194e-06   -1.517777703699186e-05
-5.3123786624114954e-06   1.1561617296407343e-07   -1.2865029430926391e-05
-5.3123786624114954e-06   1.1561617296407343e-07   -1.2865029430926391e-05
-5.3123786624114954e-06   1.1561617296407343e-07   -1.2865029430926391e-05
-5.3123786624114954e-06   1.1561617296407343e-07   -1.2865029430926391e-05
-6.044905377966742e-06   7.908362842267347e-07   -1.3680775223427625e-05
-6.044905377966742e-06   7.908362842267347e-07   -1.3680775223427625e-05
-6.044905377966742e-06   7.908362842267347e-07   -1.3680775223427625e-05
-6.044905377966742e-06   7.908362842267347e-07   -1.3680775223427625e-05
-5.859706736273283e-06   5.87324879058361e-07   -1.2294167642846587e-05
-5.859706736273283e-06   5.87324879058361e-07   -1.2294167642846587e-05
-5.859706736273283e-06   5.87324879058361e-07   -1.2294167642846587e-05
-5.859706736273283e-06   5.87324879058361e-07   -1.2294167642846587e-05
-5.160290284849096e-06   1.2306036233916814e-06   -1.3845828975153401e-05
-5.160290284849096e-06   1.2306036233916814e-06   -1.3845828975153401e-05
-5.160290284849096e-06   1.2306036233916814e-06   -1.3845828975153401e-05
-5.160290284849096e-06   1.2306036233916814e-06   -1.3845828975153401e-05
-5.5508994823065e-06   7.295686354222904e-07   -1.289419265327639e-05
-5.5508994823065e-06   7.295686354222904e-07   -1.289419265327639e-05
-5.5508994823065e-06   7.295686354222904e-07   -1.289419265327639e-05
-5.5508994823065e-06   7.295686354222904e-07   -1.289419265327639e-05
-5.160290284849087e-06   5.87324879058361e-07   -1.268013488944649e-05
-5.160290284849087e-06   5.87324879058361e-07   -1.268013488944649e-05
-5.160290284849087e-06   5.87324879058361e-07   -1.268013488944649e-05
-5.160290284849087e-06   5.87324879058361e-07   -1.268013488944649e-05
-5.859706736273283e-06   1.230603623391573e-06   -1.345986172855354e-05
-5.859706736273283e-06   1.230603623391573e-06   -1.345986172855354e-05
-5.859706736273283e-06   1.230603623391573e-06   -1.345986172855354e-05
-5.859706736273283e-06   1.230603623391573e-06   -1.345986172855354e-05
-5.617674349669981e-06   1.0308659773617139e-06   -1.2343417559029183e-05
-5.617674349669981e-06   1.0308659773617139e-06   -1.2343417559029183e-05
-5.617674349669981e-06   1.0308659773617139e-06   -1.2343417559029183e-05
-5.617674349669981e-06   1.0308659773617139e-06   -1.2343417559029183e-05
-4.99972810686979e-06   1.6354485716880886e-06   -1.3736077520291867e-05
-4.99972810686979e-06   1.6354485716880886e-06   -1.3736077520291867e-05
-4.99972810686979e-06   1.6354485716880886e-06   -1.3736077520291867e-05
-4.99972810686979e-06   1.6354485716880886e-06   -1.3736077520291867e-05
-5.385210800092239e-06   1.0792167669818e-06   -1.2759867282097583e-05
-5.385210800092239e-06   1.0792167669818e-06   -1.2759867282097583e-05
-5.385210800092239e-06   1.0792167669818e-06   -1.2759867282097583e-05
-5.385210800092239e-06   1.0792167669818e-06   -1.2759867282097583e-05
-4.999728106869782e-06   1.0308659773617139e-06   -1.2706167115624951e-05
-4.999728106869782e-06   1.0308659773617139e-06   -1.2706167115624951e-05
-4.999728106869782e-06   1.0308659773617139e-06   -1.2706167115624951e-05
-4.999728106869782e-06   1.0308659773617139e-06   -1.2706167115624951e-05
-5.617674349669994e-06   1.6354485716880886e-06   -1.3373327963696032e-05
-5.617674349669994e-06   1.6354485716880886e-06   -1.3373327963696032e-05
-5.617674349669994e-06   1.6354485716880886e-06   -1.3373327963696032e-05
-5.617674349669994e-06   1.6354485716880886e-06   -1.3373327963696032e-05
-5.428219327143222e-06   1.5311526015279677e-06   -1.2685581052556294e-05
-5.428219327143222e-06   1.5311526015279677e-06   -1.2685581052556294e-05
-5.428219327143222e-06   1.5311526015279677e-06   -1.2685581052556294e-05
-5.428219327143222e-06   1.5311526015279677e-06   -1.2685581052556294e-05
-4.848452679502934e-06   2.0878229314272214e-06   -1.398586099656305e-05
-4.848452679502934e-06   2.0878229314272214e-06   -1.398586099656305e-05
-4.848452679502934e-06   2.0878229314272214e-06   -1.398586099656305e-05
-4.848452679502934e-06   2.0878229314272214e-06   -1.398586099656305e-05
-5.263379747245221e-06   1.4354033148875794e-06   -1.2902864113735311e-05
-5.263379747245221e-06   1.4354033148875794e-06   -1.2902864113735311e-05
-5.263379747245221e-06   1.4354033148875794e-06   -1.2902864113735311e-05
-5.263379747245221e-06   1.4354033148875794e-06   -1.2902864113735311e-05
-6.044905377966722e-06   1.7001734062418268e-07   -6.843933962104895e-06
-6.044905377966722e-06   1.7001734062418268e-07   -6.843933962104895e-06
-6.044905377966722e-06   1.7001734062418268e-07   -6.843933962104895e-06
-6.044905377966722e-06   1.7001734062418268e-07   -6.843933962104895e-06
-7.371342621957208e-06   1.3341726538715305e-06   -8.356169514140625e-06
-7.371342621957208e-06   1.3341726538715305e-06   -8.356169514140625e-06
-7.371342621957208e-06   1.3341726538715305e-06   -8.356169514140625e-06
-7.371342621957208e-06   1.3341726538715305e-06   -8.356169514140625e-06
-6.696223893653107e-06   5.440751179200225e-07   -5.61395014018825e-06
-6.696223893653107e-06   5.440751179200225e-07   -5.61395014018825e-06
-6.696223893653107e-06   5.440751179200225e-07   -5.61395014018825e-06
-6.696223893653107e-06   5.440751179200225e-07   -5.61395014018825e-06
-5.85970673627327e-06   1.7340364152301866e-06   -7.722122180873971e-06
-5.85970673627327e-06   1.7340364152301866e-06   -7.722122180873971e-06
-5.85970673627327e-06   1.7340364152301866e-06   -7.722122180873971e-06
-5.85970673627327e-06   1.7340364152301866e-06   -7.722122180873971e-06
-6.230338222111559e-06   9.925149317069814e-07   -6.659490147696321e-06
-6.230338222111559e-06   9.925149317069814e-07   -6.659490147696321e-06
-6.230338222111559e-06   9.925149317069814e-07   -6.659490147696321e-06
-6.230338222111559e-06   9.925149317069814e-07   -6.659490147696321e-06
-5.859706736273256e-06   5.440751179200767e-07   -6.32792691857424e-06
-5.859706736273256e-06   5.440751179200767e-07   -6.32792691857424e-06
-5.859706736273256e-06   5.440751179200767e-07   -6.32792691857424e-06
-5.859706736273256e-06   5.440751179200767e-07   -6.32792691857424e-06
-6.696223893653107e-06   1.7340364152301866e-06   -7.008145402487927e-06
-6.696223893653107e-06   1.7340364152301866e-06   -7.008145402487927e-06
-6.696223893653107e-06   1.7340364152301866e-06   -7.008145402487927e-06
-6.696223893653107e-06   1.7340364152301866e-06   -7.008145402487927e-06
-6.147111144030767e-06   7.538120195551504e-07   -5.507129143896965e-06
-6.147111144030767e-06   7.538120195551504e-07   -5.507129143896965e-06
-6.147111144030767e-06   7.538120195551504e-07   -5.507129143896965e-06
-6.147111144030767e-06   7.538120195551504e-07   -5.507129143896965e-06
-5.617674349669981e-06   1.917015475795384e-06   -7.087445874909011e-06
-5.617674349669981e-06   1.917015475795384e-06   -7.087445874909011e-06
-5.617674349669981e-06   1.917015475795384e-06   -7.087445874909011e-06
-5.617674349669981e-06   1.917015475795384e-06   -7.087445874909011e-06
-5.947999737850023e-06   1.1790272634628327e-06   -6.094110633876151e-06
-5.947999737850023e-06   1.1790272634628327e-06   -6.094110633876151e-06
-5.947999737850023e-06   1.1790272634628327e-06   -6.094110633876151e-06
-5.947999737850023e-06   1.1790272634628327e-06   -6.094110633876151e-06
-5.617674349669974e-06   7.538120195551504e-07   -6.205051217641089e-06
-5.617674349669974e-06   7.538120195551504e-07   -6.205051217641089e-06
-5.617674349669974e-06   7.538120195551504e-07   -6.205051217641089e-06
-5.617674349669974e-06   7.538120195551504e-07   -6.205051217641089e-06
-6.147111144030781e-06   1.917015475795384e-06   -6.389523801164914e-06
-6.147111144030781e-06   1.917015475795384e-06   -6.389523801164914e-06
-6.147111144030781e-06   1.917015475795384e-06   -6.389523801164914e-06
-6.147111144030781e-06   1.917015475795384e-06   -6.389523801164914e-06
-5.472591079503096e-06   1.1228010522465015e-06   -5.661660831542359e-06
-5.472591079503096e-06   1.1228010522465015e-06   -5.661660831542359e-06
-5.472591079503096e-06   1.1228010522465015e-06   -5.661660831542359e-06
-5.472591079503096e-06   1.1228010522465015e-06   -5.661660831542359e-06
-5.428219327143215e-06   2.1972904320481006e-06   -6.380307380023076e-06
-5.428219327143215e-06   2.1972904320481006e-06   -6.380307380023076e-06
-5.428219327143215e-06   2.1972904320481006e-06   -6.380307380023076e-06
-5.428219327143215e-06   2.1972904320481006e-06   -6.380307380023076e-06
-5.522280669301716e-06   1.3276539540811767e-06   -5.701756589645445e-06
-5.522280669301716e-06   1.3276539540811767e-06   -5.701756589645445e-06
-5.522280669301716e-06   1.3276539540811767e-06   -5.701756589645445e-06
-5.522280669301716e-06   1.3276539540811767e-06   -5.701756589645445e-06
3.5774912421482742e-06   -3.5234881966446363e-07   -3.4696691818050514e-06
3.5774912421482742e-06   -3.5234881966446363e-07   -3.4696691818050514e-06
3.5774912421482742e-06   -3.5234881966446363e-07   -3.4696691818050514e-06
3.5774912421482742e-06   -3.5234881966446363e-07   -3.4696691818050514e-06
3.809083262612317e-07   -1.4501232764495492e-06   -9.455972049021147e-06
3.809083262612317e-07   -1.4501232764495492e-06   -9.455972049021147e-06
3.809083262612317e-07   -1.4501232764495492e-06   -9.455972049021147e-06
3.809083262612317e-07   -1.4501232764495492e-06   -9.455972049021147e-06
6.459904524637022e-07   -1.8620380017714787e-08   -3.849713833166727e-06
6.459904524637022e-07   -1.8620380017714787e-08   -3.849713833166727e-06
6.459904524637022e-07   -1.8620380017714787e-08   -3.849713833166727e-06
6.459904524637022e-07   -1.8620380017714787e-08   -3.849713833166727e-06
4.3323183172232324e-06   -1.1935397182110145e-06   -9.288642004849927e-06
4.3323183172232324e-06   -1.1935397182110145e-06   -9.288642004849927e-06
4.3323183172232324e-06   -1.1935397182110145e-06   -9.288642004849927e-06
4.3323183172232324e-06   -1.1935397182110145e-06   -9.288642004849927e-06
2.1499494596701287e-06   -6.083235103206694e-07   -6.002490300329011e-06
2.1499494596701287e-06   -6.083235103206694e-07   -6.002490300329011e-06
2.1499494596701287e-06   -6.083235103206694e-07   -6.002490300329011e-06
2.1499494596701287e-06   -6.083235103206694e-07   -6.002490300329011e-06
4.3323183172232324e-06   -1.8620380017714787e-08   -3.1447622302507145e-06
4.3323183172232324e-06   -1.8620380017714787e-08   -3.1447622302507145e-06
4.3323183172232324e-06   -1.8620380017714787e-08   -3.1447622302507145e-06
4.3323183172232324e-06   -1.8620380017714787e-08   -3.1447622302507145e-06
6.459904524637022e-07   -1.1935397182110145e-06   -9.99359360776602e-06
6.459904524637022e-07   -1.1935397182110145e-06   -9.99359360776602e-06
6.459904524637022e-07   -1.1935397182110145e-06   -9.99359360776602e-06
6.459904524637022e-07   -1.1935397182110145e-06   -9.99359360776602e-06
9.592821219750892e-07   1.7171977742124096e-07   -3.8846995152159395e-06
9.592821219750892e-07   1.7171977742124096e-07   -3.8846995152159395e-06
9.592821219750892e-07   1.7171977742124096e-07   -3.8846995152159395e-06
9.592821219750892e-07   1.7171977742124096e-07   -3.8846995152159395e-06
4.967662537538051e-06   -1.0206775708166338e-06   -9.849895132211389e-06
4.967662537538051e-06   -1.0206775708166338e-06   -9.849895132211389e-06
4.967662537538051e-06   -1.0206775708166338e-06   -9.849895132211389e-06
4.967662537538051e-06   -1.0206775708166338e-06   -9.849895132211389e-06
2.6268086899514413e-06   -4.873104564147778e-07   -6.268492321541853e-06
2.6268086899514413e-06   -4.873104564147778e-07   -6.268492321541853e-06
2.6268086899514413e-06   -4.873104564147778e-07   -6.268492321541853e-06
2.6268086899514413e-06   -4.873104564147778e-07   -6.268492321541853e-06
4.967662537538051e-06   1.7171977742124096e-07   -3.1692611062732092e-06
4.967662537538051e-06   1.7171977742124096e-07   -3.1692611062732092e-06
4.967662537538051e-06   1.7171977742124096e-07   -3.1692611062732092e-06
4.967662537538051e-06   1.7171977742124096e-07   -3.1692611062732092e-06
9.592821219750757e-07   -1.0206775708166338e-06   -1.05653335411542e-05
9.592821219750757e-07   -1.0206775708166338e-06   -1.05653335411542e-05
9.592821219750757e-07   -1.0206775708166338e-06   -1.05653335411542e-05
9.592821219750757e-07   -1.0206775708166338e-06   -1.05653335411542e-05
1.2151163923123813e-06   5.508016730319809e-07   -4.271184024145559e-06
1.2151163923123813e-06   5.508016730319809e-07   -4.271184024145559e-06
1.2151163923123813e-06   5.508016730319809e-07   -4.271184024145559e-06
1.2151163923123813e-06   5.508016730319809e-07   -4.271184024145559e-06
5.731102407018063e-06   -5.868674175927343e-07   -1.111522592761355e-05
5.731102407018063e-06   -5.868674175927343e-07   -1.111522592761355e-05
5.731102407018063e-06   -5.868674175927343e-07   -1.111522592761355e-05
5.731102407018063e-06   -5.868674175927343e-07   -1.111522592761355e-05
3.0017559225877703e-06   -3.0802631095186873e-07   -6.733619784214217e-06
3.0017559225877703e-06   -3.0802631095186873e-07   -6.733619784214217e-06
3.0017559225877703e-06   -3.0802631095186873e-07   -6.733619784214217e-06
3.0017559225877703e-06   -3.0802631095186873e-07   -6.733619784214217e-06
3.809083262612317e-07   -7.125131295702362e-08   -1.0175157232604042e-05
3.809083262612317e-07   -7.125131295702362e-08   -1.0175157232604042e-05
3.809083262612317e-07   -7.125131295702362e-08   -1.0175157232604042e-05
3.809083262612317e-07   -7.125131295702362e-08   -1.0175157232604042e-05
-3.3161187004320046e-06   -5.661840277432608e-07   -1.663382857263108e-05
-3.3161187004320046e-06   -5.661840277432608e-07   -1.663382857263108e-05
-3.3161187004320046e-06   -5.661840277432608e-07   -1.663382857263108e-05
-3.3161187004320046e-06   -5.661840277432608e-07   -1.663382857263108e-05
-3.085148874386609e-06   3.508412418820172e-07   -1.0231490008847928e-05
-3.085148874386609e-06   3.508412418820172e-07   -1.0231490008847928e-05
-3.085148874386609e-06   3.508412418820172e-07   -1.0231490008847928e-05
-3.085148874386609e-06   3.508412418820172e-07   -1.0231490008847928e-05
6.459904524637022e-07   -2.1243494388904164e-07   -1.611208984213583e-05
6.459904524637022e-07   -2.1243494388904164e-07   -1.611208984213583e-05
6.459904524637022e-07   -2.1243494388904164e-07   -1.611208984213583e-05
6.459904524637022e-07   -2.1243494388904164e-07   -1.611208984213583e-05
-1.3130077879457228e-06   -1.5794810510070048e-08   -1.2965076854814107e-05
-1.3130077879457228e-06   -1.5794810510070048e-08   -1.2965076854814107e-05
-1.3130077879457228e-06   -1.5794810510070048e-08   -1.2965076854814107e-05
-1.3130077879457228e-06   -1.5794810510070048e-08   -1.2965076854814107e-05
6.459904524637157e-07   3.508412418820172e-07   -9.893524297385192e-06
6.459904524637157e-07   3.508412418820172e-07   -9.893524297385192e-06
6.459904524637157e-07   3.508412418820172e-07   -9.893524297385192e-06
6.459904524637157e-07   3.508412418820172e-07   -9.893524297385192e-06
-3.085148874386609e-06   -2.1243494388904164e-07   -1.64500555535985e-05
-3.085148874386609e-06   -2.1243494388904164e-07   -1.64500555535985e-05
-3.085148874386609e-06   -2.1243494388904164e-07   -1.64500555535985e-05
-3.085148874386609e-06   -2.1243494388904164e-07   -1.64500555535985e-05
-2.8527964007300167e-06   7.582472638311636e-07   -1.0247848073127578e-05
-2.8527964007300167e-06   7.582472638311636e-07   -1.0247848073127578e-05
-2.8527964007300167e-06   7.582472638311636e-07   -1.0247848073127578e-05
-2.8527964007300167e-06   7.582472638311636e-07   -1.0247848073127578e-05
9.592821219750892e-07   1.5398288069927088e-07   -1.6238753647756902e-05
9.592821219750892e-07   1.5398288069927088e-07   -1.6238753647756902e-05
9.592821219750892e-07   1.5398288069927088e-07   -1.6238753647756902e-05
9.592821219750892e-07   1.5398288069927088e-07   -1.6238753647756902e-05
-1.109428342925046e-06   2.7601157527080717e-07   -1.286412008966631e-05
-1.109428342925046e-06   2.7601157527080717e-07   -1.286412008966631e-05
-1.109428342925046e-06   2.7601157527080717e-07   -1.286412008966631e-05
-1.109428342925046e-06   2.7601157527080717e-07   -1.286412008966631e-05
9.592821219750892e-07   7.582472638311636e-07   -9.885289443248453e-06
9.592821219750892e-07   7.582472638311636e-07   -9.885289443248453e-06
9.592821219750892e-07   7.582472638311636e-07   -9.885289443248453e-06
9.592821219750892e-07   7.582472638311636e-07   -9.885289443248453e-06
-2.8527964007300167e-06   1.5398288069927088e-07   -1.660131227763608e-05
-2.8527964007300167e-06   1.5398288069927088e-07   -1.660131227763608e-05
-2.8527964007300167e-06   1.5398288069927088e-07   -1.660131227763608e-05
-2.8527964007300167e-06   1.5398288069927088e-07   -1.660131227763608e-05
-2.6313357477803696e-06   1.224514553482478e-06   -1.0506412501775221e-05
-2.6313357477803696e-06   1.224514553482478e-06   -1.0506412501775221e-05
-2.6313357477803696e-06   1.224514553482478e-06   -1.0506412501775221e-05
-2.6313357477803696e-06   1.224514553482478e-06   -1.0506412501775221e-05
1.2151163923123948e-06   5.888885879683312e-07   -1.653579048928799e-05
1.2151163923123948e-06   5.888885879683312e-07   -1.653579048928799e-05
1.2151163923123948e-06   5.888885879683312e-07   -1.653579048928799e-05
1.2151163923123948e-06   5.888885879683312e-07   -1.653579048928799e-05
-8.816392463267104e-07   6.004795638402051e-07   -1.3048152343746004e-05
-8.816392463267104e-07   6.004795638402051e-07   -1.3048152343746004e-05
-8.816392463267104e-07   6.004795638402051e-07   -1.3048152343746004e-05
-8.816392463267104e-07   6.004795638402051e-07   -1.3048152343746004e-05
-3.3161187004320113e-06   3.5708468159917264e-07   -1.2339776904920766e-05
-3.3161187004320113e-06   3.5708468159917264e-07   -1.2339776904920766e-05
-3.3161187004320113e-06   3.5708468159917264e-07   -1.2339776904920766e-05
-3.3161187004320113e-06   3.5708468159917264e-07   -1.2339776904920766e-05
-6.978178843981379e-06   4.4967738942539026e-07   -1.838765485280726e-05
-6.978178843981379e-06   4.4967738942539026e-07   -1.838765485280726e-05
-6.978178843981379e-06   4.4967738942539026e-07   -1.838765485280726e-05
-6.978178843981379e-06   4.4967738942539026e-07   -1.838765485280726e-05
-6.7459170280161694e-06   7.946751029785449e-07   -1.2115440986460715e-05
-6.7459170280161694e-06   7.946751029785449e-07   -1.2115440986460715e-05
-6.7459170280161694e-06   7.946751029785449e-07   -1.2115440986460715e-05
-6.7459170280161694e-06   7.946751029785449e-07   -1.2115440986460715e-05
-3.085148874386609e-06   8.25218142649106e-07   -1.8235047066312345e-05
-3.085148874386609e-06   8.25218142649106e-07   -1.8235047066312345e-05
-3.085148874386609e-06   8.25218142649106e-07   -1.8235047066312345e-05
-3.085148874386609e-06   8.25218142649106e-07   -1.8235047066312345e-05
-5.002290405498183e-06   6.830279945446369e-07   -1.4954497092263693e-05
-5.002290405498183e-06   6.830279945446369e-07   -1.4954497092263693e-05
-5.002290405498183e-06   6.830279945446369e-07   -1.4954497092263693e-05
-5.002290405498183e-06   6.830279945446369e-07   -1.4954497092263693e-05
-3.085148874386609e-06   7.946751029785449e-07   -1.2133766810263073e-05
-3.085148874386609e-06   7.946751029785449e-07   -1.2133766810263073e-05
-3.085148874386609e-06   7.946751029785449e-07   -1.2133766810263073e-05
-3.085148874386609e-06   7.946751029785449e-07   -1.2133766810263073e-05
-6.745917028016158e-06   8.25218142649106e-07   -1.8216721242509987e-05
-6.745917028016158e-06   8.25218142649106e-07   -1.8216721242509987e-05
-6.745917028016158e-06   8.25218142649106e-07   -1.8216721242509987e-05
-6.745917028016158e-06   8.25218142649106e-07   -1.8216721242509987e-05
-6.509426860301049e-06   1.241675399387375e-06   -1.214616219972662e-05
-6.509426860301049e-06   1.241675399387375e-06   -1.214616219972662e-05
-6.509426860301049e-06   1.241675399387375e-06   -1.214616219972662e-05
-6.509426860301049e-06   1.241675399387375e-06   -1.214616219972662e-05
-2.8527964007300235e-06   1.2222348174220675e-06   -1.8228881949832517e-05
-2.8527964007300235e-06   1.2222348174220675e-06   -1.8228881949832517e-05
-2.8527964007300235e-06   1.2222348174220675e-06   -1.8228881949832517e-05
-2.8527964007300235e-06   1.2222348174220675e-06   -1.8228881949832517e-05
-4.798625128937148e-06   1.0115603754999982e-06   -1.4859429404334289e-05
-4.798625128937148e-06   1.0115603754999982e-06   -1.4859429404334289e-05
-4.798625128937148e-06   1.0115603754999982e-06   -1.4859429404334289e-05
-4.798625128937148e-06   1.0115603754999982e-06   -1.4859429404334289e-05
-2.8527964007300235e-06   1.241675399387375e-06   -1.2134497850547425e-05
-2.8527964007300235e-06   1.241675399387375e-06   -1.2134497850547425e-05
-2.8527964007300235e-06   1.241675399387375e-06   -1.2134497850547425e-05
-2.8527964007300235e-06   1.241675399387375e-06   -1.2134497850547425e-05
-6.509426860301039e-06   1.2222348174219591e-06   -1.8240546299011604e-05
-6.509426860301039e-06   1.2222348174219591e-06   -1.8240546299011604e-05
-6.509426860301039e-06   1.2222348174219591e-06   -1.8240546299011604e-05
-6.509426860301039e-06   1.2222348174219591e-06   -1.8240546299011604e-05
-6.2840140180801955e-06   1.694963708068751e-06   -1.2419935282881529e-05
-6.2840140180801955e-06   1.694963708068751e-06   -1.2419935282881529e-05
-6.2840140180801955e-06   1.694963708068751e-06   -1.2419935282881529e-05
-6.2840140180801955e-06   1.694963708068751e-06   -1.2419935282881529e-05
-2.6313357477803696e-06   1.626178487194982e-06   -1.8466461267523603e-05
-2.6313357477803696e-06   1.626178487194982e-06   -1.8466461267523603e-05
-2.6313357477803696e-06   1.626178487194982e-06   -1.8466461267523603e-05
-2.6313357477803696e-06   1.626178487194982e-06   -1.8466461267523603e-05
-4.609698204177833e-06   1.3451577900405634e-06   -1.5000578088568536e-05
-4.609698204177833e-06   1.3451577900405634e-06   -1.5000578088568536e-05
-4.609698204177833e-06   1.3451577900405634e-06   -1.5000578088568536e-05
-4.609698204177833e-06   1.3451577900405634e-06   -1.5000578088568536e-05
-6.978178843981389e-06   7.908362842267347e-07   -1.036709869102135e-05
-6.978178843981389e-06   7.908362842267347e-07   -1.036709869102135e-05
-6.978178843981389e-06   7.908362842267347e-07   -1.036709869102135e-05
-6.978178843981389e-06   7.908362842267347e-07   -1.036709869102135e-05
-1.0607758233205967e-05   1.4388787726075068e-06   -1.602757218003393e-05
-1.0607758233205967e-05   1.4388787726075068e-06   -1.602757218003393e-05
-1.0607758233205967e-05   1.4388787726075068e-06   -1.602757218003393e-05
-1.0607758233205967e-05   1.4388787726075068e-06   -1.602757218003393e-05
-1.0341503158743052e-05   1.2306036233916814e-06   -9.75621099561896e-06
-1.0341503158743052e-05   1.2306036233916814e-06   -9.75621099561896e-06
-1.0341503158743052e-05   1.2306036233916814e-06   -9.75621099561896e-06
-1.0341503158743052e-05   1.2306036233916814e-06   -9.75621099561896e-06
-6.745917028016158e-06   1.839833235146686e-06   -1.611439231388349e-05
-6.745917028016158e-06   1.839833235146686e-06   -1.611439231388349e-05
-6.745917028016158e-06   1.839833235146686e-06   -1.611439231388349e-05
-6.745917028016158e-06   1.839833235146686e-06   -1.611439231388349e-05
-8.608142652260785e-06   1.3761865080294338e-06   -1.2732494903872088e-05
-8.608142652260785e-06   1.3761865080294338e-06   -1.2732494903872088e-05
-8.608142652260785e-06   1.3761865080294338e-06   -1.2732494903872088e-05
-8.608142652260785e-06   1.3761865080294338e-06   -1.2732494903872088e-05
-6.7459170280161694e-06   1.2306036233916814e-06   -1.0121748762672057e-05
-6.7459170280161694e-06   1.2306036233916814e-06   -1.0121748762672057e-05
-6.7459170280161694e-06   1.2306036233916814e-06   -1.0121748762672057e-05
-6.7459170280161694e-06   1.2306036233916814e-06   -1.0121748762672057e-05
-1.0341503158743062e-05   1.839833235146686e-06   -1.574885454683065e-05
-1.0341503158743062e-05   1.839833235146686e-06   -1.574885454683065e-05
-1.0341503158743062e-05   1.839833235146686e-06   -1.574885454683065e-05
-1.0341503158743062e-05   1.839833235146686e-06   -1.574885454683065e-05
-1.0020268672771767e-05   1.6354485716880886e-06   -9.660738081786755e-06
-1.0020268672771767e-05   1.6354485716880886e-06   -9.660738081786755e-06
-1.0020268672771767e-05   1.6354485716880886e-06   -9.660738081786755e-06
-1.0020268672771767e-05   1.6354485716880886e-06   -9.660738081786755e-06
-6.509426860301049e-06   2.200313489314422e-06   -1.5851060053147074e-05
-6.509426860301049e-06   2.200313489314422e-06   -1.5851060053147074e-05
-6.509426860301049e-06   2.200313489314422e-06   -1.5851060053147074e-05
-6.509426860301049e-06   2.200313489314422e-06   -1.5851060053147074e-05
-8.338586228914674e-06   1.6935721608348636e-06   -1.2498416308370157e-05
-8.338586228914674e-06   1.6935721608348636e-06   -1.2498416308370157e-05
-8.338586228914674e-06   1.6935721608348636e-06   -1.2498416308370157e-05
-8.338586228914674e-06   1.6935721608348636e-06   -1.2498416308370157e-05
-6.509426860301049e-06   1.6354485716880886e-06   -9.999657032362582e-06
-6.509426860301049e-06   1.6354485716880886e-06   -9.999657032362582e-06
-6.509426860301049e-06   1.6354485716880886e-06   -9.999657032362582e-06
-6.509426860301049e-06   1.6354485716880886e-06   -9.999657032362582e-06
-1.0020268672771767e-05   2.200313489314422e-06   -1.5512141102571274e-05
-1.0020268672771767e-05   2.200313489314422e-06   -1.5512141102571274e-05
-1.0020268672771767e-05   2.200313489314422e-06   -1.5512141102571274e-05
-1.0020268672771767e-05   2.200313489314422e-06   -1.5512141102571274e-05
-9.753269091868759e-06   2.087822931427113e-06   -9.928244541497651e-06
-9.753269091868759e-06   2.087822931427113e-06   -9.928244541497651e-06
-9.753269091868759e-06   2.087822931427113e-06   -9.928244541497651e-06
-9.753269091868759e-06   2.087822931427113e-06   -9.928244541497651e-06
-6.2840140180801955e-06   2.6021502097159626e-06   -1.601893269811863e-05
-6.2840140180801955e-06   2.6021502097159626e-06   -1.601893269811863e-05
-6.2840140180801955e-06   2.6021502097159626e-06   -1.601893269811863e-05
-6.2840140180801955e-06   2.6021502097159626e-06   -1.601893269811863e-05
-8.161664208743669e-06   2.0053579179971255e-06   -1.2531440338648146e-05
-8.161664208743669e-06   2.0053579179971255e-06   -1.2531440338648146e-05
-8.161664208743669e-06   2.0053579179971255e-06   -1.2531440338648146e-05
-8.161664208743669e-06   2.0053579179971255e-06   -1.2531440338648146e-05
-1.0607758233205967e-05   1.3341726538715305e-06   -5.352160676654299e-06
-1.0607758233205967e-05   1.3341726538715305e-06   -5.352160676654299e-06
-1.0607758233205967e-05   1.3341726538715305e-06   -5.352160676654299e-06
-1.0607758233205967e-05   1.3341726538715305e-06   -5.352160676654299e-06
-1.4756486925836964e-05   2.47590159063889e-06   -1.1581671135645467e-05
-1.4756486925836964e-05   2.47590159063889e-06   -1.1581671135645467e-05
-1.4756486925836964e-05   2.47590159063889e-06   -1.1581671135645467e-05
-1.4756486925836964e-05   2.47590159063889e-06   -1.1581671135645467e-05
-1.4009506054941198e-05   1.7340364152301866e-06   -3.322859961548254e-06
-1.4009506054941198e-05   1.7340364152301866e-06   -3.322859961548254e-06
-1.4009506054941198e-05   1.7340364152301866e-06   -3.322859961548254e-06
-1.4009506054941198e-05   1.7340364152301866e-06   -3.322859961548254e-06
-1.0341503158743052e-05   2.8933888925490375e-06   -1.0131809608269723e-05
-1.0341503158743052e-05   2.8933888925490375e-06   -1.0131809608269723e-05
-1.0341503158743052e-05   2.8933888925490375e-06   -1.0131809608269723e-05
-1.0341503158743052e-05   2.8933888925490375e-06   -1.0131809608269723e-05
-1.1923445687069892e-05   2.1552260832400695e-06   -7.0523410421396645e-06
-1.1923445687069892e-05   2.1552260832400695e-06   -7.0523410421396645e-06
-1.1923445687069892e-05   2.1552260832400695e-06   -7.0523410421396645e-06
-1.1923445687069892e-05   2.1552260832400695e-06   -7.0523410421396645e-06
-1.0341503158743062e-05   1.7340364152301866e-06   -4.018471447939472e-06
-1.0341503158743062e-05   1.7340364152301866e-06   -4.018471447939472e-06
-1.0341503158743062e-05   1.7340364152301866e-06   -4.018471447939472e-06
-1.0341503158743062e-05   1.7340364152301866e-06   -4.018471447939472e-06
-1.400950605494115e-05   2.8933888925490375e-06   -9.436198121878477e-06
-1.400950605494115e-05   2.8933888925490375e-06   -9.436198121878477e-06
-1.400950605494115e-05   2.8933888925490375e-06   -9.436198121878477e-06
-1.400950605494115e-05   2.8933888925490375e-06   -9.436198121878477e-06
-1.3392220997743119e-05   1.917015475795384e-06   -2.699038743064579e-06
-1.3392220997743119e-05   1.917015475795384e-06   -2.699038743064579e-06
-1.3392220997743119e-05   1.917015475795384e-06   -2.699038743064579e-06
-1.3392220997743119e-05   1.917015475795384e-06   -2.699038743064579e-06
-1.002026867277175e-05   3.043377559020714e-06   -8.994776534618687e-06
-1.002026867277175e-05   3.043377559020714e-06   -8.994776534618687e-06
-1.002026867277175e-05   3.043377559020714e-06   -8.994776534618687e-06
-1.002026867277175e-05   3.043377559020714e-06   -8.994776534618687e-06
-1.1657912694431568e-05   2.3446382445428725e-06   -5.846126243165632e-06
-1.1657912694431568e-05   2.3446382445428725e-06   -5.846126243165632e-06
-1.1657912694431568e-05   2.3446382445428725e-06   -5.846126243165632e-06
-1.1657912694431568e-05   2.3446382445428725e-06   -5.846126243165632e-06
-1.0020268672771767e-05   1.917015475795384e-06   -3.3748559929997336e-06
-1.0020268672771767e-05   1.917015475795384e-06   -3.3748559929997336e-06
-1.0020268672771767e-05   1.917015475795384e-06   -3.3748559929997336e-06
-1.0020268672771767e-05   1.917015475795384e-06   -3.3748559929997336e-06
-1.3392220997743106e-05   3.0433775590208226e-06   -8.318959284683424e-06
-1.3392220997743106e-05   3.0433775590208226e-06   -8.318959284683424e-06
-1.3392220997743106e-05   3.0433775590208226e-06   -8.318959284683424e-06
-1.3392220997743106e-05   3.0433775590208226e-06   -8.318959284683424e-06
-1.2659045406886396e-05   2.1972904320481006e-06   -2.0370254850093743e-06
-1.2659045406886396e-05   2.1972904320481006e-06   -2.0370254850093743e-06
-1.2659045406886396e-05   2.1972904320481006e-06   -2.0370254850093743e-06
-1.2659045406886396e-05   2.1972904320481006e-06   -2.0370254850093743e-06
-9.753269091868752e-06   3.2300698285279506e-06   -7.499653647926642e-06
-9.753269091868752e-06   3.2300698285279506e-06   -7.499653647926642e-06
-9.753269091868752e-06   3.2300698285279506e-06   -7.499653647926642e-06
-9.753269091868752e-06   3.2300698285279506e-06   -7.499653647926642e-06
-1.1074272473543791e-05   2.4348323597880254e-06   -4.820838863891136e-06
-1.1074272473543791e-05   2.4348323597880254e-06   -4.820838863891136e-06
-1.1074272473543791e-05   2.4348323597880254e-06   -4.820838863891136e-06
-1.1074272473543791e-05   2.4348323597880254e-06   -4.820838863891136e-06
1.109273299079509e-05   -1.4501232764495492e-06   3.602877465350173e-08
1.109273299079509e-05   -1.4501232764495492e-06   3.602877465350173e-08
1.109273299079509e-05   -1.4501232764495492e-06   3.602877465350173e-08
1.109273299079509e-05   -1.4501232764495492e-06   3.602877465350173e-08
4.706639849707782e-06   -2.599933220960517e-06   -1.1297345760532033e-05
4.706639849707782e-06   -2.599933220960517e-06   -1.1297345760532033e-05
4.706639849707782e-06   -2.599933220960517e-06   -1.1297345760532033e-05
4.706639849707782e-06   -2.599933220960517e-06   -1.1297345760532033e-05
5.0291905152226795e-06   -1.1935397182110145e-06   -1.1289297695064827e-06
5.0291905152226795e-06   -1.1935397182110145e-06   -1.1289297695064827e-06
5.0291905152226795e-06   -1.1935397182110145e-06   -1.1289297695064827e-06
5.0291905152226795e-06   -1.1935397182110145e-06   -1.1289297695064827e-06
1.19130706542813e-05   -2.419775215697006e-06   -1.1866322036112591e-05
1.19130706542813e-05   -2.419775215697006e-06   -1.1866322036112591e-05
1.19130706542813e-05   -2.419775215697006e-06   -1.1866322036112591e-05
1.19130706542813e-05   -2.419775215697006e-06   -1.1866322036112591e-05
7.854297890936781e-06   -1.7185640005965507e-06   -5.522427492931942e-06
7.854297890936781e-06   -1.7185640005965507e-06   -5.522427492931942e-06
7.854297890936781e-06   -1.7185640005965507e-06   -5.522427492931942e-06
7.854297890936781e-06   -1.7185640005965507e-06   -5.522427492931942e-06
1.1913070654281314e-05   -1.1935397182110145e-06   -3.9318847101487146e-07
1.1913070654281314e-05   -1.1935397182110145e-06   -3.9318847101487146e-07
1.1913070654281314e-05   -1.1935397182110145e-06   -3.9318847101487146e-07
1.1913070654281314e-05   -1.1935397182110145e-06   -3.9318847101487146e-07
5.029190515222666e-06   -2.419775215697006e-06   -1.2602063334604067e-05
5.029190515222666e-06   -2.419775215697006e-06   -1.2602063334604067e-05
5.029190515222666e-06   -2.419775215697006e-06   -1.2602063334604067e-05
5.029190515222666e-06   -2.419775215697006e-06   -1.2602063334604067e-05
5.387098464642657e-06   -1.0206775708166338e-06   -1.6428991633245758e-06
5.387098464642657e-06   -1.0206775708166338e-06   -1.6428991633245758e-06
5.387098464642657e-06   -1.0206775708166338e-06   -1.6428991633245758e-06
5.387098464642657e-06   -1.0206775708166338e-06   -1.6428991633245758e-06
1.259981067773209e-05   -2.2626713857933686e-06   -1.2918889896154217e-05
1.259981067773209e-05   -2.2626713857933686e-06   -1.2918889896154217e-05
1.259981067773209e-05   -2.2626713857933686e-06   -1.2918889896154217e-05
1.259981067773209e-05   -2.2626713857933686e-06   -1.2918889896154217e-05
8.47006675441255e-06   -1.6484847629679215e-06   -6.4044953309836425e-06
8.47006675441255e-06   -1.6484847629679215e-06   -6.4044953309836425e-06
8.47006675441255e-06   -1.6484847629679215e-06   -6.4044953309836425e-06
8.47006675441255e-06   -1.6484847629679215e-06   -6.4044953309836425e-06
1.2599810677732117e-05   -1.0206775708166338e-06   -8.977028743384862e-07
1.2599810677732117e-05   -1.0206775708166338e-06   -8.977028743384862e-07
1.2599810677732117e-05   -1.0206775708166338e-06   -8.977028743384862e-07
1.2599810677732117e-05   -1.0206775708166338e-06   -8.977028743384862e-07
5.387098464642643e-06   -2.262671385793477e-06   -1.3664086185140333e-05
5.387098464642643e-06   -2.262671385793477e-06   -1.3664086185140333e-05
5.387098464642643e-06   -2.262671385793477e-06   -1.3664086185140333e-05
5.387098464642643e-06   -2.262671385793477e-06   -1.3664086185140333e-05
5.68106830400552e-06   -5.868674175927343e-07   -2.8216722603947777e-06
5.68106830400552e-06   -5.868674175927343e-07   -2.8216722603947777e-06
5.68106830400552e-06   -5.868674175927343e-07   -2.8216722603947777e-06
5.68106830400552e-06   -5.868674175927343e-07   -2.8216722603947777e-06
1.3397532356304947e-05   -1.7684002770462911e-06   -1.4973525965221674e-05
1.3397532356304947e-05   -1.7684002770462911e-06   -1.4973525965221674e-05
1.3397532356304947e-05   -1.7684002770462911e-06   -1.4973525965221674e-05
1.3397532356304947e-05   -1.7684002770462911e-06   -1.4973525965221674e-05
8.797003148959979e-06   -1.453090477283002e-06   -7.495163166171623e-06
8.797003148959979e-06   -1.453090477283002e-06   -7.495163166171623e-06
8.797003148959979e-06   -1.453090477283002e-06   -7.495163166171623e-06
8.797003148959979e-06   -1.453090477283002e-06   -7.495163166171623e-06
4.706639849707782e-06   -5.661840277432608e-07   -7.53475408679145e-06
4.706639849707782e-06   -5.661840277432608e-07   -7.53475408679145e-06
4.706639849707782e-06   -5.661840277432608e-07   -7.53475408679145e-06
4.706639849707782e-06   -5.661840277432608e-07   -7.53475408679145e-06
-2.0310309990015713e-06   -1.2057507988506074e-06   -1.9147945563971372e-05
-2.0310309990015713e-06   -1.2057507988506074e-06   -1.9147945563971372e-05
-2.0310309990015713e-06   -1.2057507988506074e-06   -1.9147945563971372e-05
-2.0310309990015713e-06   -1.2057507988506074e-06   -1.9147945563971372e-05
-1.732262185987083e-06   -2.1243494388904164e-07   -7.691082573517676e-06
-1.732262185987083e-06   -2.1243494388904164e-07   -7.691082573517676e-06
-1.732262185987083e-06   -2.1243494388904164e-07   -7.691082573517676e-06
-1.732262185987083e-06   -2.1243494388904164e-07   -7.691082573517676e-06
5.0291905152226795e-06   -9.518625599580412e-07   -1.851651383922583e-05
5.0291905152226795e-06   -9.518625599580412e-07   -1.851651383922583e-05
5.0291905152226795e-06   -9.518625599580412e-07   -1.851651383922583e-05
5.0291905152226795e-06   -9.518625599580412e-07   -1.851651383922583e-05
1.5092451678987747e-06   -5.80850824861436e-07   -1.287254530141067e-05
1.5092451678987747e-06   -5.80850824861436e-07   -1.287254530141067e-05
1.5092451678987747e-06   -5.80850824861436e-07   -1.287254530141067e-05
1.5092451678987747e-06   -5.80850824861436e-07   -1.287254530141067e-05
5.029190515222666e-06   -2.1243494388904164e-07   -7.247426003876211e-06
5.029190515222666e-06   -2.1243494388904164e-07   -7.247426003876211e-06
5.029190515222666e-06   -2.1243494388904164e-07   -7.247426003876211e-06
5.029190515222666e-06   -2.1243494388904164e-07   -7.247426003876211e-06
-1.732262185987083e-06   -9.518625599580412e-07   -1.8960170408867296e-05
-1.732262185987083e-06   -9.518625599580412e-07   -1.8960170408867296e-05
-1.732262185987083e-06   -9.518625599580412e-07   -1.8960170408867296e-05
-1.732262185987083e-06   -9.518625599580412e-07   -1.8960170408867296e-05
-1.447048187190669e-06   1.5398288069927088e-07   -7.793824850916816e-06
-1.447048187190669e-06   1.5398288069927088e-07   -7.793824850916816e-06
-1.447048187190669e-06   1.5398288069927088e-07   -7.793824850916816e-06
-1.447048187190669e-06   1.5398288069927088e-07   -7.793824850916816e-06
5.387098464642643e-06   -6.418597542832928e-07   -1.870656368964949e-05
5.387098464642643e-06   -6.418597542832928e-07   -1.870656368964949e-05
5.387098464642643e-06   -6.418597542832928e-07   -1.870656368964949e-05
5.387098464642643e-06   -6.418597542832928e-07   -1.870656368964949e-05
1.7445761972967056e-06   -3.554057187972687e-07   -1.2807565665364255e-05
1.7445761972967056e-06   -3.554057187972687e-07   -1.2807565665364255e-05
1.7445761972967056e-06   -3.554057187972687e-07   -1.2807565665364255e-05
1.7445761972967056e-06   -3.554057187972687e-07   -1.2807565665364255e-05
5.387098464642657e-06   1.5398288069916246e-07   -7.316319269927305e-06
5.387098464642657e-06   1.5398288069916246e-07   -7.316319269927305e-06
5.387098464642657e-06   1.5398288069916246e-07   -7.316319269927305e-06
5.387098464642657e-06   1.5398288069916246e-07   -7.316319269927305e-06
-1.447048187190669e-06   -6.418597542832928e-07   -1.9184069270639027e-05
-1.447048187190669e-06   -6.418597542832928e-07   -1.9184069270639027e-05
-1.447048187190669e-06   -6.418597542832928e-07   -1.9184069270639027e-05
-1.447048187190669e-06   -6.418597542832928e-07   -1.9184069270639027e-05
-1.1796316770482234e-06   5.888885879683312e-07   -8.063580165916713e-06
-1.1796316770482234e-06   5.888885879683312e-07   -8.063580165916713e-06
-1.1796316770482234e-06   5.888885879683312e-07   -8.063580165916713e-06
-1.1796316770482234e-06   5.888885879683312e-07   -8.063580165916713e-06
5.6810683040055065e-06   -2.5101940906880216e-07   -1.89941353361173e-05
5.6810683040055065e-06   -2.5101940906880216e-07   -1.89941353361173e-05
5.6810683040055065e-06   -2.5101940906880216e-07   -1.89941353361173e-05
5.6810683040055065e-06   -2.5101940906880216e-07   -1.89941353361173e-05
2.0409341516793104e-06   -7.683933977471616e-08   -1.3031753123817071e-05
2.0409341516793104e-06   -7.683933977471616e-08   -1.3031753123817071e-05
2.0409341516793104e-06   -7.683933977471616e-08   -1.3031753123817071e-05
2.0409341516793104e-06   -7.683933977471616e-08   -1.3031753123817071e-05
-2.0310309990015713e-06   4.4967738942539026e-07   -9.72787605432768e-06
-2.0310309990015713e-06   4.4967738942539026e-07   -9.72787605432768e-06
-2.0310309990015713e-06   4.4967738942539026e-07   -9.72787605432768e-06
-2.0310309990015713e-06   4.4967738942539026e-07   -9.72787605432768e-06
-8.649934806143346e-06   2.428044545050873e-07   -2.0883506160516193e-05
-8.649934806143346e-06   2.428044545050873e-07   -2.0883506160516193e-05
-8.649934806143346e-06   2.428044545050873e-07   -2.0883506160516193e-05
-8.649934806143346e-06   2.428044545050873e-07   -2.0883506160516193e-05
-8.328529692889074e-06   8.25218142649106e-07   -9.653895791096774e-06
-8.328529692889074e-06   8.25218142649106e-07   -9.653895791096774e-06
-8.328529692889074e-06   8.25218142649106e-07   -9.653895791096774e-06
-8.328529692889074e-06   8.25218142649106e-07   -9.653895791096774e-06
-1.732262185987083e-06   5.28848634540318e-07   -2.0469853264401528e-05
-1.732262185987083e-06   5.28848634540318e-07   -2.0469853264401528e-05
-1.732262185987083e-06   5.28848634540318e-07   -2.0469853264401528e-05
-1.732262185987083e-06   5.28848634540318e-07   -2.0469853264401528e-05
-5.150406892259499e-06   6.175050584912426e-07   -1.4826139274984703e-05
-5.150406892259499e-06   6.175050584912426e-07   -1.4826139274984703e-05
-5.150406892259499e-06   6.175050584912426e-07   -1.4826139274984703e-05
-5.150406892259499e-06   6.175050584912426e-07   -1.4826139274984703e-05
-1.732262185987083e-06   8.25218142649106e-07   -9.476074086231577e-06
-1.732262185987083e-06   8.25218142649106e-07   -9.476074086231577e-06
-1.732262185987083e-06   8.25218142649106e-07   -9.476074086231577e-06
-1.732262185987083e-06   8.25218142649106e-07   -9.476074086231577e-06
-8.328529692889074e-06   5.28848634540318e-07   -2.064767496926678e-05
-8.328529692889074e-06   5.28848634540318e-07   -2.064767496926678e-05
-8.328529692889074e-06   5.28848634540318e-07   -2.064767496926678e-05
-8.328529692889074e-06   5.28848634540318e-07   -2.064767496926678e-05
-8.018218644173196e-06   1.2222348174219591e-06   -9.63945903864811e-06
-8.018218644173196e-06   1.2222348174219591e-06   -9.63945903864811e-06
-8.018218644173196e-06   1.2222348174219591e-06   -9.63945903864811e-06
-8.018218644173196e-06   1.2222348174219591e-06   -9.63945903864811e-06
-1.447048187190669e-06   8.587939581969958e-07   -2.0373345284750678e-05
-1.447048187190669e-06   8.587939581969958e-07   -2.0373345284750678e-05
-1.447048187190669e-06   8.587939581969958e-07   -2.0373345284750678e-05
-1.447048187190669e-06   8.587939581969958e-07   -2.0373345284750678e-05
-4.874508829644185e-06   8.855401712551674e-07   -1.4676958608496408e-05
-4.874508829644185e-06   8.855401712551674e-07   -1.4676958608496408e-05
-4.874508829644185e-06   8.855401712551674e-07   -1.4676958608496408e-05
-4.874508829644185e-06   8.855401712551674e-07   -1.4676958608496408e-05
-1.447048187190669e-06   1.2222348174220675e-06   -9.421394523113174e-06
-1.447048187190669e-06   1.2222348174220675e-06   -9.421394523113174e-06
-1.447048187190669e-06   1.2222348174220675e-06   -9.421394523113174e-06
-1.447048187190669e-06   1.2222348174220675e-06   -9.421394523113174e-06
-8.018218644173196e-06   8.587939581969958e-07   -2.05914098002857e-05
-8.018218644173196e-06   8.587939581969958e-07   -2.05914098002857e-05
-8.018218644173196e-06   8.587939581969958e-07   -2.05914098002857e-05
-8.018218644173196e-06   8.587939581969958e-07   -2.05914098002857e-05
-7.731527693680374e-06   1.626178487194982e-06   -9.868861196096431e-06
-7.731527693680374e-06   1.626178487194982e-06   -9.868861196096431e-06
-7.731527693680374e-06   1.626178487194982e-06   -9.868861196096431e-06
-7.731527693680374e-06   1.626178487194982e-06   -9.868861196096431e-06
-1.1796316770482302e-06   1.1995354351072894e-06   -2.053270205923071e-05
-1.1796316770482302e-06   1.1995354351072894e-06   -2.053270205923071e-05
-1.1796316770482302e-06   1.1995354351072894e-06   -2.053270205923071e-05
-1.1796316770482302e-06   1.1995354351072894e-06   -2.053270205923071e-05
-4.628604840572643e-06   1.1605313696473889e-06   -1.4761011014080994e-05
-4.628604840572643e-06   1.1605313696473889e-06   -1.4761011014080994e-05
-4.628604840572643e-06   1.1605313696473889e-06   -1.4761011014080994e-05
-4.628604840572643e-06   1.1605313696473889e-06   -1.4761011014080994e-05
-8.649934806143363e-06   1.4388787726075068e-06   -7.880742635534955e-06
-8.649934806143363e-06   1.4388787726075068e-06   -7.880742635534955e-06
-8.649934806143363e-06   1.4388787726075068e-06   -7.880742635534955e-06
-8.649934806143363e-06   1.4388787726075068e-06   -7.880742635534955e-06
-1.5159706895404058e-05   1.7436589620251509e-06   -1.8547494670652094e-05
-1.5159706895404058e-05   1.7436589620251509e-06   -1.8547494670652094e-05
-1.5159706895404058e-05   1.7436589620251509e-06   -1.8547494670652094e-05
-1.5159706895404058e-05   1.7436589620251509e-06   -1.8547494670652094e-05
-1.477146143137353e-05   1.839833235146686e-06   -7.392301902812808e-06
-1.477146143137353e-05   1.839833235146686e-06   -7.392301902812808e-06
-1.477146143137353e-05   1.839833235146686e-06   -7.392301902812808e-06
-1.477146143137353e-05   1.839833235146686e-06   -7.392301902812808e-06
-8.328529692889088e-06   2.105274834575963e-06   -1.8289786426611116e-05
-8.328529692889088e-06   2.105274834575963e-06   -1.8289786426611116e-05
-8.328529692889088e-06   2.105274834575963e-06   -1.8289786426611116e-05
-8.328529692889088e-06   2.105274834575963e-06   -1.8289786426611116e-05
-1.1642003140408179e-05   1.8555705635058808e-06   -1.261750811810394e-05
-1.1642003140408179e-05   1.8555705635058808e-06   -1.261750811810394e-05
-1.1642003140408179e-05   1.8555705635058808e-06   -1.261750811810394e-05
-1.1642003140408179e-05   1.8555705635058808e-06   -1.261750811810394e-05
-8.328529692889088e-06   1.839833235146686e-06   -7.551566862470391e-06
-8.328529692889088e-06   1.839833235146686e-06   -7.551566862470391e-06
-8.328529692889088e-06   1.839833235146686e-06   -7.551566862470391e-06
-8.328529692889088e-06   1.839833235146686e-06   -7.551566862470391e-06
-1.477146143137353e-05   2.105274834575963e-06   -1.813052146695354e-05
-1.477146143137353e-05   2.105274834575963e-06   -1.813052146695354e-05
-1.477146143137353e-05   2.105274834575963e-06   -1.813052146695354e-05
-1.477146143137353e-05   2.105274834575963e-06   -1.813052146695354e-05
-1.4339970978683405e-05   2.200313489314422e-06   -7.120290358870898e-06
-1.4339970978683405e-05   2.200313489314422e-06   -7.120290358870898e-06
-1.4339970978683405e-05   2.200313489314422e-06   -7.120290358870898e-06
-1.4339970978683405e-05   2.200313489314422e-06   -7.120290358870898e-06
-8.018218644173208e-06   2.416450879168838e-06   -1.778622668363399e-05
-8.018218644173208e-06   2.416450879168838e-06   -1.778622668363399e-05
-8.018218644173208e-06   2.416450879168838e-06   -1.778622668363399e-05
-8.018218644173208e-06   2.416450879168838e-06   -1.778622668363399e-05
-1.1247371555178866e-05   2.138140502431791e-06   -1.223731893924891e-05
-1.1247371555178866e-05   2.138140502431791e-06   -1.223731893924891e-05
-1.1247371555178866e-05   2.138140502431791e-06   -1.223731893924891e-05
-1.1247371555178866e-05   2.138140502431791e-06   -1.223731893924891e-05
-8.018218644173208e-06   2.200313489314422e-06   -7.249972792783648e-06
-8.018218644173208e-06   2.200313489314422e-06   -7.249972792783648e-06
-8.018218644173208e-06   2.200313489314422e-06   -7.249972792783648e-06
-8.018218644173208e-06   2.200313489314422e-06   -7.249972792783648e-06
-1.4339970978683405e-05   2.416450879168838e-06   -1.7656544249721308e-05
-1.4339970978683405e-05   2.416450879168838e-06   -1.7656544249721308e-05
-1.4339970978683405e-05   2.416450879168838e-06   -1.7656544249721308e-05
-1.4339970978683405e-05   2.416450879168838e-06   -1.7656544249721308e-05
-1.3975856258788034e-05   2.6021502097159626e-06   -7.285704498332876e-06
-1.3975856258788034e-05   2.6021502097159626e-06   -7.285704498332876e-06
-1.3975856258788034e-05   2.6021502097159626e-06   -7.285704498332876e-06
-1.3975856258788034e-05   2.6021502097159626e-06   -7.285704498332876e-06
-7.731527693680386e-06   2.7594118694398853e-06   -1.778727576934655e-05
-7.731527693680386e-06   2.7594118694398853e-06   -1.778727576934655e-05
-7.731527693680386e-06   2.7594118694398853e-06   -1.778727576934655e-05
-7.731527693680386e-06   2.7594118694398853e-06   -1.778727576934655e-05
-1.1006560314798322e-05   2.3979078263285537e-06   -1.2111985641616779e-05
-1.1006560314798322e-05   2.3979078263285537e-06   -1.2111985641616779e-05
-1.1006560314798322e-05   2.3979078263285537e-06   -1.2111985641616779e-05
-1.1006560314798322e-05   2.3979078263285537e-06   -1.2111985641616779e-05
-1.5159706895404058e-05   2.47590159063889e-06   -3.937010839556439e-06
-1.5159706895404058e-05   2.47590159063889e-06   -3.937010839556439e-06
-1.5159706895404058e-05   2.47590159063889e-06   -3.937010839556439e-06
-1.5159706895404058e-05   2.47590159063889e-06   -3.937010839556439e-06
-2.2035010893621903e-05   3.408095315224238e-06   -1.4836534601835082e-05
-2.2035010893621903e-05   3.408095315224238e-06   -1.4836534601835082e-05
-2.2035010893621903e-05   3.408095315224238e-06   -1.4836534601835082e-05
-2.2035010893621903e-05   3.408095315224238e-06   -1.4836534601835082e-05
-2.1130128332788382e-05   2.8933888925490375e-06   -1.1780048385879802e-06
-2.1130128332788382e-05   2.8933888925490375e-06   -1.1780048385879802e-06
-2.1130128332788382e-05   2.8933888925490375e-06   -1.1780048385879802e-06
-2.1130128332788382e-05   2.8933888925490375e-06   -1.1780048385879802e-06
-1.4771461431373503e-05   3.888809101989144e-06   -1.2373035133276806e-05
-1.4771461431373503e-05   3.888809101989144e-06   -1.2373035133276806e-05
-1.4771461431373503e-05   3.888809101989144e-06   -1.2373035133276806e-05
-1.4771461431373503e-05   3.888809101989144e-06   -1.2373035133276806e-05
-1.751936825887607e-05   3.2461798112339794e-06   -7.40761284631942e-06
-1.751936825887607e-05   3.2461798112339794e-06   -7.40761284631942e-06
-1.751936825887607e-05   3.2461798112339794e-06   -7.40761284631942e-06
-1.751936825887607e-05   3.2461798112339794e-06   -7.40761284631942e-06
-1.4771461431373516e-05   2.8933888925490375e-06   -1.7752569642519355e-06
-1.4771461431373516e-05   2.8933888925490375e-06   -1.7752569642519355e-06
-1.4771461431373516e-05   2.8933888925490375e-06   -1.7752569642519355e-06
-1.4771461431373516e-05   2.8933888925490375e-06   -1.7752569642519355e-06
-2.1130128332788348e-05   3.888809101989144e-06   -1.1775783007612634e-05
-2.1130128332788348e-05   3.888809101989144e-06   -1.1775783007612634e-05
-2.1130128332788348e-05   3.888809101989144e-06   -1.1775783007612634e-05
-2.1130128332788348e-05   3.888809101989144e-06   -1.1775783007612634e-05
-2.038577198482815e-05   3.043377559020714e-06   -1.9357564664808195e-08
-2.038577198482815e-05   3.043377559020714e-06   -1.9357564664808195e-08
-2.038577198482815e-05   3.043377559020714e-06   -1.9357564664808195e-08
-2.038577198482815e-05   3.043377559020714e-06   -1.9357564664808195e-08
-1.4339970978683405e-05   4.015991269443382e-06   -1.0679260801159569e-05
-1.4339970978683405e-05   4.015991269443382e-06   -1.0679260801159569e-05
-1.4339970978683405e-05   4.015991269443382e-06   -1.0679260801159569e-05
-1.4339970978683405e-05   4.015991269443382e-06   -1.0679260801159569e-05
-1.722164203867593e-05   3.440036421482808e-06   -5.530902792395511e-06
-1.722164203867593e-05   3.440036421482808e-06   -5.530902792395511e-06
-1.722164203867593e-05   3.440036421482808e-06   -5.530902792395511e-06
-1.722164203867593e-05   3.440036421482808e-06   -5.530902792395511e-06
-1.4339970978683405e-05   3.043377559020714e-06   -6.029257909183518e-07
-1.4339970978683405e-05   3.043377559020714e-06   -6.029257909183518e-07
-1.4339970978683405e-05   3.043377559020714e-06   -6.029257909183518e-07
-1.4339970978683405e-05   3.043377559020714e-06   -6.029257909183518e-07
-2.0385771984828075e-05   4.015991269443382e-06   -1.0095692574906066e-05
-2.0385771984828075e-05   4.015991269443382e-06   -1.0095692574906066e-05
-2.0385771984828075e-05   4.015991269443382e-06   -1.0095692574906066e-05
-2.0385771984828075e-05   4.015991269443382e-06   -1.0095692574906066e-05
-1.9579413807359638e-05   3.2300698285279506e-06   1.4598864093024453e-06
-1.9579413807359638e-05   3.2300698285279506e-06   1.4598864093024453e-06
-1.9579413807359638e-05   3.2300698285279506e-06   1.4598864093024453e-06
-1.9579413807359638e-05   3.2300698285279506e-06   1.4598864093024453e-06
-1.397585625878802e-05   4.121583535888931e-06   -8.414284396066854e-06
-1.397585625878802e-05   4.121583535888931e-06   -8.414284396066854e-06
-1.397585625878802e-05   4.121583535888931e-06   -8.414284396066854e-06
-1.397585625878802e-05   4.121583535888931e-06   -8.414284396066854e-06
-1.6461219821759357e-05   3.471087829340976e-06   -3.881714367186186e-06
-1.6461219821759357e-05   3.471087829340976e-06   -3.881714367186186e-06
-1.6461219821759357e-05   3.471087829340976e-06   -3.881714367186186e-06
-1.6461219821759357e-05   3.471087829340976e-06   -3.881714367186186e-06
1.869468985084441e-05   -2.5999332209606252e-06   3.824488905912373e-06
1.869468985084441e-05   -2.5999332209606252e-06   3.824488905912373e-06
1.869468985084441e-05   -2.5999332209606252e-06   3.824488905912373e-06
1.869468985084441e-05   -2.5999332209606252e-06   3.824488905912373e-06
8.982803147203355e-06   -3.8318679232292015e-06   -1.3101149754850348e-05
8.982803147203355e-06   -3.8318679232292015e-06   -1.3101149754850348e-05
8.982803147203355e-06   -3.8318679232292015e-06   -1.3101149754850348e-05
8.982803147203355e-06   -3.8318679232292015e-06   -1.3101149754850348e-05
9.339540018074962e-06   -2.419775215697006e-06   1.9065136607639664e-06
9.339540018074962e-06   -2.419775215697006e-06   1.9065136607639664e-06
9.339540018074962e-06   -2.419775215697006e-06   1.9065136607639664e-06
9.339540018074962e-06   -2.419775215697006e-06   1.9065136607639664e-06
1.953334578302826e-05   -3.7444858081800035e-06   -1.4288336258668367e-05
1.953334578302826e-05   -3.7444858081800035e-06   -1.4288336258668367e-05
1.953334578302826e-05   -3.7444858081800035e-06   -1.4288336258668367e-05
1.953334578302826e-05   -3.7444858081800035e-06   -1.4288336258668367e-05
1.3561557573401906e-05   -2.84272980856983e-06   -4.876409509057183e-06
1.3561557573401906e-05   -2.84272980856983e-06   -4.876409509057183e-06
1.3561557573401906e-05   -2.84272980856983e-06   -4.876409509057183e-06
1.3561557573401906e-05   -2.84272980856983e-06   -4.876409509057183e-06
1.9533345783028286e-05   -2.419775215697006e-06   2.7013400162538407e-06
1.9533345783028286e-05   -2.419775215697006e-06   2.7013400162538407e-06
1.9533345783028286e-05   -2.419775215697006e-06   2.7013400162538407e-06
1.9533345783028286e-05   -2.419775215697006e-06   2.7013400162538407e-06
9.339540018074948e-06   -3.7444858081800035e-06   -1.5083162614158133e-05
9.339540018074948e-06   -3.7444858081800035e-06   -1.5083162614158133e-05
9.339540018074948e-06   -3.7444858081800035e-06   -1.5083162614158133e-05
9.339540018074948e-06   -3.7444858081800035e-06   -1.5083162614158133e-05
9.694700467252634e-06   -2.262671385793477e-06   9.632345830174914e-07
9.694700467252634e-06   -2.262671385793477e-06   9.632345830174914e-07
9.694700467252634e-06   -2.262671385793477e-06   9.632345830174914e-07
9.694700467252634e-06   -2.262671385793477e-06   9.632345830174914e-07
2.0175474761166797e-05   -3.613778971160546e-06   -1.5694058022286102e-05
2.0175474761166797e-05   -3.613778971160546e-06   -1.5694058022286102e-05
2.0175474761166797e-05   -3.613778971160546e-06   -1.5694058022286102e-05
2.0175474761166797e-05   -3.613778971160546e-06   -1.5694058022286102e-05
1.4269589283075592e-05   -2.83288382270662e-06   -6.319452647873114e-06
1.4269589283075592e-05   -2.83288382270662e-06   -6.319452647873114e-06
1.4269589283075592e-05   -2.83288382270662e-06   -6.319452647873114e-06
1.4269589283075592e-05   -2.83288382270662e-06   -6.319452647873114e-06
2.0175474761166797e-05   -2.262671385793477e-06   1.7738991342375755e-06
2.0175474761166797e-05   -2.262671385793477e-06   1.7738991342375755e-06
2.0175474761166797e-05   -2.262671385793477e-06   1.7738991342375755e-06
2.0175474761166797e-05   -2.262671385793477e-06   1.7738991342375755e-06
9.694700467252634e-06   -3.613778971160546e-06   -1.650472257350616e-05
9.694700467252634e-06   -3.613778971160546e-06   -1.650472257350616e-05
9.694700467252634e-06   -3.613778971160546e-06   -1.650472257350616e-05
9.694700467252634e-06   -3.613778971160546e-06   -1.650472257350616e-05
9.934126386492313e-06   -1.7684002770462911e-06   -9.283927677193647e-07
9.934126386492313e-06   -1.7684002770462911e-06   -9.283927677193647e-07
9.934126386492313e-06   -1.7684002770462911e-06   -9.283927677193647e-07
9.934126386492313e-06   -1.7684002770462911e-06   -9.283927677193647e-07
2.0855076987741448e-05   -3.1065327601578286e-06   -1.8327097613267678e-05
2.0855076987741448e-05   -3.1065327601578286e-06   -1.8327097613267678e-05
2.0855076987741448e-05   -3.1065327601578286e-06   -1.8327097613267678e-05
2.0855076987741448e-05   -3.1065327601578286e-06   -1.8327097613267678e-05
1.4459488312315759e-05   -2.613800578846106e-06   -7.963422463012237e-06
1.4459488312315759e-05   -2.613800578846106e-06   -7.963422463012237e-06
1.4459488312315759e-05   -2.613800578846106e-06   -7.963422463012237e-06
1.4459488312315759e-05   -2.613800578846106e-06   -7.963422463012237e-06
8.982803147203369e-06   -1.205750798850499e-06   -4.381531656223655e-06
8.982803147203369e-06   -1.205750798850499e-06   -4.381531656223655e-06
8.982803147203369e-06   -1.205750798850499e-06   -4.381531656223655e-06
8.982803147203369e-06   -1.205750798850499e-06   -4.381531656223655e-06
-5.91044850190661e-07   -2.4547500494304835e-06   -2.1087344535561793e-05
-5.91044850190661e-07   -2.4547500494304835e-06   -2.1087344535561793e-05
-5.91044850190661e-07   -2.4547500494304835e-06   -2.1087344535561793e-05
-5.91044850190661e-07   -2.4547500494304835e-06   -2.1087344535561793e-05
-2.2589022982845143e-07   -9.518625599580412e-07   -4.836780045344865e-06
-2.2589022982845143e-07   -9.518625599580412e-07   -4.836780045344865e-06
-2.2589022982845143e-07   -9.518625599580412e-07   -4.836780045344865e-06
-2.2589022982845143e-07   -9.518625599580412e-07   -4.836780045344865e-06
9.339540018074962e-06   -2.3332678957702167e-06   -1.9950320590363417e-05
9.339540018074962e-06   -2.3332678957702167e-06   -1.9950320590363417e-05
9.339540018074962e-06   -2.3332678957702167e-06   -1.9950320590363417e-05
9.339540018074962e-06   -2.3332678957702167e-06   -1.9950320590363417e-05
4.388621868475686e-06   -1.486417586417084e-06   -1.2206900526643121e-05
4.388621868475686e-06   -1.486417586417084e-06   -1.2206900526643121e-05
4.388621868475686e-06   -1.486417586417084e-06   -1.2206900526643121e-05
4.388621868475686e-06   -1.486417586417084e-06   -1.2206900526643121e-05
9.339540018074962e-06   -9.518625599580412e-07   -4.00793684385769e-06
9.339540018074962e-06   -9.518625599580412e-07   -4.00793684385769e-06
9.339540018074962e-06   -9.518625599580412e-07   -4.00793684385769e-06
9.339540018074962e-06   -9.518625599580412e-07   -4.00793684385769e-06
-2.2589022982845143e-07   -2.3332678957702167e-06   -2.07791637918507e-05
-2.2589022982845143e-07   -2.3332678957702167e-06   -2.07791637918507e-05
-2.2589022982845143e-07   -2.3332678957702167e-06   -2.07791637918507e-05
-2.2589022982845143e-07   -2.3332678957702167e-06   -2.07791637918507e-05
9.557473416780106e-08   -6.418597542832928e-07   -4.960129053312016e-06
9.557473416780106e-08   -6.418597542832928e-07   -4.960129053312016e-06
9.557473416780106e-08   -6.418597542832928e-07   -4.960129053312016e-06
9.557473416780106e-08   -6.418597542832928e-07   -4.960129053312016e-06
9.694700467252634e-06   -2.1100033073171397e-06   -2.007778580996643e-05
9.694700467252634e-06   -2.1100033073171397e-06   -2.007778580996643e-05
9.694700467252634e-06   -2.1100033073171397e-06   -2.007778580996643e-05
9.694700467252634e-06   -2.1100033073171397e-06   -2.007778580996643e-05
4.634715434090317e-06   -1.3602381593574159e-06   -1.2094336510138178e-05
4.634715434090317e-06   -1.3602381593574159e-06   -1.2094336510138178e-05
4.634715434090317e-06   -1.3602381593574159e-06   -1.2094336510138178e-05
4.634715434090317e-06   -1.3602381593574159e-06   -1.2094336510138178e-05
9.694700467252634e-06   -6.418597542831844e-07   -4.079242921491705e-06
9.694700467252634e-06   -6.418597542831844e-07   -4.079242921491705e-06
9.694700467252634e-06   -6.418597542831844e-07   -4.079242921491705e-06
9.694700467252634e-06   -6.418597542831844e-07   -4.079242921491705e-06
9.557473416780106e-08   -2.1100033073171397e-06   -2.0958671941786837e-05
9.557473416780106e-08   -2.1100033073171397e-06   -2.0958671941786837e-05
9.557473416780106e-08   -2.1100033073171397e-06   -2.0958671941786837e-05
9.557473416780106e-08   -2.1100033073171397e-06   -2.0958671941786837e-05
3.2355409009248993e-07   -2.5101940906880216e-07   -5.164744161800859e-06
3.2355409009248993e-07   -2.5101940906880216e-07   -5.164744161800859e-06
3.2355409009248993e-07   -2.5101940906880216e-07   -5.164744161800859e-06
3.2355409009248993e-07   -2.5101940906880216e-07   -5.164744161800859e-06
9.934126386492326e-06   -1.7921223071652899e-06   -2.025770291694262e-05
9.934126386492326e-06   -1.7921223071652899e-06   -2.025770291694262e-05
9.934126386492326e-06   -1.7921223071652899e-06   -2.025770291694262e-05
9.934126386492326e-06   -1.7921223071652899e-06   -2.025770291694262e-05
4.933051371944447e-06   -1.1397019854668703e-06   -1.2314030085715418e-05
4.933051371944447e-06   -1.1397019854668703e-06   -1.2314030085715418e-05
4.933051371944447e-06   -1.1397019854668703e-06   -1.2314030085715418e-05
4.933051371944447e-06   -1.1397019854668703e-06   -1.2314030085715418e-05
-5.91044850190661e-07   2.428044545049789e-07   -6.742368042164281e-06
-5.91044850190661e-07   2.428044545049789e-07   -6.742368042164281e-06
-5.91044850190661e-07   2.428044545049789e-07   -6.742368042164281e-06
-5.91044850190661e-07   2.428044545049789e-07   -6.742368042164281e-06
-1.0023602929680041e-05   -1.2448390840150148e-06   -2.335588429775863e-05
-1.0023602929680041e-05   -1.2448390840150148e-06   -2.335588429775863e-05
-1.0023602929680041e-05   -1.2448390840150148e-06   -2.335588429775863e-05
-1.0023602929680041e-05   -1.2448390840150148e-06   -2.335588429775863e-05
-9.58510187058828e-06   5.28848634540318e-07   -7.324048887058423e-06
-9.58510187058828e-06   5.28848634540318e-07   -7.324048887058423e-06
-9.58510187058828e-06   5.28848634540318e-07   -7.324048887058423e-06
-9.58510187058828e-06   5.28848634540318e-07   -7.324048887058423e-06
-2.2589022982845143e-07   -1.1004613424249552e-06   -2.1945148968812323e-05
-2.2589022982845143e-07   -1.1004613424249552e-06   -2.1945148968812323e-05
-2.2589022982845143e-07   -1.1004613424249552e-06   -2.1945148968812323e-05
-2.2589022982845143e-07   -1.1004613424249552e-06   -2.1945148968812323e-05
-5.047381756583757e-06   -2.1193972568280981e-07   -1.4442442727598785e-05
-5.047381756583757e-06   -2.1193972568280981e-07   -1.4442442727598785e-05
-5.047381756583757e-06   -2.1193972568280981e-07   -1.4442442727598785e-05
-5.047381756583757e-06   -2.1193972568280981e-07   -1.4442442727598785e-05
-2.2589022982845143e-07   5.28848634540318e-07   -6.346462900879245e-06
-2.2589022982845143e-07   5.28848634540318e-07   -6.346462900879245e-06
-2.2589022982845143e-07   5.28848634540318e-07   -6.346462900879245e-06
-2.2589022982845143e-07   5.28848634540318e-07   -6.346462900879245e-06
-9.58510187058828e-06   -1.1004613424249552e-06   -2.2922734954991433e-05
-9.58510187058828e-06   -1.1004613424249552e-06   -2.2922734954991433e-05
-9.58510187058828e-06   -1.1004613424249552e-06   -2.2922734954991433e-05
-9.58510187058828e-06   -1.1004613424249552e-06   -2.2922734954991433e-05
-9.182846095979826e-06   8.587939581969958e-07   -7.192613772668481e-06
-9.182846095979826e-06   8.587939581969958e-07   -7.192613772668481e-06
-9.182846095979826e-06   8.587939581969958e-07   -7.192613772668481e-06
-9.182846095979826e-06   8.587939581969958e-07   -7.192613772668481e-06
9.557473416780106e-08   -8.798872172104686e-07   -2.1613439784336523e-05
9.557473416780106e-08   -8.798872172104686e-07   -2.1613439784336523e-05
9.557473416780106e-08   -8.798872172104686e-07   -2.1613439784336523e-05
9.557473416780106e-08   -8.798872172104686e-07   -2.1613439784336523e-05
-4.6910880525084605e-06   -4.819362566579064e-08   -1.4134684628136311e-05
-4.6910880525084605e-06   -4.819362566579064e-08   -1.4134684628136311e-05
-4.6910880525084605e-06   -4.819362566579064e-08   -1.4134684628136311e-05
-4.6910880525084605e-06   -4.819362566579064e-08   -1.4134684628136311e-05
9.557473416780106e-08   8.587939581969958e-07   -6.149405067423768e-06
9.557473416780106e-08   8.587939581969958e-07   -6.149405067423768e-06
9.557473416780106e-08   8.587939581969958e-07   -6.149405067423768e-06
9.557473416780106e-08   8.587939581969958e-07   -6.149405067423768e-06
-9.182846095979826e-06   -8.798872172104686e-07   -2.265664848958123e-05
-9.182846095979826e-06   -8.798872172104686e-07   -2.265664848958123e-05
-9.182846095979826e-06   -8.798872172104686e-07   -2.265664848958123e-05
-9.182846095979826e-06   -8.798872172104686e-07   -2.265664848958123e-05
-8.911977686729698e-06   1.199535435107181e-06   -7.321163844962032e-06
-8.911977686729698e-06   1.199535435107181e-06   -7.321163844962032e-06
-8.911977686729698e-06   1.199535435107181e-06   -7.321163844962032e-06
-8.911977686729698e-06   1.199535435107181e-06   -7.321163844962032e-06
3.2355409009248993e-07   -6.701274953428748e-07   -2.1591919048062212e-05
3.2355409009248993e-07   -6.701274953428748e-07   -2.1591919048062212e-05
3.2355409009248993e-07   -6.701274953428748e-07   -2.1591919048062212e-05
3.2355409009248993e-07   -6.701274953428748e-07   -2.1591919048062212e-05
-4.4378811562428724e-06   1.3514260415310687e-07   -1.413935569720114e-05
-4.4378811562428724e-06   1.3514260415310687e-07   -1.413935569720114e-05
-4.4378811562428724e-06   1.3514260415310687e-07   -1.413935569720114e-05
-4.4378811562428724e-06   1.3514260415310687e-07   -1.413935569720114e-05
-1.0023602929680041e-05   1.7436589620252593e-06   -5.481810789062859e-06
-1.0023602929680041e-05   1.7436589620252593e-06   -5.481810789062859e-06
-1.0023602929680041e-05   1.7436589620252593e-06   -5.481810789062859e-06
-1.0023602929680041e-05   1.7436589620252593e-06   -5.481810789062859e-06
-1.9593520392762848e-05   4.106479319689873e-07   -2.22314798455679e-05
-1.9593520392762848e-05   4.106479319689873e-07   -2.22314798455679e-05
-1.9593520392762848e-05   4.106479319689873e-07   -2.22314798455679e-05
-1.9593520392762848e-05   4.106479319689873e-07   -2.22314798455679e-05
-1.8968795902825215e-05   2.105274834575963e-06   -5.826277773895907e-06
-1.8968795902825215e-05   2.105274834575963e-06   -5.826277773895907e-06
-1.8968795902825215e-05   2.105274834575963e-06   -5.826277773895907e-06
-1.8968795902825215e-05   2.105274834575963e-06   -5.826277773895907e-06
-9.58510187058828e-06   6.717457854205555e-07   -2.0605650398130898e-05
-9.58510187058828e-06   6.717457854205555e-07   -2.0605650398130898e-05
-9.58510187058828e-06   6.717457854205555e-07   -2.0605650398130898e-05
-9.58510187058828e-06   6.717457854205555e-07   -2.0605650398130898e-05
-1.4394084262514234e-05   1.353757872777446e-06   -1.2999886997335148e-05
-1.4394084262514234e-05   1.353757872777446e-06   -1.2999886997335148e-05
-1.4394084262514234e-05   1.353757872777446e-06   -1.2999886997335148e-05
-1.4394084262514234e-05   1.353757872777446e-06   -1.2999886997335148e-05
-9.58510187058828e-06   2.105274834575963e-06   -4.966160344402738e-06
-9.58510187058828e-06   2.105274834575963e-06   -4.966160344402738e-06
-9.58510187058828e-06   2.105274834575963e-06   -4.966160344402738e-06
-9.58510187058828e-06   2.105274834575963e-06   -4.966160344402738e-06
-1.896879590282525e-05   6.717457854204471e-07   -2.1465767827624153e-05
-1.896879590282525e-05   6.717457854204471e-07   -2.1465767827624153e-05
-1.896879590282525e-05   6.717457854204471e-07   -2.1465767827624153e-05
-1.896879590282525e-05   6.717457854204471e-07   -2.1465767827624153e-05
-1.8362902820319702e-05   2.4164508791687297e-06   -5.290407116716883e-06
-1.8362902820319702e-05   2.4164508791687297e-06   -5.290407116716883e-06
-1.8362902820319702e-05   2.4164508791687297e-06   -5.290407116716883e-06
-1.8362902820319702e-05   2.4164508791687297e-06   -5.290407116716883e-06
-9.182846095979843e-06   9.11490111334904e-07   -1.968752519658295e-05
-9.182846095979843e-06   9.11490111334904e-07   -1.968752519658295e-05
-9.182846095979843e-06   9.11490111334904e-07   -1.968752519658295e-05
-9.182846095979843e-06   9.11490111334904e-07   -1.968752519658295e-05
-1.3826533862859488e-05   1.5810225394036225e-06   -1.2349765041958156e-05
-1.3826533862859488e-05   1.5810225394036225e-06   -1.2349765041958156e-05
-1.3826533862859488e-05   1.5810225394036225e-06   -1.2349765041958156e-05
-1.3826533862859488e-05   1.5810225394036225e-06   -1.2349765041958156e-05
-9.182846095979826e-06   2.4164508791687297e-06   -4.38743065601665e-06
-9.182846095979826e-06   2.4164508791687297e-06   -4.38743065601665e-06
-9.182846095979826e-06   2.4164508791687297e-06   -4.38743065601665e-06
-9.182846095979826e-06   2.4164508791687297e-06   -4.38743065601665e-06
-1.8362902820319733e-05   9.114901113350124e-07   -2.0590501657283494e-05
-1.8362902820319733e-05   9.114901113350124e-07   -2.0590501657283494e-05
-1.8362902820319733e-05   9.114901113350124e-07   -2.0590501657283494e-05
-1.8362902820319733e-05   9.114901113350124e-07   -2.0590501657283494e-05
-1.7906162440528972e-05   2.7594118694399938e-06   -5.3076134228816855e-06
-1.7906162440528972e-05   2.7594118694399938e-06   -5.3076134228816855e-06
-1.7906162440528972e-05   2.7594118694399938e-06   -5.3076134228816855e-06
-1.7906162440528972e-05   2.7594118694399938e-06   -5.3076134228816855e-06
-8.911977686729715e-06   1.112975704346147e-06   -1.9310059646824077e-05
-8.911977686729715e-06   1.112975704346147e-06   -1.9310059646824077e-05
-8.911977686729715e-06   1.112975704346147e-06   -1.9310059646824077e-05
-8.911977686729715e-06   1.112975704346147e-06   -1.9310059646824077e-05
-1.3515315246870829e-05   1.7400317869621347e-06   -1.2014064029492019e-05
-1.3515315246870829e-05   1.7400317869621347e-06   -1.2014064029492019e-05
-1.3515315246870829e-05   1.7400317869621347e-06   -1.2014064029492019e-05
-1.3515315246870829e-05   1.7400317869621347e-06   -1.2014064029492019e-05
-1.9593520392762848e-05   3.408095315224238e-06   -3.1299735730307433e-06
-1.9593520392762848e-05   3.408095315224238e-06   -3.1299735730307433e-06
-1.9593520392762848e-05   3.408095315224238e-06   -3.1299735730307433e-06
-1.9593520392762848e-05   3.408095315224238e-06   -3.1299735730307433e-06
-2.960907761243069e-05   3.23588461291545e-06   -1.9925895360529164e-05
-2.960907761243069e-05   3.23588461291545e-06   -1.9925895360529164e-05
-2.960907761243069e-05   3.23588461291545e-06   -1.9925895360529164e-05
-2.960907761243069e-05   3.23588461291545e-06   -1.9925895360529164e-05
-2.8360866710335154e-05   3.888809101989144e-06   4.067387220009922e-08
-2.8360866710335154e-05   3.888809101989144e-06   4.067387220009922e-08
-2.8360866710335154e-05   3.888809101989144e-06   4.067387220009922e-08
-2.8360866710335154e-05   3.888809101989144e-06   4.067387220009922e-08
-1.8968795902825185e-05   4.0712512893547985e-06   -1.572224278606916e-05
-1.8968795902825185e-05   4.0712512893547985e-06   -1.572224278606916e-05
-1.8968795902825185e-05   4.0712512893547985e-06   -1.572224278606916e-05
-1.8968795902825185e-05   4.0712512893547985e-06   -1.572224278606916e-05
-2.309332564792733e-05   3.835469791794435e-06   -8.706557645696148e-06
-2.309332564792733e-05   3.835469791794435e-06   -8.706557645696148e-06
-2.309332564792733e-05   3.835469791794435e-06   -8.706557645696148e-06
-2.309332564792733e-05   3.835469791794435e-06   -8.706557645696148e-06
-1.8968795902825232e-05   3.888809101989144e-06   -6.879144021924215e-08
-1.8968795902825232e-05   3.888809101989144e-06   -6.879144021924215e-08
-1.8968795902825232e-05   3.888809101989144e-06   -6.879144021924215e-08
-1.8968795902825232e-05   3.888809101989144e-06   -6.879144021924215e-08
-2.8360866710335106e-05   4.0712512893547985e-06   -1.5612777473649722e-05
-2.8360866710335106e-05   4.0712512893547985e-06   -1.5612777473649722e-05
-2.8360866710335106e-05   4.0712512893547985e-06   -1.5612777473649722e-05
-2.8360866710335106e-05   4.0712512893547985e-06   -1.5612777473649722e-05
-2.7327994447088828e-05   4.01599126944349e-06   1.8333602914184116e-06
-2.7327994447088828e-05   4.01599126944349e-06   1.8333602914184116e-06
-2.7327994447088828e-05   4.01599126944349e-06   1.8333602914184116e-06
-2.7327994447088828e-05   4.01599126944349e-06   1.8333602914184116e-06
-1.8362902820319702e-05   4.26013120206621e-06   -1.325494304610386e-05
-1.8362902820319702e-05   4.26013120206621e-06   -1.325494304610386e-05
-1.8362902820319702e-05   4.26013120206621e-06   -1.325494304610386e-05
-1.8362902820319702e-05   4.26013120206621e-06   -1.325494304610386e-05
-2.2634987557897028e-05   4.111394359136657e-06   -6.045559711050227e-06
-2.2634987557897028e-05   4.111394359136657e-06   -6.045559711050227e-06
-2.2634987557897028e-05   4.111394359136657e-06   -6.045559711050227e-06
-2.2634987557897028e-05   4.111394359136657e-06   -6.045559711050227e-06
-1.8362902820319733e-05   4.015991269443382e-06   1.6868763318447067e-06
-1.8362902820319733e-05   4.015991269443382e-06   1.6868763318447067e-06
-1.8362902820319733e-05   4.015991269443382e-06   1.6868763318447067e-06
-1.8362902820319733e-05   4.015991269443382e-06   1.6868763318447067e-06
-2.7327994447088876e-05   4.26013120206621e-06   -1.3108459086530141e-05
-2.7327994447088876e-05   4.26013120206621e-06   -1.3108459086530141e-05
-2.7327994447088876e-05   4.26013120206621e-06   -1.3108459086530141e-05
-2.7327994447088876e-05   4.26013120206621e-06   -1.3108459086530141e-05
-2.6245225992598733e-05   4.121583535888931e-06   4.24426264266476e-06
-2.6245225992598733e-05   4.121583535888931e-06   4.24426264266476e-06
-2.6245225992598733e-05   4.121583535888931e-06   4.24426264266476e-06
-2.6245225992598733e-05   4.121583535888931e-06   4.24426264266476e-06
-1.7906162440528986e-05   4.576986349390461e-06   -9.927418298885725e-06
-1.7906162440528986e-05   4.576986349390461e-06   -9.927418298885725e-06
-1.7906162440528986e-05   4.576986349390461e-06   -9.927418298885725e-06
-1.7906162440528986e-05   4.576986349390461e-06   -9.927418298885725e-06
-2.1584470106410545e-05   4.2010696059917156e-06   -3.5713554763776734e-06
-2.1584470106410545e-05   4.2010696059917156e-06   -3.5713554763776734e-06
-2.1584470106410545e-05   4.2010696059917156e-06   -3.5713554763776734e-06
-2.1584470106410545e-05   4.2010696059917156e-06   -3.5713554763776734e-06
2.5599329064085507e-05   -3.8318679232292015e-06   8.826503075482991e-06
2.5599329064085507e-05   -3.8318679232292015e-06   8.826503075482991e-06
2.5599329064085507e-05   -3.8318679232292015e-06   8.826503075482991e-06
2.5599329064085507e-05   -3.8318679232292015e-06   8.826503075482991e-06
1.2839433832173524e-05   -4.832056690722616e-06   -1.3040102238199756e-05
1.2839433832173524e-05   -4.832056690722616e-06   -1.3040102238199756e-05
1.2839433832173524e-05   -4.832056690722616e-06   -1.3040102238199756e-05
1.2839433832173524e-05   -4.832056690722616e-06   -1.3040102238199756e-05
1.3143722821314656e-05   -3.7444858081800035e-06   6.35418172268711e-06
1.3143722821314656e-05   -3.7444858081800035e-06   6.35418172268711e-06
1.3143722821314656e-05   -3.7444858081800035e-06   6.35418172268711e-06
1.3143722821314656e-05   -3.7444858081800035e-06   6.35418172268711e-06
2.6225024472585634e-05   -4.953032011014748e-06   -1.4722859974397031e-05
2.6225024472585634e-05   -4.953032011014748e-06   -1.4722859974397031e-05
2.6225024472585634e-05   -4.953032011014748e-06   -1.4722859974397031e-05
2.6225024472585634e-05   -4.953032011014748e-06   -1.4722859974397031e-05
1.8675009050986164e-05   -3.913675516051436e-06   -2.7631148353758823e-06
1.8675009050986164e-05   -3.913675516051436e-06   -2.7631148353758823e-06
1.8675009050986164e-05   -3.913675516051436e-06   -2.7631148353758823e-06
1.8675009050986164e-05   -3.913675516051436e-06   -2.7631148353758823e-06
2.6225024472585634e-05   -3.7444858081800035e-06   7.079309444387951e-06
2.6225024472585634e-05   -3.7444858081800035e-06   7.079309444387951e-06
2.6225024472585634e-05   -3.7444858081800035e-06   7.079309444387951e-06
2.6225024472585634e-05   -3.7444858081800035e-06   7.079309444387951e-06
1.3143722821314656e-05   -4.953032011014748e-06   -1.54479876960979e-05
1.3143722821314656e-05   -4.953032011014748e-06   -1.54479876960979e-05
1.3143722821314656e-05   -4.953032011014748e-06   -1.54479876960979e-05
1.3143722821314656e-05   -4.953032011014748e-06   -1.54479876960979e-05
1.3400700988106815e-05   -3.613778971160546e-06   5.02583448612232e-06
1.3400700988106815e-05   -3.613778971160546e-06   5.02583448612232e-06
1.3400700988106815e-05   -3.613778971160546e-06   5.02583448612232e-06
1.3400700988106815e-05   -3.613778971160546e-06   5.02583448612232e-06
2.661400568305483e-05   -4.906322970736794e-06   -1.622081360571194e-05
2.661400568305483e-05   -4.906322970736794e-06   -1.622081360571194e-05
2.661400568305483e-05   -4.906322970736794e-06   -1.622081360571194e-05
2.661400568305483e-05   -4.906322970736794e-06   -1.622081360571194e-05
1.9324944623800954e-05   -4.0350334478213875e-06   -4.595152220704634e-06
1.9324944623800954e-05   -4.0350334478213875e-06   -4.595152220704634e-06
1.9324944623800954e-05   -4.0350334478213875e-06   -4.595152220704634e-06
1.9324944623800954e-05   -4.0350334478213875e-06   -4.595152220704634e-06
2.661400568305483e-05   -3.613778971160546e-06   5.801360885868031e-06
2.661400568305483e-05   -3.613778971160546e-06   5.801360885868031e-06
2.661400568305483e-05   -3.613778971160546e-06   5.801360885868031e-06
2.661400568305483e-05   -3.613778971160546e-06   5.801360885868031e-06
1.3400700988106815e-05   -4.906322970736794e-06   -1.699634000545768e-05
1.3400700988106815e-05   -4.906322970736794e-06   -1.699634000545768e-05
1.3400700988106815e-05   -4.906322970736794e-06   -1.699634000545768e-05
1.3400700988106815e-05   -4.906322970736794e-06   -1.699634000545768e-05
1.366779993545278e-05   -3.1065327601578286e-06   2.45914572302578e-06
1.366779993545278e-05   -3.1065327601578286e-06   2.45914572302578e-06
1.366779993545278e-05   -3.1065327601578286e-06   2.45914572302578e-06
1.366779993545278e-05   -3.1065327601578286e-06   2.45914572302578e-06
2.6997131187523273e-05   -4.628039931676032e-06   -1.884350206084748e-05
2.6997131187523273e-05   -4.628039931676032e-06   -1.884350206084748e-05
2.6997131187523273e-05   -4.628039931676032e-06   -1.884350206084748e-05
2.6997131187523273e-05   -4.628039931676032e-06   -1.884350206084748e-05
1.9325502394072506e-05   -3.880334014746522e-06   -6.506077621920754e-06
1.9325502394072506e-05   -3.880334014746522e-06   -6.506077621920754e-06
1.9325502394072506e-05   -3.880334014746522e-06   -6.506077621920754e-06
1.9325502394072506e-05   -3.880334014746522e-06   -6.506077621920754e-06
1.2839433832173524e-05   -2.454750049430592e-06   9.89594584623548e-07
1.2839433832173524e-05   -2.454750049430592e-06   9.89594584623548e-07
1.2839433832173524e-05   -2.454750049430592e-06   9.89594584623548e-07
1.2839433832173524e-05   -2.454750049430592e-06   9.89594584623548e-07
1.4476030630887395e-06   -4.779495327600445e-06   -1.9391637197419508e-05
1.4476030630887395e-06   -4.779495327600445e-06   -1.9391637197419508e-05
1.4476030630887395e-06   -4.779495327600445e-06   -1.9391637197419508e-05
1.4476030630887395e-06   -4.779495327600445e-06   -1.9391637197419508e-05
1.8013519770520832e-06   -2.3332678957702167e-06   3.620727142921148e-08
1.8013519770520832e-06   -2.3332678957702167e-06   3.620727142921148e-08
1.8013519770520832e-06   -2.3332678957702167e-06   3.620727142921148e-08
1.8013519770520832e-06   -2.3332678957702167e-06   3.620727142921148e-08
1.314372282131467e-05   -4.751295354191512e-06   -1.7416927660622388e-05
1.314372282131467e-05   -4.751295354191512e-06   -1.7416927660622388e-05
1.314372282131467e-05   -4.751295354191512e-06   -1.7416927660622388e-05
1.314372282131467e-05   -4.751295354191512e-06   -1.7416927660622388e-05
7.334767189146339e-06   -3.22842696841107e-06   -8.64905597181001e-06
7.334767189146339e-06   -3.22842696841107e-06   -8.64905597181001e-06
7.334767189146339e-06   -3.22842696841107e-06   -8.64905597181001e-06
7.334767189146339e-06   -3.22842696841107e-06   -8.64905597181001e-06
1.3143722821314636e-05   -2.3332678957702167e-06   1.4870237464820158e-06
1.3143722821314636e-05   -2.3332678957702167e-06   1.4870237464820158e-06
1.3143722821314636e-05   -2.3332678957702167e-06   1.4870237464820158e-06
1.3143722821314636e-05   -2.3332678957702167e-06   1.4870237464820158e-06
1.8013519770520832e-06   -4.751295354191295e-06   -1.886774413567511e-05
1.8013519770520832e-06   -4.751295354191295e-06   -1.886774413567511e-05
1.8013519770520832e-06   -4.751295354191295e-06   -1.886774413567511e-05
1.8013519770520832e-06   -4.751295354191295e-06   -1.886774413567511e-05
2.1205556775395385e-06   -2.1100033073170313e-06   -9.076197289830529e-08
2.1205556775395385e-06   -2.1100033073170313e-06   -9.076197289830529e-08
2.1205556775395385e-06   -2.1100033073170313e-06   -9.076197289830529e-08
2.1205556775395385e-06   -2.1100033073170313e-06   -9.076197289830529e-08
1.3400700988106815e-05   -4.682558678251224e-06   -1.7347470934616846e-05
1.3400700988106815e-05   -4.682558678251224e-06   -1.7347470934616846e-05
1.3400700988106815e-05   -4.682558678251224e-06   -1.7347470934616846e-05
1.3400700988106815e-05   -4.682558678251224e-06   -1.7347470934616846e-05
7.532449564805327e-06   -3.2595412437445696e-06   -8.4208623564847e-06
7.532449564805327e-06   -3.2595412437445696e-06   -8.4208623564847e-06
7.532449564805327e-06   -3.2595412437445696e-06   -8.4208623564847e-06
7.532449564805327e-06   -3.2595412437445696e-06   -8.4208623564847e-06
1.3400700988106815e-05   -2.1100033073171397e-06   1.4527712496620343e-06
1.3400700988106815e-05   -2.1100033073171397e-06   1.4527712496620343e-06
1.3400700988106815e-05   -2.1100033073171397e-06   1.4527712496620343e-06
1.3400700988106815e-05   -2.1100033073171397e-06   1.4527712496620343e-06
2.1205556775395317e-06   -4.682558678251224e-06   -1.8891004157177307e-05
2.1205556775395317e-06   -4.682558678251224e-06   -1.8891004157177307e-05
2.1205556775395317e-06   -4.682558678251224e-06   -1.8891004157177307e-05
2.1205556775395317e-06   -4.682558678251224e-06   -1.8891004157177307e-05
2.5977183040213275e-06   -1.7921223071651815e-06   -3.223757034010897e-07
2.5977183040213275e-06   -1.7921223071651815e-06   -3.223757034010897e-07
2.5977183040213275e-06   -1.7921223071651815e-06   -3.223757034010897e-07
2.5977183040213275e-06   -1.7921223071651815e-06   -3.223757034010897e-07
1.3667799935452774e-05   -4.548448328196451e-06   -1.71187161431682e-05
1.3667799935452774e-05   -4.548448328196451e-06   -1.71187161431682e-05
1.3667799935452774e-05   -4.548448328196451e-06   -1.71187161431682e-05
1.3667799935452774e-05   -4.548448328196451e-06   -1.71187161431682e-05
7.917410457678458e-06   -3.203131967056006e-06   -8.341923496895146e-06
7.917410457678458e-06   -3.203131967056006e-06   -8.341923496895146e-06
7.917410457678458e-06   -3.203131967056006e-06   -8.341923496895146e-06
7.917410457678458e-06   -3.203131967056006e-06   -8.341923496895146e-06
1.4476030630887395e-06   -1.2448390840150148e-06   -1.781206221363081e-06
1.4476030630887395e-06   -1.2448390840150148e-06   -1.781206221363081e-06
1.4476030630887395e-06   -1.2448390840150148e-06   -1.781206221363081e-06
1.4476030630887395e-06   -1.2448390840150148e-06   -1.781206221363081e-06
-9.823276946687728e-06   -5.6935695400715455e-06   -2.3235244511291345e-05
-9.823276946687728e-06   -5.6935695400715455e-06   -2.3235244511291345e-05
-9.823276946687728e-06   -5.6935695400715455e-06   -2.3235244511291345e-05
-9.823276946687728e-06   -5.6935695400715455e-06   -2.3235244511291345e-05
-9.271420315574947e-06   -1.1004613424248468e-06   -3.957819565661501e-06
-9.271420315574947e-06   -1.1004613424248468e-06   -3.957819565661501e-06
-9.271420315574947e-06   -1.1004613424248468e-06   -3.957819565661501e-06
-9.271420315574947e-06   -1.1004613424248468e-06   -3.957819565661501e-06
1.8013519770520832e-06   -5.81386410930659e-06   -1.9584398393244075e-05
1.8013519770520832e-06   -5.81386410930659e-06   -1.9584398393244075e-05
1.8013519770520832e-06   -5.81386410930659e-06   -1.9584398393244075e-05
1.8013519770520832e-06   -5.81386410930659e-06   -1.9584398393244075e-05
-3.834543803072611e-06   -3.2013969533865416e-06   -1.175871905325504e-05
-3.834543803072611e-06   -3.2013969533865416e-06   -1.175871905325504e-05
-3.834543803072611e-06   -3.2013969533865416e-06   -1.175871905325504e-05
-3.834543803072611e-06   -3.2013969533865416e-06   -1.175871905325504e-05
1.8013519770520832e-06   -1.1004613424248468e-06   -1.1297779055324385e-06
1.8013519770520832e-06   -1.1004613424248468e-06   -1.1297779055324385e-06
1.8013519770520832e-06   -1.1004613424248468e-06   -1.1297779055324385e-06
1.8013519770520832e-06   -1.1004613424248468e-06   -1.1297779055324385e-06
-9.271420315574968e-06   -5.81386410930659e-06   -2.2412440053373164e-05
-9.271420315574968e-06   -5.81386410930659e-06   -2.2412440053373164e-05
-9.271420315574968e-06   -5.81386410930659e-06   -2.2412440053373164e-05
-9.271420315574968e-06   -5.81386410930659e-06   -2.2412440053373164e-05
-8.794926775565319e-06   -8.798872172104686e-07   -3.6855285982988293e-06
-8.794926775565319e-06   -8.798872172104686e-07   -3.6855285982988293e-06
-8.794926775565319e-06   -8.798872172104686e-07   -3.6855285982988293e-06
-8.794926775565319e-06   -8.798872172104686e-07   -3.6855285982988293e-06
2.1205556775395317e-06   -5.779885188628587e-06   -1.8938000570623004e-05
2.1205556775395317e-06   -5.779885188628587e-06   -1.8938000570623004e-05
2.1205556775395317e-06   -5.779885188628587e-06   -1.8938000570623004e-05
2.1205556775395317e-06   -5.779885188628587e-06   -1.8938000570623004e-05
-3.443111883554844e-06   -3.2690651785169606e-06   -1.117171330819927e-05
-3.443111883554844e-06   -3.2690651785169606e-06   -1.117171330819927e-05
-3.443111883554844e-06   -3.2690651785169606e-06   -1.117171330819927e-05
-3.443111883554844e-06   -3.2690651785169606e-06   -1.117171330819927e-05
2.1205556775395317e-06   -8.798872172104686e-07   -7.455298154481805e-07
2.1205556775395317e-06   -8.798872172104686e-07   -7.455298154481805e-07
2.1205556775395317e-06   -8.798872172104686e-07   -7.455298154481805e-07
2.1205556775395317e-06   -8.798872172104686e-07   -7.455298154481805e-07
-8.794926775565353e-06   -5.779885188628587e-06   -2.1877999353473788e-05
-8.794926775565353e-06   -5.779885188628587e-06   -2.1877999353473788e-05
-8.794926775565353e-06   -5.779885188628587e-06   -2.1877999353473788e-05
-8.794926775565353e-06   -5.779885188628587e-06   -2.1877999353473788e-05
-7.972208008747858e-06   -6.701274953429832e-07   -3.6714153976133467e-06
-7.972208008747858e-06   -6.701274953429832e-07   -3.6714153976133467e-06
-7.972208008747858e-06   -6.701274953429832e-07   -3.6714153976133467e-06
-7.972208008747858e-06   -6.701274953429832e-07   -3.6714153976133467e-06
2.5977183040213275e-06   -5.569269665260581e-06   -1.8348473950278174e-05
2.5977183040213275e-06   -5.569269665260581e-06   -1.8348473950278174e-05
2.5977183040213275e-06   -5.569269665260581e-06   -1.8348473950278174e-05
2.5977183040213275e-06   -5.569269665260581e-06   -1.8348473950278174e-05
-2.9340613189033743e-06   -3.190369915583328e-06   -1.0556181095210007e-05
-2.9340613189033743e-06   -3.190369915583328e-06   -1.0556181095210007e-05
-2.9340613189033743e-06   -3.190369915583328e-06   -1.0556181095210007e-05
-2.9340613189033743e-06   -3.190369915583328e-06   -1.0556181095210007e-05
-9.823276946687714e-06   4.1064793196909574e-07   -2.526233424772559e-06
-9.823276946687714e-06   4.1064793196909574e-07   -2.526233424772559e-06
-9.823276946687714e-06   4.1064793196909574e-07   -2.526233424772559e-06
-9.823276946687714e-06   4.1064793196909574e-07   -2.526233424772559e-06
-2.2368866871376585e-05   -7.028542187410272e-06   -2.7899064037548334e-05
-2.2368866871376585e-05   -7.028542187410272e-06   -2.7899064037548334e-05
-2.2368866871376585e-05   -7.028542187410272e-06   -2.7899064037548334e-05
-2.2368866871376585e-05   -7.028542187410272e-06   -2.7899064037548334e-05
-2.1704244967460665e-05   6.717457854204471e-07   -6.769888650288232e-06
-2.1704244967460665e-05   6.717457854204471e-07   -6.769888650288232e-06
-2.1704244967460665e-05   6.717457854204471e-07   -6.769888650288232e-06
-2.1704244967460665e-05   6.717457854204471e-07   -6.769888650288232e-06
-9.271420315574947e-06   -7.876843617058349e-06   -2.2362109428610542e-05
-9.271420315574947e-06   -7.876843617058349e-06   -2.2362109428610542e-05
-9.271420315574947e-06   -7.876843617058349e-06   -2.2362109428610542e-05
-9.271420315574947e-06   -7.876843617058349e-06   -2.2362109428610542e-05
-1.5568534087912877e-05   -3.537479354682972e-06   -1.4470538365472416e-05
-1.5568534087912877e-05   -3.537479354682972e-06   -1.4470538365472416e-05
-1.5568534087912877e-05   -3.537479354682972e-06   -1.4470538365472416e-05
-1.5568534087912877e-05   -3.537479354682972e-06   -1.4470538365472416e-05
-9.271420315574947e-06   6.717457854204471e-07   -1.6407350088010096e-06
-9.271420315574947e-06   6.717457854204471e-07   -1.6407350088010096e-06
-9.271420315574947e-06   6.717457854204471e-07   -1.6407350088010096e-06
-9.271420315574947e-06   6.717457854204471e-07   -1.6407350088010096e-06
-2.1704244967460705e-05   -7.876843617058132e-06   -2.7491263070097863e-05
-2.1704244967460705e-05   -7.876843617058132e-06   -2.7491263070097863e-05
-2.1704244967460705e-05   -7.876843617058132e-06   -2.7491263070097863e-05
-2.1704244967460705e-05   -7.876843617058132e-06   -2.7491263070097863e-05
-2.1067764545082327e-05   9.11490111334904e-07   -6.011657320567762e-06
-2.1067764545082327e-05   9.11490111334904e-07   -6.011657320567762e-06
-2.1067764545082327e-05   9.11490111334904e-07   -6.011657320567762e-06
-2.1067764545082327e-05   9.11490111334904e-07   -6.011657320567762e-06
-8.794926775565332e-06   -7.913929914109925e-06   -2.1171134921162626e-05
-8.794926775565332e-06   -7.913929914109925e-06   -2.1171134921162626e-05
-8.794926775565332e-06   -7.913929914109925e-06   -2.1171134921162626e-05
-8.794926775565332e-06   -7.913929914109925e-06   -2.1171134921162626e-05
-1.4920305293785606e-05   -3.5432815796031703e-06   -1.3584559724832913e-05
-1.4920305293785606e-05   -3.5432815796031703e-06   -1.3584559724832913e-05
-1.4920305293785606e-05   -3.5432815796031703e-06   -1.3584559724832913e-05
-1.4920305293785606e-05   -3.5432815796031703e-06   -1.3584559724832913e-05
-8.794926775565332e-06   9.11490111334904e-07   -7.164053053009463e-07
-8.794926775565332e-06   9.11490111334904e-07   -7.164053053009463e-07
-8.794926775565332e-06   9.11490111334904e-07   -7.164053053009463e-07
-8.794926775565332e-06   9.11490111334904e-07   -7.164053053009463e-07
-2.1067764545082364e-05   -7.913929914109708e-06   -2.6466386936429458e-05
-2.1067764545082364e-05   -7.913929914109708e-06   -2.6466386936429458e-05
-2.1067764545082364e-05   -7.913929914109708e-06   -2.6466386936429458e-05
-2.1067764545082364e-05   -7.913929914109708e-06   -2.6466386936429458e-05
-2.0020210305043333e-05   1.112975704346147e-06   -5.2444032958688745e-06
-2.0020210305043333e-05   1.112975704346147e-06   -5.2444032958688745e-06
-2.0020210305043333e-05   1.112975704346147e-06   -5.2444032958688745e-06
-2.0020210305043333e-05   1.112975704346147e-06   -5.2444032958688745e-06
-7.972208008747885e-06   -7.181432725260339e-06   -2.0347762065264178e-05
-7.972208008747885e-06   -7.181432725260339e-06   -2.0347762065264178e-05
-7.972208008747885e-06   -7.181432725260339e-06   -2.0347762065264178e-05
-7.972208008747885e-06   -7.181432725260339e-06   -2.0347762065264178e-05
-1.4285443533650457e-05   -3.1003348805602607e-06   -1.2274361563913193e-05
-1.4285443533650457e-05   -3.1003348805602607e-06   -1.2274361563913193e-05
-1.4285443533650457e-05   -3.1003348805602607e-06   -1.2274361563913193e-05
-1.4285443533650457e-05   -3.1003348805602607e-06   -1.2274361563913193e-05
-2.2368866871376585e-05   3.2358846129155582e-06   -4.580836589976397e-06
-2.2368866871376585e-05   3.2358846129155582e-06   -4.580836589976397e-06
-2.2368866871376585e-05   3.2358846129155582e-06   -4.580836589976397e-06
-2.2368866871376585e-05   3.2358846129155582e-06   -4.580836589976397e-06
-3.8355801551463774e-05   0.0   -3.316725849120442e-05
-3.8355801551463774e-05   0.0   -3.316725849120442e-05
-3.8355801551463774e-05   0.0   -3.316725849120442e-05
-3.8355801551463774e-05   0.0   -3.316725849120442e-05
-3.738845445955294e-05   4.071251289354907e-06   -3.469114382346019e-06
-3.738845445955294e-05   4.071251289354907e-06   -3.469114382346019e-06
-3.738845445955294e-05   4.071251289354907e-06   -3.469114382346019e-06
-3.738845445955294e-05   4.071251289354907e-06   -3.469114382346019e-06
-2.1704244967460665e-05   0.0   -2.7166712762220248e-05
-2.1704244967460665e-05   0.0   -2.7166712762220248e-05
-2.1704244967460665e-05   0.0   -2.7166712762220248e-05
-2.1704244967460665e-05   0.0   -2.7166712762220248e-05
-2.868304955576409e-05   1.2588611527696654e-06   -1.6290688473376367e-05
-2.868304955576409e-05   1.2588611527696654e-06   -1.6290688473376367e-05
-2.868304955576409e-05   1.2588611527696654e-06   -1.6290688473376367e-05
-2.868304955576409e-05   1.2588611527696654e-06   -1.6290688473376367e-05
-2.170424496746068e-05   4.071251289354907e-06   -1.026363608733136e-06
-2.170424496746068e-05   4.071251289354907e-06   -1.026363608733136e-06
-2.170424496746068e-05   4.071251289354907e-06   -1.026363608733136e-06
-2.170424496746068e-05   4.071251289354907e-06   -1.026363608733136e-06
-3.738845445955288e-05   0.0   -2.9609463535833084e-05
-3.738845445955288e-05   0.0   -2.9609463535833084e-05
-3.738845445955288e-05   0.0   -2.9609463535833084e-05
-3.738845445955288e-05   0.0   -2.9609463535833084e-05
-3.6566839384167345e-05   4.26013120206621e-06   -1.2321774306279067e-06
-3.6566839384167345e-05   4.26013120206621e-06   -1.2321774306279067e-06
-3.6566839384167345e-05   4.26013120206621e-06   -1.2321774306279067e-06
-3.6566839384167345e-05   4.26013120206621e-06   -1.2321774306279067e-06
-2.1067764545082364e-05   0.0   -2.4507890107863285e-05
-2.1067764545082364e-05   0.0   -2.4507890107863285e-05
-2.1067764545082364e-05   0.0   -2.4507890107863285e-05
-2.1067764545082364e-05   0.0   -2.4507890107863285e-05
-2.8408644968383588e-05   1.9750208179360055e-06   -1.3458101893122512e-05
-2.8408644968383588e-05   1.9750208179360055e-06   -1.3458101893122512e-05
-2.8408644968383588e-05   1.9750208179360055e-06   -1.3458101893122512e-05
-2.8408644968383588e-05   1.9750208179360055e-06   -1.3458101893122512e-05
-2.1067764545082364e-05   4.26013120206621e-06   1.3239012906117445e-06
-2.1067764545082364e-05   4.26013120206621e-06   1.3239012906117445e-06
-2.1067764545082364e-05   4.26013120206621e-06   1.3239012906117445e-06
-2.1067764545082364e-05   4.26013120206621e-06   1.3239012906117445e-06
-3.6566839384167284e-05   0.0   -2.7063968829102903e-05
-3.6566839384167284e-05   0.0   -2.7063968829102903e-05
-3.6566839384167284e-05   0.0   -2.7063968829102903e-05
-3.6566839384167284e-05   0.0   -2.7063968829102903e-05
-3.492419394919943e-05   4.576986349390461e-06   2.3799079414912492e-06
-3.492419394919943e-05   4.576986349390461e-06   2.3799079414912492e-06
-3.492419394919943e-05   4.576986349390461e-06   2.3799079414912492e-06
-3.492419394919943e-05   4.576986349390461e-06   2.3799079414912492e-06
-2.002021030504335e-05   0.0   -1.9713872989134628e-05
-2.002021030504335e-05   0.0   -1.9713872989134628e-05
-2.002021030504335e-05   0.0   -1.9713872989134628e-05
-2.002021030504335e-05   0.0   -1.9713872989134628e-05
-2.6963370909742538e-05   2.430207825354733e-06   -9.600063343182333e-06
-2.6963370909742538e-05   2.430207825354733e-06   -9.600063343182333e-06
-2.6963370909742538e-05   2.430207825354733e-06   -9.600063343182333e-06
-2.6963370909742538e-05   2.430207825354733e-06   -9.600063343182333e-06
2.8319158122197977e-05   -4.832056690722616e-06   1.684788096707572e-05
2.8319158122197977e-05   -4.832056690722616e-06   1.684788096707572e-05
2.8319158122197977e-05   -4.832056690722616e-06   1.684788096707572e-05
2.8319158122197977e-05   -4.832056690722616e-06   1.684788096707572e-05
1.4656525639744306e-05   -3.751622982339081e-06   -5.274912945316774e-06
1.4656525639744306e-05   -3.751622982339081e-06   -5.274912945316774e-06
1.4656525639744306e-05   -3.751622982339081e-06   -5.274912945316774e-06
1.4656525639744306e-05   -3.751622982339081e-06   -5.274912945316774e-06
1.4295233057893952e-05   -4.953032011014748e-06   1.4846975034236943e-05
1.4295233057893952e-05   -4.953032011014748e-06   1.4846975034236943e-05
1.4295233057893952e-05   -4.953032011014748e-06   1.4846975034236943e-05
1.4295233057893952e-05   -4.953032011014748e-06   1.4846975034236943e-05
2.8026569710848944e-05   -4.119509939192346e-06   -8.538699297114673e-06
2.8026569710848944e-05   -4.119509939192346e-06   -8.538699297114673e-06
2.8026569710848944e-05   -4.119509939192346e-06   -8.538699297114673e-06
2.8026569710848944e-05   -4.119509939192346e-06   -8.538699297114673e-06
2.0449975488652563e-05   -4.178799013252669e-06   4.124531184315381e-06
2.0449975488652563e-05   -4.178799013252669e-06   4.124531184315381e-06
2.0449975488652563e-05   -4.178799013252669e-06   4.124531184315381e-06
2.0449975488652563e-05   -4.178799013252669e-06   4.124531184315381e-06
2.8026569710848944e-05   -4.953032011014748e-06   1.4346861791143589e-05
2.8026569710848944e-05   -4.953032011014748e-06   1.4346861791143589e-05
2.8026569710848944e-05   -4.953032011014748e-06   1.4346861791143589e-05
2.8026569710848944e-05   -4.953032011014748e-06   1.4346861791143589e-05
1.4295233057893952e-05   -4.119509939192346e-06   -8.038586054021318e-06
1.4295233057893952e-05   -4.119509939192346e-06   -8.038586054021318e-06
1.4295233057893952e-05   -4.119509939192346e-06   -8.038586054021318e-06
1.4295233057893952e-05   -4.119509939192346e-06   -8.038586054021318e-06
1.3967702177268489e-05   -4.906322970736794e-06   1.331348240941172e-05
1.3967702177268489e-05   -4.906322970736794e-06   1.331348240941172e-05
1.3967702177268489e-05   -4.906322970736794e-06   1.331348240941172e-05
1.3967702177268489e-05   -4.906322970736794e-06   1.331348240941172e-05
2.768550424369704e-05   -4.151224787379013e-06   -1.0002579944650412e-05
2.768550424369704e-05   -4.151224787379013e-06   -1.0002579944650412e-05
2.768550424369704e-05   -4.151224787379013e-06   -1.0002579944650412e-05
2.768550424369704e-05   -4.151224787379013e-06   -1.0002579944650412e-05
2.0443216315674934e-05   -4.252161341252911e-06   2.1284618677107207e-06
2.0443216315674934e-05   -4.252161341252911e-06   2.1284618677107207e-06
2.0443216315674934e-05   -4.252161341252911e-06   2.1284618677107207e-06
2.0443216315674934e-05   -4.252161341252911e-06   2.1284618677107207e-06
2.7685504243697087e-05   -4.906322970736577e-06   1.2860423499397032e-05
2.7685504243697087e-05   -4.906322970736577e-06   1.2860423499397032e-05
2.7685504243697087e-05   -4.906322970736577e-06   1.2860423499397032e-05
2.7685504243697087e-05   -4.906322970736577e-06   1.2860423499397032e-05
1.3967702177268489e-05   -4.151224787379013e-06   -9.549521034635873e-06
1.3967702177268489e-05   -4.151224787379013e-06   -9.549521034635873e-06
1.3967702177268489e-05   -4.151224787379013e-06   -9.549521034635873e-06
1.3967702177268489e-05   -4.151224787379013e-06   -9.549521034635873e-06
1.3567729258312762e-05   -4.628039931676032e-06   1.0818540406830834e-05
1.3567729258312762e-05   -4.628039931676032e-06   1.0818540406830834e-05
1.3567729258312762e-05   -4.628039931676032e-06   1.0818540406830834e-05
1.3567729258312762e-05   -4.628039931676032e-06   1.0818540406830834e-05
2.715086880699478e-05   -4.057338562130173e-06   -1.2162446329366718e-05
2.715086880699478e-05   -4.057338562130173e-06   -1.2162446329366718e-05
2.715086880699478e-05   -4.057338562130173e-06   -1.2162446329366718e-05
2.715086880699478e-05   -4.057338562130173e-06   -1.2162446329366718e-05
1.975320305726237e-05   -4.0426015457268585e-06   1.581543770119004e-07
1.975320305726237e-05   -4.0426015457268585e-06   1.581543770119004e-07
1.975320305726237e-05   -4.0426015457268585e-06   1.581543770119004e-07
1.975320305726237e-05   -4.0426015457268585e-06   1.581543770119004e-07
1.4656525639744306e-05   -4.779495327600445e-06   1.2539453399787993e-05
1.4656525639744306e-05   -4.779495327600445e-06   1.2539453399787993e-05
1.4656525639744306e-05   -4.779495327600445e-06   1.2539453399787993e-05
1.4656525639744306e-05   -4.779495327600445e-06   1.2539453399787993e-05
3.0188870595603993e-06   -2.2874400747384914e-06   -5.361377748801591e-06
3.0188870595603993e-06   -2.2874400747384914e-06   -5.361377748801591e-06
3.0188870595603993e-06   -2.2874400747384914e-06   -5.361377748801591e-06
3.0188870595603993e-06   -2.2874400747384914e-06   -5.361377748801591e-06
2.4472579050636777e-06   -4.751295354191295e-06   1.4274471916230261e-05
2.4472579050636777e-06   -4.751295354191295e-06   1.4274471916230261e-05
2.4472579050636777e-06   -4.751295354191295e-06   1.4274471916230261e-05
2.4472579050636777e-06   -4.751295354191295e-06   1.4274471916230261e-05
1.4295233057893952e-05   -2.423900609994879e-06   -6.868590185004752e-06
1.4295233057893952e-05   -2.423900609994879e-06   -6.868590185004752e-06
1.4295233057893952e-05   -2.423900609994879e-06   -6.868590185004752e-06
1.4295233057893952e-05   -2.423900609994879e-06   -6.868590185004752e-06
8.59099601934864e-06   -3.428169485373417e-06   3.241032871131237e-06
8.59099601934864e-06   -3.428169485373417e-06   3.241032871131237e-06
8.59099601934864e-06   -3.428169485373417e-06   3.241032871131237e-06
8.59099601934864e-06   -3.428169485373417e-06   3.241032871131237e-06
1.4295233057893938e-05   -4.751295354191295e-06   1.28780350697124e-05
1.4295233057893938e-05   -4.751295354191295e-06   1.28780350697124e-05
1.4295233057893938e-05   -4.751295354191295e-06   1.28780350697124e-05
1.4295233057893938e-05   -4.751295354191295e-06   1.28780350697124e-05
2.4472579050636845e-06   -2.4239006099950958e-06   -5.472153338486729e-06
2.4472579050636845e-06   -2.4239006099950958e-06   -5.472153338486729e-06
2.4472579050636845e-06   -2.4239006099950958e-06   -5.472153338486729e-06
2.4472579050636845e-06   -2.4239006099950958e-06   -5.472153338486729e-06
2.0384872824075697e-06   -4.682558678251224e-06   1.4282851510847628e-05
2.0384872824075697e-06   -4.682558678251224e-06   1.4282851510847628e-05
2.0384872824075697e-06   -4.682558678251224e-06   1.4282851510847628e-05
2.0384872824075697e-06   -4.682558678251224e-06   1.4282851510847628e-05
1.3967702177268489e-05   -2.481725293926188e-06   -6.919673344515649e-06
1.3967702177268489e-05   -2.481725293926188e-06   -6.919673344515649e-06
1.3967702177268489e-05   -2.481725293926188e-06   -6.919673344515649e-06
1.3967702177268489e-05   -2.481725293926188e-06   -6.919673344515649e-06
8.098283252376635e-06   -3.355755210347083e-06   3.387109480157077e-06
8.098283252376635e-06   -3.355755210347083e-06   3.387109480157077e-06
8.098283252376635e-06   -3.355755210347083e-06   3.387109480157077e-06
8.098283252376635e-06   -3.355755210347083e-06   3.387109480157077e-06
1.396770217726851e-05   -4.682558678251441e-06   1.2962351480252742e-05
1.396770217726851e-05   -4.682558678251441e-06   1.2962351480252742e-05
1.396770217726851e-05   -4.682558678251441e-06   1.2962351480252742e-05
1.396770217726851e-05   -4.682558678251441e-06   1.2962351480252742e-05
2.0384872824075697e-06   -2.481725293926188e-06   -5.599173313920519e-06
2.0384872824075697e-06   -2.481725293926188e-06   -5.599173313920519e-06
2.0384872824075697e-06   -2.481725293926188e-06   -5.599173313920519e-06
2.0384872824075697e-06   -2.481725293926188e-06   -5.599173313920519e-06
1.5842372620440134e-06   -4.548448328196451e-06   1.4732889536566525e-05
1.5842372620440134e-06   -4.548448328196451e-06   1.4732889536566525e-05
1.5842372620440134e-06   -4.548448328196451e-06   1.4732889536566525e-05
1.5842372620440134e-06   -4.548448328196451e-06   1.4732889536566525e-05
1.3567729258312748e-05   -2.4206834796211465e-06   -6.516256033026625e-06
1.3567729258312748e-05   -2.4206834796211465e-06   -6.516256033026625e-06
1.3567729258312748e-05   -2.4206834796211465e-06   -6.516256033026625e-06
1.3567729258312748e-05   -2.4206834796211465e-06   -6.516256033026625e-06
7.79920237083857e-06   -3.2045902651355214e-06   3.568299517405578e-06
7.79920237083857e-06   -3.2045902651355214e-06   3.568299517405578e-06
7.79920237083857e-06   -3.2045902651355214e-06   3.568299517405578e-06
7.79920237083857e-06   -3.2045902651355214e-06   3.568299517405578e-06
3.018887059560406e-06   -5.6935695400715455e-06   1.2860317511267369e-05
3.018887059560406e-06   -5.6935695400715455e-06   1.2860317511267369e-05
3.018887059560406e-06   -5.6935695400715455e-06   1.2860317511267369e-05
3.018887059560406e-06   -5.6935695400715455e-06   1.2860317511267369e-05
-8.167910976323603e-06   -9.120558172271906e-07   -2.9154376481658984e-06
-8.167910976323603e-06   -9.120558172271906e-07   -2.9154376481658984e-06
-8.167910976323603e-06   -9.120558172271906e-07   -2.9154376481658984e-06
-8.167910976323603e-06   -9.120558172271906e-07   -2.9154376481658984e-06
-9.05629385788757e-06   -5.81386410930659e-06   1.6469237075166106e-05
-9.05629385788757e-06   -5.81386410930659e-06   1.6469237075166106e-05
-9.05629385788757e-06   -5.81386410930659e-06   1.6469237075166106e-05
-9.05629385788757e-06   -5.81386410930659e-06   1.6469237075166106e-05
2.4472579050636845e-06   -9.61498415131927e-07   -5.614768612924098e-06
2.4472579050636845e-06   -9.61498415131927e-07   -5.614768612924098e-06
2.4472579050636845e-06   -9.61498415131927e-07   -5.614768612924098e-06
2.4472579050636845e-06   -9.61498415131927e-07   -5.614768612924098e-06
-2.842284717418381e-06   -3.2363357485102598e-06   4.566038157906207e-06
-2.842284717418381e-06   -3.2363357485102598e-06   4.566038157906207e-06
-2.842284717418381e-06   -3.2363357485102598e-06   4.566038157906207e-06
-2.842284717418381e-06   -3.2363357485102598e-06   4.566038157906207e-06
2.4472579050636777e-06   -5.81386410930659e-06   1.3557817658661135e-05
2.4472579050636777e-06   -5.81386410930659e-06   1.3557817658661135e-05
2.4472579050636777e-06   -5.81386410930659e-06   1.3557817658661135e-05
2.4472579050636777e-06   -5.81386410930659e-06   1.3557817658661135e-05
-9.056293857887557e-06   -9.61498415131927e-07   -2.703349196419235e-06
-9.056293857887557e-06   -9.61498415131927e-07   -2.703349196419235e-06
-9.056293857887557e-06   -9.61498415131927e-07   -2.703349196419235e-06
-9.056293857887557e-06   -9.61498415131927e-07   -2.703349196419235e-06
-9.60116448283371e-06   -5.779885188628587e-06   1.7090089993939696e-05
-9.60116448283371e-06   -5.779885188628587e-06   1.7090089993939696e-05
-9.60116448283371e-06   -5.779885188628587e-06   1.7090089993939696e-05
-9.60116448283371e-06   -5.779885188628587e-06   1.7090089993939696e-05
2.0384872824075697e-06   -1.022827027732584e-06   -5.163564511333381e-06
2.0384872824075697e-06   -1.022827027732584e-06   -5.163564511333381e-06
2.0384872824075697e-06   -1.022827027732584e-06   -5.163564511333381e-06
2.0384872824075697e-06   -1.022827027732584e-06   -5.163564511333381e-06
-3.444632853422149e-06   -3.2208711347436183e-06   5.29379551258936e-06
-3.444632853422149e-06   -3.2208711347436183e-06   5.29379551258936e-06
-3.444632853422149e-06   -3.2208711347436183e-06   5.29379551258936e-06
-3.444632853422149e-06   -3.2208711347436183e-06   5.29379551258936e-06
2.0384872824075697e-06   -5.779885188628804e-06   1.4235855097401891e-05
2.0384872824075697e-06   -5.779885188628804e-06   1.4235855097401891e-05
2.0384872824075697e-06   -5.779885188628804e-06   1.4235855097401891e-05
2.0384872824075697e-06   -5.779885188628804e-06   1.4235855097401891e-05
-9.601164482833697e-06   -1.022827027732584e-06   -2.309329614795779e-06
-9.601164482833697e-06   -1.022827027732584e-06   -2.309329614795779e-06
-9.601164482833697e-06   -1.022827027732584e-06   -2.309329614795779e-06
-9.601164482833697e-06   -1.022827027732584e-06   -2.309329614795779e-06
-1.0239767596572487e-05   -5.569269665260581e-06   1.78908680735113e-05
-1.0239767596572487e-05   -5.569269665260581e-06   1.78908680735113e-05
-1.0239767596572487e-05   -5.569269665260581e-06   1.78908680735113e-05
-1.0239767596572487e-05   -5.569269665260581e-06   1.78908680735113e-05
1.5842372620440202e-06   -1.0127017795338953e-06   -4.549747422285589e-06
1.5842372620440202e-06   -1.0127017795338953e-06   -4.549747422285589e-06
1.5842372620440202e-06   -1.0127017795338953e-06   -4.549747422285589e-06
1.5842372620440202e-06   -1.0127017795338953e-06   -4.549747422285589e-06
-3.9360972402138305e-06   -3.0857969381552263e-06   5.894667176650401e-06
-3.9360972402138305e-06   -3.0857969381552263e-06   5.894667176650401e-06
-3.9360972402138305e-06   -3.0857969381552263e-06   5.894667176650401e-06
-3.9360972402138305e-06   -3.0857969381552263e-06   5.894667176650401e-06
-8.167910976323617e-06   -7.028542187410272e-06   1.552892029034472e-05
-8.167910976323617e-06   -7.028542187410272e-06   1.552892029034472e-05
-8.167910976323617e-06   -7.028542187410272e-06   1.552892029034472e-05
-8.167910976323617e-06   -7.028542187410272e-06   1.552892029034472e-05
-2.085073950107012e-05   1.1231546963494897e-06   -7.181091206436485e-07
-2.085073950107012e-05   1.1231546963494897e-06   -7.181091206436485e-07
-2.085073950107012e-05   1.1231546963494897e-06   -7.181091206436485e-07
-2.085073950107012e-05   1.1231546963494897e-06   -7.181091206436485e-07
-2.1925319499028346e-05   -7.876843617058132e-06   2.1887091747009894e-05
-2.1925319499028346e-05   -7.876843617058132e-06   2.1887091747009894e-05
-2.1925319499028346e-05   -7.876843617058132e-06   2.1887091747009894e-05
-2.1925319499028346e-05   -7.876843617058132e-06   2.1887091747009894e-05
-9.056293857887557e-06   1.0690297947435218e-06   -4.928808368639026e-06
-9.056293857887557e-06   1.0690297947435218e-06   -4.928808368639026e-06
-9.056293857887557e-06   1.0690297947435218e-06   -4.928808368639026e-06
-9.056293857887557e-06   1.0690297947435218e-06   -4.928808368639026e-06
-1.4795005732113111e-05   -2.853131981576636e-06   6.989008487528982e-06
-1.4795005732113111e-05   -2.853131981576636e-06   6.989008487528982e-06
-1.4795005732113111e-05   -2.853131981576636e-06   6.989008487528982e-06
-1.4795005732113111e-05   -2.853131981576636e-06   6.989008487528982e-06
-9.056293857887557e-06   -7.876843617058349e-06   1.651956769992887e-05
-9.056293857887557e-06   -7.876843617058349e-06   1.651956769992887e-05
-9.056293857887557e-06   -7.876843617058349e-06   1.651956769992887e-05
-9.056293857887557e-06   -7.876843617058349e-06   1.651956769992887e-05
-2.1925319499028306e-05   1.0690297947435218e-06   4.3871567844192254e-07
-2.1925319499028306e-05   1.0690297947435218e-06   4.3871567844192254e-07
-2.1925319499028306e-05   1.0690297947435218e-06   4.3871567844192254e-07
-2.1925319499028306e-05   1.0690297947435218e-06   4.3871567844192254e-07
-2.2578889896421695e-05   -7.913929914109708e-06   2.3121483156136814e-05
-2.2578889896421695e-05   -7.913929914109708e-06   2.3121483156136814e-05
-2.2578889896421695e-05   -7.913929914109708e-06   2.3121483156136814e-05
-2.2578889896421695e-05   -7.913929914109708e-06   2.3121483156136814e-05
-9.601164482833697e-06   9.602846357001458e-07   -3.832587929729152e-06
-9.601164482833697e-06   9.602846357001458e-07   -3.832587929729152e-06
-9.601164482833697e-06   9.602846357001458e-07   -3.832587929729152e-06
-9.601164482833697e-06   9.602846357001458e-07   -3.832587929729152e-06
-1.5488311299427206e-05   -3.3084588235424628e-06   8.540569506805562e-06
-1.5488311299427206e-05   -3.3084588235424628e-06   8.540569506805562e-06
-1.5488311299427206e-05   -3.3084588235424628e-06   8.540569506805562e-06
-1.5488311299427206e-05   -3.3084588235424628e-06   8.540569506805562e-06
-9.601164482833697e-06   -7.913929914109925e-06   1.7796954426250804e-05
-9.601164482833697e-06   -7.913929914109925e-06   1.7796954426250804e-05
-9.601164482833697e-06   -7.913929914109925e-06   1.7796954426250804e-05
-9.601164482833697e-06   -7.913929914109925e-06   1.7796954426250804e-05
-2.2578889896421654e-05   9.602846357001458e-07   1.4919408001568034e-06
-2.2578889896421654e-05   9.602846357001458e-07   1.4919408001568034e-06
-2.2578889896421654e-05   9.602846357001458e-07   1.4919408001568034e-06
-2.2578889896421654e-05   9.602846357001458e-07   1.4919408001568034e-06
-2.3284695779231128e-05   -7.181432725260339e-06   2.36415221920894e-05
-2.3284695779231128e-05   -7.181432725260339e-06   2.36415221920894e-05
-2.3284695779231128e-05   -7.181432725260339e-06   2.36415221920894e-05
-2.3284695779231128e-05   -7.181432725260339e-06   2.36415221920894e-05
-1.0239767596572487e-05   8.359954940956055e-07   -2.9104817106219774e-06
-1.0239767596572487e-05   8.359954940956055e-07   -2.9104817106219774e-06
-1.0239767596572487e-05   8.359954940956055e-07   -2.9104817106219774e-06
-1.0239767596572487e-05   8.359954940956055e-07   -2.9104817106219774e-06
-1.6208387387767756e-05   -3.3287158016658035e-06   9.536044718827042e-06
-1.6208387387767756e-05   -3.3287158016658035e-06   9.536044718827042e-06
-1.6208387387767756e-05   -3.3287158016658035e-06   9.536044718827042e-06
-1.6208387387767756e-05   -3.3287158016658035e-06   9.536044718827042e-06
-2.0850739501070045e-05   0.0   1.7093274734693607e-05
-2.0850739501070045e-05   0.0   1.7093274734693607e-05
-2.0850739501070045e-05   0.0   1.7093274734693607e-05
-2.0850739501070045e-05   0.0   1.7093274734693607e-05
-3.655633511916218e-05   4.812390911791741e-06   -6.195283415051482e-06
-3.655633511916218e-05   4.812390911791741e-06   -6.195283415051482e-06
-3.655633511916218e-05   4.812390911791741e-06   -6.195283415051482e-06
-3.655633511916218e-05   4.812390911791741e-06   -6.195283415051482e-06
-3.802504130722403e-05   0.0   2.500798540805557e-05
-3.802504130722403e-05   0.0   2.500798540805557e-05
-3.802504130722403e-05   0.0   2.500798540805557e-05
-3.802504130722403e-05   0.0   2.500798540805557e-05
-2.1925319499028306e-05   4.660572255280352e-06   -4.621227625439014e-06
-2.1925319499028306e-05   4.660572255280352e-06   -4.621227625439014e-06
-2.1925319499028306e-05   4.660572255280352e-06   -4.621227625439014e-06
-2.1925319499028306e-05   4.660572255280352e-06   -4.621227625439014e-06
-2.809091670044893e-05   2.8539986064177528e-06   6.738711899579545e-06
-2.809091670044893e-05   2.8539986064177528e-06   6.738711899579545e-06
-2.809091670044893e-05   2.8539986064177528e-06   6.738711899579545e-06
-2.809091670044893e-05   2.8539986064177528e-06   6.738711899579545e-06
-2.1925319499028292e-05   0.0   2.221164205488738e-05
-2.1925319499028292e-05   0.0   2.221164205488738e-05
-2.1925319499028292e-05   0.0   2.221164205488738e-05
-2.1925319499028292e-05   0.0   2.221164205488738e-05
-3.80250413072241e-05   4.660572255280352e-06   -1.8248842722708462e-06
-3.80250413072241e-05   4.660572255280352e-06   -1.8248842722708462e-06
-3.80250413072241e-05   4.660572255280352e-06   -1.8248842722708462e-06
-3.80250413072241e-05   4.660572255280352e-06   -1.8248842722708462e-06
-3.876309978439345e-05   0.0   2.7808141650417675e-05
-3.876309978439345e-05   0.0   2.7808141650417675e-05
-3.876309978439345e-05   0.0   2.7808141650417675e-05
-3.876309978439345e-05   0.0   2.7808141650417675e-05
-2.2578889896421654e-05   4.546936109524552e-06   -1.8937031619168125e-06
-2.2578889896421654e-05   4.546936109524552e-06   -1.8937031619168125e-06
-2.2578889896421654e-05   4.546936109524552e-06   -1.8937031619168125e-06
-2.2578889896421654e-05   4.546936109524552e-06   -1.8937031619168125e-06
-2.9524745107776854e-05   2.387459290903015e-06   1.0978408281515017e-05
-2.9524745107776854e-05   2.387459290903015e-06   1.0978408281515017e-05
-2.9524745107776854e-05   2.387459290903015e-06   1.0978408281515017e-05
-2.9524745107776854e-05   2.387459290903015e-06   1.0978408281515017e-05
-2.2578889896421654e-05   0.0   2.5079979984703028e-05
-2.2578889896421654e-05   0.0   2.5079979984703028e-05
-2.2578889896421654e-05   0.0   2.5079979984703028e-05
-2.2578889896421654e-05   0.0   2.5079979984703028e-05
-3.8763099784393525e-05   4.546936109524552e-06   8.344585037978755e-07
-3.8763099784393525e-05   4.546936109524552e-06   8.344585037978755e-07
-3.8763099784393525e-05   4.546936109524552e-06   8.344585037978755e-07
-3.8763099784393525e-05   4.546936109524552e-06   8.344585037978755e-07
-3.9578735603946306e-05   0.0   3.153883645207363e-05
-3.9578735603946306e-05   0.0   3.153883645207363e-05
-3.9578735603946306e-05   0.0   3.153883645207363e-05
-3.9578735603946306e-05   0.0   3.153883645207363e-05
-2.3284695779231105e-05   3.811300210151492e-06   2.0953232847905658e-06
-2.3284695779231105e-05   3.811300210151492e-06   2.0953232847905658e-06
-2.3284695779231105e-05   3.811300210151492e-06   2.0953232847905658e-06
-2.3284695779231105e-05   3.811300210151492e-06   2.0953232847905658e-06
-2.9748658815321227e-05   1.6875083481900392e-06   1.4142870128784049e-05
-2.9748658815321227e-05   1.6875083481900392e-06   1.4142870128784049e-05
-2.9748658815321227e-05   1.6875083481900392e-06   1.4142870128784049e-05
-2.9748658815321227e-05   1.6875083481900392e-06   1.4142870128784049e-05
2.5030917399936422e-05   -3.751622982339081e-06   1.766330101426051e-05
2.5030917399936422e-05   -3.751622982339081e-06   1.766330101426051e-05
2.5030917399936422e-05   -3.751622982339081e-06   1.766330101426051e-05
2.5030917399936422e-05   -3.751622982339081e-06   1.766330101426051e-05
1.263402119635589e-05   -2.8525897460182073e-06   -2.4587727165811465e-06
1.263402119635589e-05   -2.8525897460182073e-06   -2.4587727165811465e-06
1.263402119635589e-05   -2.8525897460182073e-06   -2.4587727165811465e-06
1.263402119635589e-05   -2.8525897460182073e-06   -2.4587727165811465e-06
1.2307773687308118e-05   -4.119509939192346e-06   1.5393969627879554e-05
1.2307773687308118e-05   -4.119509939192346e-06   1.5393969627879554e-05
1.2307773687308118e-05   -4.119509939192346e-06   1.5393969627879554e-05
1.2307773687308118e-05   -4.119509939192346e-06   1.5393969627879554e-05
2.4451583072699332e-05   -3.2268962949033673e-06   -5.381280867679207e-06
2.4451583072699332e-05   -3.2268962949033673e-06   -5.381280867679207e-06
2.4451583072699332e-05   -3.2268962949033673e-06   -5.381280867679207e-06
2.4451583072699332e-05   -3.2268962949033673e-06   -5.381280867679207e-06
1.7777773356978208e-05   -3.350086542071903e-06   5.815649473490448e-06
1.7777773356978208e-05   -3.350086542071903e-06   5.815649473490448e-06
1.7777773356978208e-05   -3.350086542071903e-06   5.815649473490448e-06
1.7777773356978208e-05   -3.350086542071903e-06   5.815649473490448e-06
2.4451583072699288e-05   -4.119509939192346e-06   1.4858401441306208e-05
2.4451583072699288e-05   -4.119509939192346e-06   1.4858401441306208e-05
2.4451583072699288e-05   -4.119509939192346e-06   1.4858401441306208e-05
2.4451583072699288e-05   -4.119509939192346e-06   1.4858401441306208e-05
1.2307773687308131e-05   -3.2268962949033673e-06   -4.845712681105711e-06
1.2307773687308131e-05   -3.2268962949033673e-06   -4.845712681105711e-06
1.2307773687308131e-05   -3.2268962949033673e-06   -4.845712681105711e-06
1.2307773687308131e-05   -3.2268962949033673e-06   -4.845712681105711e-06
1.1887523760237922e-05   -4.151224787378796e-06   1.38030958114258e-05
1.1887523760237922e-05   -4.151224787378796e-06   1.38030958114258e-05
1.1887523760237922e-05   -4.151224787378796e-06   1.38030958114258e-05
1.1887523760237922e-05   -4.151224787378796e-06   1.38030958114258e-05
2.3864197532094794e-05   -3.281046561460794e-06   -6.680134077219932e-06
2.3864197532094794e-05   -3.281046561460794e-06   -6.680134077219932e-06
2.3864197532094794e-05   -3.281046561460794e-06   -6.680134077219932e-06
2.3864197532094794e-05   -3.281046561460794e-06   -6.680134077219932e-06
1.7622401081348043e-05   -3.494921123962252e-06   3.8511847448588704e-06
1.7622401081348043e-05   -3.494921123962252e-06   3.8511847448588704e-06
1.7622401081348043e-05   -3.494921123962252e-06   3.8511847448588704e-06
1.7622401081348043e-05   -3.494921123962252e-06   3.8511847448588704e-06
2.3864197532094794e-05   -4.151224787379013e-06   1.3280988875874884e-05
2.3864197532094794e-05   -4.151224787379013e-06   1.3280988875874884e-05
2.3864197532094794e-05   -4.151224787379013e-06   1.3280988875874884e-05
2.3864197532094794e-05   -4.151224787379013e-06   1.3280988875874884e-05
1.1887523760237922e-05   -3.281046561460794e-06   -6.158027141668935e-06
1.1887523760237922e-05   -3.281046561460794e-06   -6.158027141668935e-06
1.1887523760237922e-05   -3.281046561460794e-06   -6.158027141668935e-06
1.1887523760237922e-05   -3.281046561460794e-06   -6.158027141668935e-06
1.1446064339414769e-05   -4.057338562130173e-06   1.143771566586326e-05
1.1446064339414769e-05   -4.057338562130173e-06   1.143771566586326e-05
1.1446064339414769e-05   -4.057338562130173e-06   1.143771566586326e-05
1.1446064339414769e-05   -4.057338562130173e-06   1.143771566586326e-05
2.3128465696731753e-05   -3.2536873627235334e-06   -8.515143982642387e-06
2.3128465696731753e-05   -3.2536873627235334e-06   -8.515143982642387e-06
2.3128465696731753e-05   -3.2536873627235334e-06   -8.515143982642387e-06
2.3128465696731753e-05   -3.2536873627235334e-06   -8.515143982642387e-06
1.684904850088555e-05   -3.4012248084604115e-06   2.039073811210357e-06
1.684904850088555e-05   -3.4012248084604115e-06   2.039073811210357e-06
1.684904850088555e-05   -3.4012248084604115e-06   2.039073811210357e-06
1.684904850088555e-05   -3.4012248084604115e-06   2.039073811210357e-06
1.263402119635589e-05   -2.2874400747384914e-06   1.6621023000851348e-05
1.263402119635589e-05   -2.2874400747384914e-06   1.6621023000851348e-05
1.263402119635589e-05   -2.2874400747384914e-06   1.6621023000851348e-05
1.263402119635589e-05   -2.2874400747384914e-06   1.6621023000851348e-05
1.3231990766771748e-06   -9.984550010301184e-07   -1.4569561543881357e-06
1.3231990766771748e-06   -9.984550010301184e-07   -1.4569561543881357e-06
1.3231990766771748e-06   -9.984550010301184e-07   -1.4569561543881357e-06
1.3231990766771748e-06   -9.984550010301184e-07   -1.4569561543881357e-06
9.983824716982127e-07   -2.4239006099950958e-06   1.7299418828581326e-05
9.983824716982127e-07   -2.4239006099950958e-06   1.7299418828581326e-05
9.983824716982127e-07   -2.4239006099950958e-06   1.7299418828581326e-05
9.983824716982127e-07   -2.4239006099950958e-06   1.7299418828581326e-05
1.2307773687308131e-05   -1.1981450571868545e-06   -2.285019862453461e-06
1.2307773687308131e-05   -1.1981450571868545e-06   -2.285019862453461e-06
1.2307773687308131e-05   -1.1981450571868545e-06   -2.285019862453461e-06
1.2307773687308131e-05   -1.1981450571868545e-06   -2.285019862453461e-06
6.750137794648496e-06   -1.6068292654292451e-06   7.2229171502580084e-06
6.750137794648496e-06   -1.6068292654292451e-06   7.2229171502580084e-06
6.750137794648496e-06   -1.6068292654292451e-06   7.2229171502580084e-06
6.750137794648496e-06   -1.6068292654292451e-06   7.2229171502580084e-06
1.2307773687308124e-05   -2.4239006099950958e-06   1.6563965496896324e-05
1.2307773687308124e-05   -2.4239006099950958e-06   1.6563965496896324e-05
1.2307773687308124e-05   -2.4239006099950958e-06   1.6563965496896324e-05
1.2307773687308124e-05   -2.4239006099950958e-06   1.6563965496896324e-05
9.983824716982127e-07   -1.1981450571868545e-06   -1.5495665307685815e-06
9.983824716982127e-07   -1.1981450571868545e-06   -1.5495665307685815e-06
9.983824716982127e-07   -1.1981450571868545e-06   -1.5495665307685815e-06
9.983824716982127e-07   -1.1981450571868545e-06   -1.5495665307685815e-06
5.845261509767572e-07   -2.481725293926188e-06   1.712572404322392e-05
5.845261509767572e-07   -2.481725293926188e-06   1.712572404322392e-05
5.845261509767572e-07   -2.481725293926188e-06   1.712572404322392e-05
5.845261509767572e-07   -2.481725293926188e-06   1.712572404322392e-05
1.1887523760237922e-05   -1.3270910577964715e-06   -2.405385847222474e-06
1.1887523760237922e-05   -1.3270910577964715e-06   -2.405385847222474e-06
1.1887523760237922e-05   -1.3270910577964715e-06   -2.405385847222474e-06
1.1887523760237922e-05   -1.3270910577964715e-06   -2.405385847222474e-06
6.336953130352985e-06   -1.6813564167168999e-06   7.058124417938299e-06
6.336953130352985e-06   -1.6813564167168999e-06   7.058124417938299e-06
6.336953130352985e-06   -1.6813564167168999e-06   7.058124417938299e-06
6.336953130352985e-06   -1.6813564167168999e-06   7.058124417938299e-06
1.1887523760237902e-05   -2.481725293926188e-06   1.643294350154609e-05
1.1887523760237902e-05   -2.481725293926188e-06   1.643294350154609e-05
1.1887523760237902e-05   -2.481725293926188e-06   1.643294350154609e-05
1.1887523760237902e-05   -2.481725293926188e-06   1.643294350154609e-05
5.845261509767572e-07   -1.3270910577964715e-06   -1.712605305544796e-06
5.845261509767572e-07   -1.3270910577964715e-06   -1.712605305544796e-06
5.845261509767572e-07   -1.3270910577964715e-06   -1.712605305544796e-06
5.845261509767572e-07   -1.3270910577964715e-06   -1.712605305544796e-06
1.27433346109553e-07   -2.4206834796211465e-06   1.7366242543270186e-05
1.27433346109553e-07   -2.4206834796211465e-06   1.7366242543270186e-05
1.27433346109553e-07   -2.4206834796211465e-06   1.7366242543270186e-05
1.27433346109553e-07   -2.4206834796211465e-06   1.7366242543270186e-05
1.1446064339414762e-05   -1.3794211416302783e-06   -2.122899848366411e-06
1.1446064339414762e-05   -1.3794211416302783e-06   -2.122899848366411e-06
1.1446064339414762e-05   -1.3794211416302783e-06   -2.122899848366411e-06
1.1446064339414762e-05   -1.3794211416302783e-06   -2.122899848366411e-06
6.003572653652135e-06   -1.662605464443107e-06   7.1178302215927605e-06
6.003572653652135e-06   -1.662605464443107e-06   7.1178302215927605e-06
6.003572653652135e-06   -1.662605464443107e-06   7.1178302215927605e-06
6.003572653652135e-06   -1.662605464443107e-06   7.1178302215927605e-06
1.3231990766771816e-06   -9.120558172269738e-07   1.6971445912005397e-05
1.3231990766771816e-06   -9.120558172269738e-07   1.6971445912005397e-05
1.3231990766771816e-06   -9.120558172269738e-07   1.6971445912005397e-05
1.3231990766771816e-06   -9.120558172269738e-07   1.6971445912005397e-05
-9.64049191782977e-06   9.048829537377156e-07   -2.1120914959398083e-07
-9.64049191782977e-06   9.048829537377156e-07   -2.1120914959398083e-07
-9.64049191782977e-06   9.048829537377156e-07   -2.1120914959398083e-07
-9.64049191782977e-06   9.048829537377156e-07   -2.1120914959398083e-07
-1.0006765082954468e-05   -9.61498415131927e-07   1.818651944376058e-05
-1.0006765082954468e-05   -9.61498415131927e-07   1.818651944376058e-05
-1.0006765082954468e-05   -9.61498415131927e-07   1.818651944376058e-05
-1.0006765082954468e-05   -9.61498415131927e-07   1.818651944376058e-05
9.983824716982127e-07   7.546947342292921e-07   -1.1851090369438717e-06
9.983824716982127e-07   7.546947342292921e-07   -1.1851090369438717e-06
9.983824716982127e-07   7.546947342292921e-07   -1.1851090369438717e-06
9.983824716982127e-07   7.546947342292921e-07   -1.1851090369438717e-06
-4.323741184927065e-06   2.5667998584466903e-08   8.122513098818426e-06
-4.323741184927065e-06   2.5667998584466903e-08   8.122513098818426e-06
-4.323741184927065e-06   2.5667998584466903e-08   8.122513098818426e-06
-4.323741184927065e-06   2.5667998584466903e-08   8.122513098818426e-06
9.98382471698206e-07   -9.61498415131927e-07   1.7156803554143943e-05
9.98382471698206e-07   -9.61498415131927e-07   1.7156803554143943e-05
9.98382471698206e-07   -9.61498415131927e-07   1.7156803554143943e-05
9.98382471698206e-07   -9.61498415131927e-07   1.7156803554143943e-05
-1.0006765082954468e-05   7.546947342292921e-07   -1.553931473272487e-07
-1.0006765082954468e-05   7.546947342292921e-07   -1.553931473272487e-07
-1.0006765082954468e-05   7.546947342292921e-07   -1.553931473272487e-07
-1.0006765082954468e-05   7.546947342292921e-07   -1.553931473272487e-07
-1.0496037727610311e-05   -1.022827027732584e-06   1.8543974040407456e-05
-1.0496037727610311e-05   -1.022827027732584e-06   1.8543974040407456e-05
-1.0496037727610311e-05   -1.022827027732584e-06   1.8543974040407456e-05
-1.0496037727610311e-05   -1.022827027732584e-06   1.8543974040407456e-05
5.845261509767572e-07   6.149082965949647e-07   -9.062736185008573e-07
5.845261509767572e-07   6.149082965949647e-07   -9.062736185008573e-07
5.845261509767572e-07   6.149082965949647e-07   -9.062736185008573e-07
5.845261509767572e-07   6.149082965949647e-07   -9.062736185008573e-07
-4.684557193638198e-06   -1.4716300428859862e-08   8.253306714071733e-06
-4.684557193638198e-06   -1.4716300428859862e-08   8.253306714071733e-06
-4.684557193638198e-06   -1.4716300428859862e-08   8.253306714071733e-06
-4.684557193638198e-06   -1.4716300428859862e-08   8.253306714071733e-06
5.845261509767572e-07   -1.022827027732584e-06   1.756133284581096e-05
5.845261509767572e-07   -1.022827027732584e-06   1.756133284581096e-05
5.845261509767572e-07   -1.022827027732584e-06   1.756133284581096e-05
5.845261509767572e-07   -1.022827027732584e-06   1.756133284581096e-05
-1.0496037727610311e-05   6.149082965949647e-07   7.63675760957587e-08
-1.0496037727610311e-05   6.149082965949647e-07   7.63675760957587e-08
-1.0496037727610311e-05   6.149082965949647e-07   7.63675760957587e-08
-1.0496037727610311e-05   6.149082965949647e-07   7.63675760957587e-08
-1.1017277508022475e-05   -1.0127017795338953e-06   1.897264092541476e-05
-1.1017277508022475e-05   -1.0127017795338953e-06   1.897264092541476e-05
-1.1017277508022475e-05   -1.0127017795338953e-06   1.897264092541476e-05
-1.1017277508022475e-05   -1.0127017795338953e-06   1.897264092541476e-05
1.27433346109553e-07   5.148793547142235e-07   -5.184258453540128e-07
1.27433346109553e-07   5.148793547142235e-07   -5.184258453540128e-07
1.27433346109553e-07   5.148793547142235e-07   -5.184258453540128e-07
1.27433346109553e-07   5.148793547142235e-07   -5.184258453540128e-07
-5.144009308341841e-06   -4.269203224347828e-08   8.601854744239804e-06
-5.144009308341841e-06   -4.269203224347828e-08   8.601854744239804e-06
-5.144009308341841e-06   -4.269203224347828e-08   8.601854744239804e-06
-5.144009308341841e-06   -4.269203224347828e-08   8.601854744239804e-06
-9.640491917829735e-06   1.1231546963497065e-06   1.5367919571850514e-05
-9.640491917829735e-06   1.1231546963497065e-06   1.5367919571850514e-05
-9.640491917829735e-06   1.1231546963497065e-06   1.5367919571850514e-05
-9.640491917829735e-06   1.1231546963497065e-06   1.5367919571850514e-05
-2.040175816294144e-05   2.924969825998983e-06   -1.4864350922126168e-06
-2.040175816294144e-05   2.924969825998983e-06   -1.4864350922126168e-06
-2.040175816294144e-05   2.924969825998983e-06   -1.4864350922126168e-06
-2.040175816294144e-05   2.924969825998983e-06   -1.4864350922126168e-06
-2.0931440864156068e-05   1.0690297947437387e-06   1.6985169352748365e-05
-2.0931440864156068e-05   1.0690297947437387e-06   1.6985169352748365e-05
-2.0931440864156068e-05   1.0690297947437387e-06   1.6985169352748365e-05
-2.0931440864156068e-05   1.0690297947437387e-06   1.6985169352748365e-05
-1.0006765082954448e-05   2.775878263422708e-06   -2.2467326971284656e-06
-1.0006765082954448e-05   2.775878263422708e-06   -2.2467326971284656e-06
-1.0006765082954448e-05   2.775878263422708e-06   -2.2467326971284656e-06
-1.0006765082954448e-05   2.775878263422708e-06   -2.2467326971284656e-06
-1.5127455443627154e-05   2.0034922091676714e-06   6.7511828698790875e-06
-1.5127455443627154e-05   2.0034922091676714e-06   6.7511828698790875e-06
-1.5127455443627154e-05   2.0034922091676714e-06   6.7511828698790875e-06
-1.5127455443627154e-05   2.0034922091676714e-06   6.7511828698790875e-06
-1.0006765082954468e-05   1.0690297947435218e-06   1.5961060271540788e-05
-1.0006765082954468e-05   1.0690297947435218e-06   1.5961060271540788e-05
-1.0006765082954468e-05   1.0690297947435218e-06   1.5961060271540788e-05
-1.0006765082954468e-05   1.0690297947435218e-06   1.5961060271540788e-05
-2.0931440864156034e-05   2.775878263422708e-06   -1.222623615920943e-06
-2.0931440864156034e-05   2.775878263422708e-06   -1.222623615920943e-06
-2.0931440864156034e-05   2.775878263422708e-06   -1.222623615920943e-06
-2.0931440864156034e-05   2.775878263422708e-06   -1.222623615920943e-06
-2.1581863680269713e-05   9.602846357001458e-07   1.802652683483843e-05
-2.1581863680269713e-05   9.602846357001458e-07   1.802652683483843e-05
-2.1581863680269713e-05   9.602846357001458e-07   1.802652683483843e-05
-2.1581863680269713e-05   9.602846357001458e-07   1.802652683483843e-05
-1.0496037727610311e-05   2.6366364846404713e-06   -1.455660862291464e-06
-1.0496037727610311e-05   2.6366364846404713e-06   -1.455660862291464e-06
-1.0496037727610311e-05   2.6366364846404713e-06   -1.455660862291464e-06
-1.0496037727610311e-05   2.6366364846404713e-06   -1.455660862291464e-06
-1.5519383690108302e-05   1.9721829860149453e-06   7.31525450771382e-06
-1.5519383690108302e-05   1.9721829860149453e-06   7.31525450771382e-06
-1.5519383690108302e-05   1.9721829860149453e-06   7.31525450771382e-06
-1.5519383690108302e-05   1.9721829860149453e-06   7.31525450771382e-06
-1.0496037727610311e-05   9.602846357001458e-07   1.702071572547423e-05
-1.0496037727610311e-05   9.602846357001458e-07   1.702071572547423e-05
-1.0496037727610311e-05   9.602846357001458e-07   1.702071572547423e-05
-1.0496037727610311e-05   9.602846357001458e-07   1.702071572547423e-05
-2.1581863680269673e-05   2.6366364846404713e-06   -4.4984975292727955e-07
-2.1581863680269673e-05   2.6366364846404713e-06   -4.4984975292727955e-07
-2.1581863680269673e-05   2.6366364846404713e-06   -4.4984975292727955e-07
-2.1581863680269673e-05   2.6366364846404713e-06   -4.4984975292727955e-07
-2.2268609999992458e-05   8.359954940953887e-07   1.8845112760243932e-05
-2.2268609999992458e-05   8.359954940953887e-07   1.8845112760243932e-05
-2.2268609999992458e-05   8.359954940953887e-07   1.8845112760243932e-05
-2.2268609999992458e-05   8.359954940953887e-07   1.8845112760243932e-05
-1.1017277508022461e-05   2.447906918431127e-06   -8.74254914307428e-07
-1.1017277508022461e-05   2.447906918431127e-06   -8.74254914307428e-07
-1.1017277508022461e-05   2.447906918431127e-06   -8.74254914307428e-07
-1.1017277508022461e-05   2.447906918431127e-06   -8.74254914307428e-07
-1.618138250507205e-05   1.8603004862916234e-06   8.085150606725917e-06
-1.618138250507205e-05   1.8603004862916234e-06   8.085150606725917e-06
-1.618138250507205e-05   1.8603004862916234e-06   8.085150606725917e-06
-1.618138250507205e-05   1.8603004862916234e-06   8.085150606725917e-06
-2.040175816294144e-05   4.812390911791524e-06   8.084399808157256e-06
-2.040175816294144e-05   4.812390911791524e-06   8.084399808157256e-06
-2.040175816294144e-05   4.812390911791524e-06   8.084399808157256e-06
-2.040175816294144e-05   4.812390911791524e-06   8.084399808157256e-06
-3.073319613065621e-05   4.757012480601712e-06   -9.1678905300814e-06
-3.073319613065621e-05   4.757012480601712e-06   -9.1678905300814e-06
-3.073319613065621e-05   4.757012480601712e-06   -9.1678905300814e-06
-3.073319613065621e-05   4.757012480601712e-06   -9.1678905300814e-06
-3.1686203822534704e-05   4.660572255280352e-06   1.204195011075338e-05
-3.1686203822534704e-05   4.660572255280352e-06   1.204195011075338e-05
-3.1686203822534704e-05   4.660572255280352e-06   1.204195011075338e-05
-3.1686203822534704e-05   4.660572255280352e-06   1.204195011075338e-05
-2.0931440864156034e-05   4.855112358423787e-06   -5.999378881763875e-06
-2.0931440864156034e-05   4.855112358423787e-06   -5.999378881763875e-06
-2.0931440864156034e-05   4.855112358423787e-06   -5.999378881763875e-06
-2.0931440864156034e-05   4.855112358423787e-06   -5.999378881763875e-06
-2.489407038409178e-05   4.840244033904129e-06   6.139246461741373e-07
-2.489407038409178e-05   4.840244033904129e-06   6.139246461741373e-07
-2.489407038409178e-05   4.840244033904129e-06   6.139246461741373e-07
-2.489407038409178e-05   4.840244033904129e-06   6.139246461741373e-07
-2.0931440864156013e-05   4.660572255280352e-06   1.1925226048867252e-05
-2.0931440864156013e-05   4.660572255280352e-06   1.1925226048867252e-05
-2.0931440864156013e-05   4.660572255280352e-06   1.1925226048867252e-05
-2.0931440864156013e-05   4.660572255280352e-06   1.1925226048867252e-05
-3.1686203822534704e-05   4.855112358423787e-06   -5.8826548198778685e-06
-3.1686203822534704e-05   4.855112358423787e-06   -5.8826548198778685e-06
-3.1686203822534704e-05   4.855112358423787e-06   -5.8826548198778685e-06
-3.1686203822534704e-05   4.855112358423787e-06   -5.8826548198778685e-06
-3.262061731146496e-05   4.546936109524552e-06   1.480615006341484e-05
-3.262061731146496e-05   4.546936109524552e-06   1.480615006341484e-05
-3.262061731146496e-05   4.546936109524552e-06   1.480615006341484e-05
-3.262061731146496e-05   4.546936109524552e-06   1.480615006341484e-05
-2.1581863680269673e-05   4.8223814272746685e-06   -3.7570398458941197e-06
-2.1581863680269673e-05   4.8223814272746685e-06   -3.7570398458941197e-06
-2.1581863680269673e-05   4.8223814272746685e-06   -3.7570398458941197e-06
-2.1581863680269673e-05   4.8223814272746685e-06   -3.7570398458941197e-06
-2.599880859376448e-05   4.845578377730866e-06   3.5906168396571635e-06
-2.599880859376448e-05   4.845578377730866e-06   3.5906168396571635e-06
-2.599880859376448e-05   4.845578377730866e-06   3.5906168396571635e-06
-2.599880859376448e-05   4.845578377730866e-06   3.5906168396571635e-06
-2.1581863680269673e-05   4.546936109524552e-06   1.4640882872764692e-05
-2.1581863680269673e-05   4.546936109524552e-06   1.4640882872764692e-05
-2.1581863680269673e-05   4.546936109524552e-06   1.4640882872764692e-05
-2.1581863680269673e-05   4.546936109524552e-06   1.4640882872764692e-05
-3.2620617311465017e-05   4.8223814272746685e-06   -3.5917726552440934e-06
-3.2620617311465017e-05   4.8223814272746685e-06   -3.5917726552440934e-06
-3.2620617311465017e-05   4.8223814272746685e-06   -3.5917726552440934e-06
-3.2620617311465017e-05   4.8223814272746685e-06   -3.5917726552440934e-06
-3.3723771190658834e-05   3.811300210151492e-06   1.942138246850797e-05
-3.3723771190658834e-05   3.811300210151492e-06   1.942138246850797e-05
-3.3723771190658834e-05   3.811300210151492e-06   1.942138246850797e-05
-3.3723771190658834e-05   3.811300210151492e-06   1.942138246850797e-05
-2.226860999999245e-05   4.446169617593589e-06   -5.1474493734603687e-08
-2.226860999999245e-05   4.446169617593589e-06   -5.1474493734603687e-08
-2.226860999999245e-05   4.446169617593589e-06   -5.1474493734603687e-08
-2.226860999999245e-05   4.446169617593589e-06   -5.1474493734603687e-08
-2.6377578468973225e-05   4.620537360482493e-06   6.692185642166607e-06
-2.6377578468973225e-05   4.620537360482493e-06   6.692185642166607e-06
-2.6377578468973225e-05   4.620537360482493e-06   6.692185642166607e-06
-2.6377578468973225e-05   4.620537360482493e-06   6.692185642166607e-06
2.0435567600118006e-05   -2.8525897460182073e-06   1.565835877332218e-05
2.0435567600118006e-05   -2.8525897460182073e-06   1.565835877332218e-05
2.0435567600118006e-05   -2.8525897460182073e-06   1.565835877332218e-05
2.0435567600118006e-05   -2.8525897460182073e-06   1.565835877332218e-05
1.0096679264168004e-05   -2.109331476738774e-06   -1.127166825026847e-06
1.0096679264168004e-05   -2.109331476738774e-06   -1.127166825026847e-06
1.0096679264168004e-05   -2.109331476738774e-06   -1.127166825026847e-06
1.0096679264168004e-05   -2.109331476738774e-06   -1.127166825026847e-06
9.720480901529063e-06   -3.2268962949033673e-06   1.3599870357634911e-05
9.720480901529063e-06   -3.2268962949033673e-06   1.3599870357634911e-05
9.720480901529063e-06   -3.2268962949033673e-06   1.3599870357634911e-05
9.720480901529063e-06   -3.2268962949033673e-06   1.3599870357634911e-05
1.9744692019574253e-05   -2.441860224090581e-06   -3.578169814928028e-06
1.9744692019574253e-05   -2.441860224090581e-06   -3.578169814928028e-06
1.9744692019574253e-05   -2.441860224090581e-06   -3.578169814928028e-06
1.9744692019574253e-05   -2.441860224090581e-06   -3.578169814928028e-06
1.4312995473274128e-05   -2.6300700958962575e-06   5.58758368532212e-06
1.4312995473274128e-05   -2.6300700958962575e-06   5.58758368532212e-06
1.4312995473274128e-05   -2.6300700958962575e-06   5.58758368532212e-06
1.4312995473274128e-05   -2.6300700958962575e-06   5.58758368532212e-06
1.974469201957422e-05   -3.2268962949033673e-06   1.3128848715147119e-05
1.974469201957422e-05   -3.2268962949033673e-06   1.3128848715147119e-05
1.974469201957422e-05   -3.2268962949033673e-06   1.3128848715147119e-05
1.974469201957422e-05   -3.2268962949033673e-06   1.3128848715147119e-05
9.7204809015291e-06   -2.441860224090581e-06   -3.1071481724403776e-06
9.7204809015291e-06   -2.441860224090581e-06   -3.1071481724403776e-06
9.7204809015291e-06   -2.441860224090581e-06   -3.1071481724403776e-06
9.7204809015291e-06   -2.441860224090581e-06   -3.1071481724403776e-06
9.301848933694593e-06   -3.2810465614606854e-06   1.2177050062415736e-05
9.301848933694593e-06   -3.2810465614606854e-06   1.2177050062415736e-05
9.301848933694593e-06   -3.2810465614606854e-06   1.2177050062415736e-05
9.301848933694593e-06   -3.2810465614606854e-06   1.2177050062415736e-05
1.911782211809526e-05   -2.507655243434389e-06   -4.646940035734444e-06
1.911782211809526e-05   -2.507655243434389e-06   -4.646940035734444e-06
1.911782211809526e-05   -2.507655243434389e-06   -4.646940035734444e-06
1.911782211809526e-05   -2.507655243434389e-06   -4.646940035734444e-06
1.4059685948281012e-05   -2.759402171143249e-06   3.934335070581287e-06
1.4059685948281012e-05   -2.759402171143249e-06   3.934335070581287e-06
1.4059685948281012e-05   -2.759402171143249e-06   3.934335070581287e-06
1.4059685948281012e-05   -2.759402171143249e-06   3.934335070581287e-06
1.9117822118095196e-05   -3.2810465614606854e-06   1.171301527159989e-05
1.9117822118095196e-05   -3.2810465614606854e-06   1.171301527159989e-05
1.9117822118095196e-05   -3.2810465614606854e-06   1.171301527159989e-05
1.9117822118095196e-05   -3.2810465614606854e-06   1.171301527159989e-05
9.30184893369461e-06   -2.507655243434389e-06   -4.182905244918666e-06
9.30184893369461e-06   -2.507655243434389e-06   -4.182905244918666e-06
9.30184893369461e-06   -2.507655243434389e-06   -4.182905244918666e-06
9.30184893369461e-06   -2.507655243434389e-06   -4.182905244918666e-06
8.89864481545398e-06   -3.253687362723642e-06   1.0184560717543681e-05
8.89864481545398e-06   -3.253687362723642e-06   1.0184560717543681e-05
8.89864481545398e-06   -3.253687362723642e-06   1.0184560717543681e-05
8.89864481545398e-06   -3.253687362723642e-06   1.0184560717543681e-05
1.8406651557777386e-05   -2.529111221102236e-06   -6.096862871301351e-06
1.8406651557777386e-05   -2.529111221102236e-06   -6.096862871301351e-06
1.8406651557777386e-05   -2.529111221102236e-06   -6.096862871301351e-06
1.8406651557777386e-05   -2.529111221102236e-06   -6.096862871301351e-06
1.3349287239175301e-05   -2.7106729026960268e-06   2.441014668658648e-06
1.3349287239175301e-05   -2.7106729026960268e-06   2.441014668658648e-06
1.3349287239175301e-05   -2.7106729026960268e-06   2.441014668658648e-06
1.3349287239175301e-05   -2.7106729026960268e-06   2.441014668658648e-06
1.0096679264168004e-05   -9.984550010301184e-07   1.6332739252857746e-05
1.0096679264168004e-05   -9.984550010301184e-07   1.6332739252857746e-05
1.0096679264168004e-05   -9.984550010301184e-07   1.6332739252857746e-05
1.0096679264168004e-05   -9.984550010301184e-07   1.6332739252857746e-05
3.9103438342023427e-07   -4.0547868821057785e-07   5.12450239303127e-07
3.9103438342023427e-07   -4.0547868821057785e-07   5.12450239303127e-07
3.9103438342023427e-07   -4.0547868821057785e-07   5.12450239303127e-07
3.9103438342023427e-07   -4.0547868821057785e-07   5.12450239303127e-07
2.9257014066573408e-08   -1.198145057186746e-06   1.649546152195623e-05
2.9257014066573408e-08   -1.198145057186746e-06   1.649546152195623e-05
2.9257014066573408e-08   -1.198145057186746e-06   1.649546152195623e-05
2.9257014066573408e-08   -1.198145057186746e-06   1.649546152195623e-05
9.7204809015291e-06   -6.399811477381199e-07   8.52336384956319e-09
9.7204809015291e-06   -6.399811477381199e-07   8.52336384956319e-09
9.7204809015291e-06   -6.399811477381199e-07   8.52336384956319e-09
9.7204809015291e-06   -6.399811477381199e-07   8.52336384956319e-09
4.997619551773138e-06   -7.811742844593601e-07   7.964674828808807e-06
4.997619551773138e-06   -7.811742844593601e-07   7.964674828808807e-06
4.997619551773138e-06   -7.811742844593601e-07   7.964674828808807e-06
4.997619551773138e-06   -7.811742844593601e-07   7.964674828808807e-06
9.720480901529094e-06   -1.1981450571868545e-06   1.6160563176287012e-05
9.720480901529094e-06   -1.1981450571868545e-06   1.6160563176287012e-05
9.720480901529094e-06   -1.1981450571868545e-06   1.6160563176287012e-05
9.720480901529094e-06   -1.1981450571868545e-06   1.6160563176287012e-05
2.9257014066580184e-08   -6.399811477381199e-07   3.434217095186305e-07
2.9257014066580184e-08   -6.399811477381199e-07   3.434217095186305e-07
2.9257014066580184e-08   -6.399811477381199e-07   3.434217095186305e-07
2.9257014066580184e-08   -6.399811477381199e-07   3.434217095186305e-07
-3.4683481137074036e-07   -1.3270910577965799e-06   1.6238415271433685e-05
-3.4683481137074036e-07   -1.3270910577965799e-06   1.6238415271433685e-05
-3.4683481137074036e-07   -1.3270910577965799e-06   1.6238415271433685e-05
-3.4683481137074036e-07   -1.3270910577965799e-06   1.6238415271433685e-05
9.30184893369461e-06   -8.125512001776148e-07   -1.5144821824669003e-07
9.30184893369461e-06   -8.125512001776148e-07   -1.5144821824669003e-07
9.30184893369461e-06   -8.125512001776148e-07   -1.5144821824669003e-07
9.30184893369461e-06   -8.125512001776148e-07   -1.5144821824669003e-07
4.580823059464096e-06   -9.032969070498506e-07   7.771375662927744e-06
4.580823059464096e-06   -9.032969070498506e-07   7.771375662927744e-06
4.580823059464096e-06   -9.032969070498506e-07   7.771375662927744e-06
4.580823059464096e-06   -9.032969070498506e-07   7.771375662927744e-06
9.301848933694593e-06   -1.3270910577965799e-06   1.592969135686228e-05
9.301848933694593e-06   -1.3270910577965799e-06   1.592969135686228e-05
9.301848933694593e-06   -1.3270910577965799e-06   1.592969135686228e-05
9.301848933694593e-06   -1.3270910577965799e-06   1.592969135686228e-05
-3.4683481137074036e-07   -8.125512001777233e-07   1.57275696324689e-07
-3.4683481137074036e-07   -8.125512001777233e-07   1.57275696324689e-07
-3.4683481137074036e-07   -8.125512001777233e-07   1.57275696324689e-07
-3.4683481137074036e-07   -8.125512001777233e-07   1.57275696324689e-07
-7.383907136945713e-07   -1.3794211416301699e-06   1.6354232632736316e-05
-7.383907136945713e-07   -1.3794211416301699e-06   1.6354232632736316e-05
-7.383907136945713e-07   -1.3794211416301699e-06   1.6354232632736316e-05
-7.383907136945713e-07   -1.3794211416301699e-06   1.6354232632736316e-05
8.898644815453997e-06   -9.46723640696018e-07   3.2888250261608326e-08
8.898644815453997e-06   -9.46723640696018e-07   3.2888250261608326e-08
8.898644815453997e-06   -9.46723640696018e-07   3.2888250261608326e-08
8.898644815453997e-06   -9.46723640696018e-07   3.2888250261608326e-08
4.270006518456366e-06   -9.669089488633102e-07   7.759396596824912e-06
4.270006518456366e-06   -9.669089488633102e-07   7.759396596824912e-06
4.270006518456366e-06   -9.669089488633102e-07   7.759396596824912e-06
4.270006518456366e-06   -9.669089488633102e-07   7.759396596824912e-06
3.9103438342024104e-07   9.048829537377156e-07   1.684410878276466e-05
3.9103438342024104e-07   9.048829537377156e-07   1.684410878276466e-05
3.9103438342024104e-07   9.048829537377156e-07   1.684410878276466e-05
3.9103438342024104e-07   9.048829537377156e-07   1.684410878276466e-05
-9.03554991117787e-06   1.3003306104591257e-06   1.370403552467263e-06
-9.03554991117787e-06   1.3003306104591257e-06   1.370403552467263e-06
-9.03554991117787e-06   1.3003306104591257e-06   1.370403552467263e-06
-9.03554991117787e-06   1.3003306104591257e-06   1.370403552467263e-06
-9.413925310271763e-06   7.546947342291837e-07   1.707134793076158e-05
-9.413925310271763e-06   7.546947342291837e-07   1.707134793076158e-05
-9.413925310271763e-06   7.546947342291837e-07   1.707134793076158e-05
-9.413925310271763e-06   7.546947342291837e-07   1.707134793076158e-05
2.9257014066580184e-08   1.107076259197065e-06   1.121281808550323e-06
2.9257014066580184e-08   1.107076259197065e-06   1.121281808550323e-06
2.9257014066580184e-08   1.107076259197065e-06   1.121281808550323e-06
2.9257014066580184e-08   1.107076259197065e-06   1.121281808550323e-06
-4.514131925287058e-06   1.0266171947068007e-06   8.741872146167233e-06
-4.514131925287058e-06   1.0266171947068007e-06   8.741872146167233e-06
-4.514131925287058e-06   1.0266171947068007e-06   8.741872146167233e-06
-4.514131925287058e-06   1.0266171947068007e-06   8.741872146167233e-06
2.9257014066573408e-08   7.546947342291837e-07   1.6859919015780952e-05
2.9257014066573408e-08   7.546947342291837e-07   1.6859919015780952e-05
2.9257014066573408e-08   7.546947342291837e-07   1.6859919015780952e-05
2.9257014066573408e-08   7.546947342291837e-07   1.6859919015780952e-05
-9.413925310271763e-06   1.107076259197065e-06   1.3327107235310736e-06
-9.413925310271763e-06   1.107076259197065e-06   1.3327107235310736e-06
-9.413925310271763e-06   1.107076259197065e-06   1.3327107235310736e-06
-9.413925310271763e-06   1.107076259197065e-06   1.3327107235310736e-06
-9.812980802440357e-06   6.149082965949647e-07   1.7227508894584868e-05
-9.812980802440357e-06   6.149082965949647e-07   1.7227508894584868e-05
-9.812980802440357e-06   6.149082965949647e-07   1.7227508894584868e-05
-9.812980802440357e-06   6.149082965949647e-07   1.7227508894584868e-05
-3.4683481137074036e-07   9.195115234406255e-07   1.267836973361386e-06
-3.4683481137074036e-07   9.195115234406255e-07   1.267836973361386e-06
-3.4683481137074036e-07   9.195115234406255e-07   1.267836973361386e-06
-3.4683481137074036e-07   9.195115234406255e-07   1.267836973361386e-06
-4.865299621836241e-06   9.173423245524581e-07   8.799913176803551e-06
-4.865299621836241e-06   9.173423245524581e-07   8.799913176803551e-06
-4.865299621836241e-06   9.173423245524581e-07   8.799913176803551e-06
-4.865299621836241e-06   9.173423245524581e-07   8.799913176803551e-06
-3.4683481137074036e-07   6.149082965949647e-07   1.7044746958477528e-05
-3.4683481137074036e-07   6.149082965949647e-07   1.7044746958477528e-05
-3.4683481137074036e-07   6.149082965949647e-07   1.7044746958477528e-05
-3.4683481137074036e-07   6.149082965949647e-07   1.7044746958477528e-05
-9.812980802440357e-06   9.195115234407339e-07   1.4505989094688474e-06
-9.812980802440357e-06   9.195115234407339e-07   1.4505989094688474e-06
-9.812980802440357e-06   9.195115234407339e-07   1.4505989094688474e-06
-9.812980802440357e-06   9.195115234407339e-07   1.4505989094688474e-06
-1.0224487981748341e-05   5.148793547142235e-07   1.7476626468945072e-05
-1.0224487981748341e-05   5.148793547142235e-07   1.7476626468945072e-05
-1.0224487981748341e-05   5.148793547142235e-07   1.7476626468945072e-05
-1.0224487981748341e-05   5.148793547142235e-07   1.7476626468945072e-05
-7.383907136945713e-07   7.526747480323184e-07   1.5237871195312482e-06
-7.383907136945713e-07   7.526747480323184e-07   1.5237871195312482e-06
-7.383907136945713e-07   7.526747480323184e-07   1.5237871195312482e-06
-7.383907136945713e-07   7.526747480323184e-07   1.5237871195312482e-06
-5.2453685141509994e-06   8.128687443542237e-07   8.999300389165758e-06
-5.2453685141509994e-06   8.128687443542237e-07   8.999300389165758e-06
-5.2453685141509994e-06   8.128687443542237e-07   8.999300389165758e-06
-5.2453685141509994e-06   8.128687443542237e-07   8.999300389165758e-06
-9.035549911177911e-06   2.924969825998983e-06   1.4725062356389196e-05
-9.035549911177911e-06   2.924969825998983e-06   1.4725062356389196e-05
-9.035549911177911e-06   2.924969825998983e-06   1.4725062356389196e-05
-9.035549911177911e-06   2.924969825998983e-06   1.4725062356389196e-05
-1.8184445235629263e-05   2.962440163735121e-06   -5.006143150547838e-07
-1.8184445235629263e-05   2.962440163735121e-06   -5.006143150547838e-07
-1.8184445235629263e-05   2.962440163735121e-06   -5.006143150547838e-07
-1.8184445235629263e-05   2.962440163735121e-06   -5.006143150547838e-07
-1.862346823130441e-05   2.7758782634228164e-06   1.4982223341975637e-05
-1.862346823130441e-05   2.7758782634228164e-06   1.4982223341975637e-05
-1.862346823130441e-05   2.7758782634228164e-06   1.4982223341975637e-05
-1.862346823130441e-05   2.7758782634228164e-06   1.4982223341975637e-05
-9.413925310271777e-06   2.779569865114795e-06   -3.692298207606847e-07
-9.413925310271777e-06   2.779569865114795e-06   -3.692298207606847e-07
-9.413925310271777e-06   2.779569865114795e-06   -3.692298207606847e-07
-9.413925310271777e-06   2.779569865114795e-06   -3.692298207606847e-07
-1.3752702891920327e-05   2.851374367919589e-06   6.81898344697082e-06
-1.3752702891920327e-05   2.851374367919589e-06   6.81898344697082e-06
-1.3752702891920327e-05   2.851374367919589e-06   6.81898344697082e-06
-1.3752702891920327e-05   2.851374367919589e-06   6.81898344697082e-06
-9.413925310271777e-06   2.7758782634228164e-06   1.498000838096039e-05
-9.413925310271777e-06   2.7758782634228164e-06   1.498000838096039e-05
-9.413925310271777e-06   2.7758782634228164e-06   1.498000838096039e-05
-9.413925310271777e-06   2.7758782634228164e-06   1.498000838096039e-05
-1.862346823130441e-05   2.779569865114795e-06   -3.670148597455193e-07
-1.862346823130441e-05   2.779569865114795e-06   -3.670148597455193e-07
-1.862346823130441e-05   2.779569865114795e-06   -3.670148597455193e-07
-1.862346823130441e-05   2.779569865114795e-06   -3.670148597455193e-07
-1.9109115413854495e-05   2.6366364846405798e-06   1.5679225500210298e-05
-1.9109115413854495e-05   2.6366364846405798e-06   1.5679225500210298e-05
-1.9109115413854495e-05   2.6366364846405798e-06   1.5679225500210298e-05
-1.9109115413854495e-05   2.6366364846405798e-06   1.5679225500210298e-05
-9.812980802440377e-06   2.609544891328118e-06   2.0192277050748702e-07
-9.812980802440377e-06   2.609544891328118e-06   2.0192277050748702e-07
-9.812980802440377e-06   2.609544891328118e-06   2.0192277050748702e-07
-9.812980802440377e-06   2.609544891328118e-06   2.0192277050748702e-07
-1.4067164756288215e-05   2.749061624031802e-06   7.208519320631748e-06
-1.4067164756288215e-05   2.749061624031802e-06   7.208519320631748e-06
-1.4067164756288215e-05   2.749061624031802e-06   7.208519320631748e-06
-1.4067164756288215e-05   2.749061624031802e-06   7.208519320631748e-06
-9.812980802440377e-06   2.6366364846404713e-06   1.56954804561977e-05
-9.812980802440377e-06   2.6366364846404713e-06   1.56954804561977e-05
-9.812980802440377e-06   2.6366364846404713e-06   1.56954804561977e-05
-9.812980802440377e-06   2.6366364846404713e-06   1.56954804561977e-05
-1.9109115413854495e-05   2.609544891328118e-06   1.8566781452008596e-07
-1.9109115413854495e-05   2.609544891328118e-06   1.8566781452008596e-07
-1.9109115413854495e-05   2.609544891328118e-06   1.8566781452008596e-07
-1.9109115413854495e-05   2.609544891328118e-06   1.8566781452008596e-07
-1.95714032632437e-05   2.4479069184310184e-06   1.617586391768099e-05
-1.95714032632437e-05   2.4479069184310184e-06   1.617586391768099e-05
-1.95714032632437e-05   2.4479069184310184e-06   1.617586391768099e-05
-1.95714032632437e-05   2.4479069184310184e-06   1.617586391768099e-05
-1.0224487981748341e-05   2.400598915494839e-06   6.260565836171223e-07
-1.0224487981748341e-05   2.400598915494839e-06   6.260565836171223e-07
-1.0224487981748341e-05   2.400598915494839e-06   6.260565836171223e-07
-1.0224487981748341e-05   2.400598915494839e-06   6.260565836171223e-07
-1.4574003943768014e-05   2.6142910053445086e-06   7.747034599740532e-06
-1.4574003943768014e-05   2.6142910053445086e-06   7.747034599740532e-06
-1.4574003943768014e-05   2.6142910053445086e-06   7.747034599740532e-06
-1.4574003943768014e-05   2.6142910053445086e-06   7.747034599740532e-06
-1.8184445235629236e-05   4.757012480601712e-06   7.099316179875976e-06
-1.8184445235629236e-05   4.757012480601712e-06   7.099316179875976e-06
-1.8184445235629236e-05   4.757012480601712e-06   7.099316179875976e-06
-1.8184445235629236e-05   4.757012480601712e-06   7.099316179875976e-06
-2.6911696006124168e-05   4.281575570489458e-06   -7.73136391701623e-06
-2.6911696006124168e-05   4.281575570489458e-06   -7.73136391701623e-06
-2.6911696006124168e-05   4.281575570489458e-06   -7.73136391701623e-06
-2.6911696006124168e-05   4.281575570489458e-06   -7.73136391701623e-06
-2.760345849539623e-05   4.855112358423679e-06   9.891753842955768e-06
-2.760345849539623e-05   4.855112358423679e-06   9.891753842955768e-06
-2.760345849539623e-05   4.855112358423679e-06   9.891753842955768e-06
-2.760345849539623e-05   4.855112358423679e-06   9.891753842955768e-06
-1.862346823130441e-05   4.33225530312891e-06   -4.761182364020522e-06
-1.862346823130441e-05   4.33225530312891e-06   -4.761182364020522e-06
-1.862346823130441e-05   4.33225530312891e-06   -4.761182364020522e-06
-1.862346823130441e-05   4.33225530312891e-06   -4.761182364020522e-06
-2.1955703752198378e-05   4.5268490462059855e-06   6.757872582899467e-07
-2.1955703752198378e-05   4.5268490462059855e-06   6.757872582899467e-07
-2.1955703752198378e-05   4.5268490462059855e-06   6.757872582899467e-07
-2.1955703752198378e-05   4.5268490462059855e-06   6.757872582899467e-07
-1.862346823130437e-05   4.855112358423787e-06   1.0205468076132651e-05
-1.862346823130437e-05   4.855112358423787e-06   1.0205468076132651e-05
-1.862346823130437e-05   4.855112358423787e-06   1.0205468076132651e-05
-1.862346823130437e-05   4.855112358423787e-06   1.0205468076132651e-05
-2.7603458495396245e-05   4.33225530312891e-06   -5.0748965971972966e-06
-2.7603458495396245e-05   4.33225530312891e-06   -5.0748965971972966e-06
-2.7603458495396245e-05   4.33225530312891e-06   -5.0748965971972966e-06
-2.7603458495396245e-05   4.33225530312891e-06   -5.0748965971972966e-06
-2.8277546111130005e-05   4.82238142727456e-06   1.2050236634254395e-05
-2.8277546111130005e-05   4.82238142727456e-06   1.2050236634254395e-05
-2.8277546111130005e-05   4.82238142727456e-06   1.2050236634254395e-05
-2.8277546111130005e-05   4.82238142727456e-06   1.2050236634254395e-05
-1.9109115413854495e-05   4.2860501389597625e-06   -2.908682421549208e-06
-1.9109115413854495e-05   4.2860501389597625e-06   -2.908682421549208e-06
-1.9109115413854495e-05   4.2860501389597625e-06   -2.908682421549208e-06
-1.9109115413854495e-05   4.2860501389597625e-06   -2.908682421549208e-06
-2.281528201357943e-05   4.61153969784589e-06   3.0729681759943323e-06
-2.281528201357943e-05   4.61153969784589e-06   3.0729681759943323e-06
-2.281528201357943e-05   4.61153969784589e-06   3.0729681759943323e-06
-2.281528201357943e-05   4.61153969784589e-06   3.0729681759943323e-06
-1.9109115413854495e-05   4.8223814272746685e-06   1.2372035407243458e-05
-1.9109115413854495e-05   4.8223814272746685e-06   1.2372035407243458e-05
-1.9109115413854495e-05   4.8223814272746685e-06   1.2372035407243458e-05
-1.9109115413854495e-05   4.8223814272746685e-06   1.2372035407243458e-05
-2.8277546111130032e-05   4.2860501389597625e-06   -3.2304811945381624e-06
-2.8277546111130032e-05   4.2860501389597625e-06   -3.2304811945381624e-06
-2.8277546111130032e-05   4.2860501389597625e-06   -3.2304811945381624e-06
-2.8277546111130032e-05   4.2860501389597625e-06   -3.2304811945381624e-06
-2.9063407641605532e-05   4.4461696175934805e-06   1.5739383908210526e-05
-2.9063407641605532e-05   4.4461696175934805e-06   1.5739383908210526e-05
-2.9063407641605532e-05   4.4461696175934805e-06   1.5739383908210526e-05
-2.9063407641605532e-05   4.4461696175934805e-06   1.5739383908210526e-05
-1.9571403263243673e-05   3.959313658523627e-06   2.1149018638254823e-07
-1.9571403263243673e-05   3.959313658523627e-06   2.1149018638254823e-07
-1.9571403263243673e-05   3.959313658523627e-06   2.1149018638254823e-07
-1.9571403263243673e-05   3.959313658523627e-06   2.1149018638254823e-07
-2.3019226340974505e-05   4.4764126433639254e-06   5.647602591696494e-06
-2.3019226340974505e-05   4.4764126433639254e-06   5.647602591696494e-06
-2.3019226340974505e-05   4.4764126433639254e-06   5.647602591696494e-06
-2.3019226340974505e-05   4.4764126433639254e-06   5.647602591696494e-06
1.56409614766259e-05   -2.109331476738774e-06   1.3165083616374689e-05
1.56409614766259e-05   -2.109331476738774e-06   1.3165083616374689e-05
1.56409614766259e-05   -2.109331476738774e-06   1.3165083616374689e-05
1.56409614766259e-05   -2.109331476738774e-06   1.3165083616374689e-05
7.3519666884123e-06   -1.4097253803179452e-06   -2.301440394621504e-07
7.3519666884123e-06   -1.4097253803179452e-06   -2.301440394621504e-07
7.3519666884123e-06   -1.4097253803179452e-06   -2.301440394621504e-07
7.3519666884123e-06   -1.4097253803179452e-06   -2.301440394621504e-07
7.01489403152556e-06   -2.441860224090581e-06   1.1554113893630629e-05
7.01489403152556e-06   -2.441860224090581e-06   1.1554113893630629e-05
7.01489403152556e-06   -2.441860224090581e-06   1.1554113893630629e-05
7.01489403152556e-06   -2.441860224090581e-06   1.1554113893630629e-05
1.4987916412339352e-05   -1.7052874789157384e-06   -2.176200388164071e-06
1.4987916412339352e-05   -1.7052874789157384e-06   -2.176200388164071e-06
1.4987916412339352e-05   -1.7052874789157384e-06   -2.176200388164071e-06
1.4987916412339352e-05   -1.7052874789157384e-06   -2.176200388164071e-06
1.0720237585478762e-05   -1.930042373265409e-06   5.071450593213531e-06
1.0720237585478762e-05   -1.930042373265409e-06   5.071450593213531e-06
1.0720237585478762e-05   -1.930042373265409e-06   5.071450593213531e-06
1.0720237585478762e-05   -1.930042373265409e-06   5.071450593213531e-06
1.4987916412339328e-05   -2.441860224090581e-06   1.1112170246525717e-05
1.4987916412339328e-05   -2.441860224090581e-06   1.1112170246525717e-05
1.4987916412339328e-05   -2.441860224090581e-06   1.1112170246525717e-05
1.4987916412339328e-05   -2.441860224090581e-06   1.1112170246525717e-05
7.014894031525573e-06   -1.7052874789157384e-06   -1.734256741059057e-06
7.014894031525573e-06   -1.7052874789157384e-06   -1.734256741059057e-06
7.014894031525573e-06   -1.7052874789157384e-06   -1.734256741059057e-06
7.014894031525573e-06   -1.7052874789157384e-06   -1.734256741059057e-06
6.641995887401397e-06   -2.507655243434389e-06   1.0423137246218152e-05
6.641995887401397e-06   -2.507655243434389e-06   1.0423137246218152e-05
6.641995887401397e-06   -2.507655243434389e-06   1.0423137246218152e-05
6.641995887401397e-06   -2.507655243434389e-06   1.0423137246218152e-05
1.4414509730677436e-05   -1.7833920719354576e-06   -2.965610395474572e-06
1.4414509730677436e-05   -1.7833920719354576e-06   -2.965610395474572e-06
1.4414509730677436e-05   -1.7833920719354576e-06   -2.965610395474572e-06
1.4414509730677436e-05   -1.7833920719354576e-06   -2.965610395474572e-06
1.0455490588339217e-05   -2.050436451987421e-06   3.792981469787109e-06
1.0455490588339217e-05   -2.050436451987421e-06   3.792981469787109e-06
1.0455490588339217e-05   -2.050436451987421e-06   3.792981469787109e-06
1.0455490588339217e-05   -2.050436451987421e-06   3.792981469787109e-06
1.441450973067741e-05   -2.507655243434389e-06   9.988579343318666e-06
1.441450973067741e-05   -2.507655243434389e-06   9.988579343318666e-06
1.441450973067741e-05   -2.507655243434389e-06   9.988579343318666e-06
1.441450973067741e-05   -2.507655243434389e-06   9.988579343318666e-06
6.641995887401407e-06   -1.7833920719354576e-06   -2.5310524925752347e-06
6.641995887401407e-06   -1.7833920719354576e-06   -2.5310524925752347e-06
6.641995887401407e-06   -1.7833920719354576e-06   -2.5310524925752347e-06
6.641995887401407e-06   -1.7833920719354576e-06   -2.5310524925752347e-06
6.297194114716394e-06   -2.5291112211023445e-06   8.883403483929755e-06
6.297194114716394e-06   -2.5291112211023445e-06   8.883403483929755e-06
6.297194114716394e-06   -2.5291112211023445e-06   8.883403483929755e-06
6.297194114716394e-06   -2.5291112211023445e-06   8.883403483929755e-06
1.3772264402338438e-05   -1.8524210734316513e-06   -3.981061084042787e-06
1.3772264402338438e-05   -1.8524210734316513e-06   -3.981061084042787e-06
1.3772264402338438e-05   -1.8524210734316513e-06   -3.981061084042787e-06
1.3772264402338438e-05   -1.8524210734316513e-06   -3.981061084042787e-06
9.85088891613623e-06   -2.036688096868403e-06   2.665124940356349e-06
9.85088891613623e-06   -2.036688096868403e-06   2.665124940356349e-06
9.85088891613623e-06   -2.036688096868403e-06   2.665124940356349e-06
9.85088891613623e-06   -2.036688096868403e-06   2.665124940356349e-06
7.3519666884122725e-06   -4.0547868821068627e-07   1.4868678550865569e-05
7.3519666884122725e-06   -4.0547868821068627e-07   1.4868678550865569e-05
7.3519666884122725e-06   -4.0547868821068627e-07   1.4868678550865569e-05
7.3519666884122725e-06   -4.0547868821068627e-07   1.4868678550865569e-05
-4.872439463623481e-07   -1.5489763222184712e-08   2.0373208479009626e-06
-4.872439463623481e-07   -1.5489763222184712e-08   2.0373208479009626e-06
-4.872439463623481e-07   -1.5489763222184712e-08   2.0373208479009626e-06
-4.872439463623481e-07   -1.5489763222184712e-08   2.0373208479009626e-06
-8.046157216873889e-07   -6.399811477381199e-07   1.4891126047586706e-05
-8.046157216873889e-07   -6.399811477381199e-07   1.4891126047586706e-05
-8.046157216873889e-07   -6.399811477381199e-07   1.4891126047586706e-05
-8.046157216873889e-07   -6.399811477381199e-07   1.4891126047586706e-05
7.014894031525573e-06   -2.7108011829430744e-07   1.637269174565529e-06
7.014894031525573e-06   -2.7108011829430744e-07   1.637269174565529e-06
7.014894031525573e-06   -2.7108011829430744e-07   1.637269174565529e-06
7.014894031525573e-06   -2.7108011829430744e-07   1.637269174565529e-06
3.2155373926609246e-06   -3.425289743136427e-07   8.012399552951546e-06
3.2155373926609246e-06   -3.425289743136427e-07   8.012399552951546e-06
3.2155373926609246e-06   -3.425289743136427e-07   8.012399552951546e-06
3.2155373926609246e-06   -3.425289743136427e-07   8.012399552951546e-06
7.014894031525543e-06   -6.399811477381199e-07   1.4669785429920462e-05
7.014894031525543e-06   -6.399811477381199e-07   1.4669785429920462e-05
7.014894031525543e-06   -6.399811477381199e-07   1.4669785429920462e-05
7.014894031525543e-06   -6.399811477381199e-07   1.4669785429920462e-05
-8.046157216873889e-07   -2.7108011829441586e-07   1.8586097922318272e-06
-8.046157216873889e-07   -2.7108011829441586e-07   1.8586097922318272e-06
-8.046157216873889e-07   -2.7108011829441586e-07   1.8586097922318272e-06
-8.046157216873889e-07   -2.7108011829441586e-07   1.8586097922318272e-06
-1.1289347558685343e-06   -8.125512001777233e-07   1.4659451875306795e-05
-1.1289347558685343e-06   -8.125512001777233e-07   1.4659451875306795e-05
-1.1289347558685343e-06   -8.125512001777233e-07   1.4659451875306795e-05
-1.1289347558685343e-06   -8.125512001777233e-07   1.4659451875306795e-05
6.641995887401407e-06   -4.7112186281643084e-07   1.5030432007735002e-06
6.641995887401407e-06   -4.7112186281643084e-07   1.5030432007735002e-06
6.641995887401407e-06   -4.7112186281643084e-07   1.5030432007735002e-06
6.641995887401407e-06   -4.7112186281643084e-07   1.5030432007735002e-06
2.8582497234120257e-06   -4.995165960896327e-07   7.82632364738705e-06
2.8582497234120257e-06   -4.995165960896327e-07   7.82632364738705e-06
2.8582497234120257e-06   -4.995165960896327e-07   7.82632364738705e-06
2.8582497234120257e-06   -4.995165960896327e-07   7.82632364738705e-06
6.641995887401397e-06   -8.125512001777233e-07   1.4454594272890088e-05
6.641995887401397e-06   -8.125512001777233e-07   1.4454594272890088e-05
6.641995887401397e-06   -8.125512001777233e-07   1.4454594272890088e-05
6.641995887401397e-06   -8.125512001777233e-07   1.4454594272890088e-05
-1.1289347558685343e-06   -4.7112186281643084e-07   1.7079008031902214e-06
-1.1289347558685343e-06   -4.7112186281643084e-07   1.7079008031902214e-06
-1.1289347558685343e-06   -4.7112186281643084e-07   1.7079008031902214e-06
-1.1289347558685343e-06   -4.7112186281643084e-07   1.7079008031902214e-06
-1.4551325551722614e-06   -9.46723640696018e-07   1.4753669975144643e-05
-1.4551325551722614e-06   -9.46723640696018e-07   1.4753669975144643e-05
-1.4551325551722614e-06   -9.46723640696018e-07   1.4753669975144643e-05
-1.4551325551722614e-06   -9.46723640696018e-07   1.4753669975144643e-05
6.297194114716401e-06   -6.5462188298792e-07   1.6578644707052666e-06
6.297194114716401e-06   -6.5462188298792e-07   1.6578644707052666e-06
6.297194114716401e-06   -6.5462188298792e-07   1.6578644707052666e-06
6.297194114716401e-06   -6.5462188298792e-07   1.6578644707052666e-06
2.5875331825293106e-06   -6.140229919323237e-07   7.816273356383788e-06
2.5875331825293106e-06   -6.140229919323237e-07   7.816273356383788e-06
2.5875331825293106e-06   -6.140229919323237e-07   7.816273356383788e-06
2.5875331825293106e-06   -6.140229919323237e-07   7.816273356383788e-06
-4.872439463623414e-07   1.3003306104590173e-06   1.572335662499005e-05
-4.872439463623414e-07   1.3003306104590173e-06   1.572335662499005e-05
-4.872439463623414e-07   1.3003306104590173e-06   1.572335662499005e-05
-4.872439463623414e-07   1.3003306104590173e-06   1.572335662499005e-05
-8.161791974846766e-06   1.3416284708868496e-06   2.9572219604392783e-06
-8.161791974846766e-06   1.3416284708868496e-06   2.9572219604392783e-06
-8.161791974846766e-06   1.3416284708868496e-06   2.9572219604392783e-06
-8.161791974846766e-06   1.3416284708868496e-06   2.9572219604392783e-06
-8.481352667994446e-06   1.107076259197065e-06   1.5675926202745076e-05
-8.481352667994446e-06   1.107076259197065e-06   1.5675926202745076e-05
-8.481352667994446e-06   1.107076259197065e-06   1.5675926202745076e-05
-8.481352667994446e-06   1.107076259197065e-06   1.5675926202745076e-05
-8.046157216873957e-07   1.1186430194080497e-06   2.874424569440084e-06
-8.046157216873957e-07   1.1186430194080497e-06   2.874424569440084e-06
-8.046157216873957e-07   1.1186430194080497e-06   2.874424569440084e-06
-8.046157216873957e-07   1.1186430194080497e-06   2.874424569440084e-06
-4.495283783909786e-06   1.194693296100043e-06   8.979907840462144e-06
-4.495283783909786e-06   1.194693296100043e-06   8.979907840462144e-06
-4.495283783909786e-06   1.194693296100043e-06   8.979907840462144e-06
-4.495283783909786e-06   1.194693296100043e-06   8.979907840462144e-06
-8.046157216873957e-07   1.107076259197065e-06   1.5668986146618574e-05
-8.046157216873957e-07   1.107076259197065e-06   1.5668986146618574e-05
-8.046157216873957e-07   1.107076259197065e-06   1.5668986146618574e-05
-8.046157216873957e-07   1.107076259197065e-06   1.5668986146618574e-05
-8.481352667994446e-06   1.1186430194080497e-06   2.881364625566599e-06
-8.481352667994446e-06   1.1186430194080497e-06   2.881364625566599e-06
-8.481352667994446e-06   1.1186430194080497e-06   2.881364625566599e-06
-8.481352667994446e-06   1.1186430194080497e-06   2.881364625566599e-06
-8.808632125862641e-06   9.195115234407339e-07   1.5757868976416247e-05
-8.808632125862641e-06   9.195115234407339e-07   1.5757868976416247e-05
-8.808632125862641e-06   9.195115234407339e-07   1.5757868976416247e-05
-8.808632125862641e-06   9.195115234407339e-07   1.5757868976416247e-05
-1.128934755868541e-06   8.992712302284414e-07   2.9705175356867577e-06
-1.128934755868541e-06   8.992712302284414e-07   2.9705175356867577e-06
-1.128934755868541e-06   8.992712302284414e-07   2.9705175356867577e-06
-1.128934755868541e-06   8.992712302284414e-07   2.9705175356867577e-06
-4.7915434847899975e-06   1.0454728078590817e-06   8.987144470644419e-06
-4.7915434847899975e-06   1.0454728078590817e-06   8.987144470644419e-06
-4.7915434847899975e-06   1.0454728078590817e-06   8.987144470644419e-06
-4.7915434847899975e-06   1.0454728078590817e-06   8.987144470644419e-06
-1.128934755868541e-06   9.195115234406255e-07   1.577001315234364e-05
-1.128934755868541e-06   9.195115234406255e-07   1.577001315234364e-05
-1.128934755868541e-06   9.195115234406255e-07   1.577001315234364e-05
-1.128934755868541e-06   9.195115234406255e-07   1.577001315234364e-05
-8.808632125862655e-06   8.992712302284414e-07   2.958373359759404e-06
-8.808632125862655e-06   8.992712302284414e-07   2.958373359759404e-06
-8.808632125862655e-06   8.992712302284414e-07   2.958373359759404e-06
-8.808632125862655e-06   8.992712302284414e-07   2.958373359759404e-06
-9.13554245828852e-06   7.526747480324269e-07   1.5948082955540878e-05
-9.13554245828852e-06   7.526747480324269e-07   1.5948082955540878e-05
-9.13554245828852e-06   7.526747480324269e-07   1.5948082955540878e-05
-9.13554245828852e-06   7.526747480324269e-07   1.5948082955540878e-05
-1.4551325551722614e-06   6.912291008442364e-07   3.184267171993556e-06
-1.4551325551722614e-06   6.912291008442364e-07   3.184267171993556e-06
-1.4551325551722614e-06   6.912291008442364e-07   3.184267171993556e-06
-1.4551325551722614e-06   6.912291008442364e-07   3.184267171993556e-06
-5.101921363162066e-06   9.002700719663317e-07   9.136823935969882e-06
-5.101921363162066e-06   9.002700719663317e-07   9.136823935969882e-06
-5.101921363162066e-06   9.002700719663317e-07   9.136823935969882e-06
-5.101921363162066e-06   9.002700719663317e-07   9.136823935969882e-06
-8.161791974846752e-06   2.962440163735121e-06   1.3854635271082883e-05
-8.161791974846752e-06   2.962440163735121e-06   1.3854635271082883e-05
-8.161791974846752e-06   2.962440163735121e-06   1.3854635271082883e-05
-8.161791974846752e-06   2.962440163735121e-06   1.3854635271082883e-05
-1.5680431578516047e-05   2.649897890122572e-06   1.1360439007999847e-06
-1.5680431578516047e-05   2.649897890122572e-06   1.1360439007999847e-06
-1.5680431578516047e-05   2.649897890122572e-06   1.1360439007999847e-06
-1.5680431578516047e-05   2.649897890122572e-06   1.1360439007999847e-06
-1.6024692308631844e-05   2.779569865114795e-06   1.3768879160091564e-05
-1.6024692308631844e-05   2.779569865114795e-06   1.3768879160091564e-05
-1.6024692308631844e-05   2.779569865114795e-06   1.3768879160091564e-05
-1.6024692308631844e-05   2.779569865114795e-06   1.3768879160091564e-05
-8.48135266799446e-06   2.437725701178611e-06   1.4017529240576776e-06
-8.48135266799446e-06   2.437725701178611e-06   1.4017529240576776e-06
-8.48135266799446e-06   2.437725701178611e-06   1.4017529240576776e-06
-8.48135266799446e-06   2.437725701178611e-06   1.4017529240576776e-06
-1.2046759760709112e-05   2.6704238635149517e-06   7.204479181180298e-06
-1.2046759760709112e-05   2.6704238635149517e-06   7.204479181180298e-06
-1.2046759760709112e-05   2.6704238635149517e-06   7.204479181180298e-06
-1.2046759760709112e-05   2.6704238635149517e-06   7.204479181180298e-06
-8.481352667994446e-06   2.779569865114795e-06   1.3973985658453345e-05
-8.481352667994446e-06   2.779569865114795e-06   1.3973985658453345e-05
-8.481352667994446e-06   2.779569865114795e-06   1.3973985658453345e-05
-8.481352667994446e-06   2.779569865114795e-06   1.3973985658453345e-05
-1.6024692308631803e-05   2.437725701178611e-06   1.1966464256959238e-06
-1.6024692308631803e-05   2.437725701178611e-06   1.1966464256959238e-06
-1.6024692308631803e-05   2.437725701178611e-06   1.1966464256959238e-06
-1.6024692308631803e-05   2.437725701178611e-06   1.1966464256959238e-06
-1.6403019208332474e-05   2.609544891328118e-06   1.4286712854812036e-05
-1.6403019208332474e-05   2.609544891328118e-06   1.4286712854812036e-05
-1.6403019208332474e-05   2.609544891328118e-06   1.4286712854812036e-05
-1.6403019208332474e-05   2.609544891328118e-06   1.4286712854812036e-05
-8.808632125862655e-06   2.2387449202564483e-06   1.8518810333386032e-06
-8.808632125862655e-06   2.2387449202564483e-06   1.8518810333386032e-06
-8.808632125862655e-06   2.2387449202564483e-06   1.8518810333386032e-06
-8.808632125862655e-06   2.2387449202564483e-06   1.8518810333386032e-06
-1.2291126177579298e-05   2.5355529291203657e-06   7.477952980881663e-06
-1.2291126177579298e-05   2.5355529291203657e-06   7.477952980881663e-06
-1.2291126177579298e-05   2.5355529291203657e-06   7.477952980881663e-06
-1.2291126177579298e-05   2.5355529291203657e-06   7.477952980881663e-06
-8.808632125862655e-06   2.609544891328118e-06   1.450919283745494e-05
-8.808632125862655e-06   2.609544891328118e-06   1.450919283745494e-05
-8.808632125862655e-06   2.609544891328118e-06   1.450919283745494e-05
-8.808632125862655e-06   2.609544891328118e-06   1.450919283745494e-05
-1.6403019208332447e-05   2.2387449202564483e-06   1.6294010506956447e-06
-1.6403019208332447e-05   2.2387449202564483e-06   1.6294010506956447e-06
-1.6403019208332447e-05   2.2387449202564483e-06   1.6294010506956447e-06
-1.6403019208332447e-05   2.2387449202564483e-06   1.6294010506956447e-06
-1.6748173934055008e-05   2.400598915494839e-06   1.4670823435180224e-05
-1.6748173934055008e-05   2.400598915494839e-06   1.4670823435180224e-05
-1.6748173934055008e-05   2.400598915494839e-06   1.4670823435180224e-05
-1.6748173934055008e-05   2.400598915494839e-06   1.4670823435180224e-05
-9.135542458288534e-06   2.0058460014017645e-06   2.2199560573587422e-06
-9.135542458288534e-06   2.0058460014017645e-06   2.2199560573587422e-06
-9.135542458288534e-06   2.0058460014017645e-06   2.2199560573587422e-06
-9.135542458288534e-06   2.0058460014017645e-06   2.2199560573587422e-06
-1.26856052759254e-05   2.381992529200839e-06   7.911039503407313e-06
-1.26856052759254e-05   2.381992529200839e-06   7.911039503407313e-06
-1.26856052759254e-05   2.381992529200839e-06   7.911039503407313e-06
-1.26856052759254e-05   2.381992529200839e-06   7.911039503407313e-06
-1.5680431578516047e-05   4.281575570489458e-06   6.721622451021396e-06
-1.5680431578516047e-05   4.281575570489458e-06   6.721622451021396e-06
-1.5680431578516047e-05   4.281575570489458e-06   6.721622451021396e-06
-1.5680431578516047e-05   4.281575570489458e-06   6.721622451021396e-06
-2.2851404665733948e-05   3.66888062749743e-06   -5.597616326803701e-06
-2.2851404665733948e-05   3.66888062749743e-06   -5.597616326803701e-06
-2.2851404665733948e-05   3.66888062749743e-06   -5.597616326803701e-06
-2.2851404665733948e-05   3.66888062749743e-06   -5.597616326803701e-06
-2.3471639443567845e-05   4.33225530312891e-06   8.968659282613243e-06
-2.3471639443567845e-05   4.33225530312891e-06   8.968659282613243e-06
-2.3471639443567845e-05   4.33225530312891e-06   8.968659282613243e-06
-2.3471639443567845e-05   4.33225530312891e-06   8.968659282613243e-06
-1.6024692308631844e-05   3.6555013477900834e-06   -3.036866902410198e-06
-1.6024692308631844e-05   3.6555013477900834e-06   -3.036866902410198e-06
-1.6024692308631844e-05   3.6555013477900834e-06   -3.036866902410198e-06
-1.6024692308631844e-05   3.6555013477900834e-06   -3.036866902410198e-06
-1.8764157144526082e-05   3.924228445036039e-06   1.367671565732551e-06
-1.8764157144526082e-05   3.924228445036039e-06   1.367671565732551e-06
-1.8764157144526082e-05   3.924228445036039e-06   1.367671565732551e-06
-1.8764157144526082e-05   3.924228445036039e-06   1.367671565732551e-06
-1.6024692308631776e-05   4.33225530312891e-06   9.37471165581656e-06
-1.6024692308631776e-05   4.33225530312891e-06   9.37471165581656e-06
-1.6024692308631776e-05   4.33225530312891e-06   9.37471165581656e-06
-1.6024692308631776e-05   4.33225530312891e-06   9.37471165581656e-06
-2.3471639443567926e-05   3.6555013477900834e-06   -3.442919275613624e-06
-2.3471639443567926e-05   3.6555013477900834e-06   -3.442919275613624e-06
-2.3471639443567926e-05   3.6555013477900834e-06   -3.442919275613624e-06
-2.3471639443567926e-05   3.6555013477900834e-06   -3.442919275613624e-06
-2.4025540135477714e-05   4.2860501389597625e-06   1.0770328615640023e-05
-2.4025540135477714e-05   4.2860501389597625e-06   1.0770328615640023e-05
-2.4025540135477714e-05   4.2860501389597625e-06   1.0770328615640023e-05
-2.4025540135477714e-05   4.2860501389597625e-06   1.0770328615640023e-05
-1.6403019208332474e-05   3.5826601337889076e-06   -1.511838926499605e-06
-1.6403019208332474e-05   3.5826601337889076e-06   -1.511838926499605e-06
-1.6403019208332474e-05   3.5826601337889076e-06   -1.511838926499605e-06
-1.6403019208332474e-05   3.5826601337889076e-06   -1.511838926499605e-06
-1.948411128100888e-05   3.96937535132591e-06   3.39128539743959e-06
-1.948411128100888e-05   3.96937535132591e-06   3.39128539743959e-06
-1.948411128100888e-05   3.96937535132591e-06   3.39128539743959e-06
-1.948411128100888e-05   3.96937535132591e-06   3.39128539743959e-06
-1.6403019208332474e-05   4.2860501389597625e-06   1.1192362618742607e-05
-1.6403019208332474e-05   4.2860501389597625e-06   1.1192362618742607e-05
-1.6403019208332474e-05   4.2860501389597625e-06   1.1192362618742607e-05
-1.6403019208332474e-05   4.2860501389597625e-06   1.1192362618742607e-05
-2.4025540135477768e-05   3.582660133788799e-06   -1.9338729296021614e-06
-2.4025540135477768e-05   3.582660133788799e-06   -1.9338729296021614e-06
-2.4025540135477768e-05   3.582660133788799e-06   -1.9338729296021614e-06
-2.4025540135477768e-05   3.582660133788799e-06   -1.9338729296021614e-06
-2.4660631522982547e-05   3.959313658523519e-06   1.3863480799028438e-05
-2.4660631522982547e-05   3.959313658523519e-06   1.3863480799028438e-05
-2.4660631522982547e-05   3.959313658523519e-06   1.3863480799028438e-05
-2.4660631522982547e-05   3.959313658523519e-06   1.3863480799028438e-05
-1.6748173934054994e-05   3.2573785907255006e-06   1.0972125248279565e-06
-1.6748173934054994e-05   3.2573785907255006e-06   1.0972125248279565e-06
-1.6748173934054994e-05   3.2573785907255006e-06   1.0972125248279565e-06
-1.6748173934054994e-05   3.2573785907255006e-06   1.0972125248279565e-06
-1.9626577019445237e-05   3.834034976167827e-06   5.548557169212726e-06
-1.9626577019445237e-05   3.834034976167827e-06   5.548557169212726e-06
-1.9626577019445237e-05   3.834034976167827e-06   5.548557169212726e-06
-1.9626577019445237e-05   3.834034976167827e-06   5.548557169212726e-06
1.089699485230006e-05   -1.4097253803178368e-06   1.079986146032731e-05
1.089699485230006e-05   -1.4097253803178368e-06   1.079986146032731e-05
1.089699485230006e-05   -1.4097253803178368e-06   1.079986146032731e-05
1.089699485230006e-05   -1.4097253803178368e-06   1.079986146032731e-05
4.529173031689666e-06   -7.103119655762135e-07   6.064731414882831e-07
4.529173031689666e-06   -7.103119655762135e-07   6.064731414882831e-07
4.529173031689666e-06   -7.103119655762135e-07   6.064731414882831e-07
4.529173031689666e-06   -7.103119655762135e-07   6.064731414882831e-07
4.256539559856978e-06   -1.7052874789157384e-06   9.696035673454218e-06
4.256539559856978e-06   -1.7052874789157384e-06   9.696035673454218e-06
4.256539559856978e-06   -1.7052874789157384e-06   9.696035673454218e-06
4.256539559856978e-06   -1.7052874789157384e-06   9.696035673454218e-06
1.03146953793837e-05   -9.765732409499055e-07   -8.381192352031126e-07
1.03146953793837e-05   -9.765732409499055e-07   -8.381192352031126e-07
1.03146953793837e-05   -9.765732409499055e-07   -8.381192352031126e-07
1.03146953793837e-05   -9.765732409499055e-07   -8.381192352031126e-07
7.127063241181463e-06   -1.2281835717409609e-06   4.62556719360883e-06
7.127063241181463e-06   -1.2281835717409609e-06   4.62556719360883e-06
7.127063241181463e-06   -1.2281835717409609e-06   4.62556719360883e-06
7.127063241181463e-06   -1.2281835717409609e-06   4.62556719360883e-06
1.0314695379383717e-05   -1.70528747891563e-06   9.258807130674798e-06
1.0314695379383717e-05   -1.70528747891563e-06   9.258807130674798e-06
1.0314695379383717e-05   -1.70528747891563e-06   9.258807130674798e-06
1.0314695379383717e-05   -1.70528747891563e-06   9.258807130674798e-06
4.256539559856964e-06   -9.765732409499055e-07   -4.008906924236346e-07
4.256539559856964e-06   -9.765732409499055e-07   -4.008906924236346e-07
4.256539559856964e-06   -9.765732409499055e-07   -4.008906924236346e-07
4.256539559856964e-06   -9.765732409499055e-07   -4.008906924236346e-07
3.9493652111175385e-06   -1.7833920719354576e-06   8.878199890763425e-06
3.9493652111175385e-06   -1.7833920719354576e-06   8.878199890763425e-06
3.9493652111175385e-06   -1.7833920719354576e-06   8.878199890763425e-06
3.9493652111175385e-06   -1.7833920719354576e-06   8.878199890763425e-06
9.813839048372697e-06   -1.0672231855633416e-06   -1.3256245031517113e-06
9.813839048372697e-06   -1.0672231855633416e-06   -1.3256245031517113e-06
9.813839048372697e-06   -1.0672231855633416e-06   -1.3256245031517113e-06
9.813839048372697e-06   -1.0672231855633416e-06   -1.3256245031517113e-06
6.872819002488359e-06   -1.3414811065672093e-06   3.740630325924744e-06
6.872819002488359e-06   -1.3414811065672093e-06   3.740630325924744e-06
6.872819002488359e-06   -1.3414811065672093e-06   3.740630325924744e-06
6.872819002488359e-06   -1.3414811065672093e-06   3.740630325924744e-06
9.813839048372714e-06   -1.7833920719354576e-06   8.448498558940159e-06
9.813839048372714e-06   -1.7833920719354576e-06   8.448498558940159e-06
9.813839048372714e-06   -1.7833920719354576e-06   8.448498558940159e-06
9.813839048372714e-06   -1.7833920719354576e-06   8.448498558940159e-06
3.949365211117532e-06   -1.0672231855633416e-06   -8.959231713284417e-07
3.949365211117532e-06   -1.0672231855633416e-06   -8.959231713284417e-07
3.949365211117532e-06   -1.0672231855633416e-06   -8.959231713284417e-07
3.949365211117532e-06   -1.0672231855633416e-06   -8.959231713284417e-07
3.6736061278675648e-06   -1.8524210734316513e-06   7.80876254639299e-06
3.6736061278675648e-06   -1.8524210734316513e-06   7.80876254639299e-06
3.6736061278675648e-06   -1.8524210734316513e-06   7.80876254639299e-06
3.6736061278675648e-06   -1.8524210734316513e-06   7.80876254639299e-06
9.244075892112722e-06   -1.1838088907487401e-06   -1.876521036958689e-06
9.244075892112722e-06   -1.1838088907487401e-06   -1.876521036958689e-06
9.244075892112722e-06   -1.1838088907487401e-06   -1.876521036958689e-06
9.244075892112722e-06   -1.1838088907487401e-06   -1.876521036958689e-06
6.387481359386461e-06   -1.3614609477685777e-06   2.9910610851301036e-06
6.387481359386461e-06   -1.3614609477685777e-06   2.9910610851301036e-06
6.387481359386461e-06   -1.3614609477685777e-06   2.9910610851301036e-06
6.387481359386461e-06   -1.3614609477685777e-06   2.9910610851301036e-06
4.529173031689681e-06   -1.5489763222184712e-08   1.3252981041542316e-05
4.529173031689681e-06   -1.5489763222184712e-08   1.3252981041542316e-05
4.529173031689681e-06   -1.5489763222184712e-08   1.3252981041542316e-05
4.529173031689681e-06   -1.5489763222184712e-08   1.3252981041542316e-05
-1.437338244460259e-06   3.423627498151758e-07   3.5235070891148526e-06
-1.437338244460259e-06   3.423627498151758e-07   3.5235070891148526e-06
-1.437338244460259e-06   3.423627498151758e-07   3.5235070891148526e-06
-1.437338244460259e-06   3.423627498151758e-07   3.5235070891148526e-06
-1.6882729762044405e-06   -2.7108011829441586e-07   1.3274969250248985e-05
-1.6882729762044405e-06   -2.7108011829441586e-07   1.3274969250248985e-05
-1.6882729762044405e-06   -2.7108011829441586e-07   1.3274969250248985e-05
-1.6882729762044405e-06   -2.7108011829441586e-07   1.3274969250248985e-05
4.256539559856964e-06   7.459931698934608e-08   3.1595406956431266e-06
4.256539559856964e-06   7.459931698934608e-08   3.1595406956431266e-06
4.256539559856964e-06   7.459931698934608e-08   3.1595406956431266e-06
4.256539559856964e-06   7.459931698934608e-08   3.1595406956431266e-06
1.3721623778219324e-06   9.17092738854158e-09   8.006093032795596e-06
1.3721623778219324e-06   9.17092738854158e-09   8.006093032795596e-06
1.3721623778219324e-06   9.17092738854158e-09   8.006093032795596e-06
1.3721623778219324e-06   9.17092738854158e-09   8.006093032795596e-06
4.2565395598569744e-06   -2.7108011829430744e-07   1.3067561589078845e-05
4.2565395598569744e-06   -2.7108011829430744e-07   1.3067561589078845e-05
4.2565395598569744e-06   -2.7108011829430744e-07   1.3067561589078845e-05
4.2565395598569744e-06   -2.7108011829430744e-07   1.3067561589078845e-05
-1.6882729762044405e-06   7.459931698934608e-08   3.366948356813362e-06
-1.6882729762044405e-06   7.459931698934608e-08   3.366948356813362e-06
-1.6882729762044405e-06   7.459931698934608e-08   3.366948356813362e-06
-1.6882729762044405e-06   7.459931698934608e-08   3.366948356813362e-06
-1.9450527785647446e-06   -4.7112186281643084e-07   1.3109073772545716e-05
-1.9450527785647446e-06   -4.7112186281643084e-07   1.3109073772545716e-05
-1.9450527785647446e-06   -4.7112186281643084e-07   1.3109073772545716e-05
-1.9450527785647446e-06   -4.7112186281643084e-07   1.3109073772545716e-05
3.949365211117532e-06   -1.431582154271709e-07   3.0882656013085197e-06
3.949365211117532e-06   -1.431582154271709e-07   3.0882656013085197e-06
3.949365211117532e-06   -1.431582154271709e-07   3.0882656013085197e-06
3.949365211117532e-06   -1.431582154271709e-07   3.0882656013085197e-06
1.0953030312011407e-06   -1.6861761698532115e-07   7.860311542104393e-06
1.0953030312011407e-06   -1.6861761698532115e-07   7.860311542104393e-06
1.0953030312011407e-06   -1.6861761698532115e-07   7.860311542104393e-06
1.0953030312011407e-06   -1.6861761698532115e-07   7.860311542104393e-06
3.949365211117545e-06   -4.7112186281643084e-07   1.2912295584112323e-05
3.949365211117545e-06   -4.7112186281643084e-07   1.2912295584112323e-05
3.949365211117545e-06   -4.7112186281643084e-07   1.2912295584112323e-05
3.949365211117545e-06   -4.7112186281643084e-07   1.2912295584112323e-05
-1.9450527785647446e-06   -1.4315821542727931e-07   3.2850437897420756e-06
-1.9450527785647446e-06   -1.4315821542727931e-07   3.2850437897420756e-06
-1.9450527785647446e-06   -1.4315821542727931e-07   3.2850437897420756e-06
-1.9450527785647446e-06   -1.4315821542727931e-07   3.2850437897420756e-06
-2.1998404507339207e-06   -6.546218829878115e-07   1.3220821611928705e-05
-2.1998404507339207e-06   -6.546218829878115e-07   1.3220821611928705e-05
-2.1998404507339207e-06   -6.546218829878115e-07   1.3220821611928705e-05
-2.1998404507339207e-06   -6.546218829878115e-07   1.3220821611928705e-05
3.6736061278675495e-06   -3.5604255067107037e-07   3.25259638153609e-06
3.6736061278675495e-06   -3.5604255067107037e-07   3.25259638153609e-06
3.6736061278675495e-06   -3.5604255067107037e-07   3.25259638153609e-06
3.6736061278675495e-06   -3.5604255067107037e-07   3.25259638153609e-06
8.781658832971844e-07   -3.1522102501488607e-07   7.88717054042617e-06
8.781658832971844e-07   -3.1522102501488607e-07   7.88717054042617e-06
8.781658832971844e-07   -3.1522102501488607e-07   7.88717054042617e-06
8.781658832971844e-07   -3.1522102501488607e-07   7.88717054042617e-06
-1.4373382444602523e-06   1.3416284708868496e-06   1.4362814945646335e-05
-1.4373382444602523e-06   1.3416284708868496e-06   1.4362814945646335e-05
-1.4373382444602523e-06   1.3416284708868496e-06   1.4362814945646335e-05
-1.4373382444602523e-06   1.3416284708868496e-06   1.4362814945646335e-05
-7.3021733636747805e-06   1.3248599548050955e-06   4.578028637306484e-06
-7.3021733636747805e-06   1.3248599548050955e-06   4.578028637306484e-06
-7.3021733636747805e-06   1.3248599548050955e-06   4.578028637306484e-06
-7.3021733636747805e-06   1.3248599548050955e-06   4.578028637306484e-06
-7.5502146571937065e-06   1.1186430194080497e-06   1.4269423636589372e-05
-7.5502146571937065e-06   1.1186430194080497e-06   1.4269423636589372e-05
-7.5502146571937065e-06   1.1186430194080497e-06   1.4269423636589372e-05
-7.5502146571937065e-06   1.1186430194080497e-06   1.4269423636589372e-05
-1.6882729762044337e-06   1.0830423679617082e-06   4.520881225808407e-06
-1.6882729762044337e-06   1.0830423679617082e-06   4.520881225808407e-06
-1.6882729762044337e-06   1.0830423679617082e-06   4.520881225808407e-06
-1.6882729762044337e-06   1.0830423679617082e-06   4.520881225808407e-06
-4.505856386469699e-06   1.185865031052332e-06   9.155159978396419e-06
-4.505856386469699e-06   1.185865031052332e-06   9.155159978396419e-06
-4.505856386469699e-06   1.185865031052332e-06   9.155159978396419e-06
-4.505856386469699e-06   1.185865031052332e-06   9.155159978396419e-06
-1.6882729762044405e-06   1.1186430194080497e-06   1.4290784027457215e-05
-1.6882729762044405e-06   1.1186430194080497e-06   1.4290784027457215e-05
-1.6882729762044405e-06   1.1186430194080497e-06   1.4290784027457215e-05
-1.6882729762044405e-06   1.1186430194080497e-06   1.4290784027457215e-05
-7.55021465719372e-06   1.0830423679617082e-06   4.499520834940645e-06
-7.55021465719372e-06   1.0830423679617082e-06   4.499520834940645e-06
-7.55021465719372e-06   1.0830423679617082e-06   4.499520834940645e-06
-7.55021465719372e-06   1.0830423679617082e-06   4.499520834940645e-06
-7.804030401986452e-06   8.992712302284414e-07   1.4338555384225179e-05
-7.804030401986452e-06   8.992712302284414e-07   1.4338555384225179e-05
-7.804030401986452e-06   8.992712302284414e-07   1.4338555384225179e-05
-7.804030401986452e-06   8.992712302284414e-07   1.4338555384225179e-05
-1.945052778564738e-06   8.440460288666523e-07   4.606727799339448e-06
-1.945052778564738e-06   8.440460288666523e-07   4.606727799339448e-06
-1.945052778564738e-06   8.440460288666523e-07   4.606727799339448e-06
-1.945052778564738e-06   8.440460288666523e-07   4.606727799339448e-06
-4.73255146195395e-06   1.0109881800655723e-06   9.152393647602372e-06
-4.73255146195395e-06   1.0109881800655723e-06   9.152393647602372e-06
-4.73255146195395e-06   1.0109881800655723e-06   9.152393647602372e-06
-4.73255146195395e-06   1.0109881800655723e-06   9.152393647602372e-06
-1.9450527785647446e-06   8.992712302284414e-07   1.437169050504228e-05
-1.9450527785647446e-06   8.992712302284414e-07   1.437169050504228e-05
-1.9450527785647446e-06   8.992712302284414e-07   1.437169050504228e-05
-1.9450527785647446e-06   8.992712302284414e-07   1.437169050504228e-05
-7.804030401986465e-06   8.440460288666523e-07   4.573592678522428e-06
-7.804030401986465e-06   8.440460288666523e-07   4.573592678522428e-06
-7.804030401986465e-06   8.440460288666523e-07   4.573592678522428e-06
-7.804030401986465e-06   8.440460288666523e-07   4.573592678522428e-06
-8.054700573788056e-06   6.91229100844128e-07   1.4525729276466948e-05
-8.054700573788056e-06   6.91229100844128e-07   1.4525729276466948e-05
-8.054700573788056e-06   6.91229100844128e-07   1.4525729276466948e-05
-8.054700573788056e-06   6.91229100844128e-07   1.4525729276466948e-05
-2.199840450733914e-06   6.141724639693391e-07   4.813863053501708e-06
-2.199840450733914e-06   6.141724639693391e-07   4.813863053501708e-06
-2.199840450733914e-06   6.141724639693391e-07   4.813863053501708e-06
-2.199840450733914e-06   6.141724639693391e-07   4.813863053501708e-06
-4.969915698821008e-06   8.403908712914954e-07   9.294924089253194e-06
-4.969915698821008e-06   8.403908712914954e-07   9.294924089253194e-06
-4.969915698821008e-06   8.403908712914954e-07   9.294924089253194e-06
-4.969915698821008e-06   8.403908712914954e-07   9.294924089253194e-06
-7.3021733636747805e-06   2.6498978901224636e-06   1.2719101140525518e-05
-7.3021733636747805e-06   2.6498978901224636e-06   1.2719101140525518e-05
-7.3021733636747805e-06   2.6498978901224636e-06   1.2719101140525518e-05
-7.3021733636747805e-06   2.6498978901224636e-06   1.2719101140525518e-05
-1.3078366577041453e-05   2.281819720897091e-06   2.871265550045813e-06
-1.3078366577041453e-05   2.281819720897091e-06   2.871265550045813e-06
-1.3078366577041453e-05   2.281819720897091e-06   2.871265550045813e-06
-1.3078366577041453e-05   2.281819720897091e-06   2.871265550045813e-06
-1.3344996238326493e-05   2.437725701178611e-06   1.2555156769836619e-05
-1.3344996238326493e-05   2.437725701178611e-06   1.2555156769836619e-05
-1.3344996238326493e-05   2.437725701178611e-06   1.2555156769836619e-05
-1.3344996238326493e-05   2.437725701178611e-06   1.2555156769836619e-05
-7.550214657193693e-06   2.046633759105539e-06   3.1318426331925723e-06
-7.550214657193693e-06   2.046633759105539e-06   3.1318426331925723e-06
-7.550214657193693e-06   2.046633759105539e-06   3.1318426331925723e-06
-7.550214657193693e-06   2.046633759105539e-06   3.1318426331925723e-06
-1.0289452438454495e-05   2.3123793685597607e-06   7.537791569621542e-06
-1.0289452438454495e-05   2.3123793685597607e-06   7.537791569621542e-06
-1.0289452438454495e-05   2.3123793685597607e-06   7.537791569621542e-06
-1.0289452438454495e-05   2.3123793685597607e-06   7.537791569621542e-06
-7.55021465719372e-06   2.437725701178611e-06   1.2789811935080478e-05
-7.55021465719372e-06   2.437725701178611e-06   1.2789811935080478e-05
-7.55021465719372e-06   2.437725701178611e-06   1.2789811935080478e-05
-7.55021465719372e-06   2.437725701178611e-06   1.2789811935080478e-05
-1.334499623832648e-05   2.0466337591056472e-06   2.89718746794874e-06
-1.334499623832648e-05   2.0466337591056472e-06   2.89718746794874e-06
-1.334499623832648e-05   2.0466337591056472e-06   2.89718746794874e-06
-1.334499623832648e-05   2.0466337591056472e-06   2.89718746794874e-06
-1.3644551777733645e-05   2.2387449202564483e-06   1.298556225441574e-05
-1.3644551777733645e-05   2.2387449202564483e-06   1.298556225441574e-05
-1.3644551777733645e-05   2.2387449202564483e-06   1.298556225441574e-05
-1.3644551777733645e-05   2.2387449202564483e-06   1.298556225441574e-05
-7.804030401986438e-06   1.8279102479420517e-06   3.4978607648925605e-06
-7.804030401986438e-06   1.8279102479420517e-06   3.4978607648925605e-06
-7.804030401986438e-06   1.8279102479420517e-06   3.4978607648925605e-06
-7.804030401986438e-06   1.8279102479420517e-06   3.4978607648925605e-06
-1.0471847177795745e-05   2.1526493555308287e-06   7.749378593354945e-06
-1.0471847177795745e-05   2.1526493555308287e-06   7.749378593354945e-06
-1.0471847177795745e-05   2.1526493555308287e-06   7.749378593354945e-06
-1.0471847177795745e-05   2.1526493555308287e-06   7.749378593354945e-06
-7.804030401986465e-06   2.2387449202564483e-06   1.323206305780446e-05
-7.804030401986465e-06   2.2387449202564483e-06   1.323206305780446e-05
-7.804030401986465e-06   2.2387449202564483e-06   1.323206305780446e-05
-7.804030401986465e-06   2.2387449202564483e-06   1.323206305780446e-05
-1.3644551777733618e-05   1.8279102479420517e-06   3.251359961503814e-06
-1.3644551777733618e-05   1.8279102479420517e-06   3.251359961503814e-06
-1.3644551777733618e-05   1.8279102479420517e-06   3.251359961503814e-06
-1.3644551777733618e-05   1.8279102479420517e-06   3.251359961503814e-06
-1.391005927465625e-05   2.0058460014017645e-06   1.334416650368821e-05
-1.391005927465625e-05   2.0058460014017645e-06   1.334416650368821e-05
-1.391005927465625e-05   2.0058460014017645e-06   1.334416650368821e-05
-1.391005927465625e-05   2.0058460014017645e-06   1.334416650368821e-05
-8.054700573788016e-06   1.5823142573067814e-06   3.83935438203148e-06
-8.054700573788016e-06   1.5823142573067814e-06   3.83935438203148e-06
-8.054700573788016e-06   1.5823142573067814e-06   3.83935438203148e-06
-8.054700573788016e-06   1.5823142573067814e-06   3.83935438203148e-06
-1.077336928093626e-05   1.9832828952178285e-06   8.129887711198335e-06
-1.077336928093626e-05   1.9832828952178285e-06   8.129887711198335e-06
-1.077336928093626e-05   1.9832828952178285e-06   8.129887711198335e-06
-1.077336928093626e-05   1.9832828952178285e-06   8.129887711198335e-06
-1.3078366577041453e-05   3.6688806274975385e-06   6.132210977181744e-06
-1.3078366577041453e-05   3.6688806274975385e-06   6.132210977181744e-06
-1.3078366577041453e-05   3.6688806274975385e-06   6.132210977181744e-06
-1.3078366577041453e-05   3.6688806274975385e-06   6.132210977181744e-06
-1.852379869243627e-05   3.00922340352853e-06   -3.3393035495242105e-06
-1.852379869243627e-05   3.00922340352853e-06   -3.3393035495242105e-06
-1.852379869243627e-05   3.00922340352853e-06   -3.3393035495242105e-06
-1.852379869243627e-05   3.00922340352853e-06   -3.3393035495242105e-06
-1.908340616744837e-05   3.6555013477900834e-06   7.890298204347372e-06
-1.908340616744837e-05   3.6555013477900834e-06   7.890298204347372e-06
-1.908340616744837e-05   3.6555013477900834e-06   7.890298204347372e-06
-1.908340616744837e-05   3.6555013477900834e-06   7.890298204347372e-06
-1.3344996238326453e-05   2.9365926188184253e-06   -1.2423731068059076e-06
-1.3344996238326453e-05   2.9365926188184253e-06   -1.2423731068059076e-06
-1.3344996238326453e-05   2.9365926188184253e-06   -1.2423731068059076e-06
-1.3344996238326453e-05   2.9365926188184253e-06   -1.2423731068059076e-06
-1.5406995029588084e-05   3.255343280679946e-06   2.003041148180079e-06
-1.5406995029588084e-05   3.255343280679946e-06   2.003041148180079e-06
-1.5406995029588084e-05   3.255343280679946e-06   2.003041148180079e-06
-1.5406995029588084e-05   3.255343280679946e-06   2.003041148180079e-06
-1.3344996238326493e-05   3.655501347790192e-06   8.321643441730388e-06
-1.3344996238326493e-05   3.655501347790192e-06   8.321643441730388e-06
-1.3344996238326493e-05   3.655501347790192e-06   8.321643441730388e-06
-1.3344996238326493e-05   3.655501347790192e-06   8.321643441730388e-06
-1.9083406167448314e-05   2.9365926188184253e-06   -1.6737183441890326e-06
-1.9083406167448314e-05   2.9365926188184253e-06   -1.6737183441890326e-06
-1.9083406167448314e-05   2.9365926188184253e-06   -1.6737183441890326e-06
-1.9083406167448314e-05   2.9365926188184253e-06   -1.6737183441890326e-06
-1.9570241757808248e-05   3.5826601337889076e-06   9.4008995033234e-06
-1.9570241757808248e-05   3.5826601337889076e-06   9.4008995033234e-06
-1.9570241757808248e-05   3.5826601337889076e-06   9.4008995033234e-06
-1.9570241757808248e-05   3.5826601337889076e-06   9.4008995033234e-06
-1.3644551777733591e-05   2.843622177293504e-06   -3.1827689570365116e-08
-1.3644551777733591e-05   2.843622177293504e-06   -3.1827689570365116e-08
-1.3644551777733591e-05   2.843622177293504e-06   -3.1827689570365116e-08
-1.3644551777733591e-05   2.843622177293504e-06   -3.1827689570365116e-08
-1.6004400953126025e-05   3.259521778391683e-06   3.651714508758755e-06
-1.6004400953126025e-05   3.259521778391683e-06   3.651714508758755e-06
-1.6004400953126025e-05   3.259521778391683e-06   3.651714508758755e-06
-1.6004400953126025e-05   3.259521778391683e-06   3.651714508758755e-06
-1.3644551777733618e-05   3.582660133788799e-06   9.844322277220545e-06
-1.3644551777733618e-05   3.582660133788799e-06   9.844322277220545e-06
-1.3644551777733618e-05   3.582660133788799e-06   9.844322277220545e-06
-1.3644551777733618e-05   3.582660133788799e-06   9.844322277220545e-06
-1.9570241757808194e-05   2.8436221772936126e-06   -4.752504634675638e-07
-1.9570241757808194e-05   2.8436221772936126e-06   -4.752504634675638e-07
-1.9570241757808194e-05   2.8436221772936126e-06   -4.752504634675638e-07
-1.9570241757808194e-05   2.8436221772936126e-06   -4.752504634675638e-07
-2.013373828329304e-05   3.257378590725609e-06   1.2020868595126227e-05
-2.013373828329304e-05   3.257378590725609e-06   1.2020868595126227e-05
-2.013373828329304e-05   3.257378590725609e-06   1.2020868595126227e-05
-2.013373828329304e-05   3.257378590725609e-06   1.2020868595126227e-05
-1.3910059274656195e-05   2.5283683832469893e-06   2.0854763718853296e-06
-1.3910059274656195e-05   2.5283683832469893e-06   2.0854763718853296e-06
-1.3910059274656195e-05   2.5283683832469893e-06   2.0854763718853296e-06
-1.3910059274656195e-05   2.5283683832469893e-06   2.0854763718853296e-06
-1.6128865015192144e-05   3.1219190290637604e-06   5.427355551954524e-06
-1.6128865015192144e-05   3.1219190290637604e-06   5.427355551954524e-06
-1.6128865015192144e-05   3.1219190290637604e-06   5.427355551954524e-06
-1.6128865015192144e-05   3.1219190290637604e-06   5.427355551954524e-06
6.180734356134155e-06   -7.103119655762135e-07   8.57080657599068e-06
6.180734356134155e-06   -7.103119655762135e-07   8.57080657599068e-06
6.180734356134155e-06   -7.103119655762135e-07   8.57080657599068e-06
6.180734356134155e-06   -7.103119655762135e-07   8.57080657599068e-06
1.6662918264930793e-06   -1.2415076545372467e-08   1.4654738266741047e-06
1.6662918264930793e-06   -1.2415076545372467e-08   1.4654738266741047e-06
1.6662918264930793e-06   -1.2415076545372467e-08   1.4654738266741047e-06
1.6662918264930793e-06   -1.2415076545372467e-08   1.4654738266741047e-06
1.460299383311854e-06   -9.765732409499055e-07   7.973865973174828e-06
1.460299383311854e-06   -9.765732409499055e-07   7.973865973174828e-06
1.460299383311854e-06   -9.765732409499055e-07   7.973865973174828e-06
1.460299383311854e-06   -9.765732409499055e-07   7.973865973174828e-06
5.670080759361863e-06   -2.5225032810878394e-07   5.229699320535982e-07
5.670080759361863e-06   -2.5225032810878394e-07   5.229699320535982e-07
5.670080759361863e-06   -2.5225032810878394e-07   5.229699320535982e-07
5.670080759361863e-06   -2.5225032810878394e-07   5.229699320535982e-07
3.5256459053677763e-06   -5.218070935111819e-07   4.258762081285405e-06
3.5256459053677763e-06   -5.218070935111819e-07   4.258762081285405e-06
3.5256459053677763e-06   -5.218070935111819e-07   4.258762081285405e-06
3.5256459053677763e-06   -5.218070935111819e-07   4.258762081285405e-06
5.670080759361873e-06   -9.76573240950014e-07   7.539272225470248e-06
5.670080759361873e-06   -9.76573240950014e-07   7.539272225470248e-06
5.670080759361873e-06   -9.76573240950014e-07   7.539272225470248e-06
5.670080759361873e-06   -9.76573240950014e-07   7.539272225470248e-06
1.4602993833118506e-06   -2.5225032810878394e-07   9.575636797583037e-07
1.4602993833118506e-06   -2.5225032810878394e-07   9.575636797583037e-07
1.4602993833118506e-06   -2.5225032810878394e-07   9.575636797583037e-07
1.4602993833118506e-06   -2.5225032810878394e-07   9.575636797583037e-07
1.2193314141385078e-06   -1.0672231855633416e-06   7.472351257863086e-06
1.2193314141385078e-06   -1.0672231855633416e-06   7.472351257863086e-06
1.2193314141385078e-06   -1.0672231855633416e-06   7.472351257863086e-06
1.2193314141385078e-06   -1.0672231855633416e-06   7.472351257863086e-06
5.2366793860336015e-06   -3.54225798394241e-07   3.489728724031388e-07
5.2366793860336015e-06   -3.54225798394241e-07   3.489728724031388e-07
5.2366793860336015e-06   -3.54225798394241e-07   3.489728724031388e-07
5.2366793860336015e-06   -3.54225798394241e-07   3.489728724031388e-07
3.282335785123707e-06   -6.266370706334875e-07   3.769658970596525e-06
3.282335785123707e-06   -6.266370706334875e-07   3.769658970596525e-06
3.282335785123707e-06   -6.266370706334875e-07   3.769658970596525e-06
3.282335785123707e-06   -6.266370706334875e-07   3.769658970596525e-06
5.236679386033612e-06   -1.0672231855633416e-06   7.0445528255615995e-06
5.236679386033612e-06   -1.0672231855633416e-06   7.0445528255615995e-06
5.236679386033612e-06   -1.0672231855633416e-06   7.0445528255615995e-06
5.236679386033612e-06   -1.0672231855633416e-06   7.0445528255615995e-06
1.2193314141385044e-06   -3.54225798394241e-07   7.767713047045883e-07
1.2193314141385044e-06   -3.54225798394241e-07   7.767713047045883e-07
1.2193314141385044e-06   -3.54225798394241e-07   7.767713047045883e-07
1.2193314141385044e-06   -3.54225798394241e-07   7.767713047045883e-07
1.0100841682933258e-06   -1.1838088907487401e-06   6.883987846114813e-06
1.0100841682933258e-06   -1.1838088907487401e-06   6.883987846114813e-06
1.0100841682933258e-06   -1.1838088907487401e-06   6.883987846114813e-06
1.0100841682933258e-06   -1.1838088907487401e-06   6.883987846114813e-06
4.727679189098945e-06   -5.213796882892361e-07   2.9053862329642176e-07
4.727679189098945e-06   -5.213796882892361e-07   2.9053862329642176e-07
4.727679189098945e-06   -5.213796882892361e-07   2.9053862329642176e-07
4.727679189098945e-06   -5.213796882892361e-07   2.9053862329642176e-07
2.91414258493479e-06   -6.781002092821117e-07   3.4071319428323683e-06
2.91414258493479e-06   -6.781002092821117e-07   3.4071319428323683e-06
2.91414258493479e-06   -6.781002092821117e-07   3.4071319428323683e-06
2.91414258493479e-06   -6.781002092821117e-07   3.4071319428323683e-06
1.666291826493081e-06   3.423627498152842e-07   1.1691867149213323e-05
1.666291826493081e-06   3.423627498152842e-07   1.1691867149213323e-05
1.666291826493081e-06   3.423627498152842e-07   1.1691867149213323e-05
1.666291826493081e-06   3.423627498152842e-07   1.1691867149213323e-05
-2.4381146346658203e-06   6.613034742678501e-07   5.042554148620027e-06
-2.4381146346658203e-06   6.613034742678501e-07   5.042554148620027e-06
-2.4381146346658203e-06   6.613034742678501e-07   5.042554148620027e-06
-2.4381146346658203e-06   6.613034742678501e-07   5.042554148620027e-06
-2.6195652269754297e-06   7.459931698934608e-08   1.1724854103521047e-05
-2.6195652269754297e-06   7.459931698934608e-08   1.1724854103521047e-05
-2.6195652269754297e-06   7.459931698934608e-08   1.1724854103521047e-05
-2.6195652269754297e-06   7.459931698934608e-08   1.1724854103521047e-05
1.4602993833118506e-06   3.921938874549115e-07   4.734523010762953e-06
1.4602993833118506e-06   3.921938874549115e-07   4.734523010762953e-06
1.4602993833118506e-06   3.921938874549115e-07   4.734523010762953e-06
1.4602993833118506e-06   3.921938874549115e-07   4.734523010762953e-06
-5.140749801175963e-07   3.399653838716092e-07   8.056484051962323e-06
-5.140749801175963e-07   3.399653838716092e-07   8.056484051962323e-06
-5.140749801175963e-07   3.399653838716092e-07   8.056484051962323e-06
-5.140749801175963e-07   3.399653838716092e-07   8.056484051962323e-06
1.4602993833118523e-06   7.459931698934608e-08   1.1534297361241602e-05
1.4602993833118523e-06   7.459931698934608e-08   1.1534297361241602e-05
1.4602993833118523e-06   7.459931698934608e-08   1.1534297361241602e-05
1.4602993833118523e-06   7.459931698934608e-08   1.1534297361241602e-05
-2.6195652269754297e-06   3.9219388745501994e-07   4.9250797530422485e-06
-2.6195652269754297e-06   3.9219388745501994e-07   4.9250797530422485e-06
-2.6195652269754297e-06   3.9219388745501994e-07   4.9250797530422485e-06
-2.6195652269754297e-06   3.9219388745501994e-07   4.9250797530422485e-06
-2.8065206854877543e-06   -1.431582154271709e-07   1.1641757063407033e-05
-2.8065206854877543e-06   -1.431582154271709e-07   1.1641757063407033e-05
-2.8065206854877543e-06   -1.431582154271709e-07   1.1641757063407033e-05
-2.8065206854877543e-06   -1.431582154271709e-07   1.1641757063407033e-05
1.2193314141385044e-06   1.65536839417859e-07   4.746786531122972e-06
1.2193314141385044e-06   1.65536839417859e-07   4.746786531122972e-06
1.2193314141385044e-06   1.65536839417859e-07   4.746786531122972e-06
1.2193314141385044e-06   1.65536839417859e-07   4.746786531122972e-06
-7.08353737343366e-07   1.5316776440617774e-07   7.967016561933194e-06
-7.08353737343366e-07   1.5316776440617774e-07   7.967016561933194e-06
-7.08353737343366e-07   1.5316776440617774e-07   7.967016561933194e-06
-7.08353737343366e-07   1.5316776440617774e-07   7.967016561933194e-06
1.2193314141385078e-06   -1.4315821542727931e-07   1.1456540030499993e-05
1.2193314141385078e-06   -1.4315821542727931e-07   1.1456540030499993e-05
1.2193314141385078e-06   -1.4315821542727931e-07   1.1456540030499993e-05
1.2193314141385078e-06   -1.4315821542727931e-07   1.1456540030499993e-05
-2.8065206854877543e-06   1.65536839417859e-07   4.932003564030066e-06
-2.8065206854877543e-06   1.65536839417859e-07   4.932003564030066e-06
-2.8065206854877543e-06   1.65536839417859e-07   4.932003564030066e-06
-2.8065206854877543e-06   1.65536839417859e-07   4.932003564030066e-06
-2.9909225282736315e-06   -3.5604255067107037e-07   1.1786947248563562e-05
-2.9909225282736315e-06   -3.5604255067107037e-07   1.1786947248563562e-05
-2.9909225282736315e-06   -3.5604255067107037e-07   1.1786947248563562e-05
-2.9909225282736315e-06   -3.5604255067107037e-07   1.1786947248563562e-05
1.0100841682933208e-06   -6.436039473166778e-08   4.943593460721683e-06
1.0100841682933208e-06   -6.436039473166778e-08   4.943593460721683e-06
1.0100841682933208e-06   -6.436039473166778e-08   4.943593460721683e-06
1.0100841682933208e-06   -6.436039473166778e-08   4.943593460721683e-06
-8.71906348421796e-07   -1.2842169789986212e-08   8.049333386948518e-06
-8.71906348421796e-07   -1.2842169789986212e-08   8.049333386948518e-06
-8.71906348421796e-07   -1.2842169789986212e-08   8.049333386948518e-06
-8.71906348421796e-07   -1.2842169789986212e-08   8.049333386948518e-06
-2.4381146346658203e-06   1.3248599548050955e-06   1.2947814241725554e-05
-2.4381146346658203e-06   1.3248599548050955e-06   1.2947814241725554e-05
-2.4381146346658203e-06   1.3248599548050955e-06   1.2947814241725554e-05
-2.4381146346658203e-06   1.3248599548050955e-06   1.2947814241725554e-05
-6.46743861695152e-06   1.253406088845381e-06   6.189401951673502e-06
-6.46743861695152e-06   1.253406088845381e-06   6.189401951673502e-06
-6.46743861695152e-06   1.253406088845381e-06   6.189401951673502e-06
-6.46743861695152e-06   1.253406088845381e-06   6.189401951673502e-06
-6.641976607655618e-06   1.0830423679617082e-06   1.283301098288595e-05
-6.641976607655618e-06   1.0830423679617082e-06   1.283301098288595e-05
-6.641976607655618e-06   1.0830423679617082e-06   1.283301098288595e-05
-6.641976607655618e-06   1.0830423679617082e-06   1.283301098288595e-05
-2.619565226975423e-06   1.0067490519115449e-06   6.174768004715825e-06
-2.619565226975423e-06   1.0067490519115449e-06   6.174768004715825e-06
-2.619565226975423e-06   1.0067490519115449e-06   6.174768004715825e-06
-2.619565226975423e-06   1.0067490519115449e-06   6.174768004715825e-06
-4.550678837690814e-06   1.1378184916012771e-06   9.314649025427978e-06
-4.550678837690814e-06   1.1378184916012771e-06   9.314649025427978e-06
-4.550678837690814e-06   1.1378184916012771e-06   9.314649025427978e-06
-4.550678837690814e-06   1.1378184916012771e-06   9.314649025427978e-06
-2.6195652269754297e-06   1.0830423679617082e-06   1.2878786972516092e-05
-2.6195652269754297e-06   1.0830423679617082e-06   1.2878786972516092e-05
-2.6195652269754297e-06   1.0830423679617082e-06   1.2878786972516092e-05
-2.6195652269754297e-06   1.0830423679617082e-06   1.2878786972516092e-05
-6.641976607655618e-06   1.0067490519114364e-06   6.128992015085711e-06
-6.641976607655618e-06   1.0067490519114364e-06   6.128992015085711e-06
-6.641976607655618e-06   1.0067490519114364e-06   6.128992015085711e-06
-6.641976607655618e-06   1.0067490519114364e-06   6.128992015085711e-06
-6.822067951290858e-06   8.440460288666523e-07   1.2913851954270182e-05
-6.822067951290858e-06   8.440460288666523e-07   1.2913851954270182e-05
-6.822067951290858e-06   8.440460288666523e-07   1.2913851954270182e-05
-6.822067951290858e-06   8.440460288666523e-07   1.2913851954270182e-05
-2.8065206854877475e-06   7.613974976429299e-07   6.270862296665989e-06
-2.8065206854877475e-06   7.613974976429299e-07   6.270862296665989e-06
-2.8065206854877475e-06   7.613974976429299e-07   6.270862296665989e-06
-2.8065206854877475e-06   7.613974976429299e-07   6.270862296665989e-06
-4.705734333207865e-06   9.508698611946265e-07   9.322534958068488e-06
-4.705734333207865e-06   9.508698611946265e-07   9.322534958068488e-06
-4.705734333207865e-06   9.508698611946265e-07   9.322534958068488e-06
-4.705734333207865e-06   9.508698611946265e-07   9.322534958068488e-06
-2.8065206854877543e-06   8.440460288667608e-07   1.2963441073004486e-05
-2.8065206854877543e-06   8.440460288667608e-07   1.2963441073004486e-05
-2.8065206854877543e-06   8.440460288667608e-07   1.2963441073004486e-05
-2.8065206854877543e-06   8.440460288667608e-07   1.2963441073004486e-05
-6.822067951290858e-06   7.613974976429299e-07   6.221273177931739e-06
-6.822067951290858e-06   7.613974976429299e-07   6.221273177931739e-06
-6.822067951290858e-06   7.613974976429299e-07   6.221273177931739e-06
-6.822067951290858e-06   7.613974976429299e-07   6.221273177931739e-06
-6.999231203855843e-06   6.141724639693391e-07   1.3116668484398778e-05
-6.999231203855843e-06   6.141724639693391e-07   1.3116668484398778e-05
-6.999231203855843e-06   6.141724639693391e-07   1.3116668484398778e-05
-6.999231203855843e-06   6.141724639693391e-07   1.3116668484398778e-05
-2.9909225282736315e-06   5.268427360689051e-07   6.488551861835441e-06
-2.9909225282736315e-06   5.268427360689051e-07   6.488551861835441e-06
-2.9909225282736315e-06   5.268427360689051e-07   6.488551861835441e-06
-2.9909225282736315e-06   5.268427360689051e-07   6.488551861835441e-06
-4.870856217132607e-06   7.678550683043982e-07   9.477167277259052e-06
-4.870856217132607e-06   7.678550683043982e-07   9.477167277259052e-06
-4.870856217132607e-06   7.678550683043982e-07   9.477167277259052e-06
-4.870856217132607e-06   7.678550683043982e-07   9.477167277259052e-06
-6.46743861695152e-06   2.281819720897091e-06   1.1419025736424283e-05
-6.46743861695152e-06   2.281819720897091e-06   1.1419025736424283e-05
-6.46743861695152e-06   2.281819720897091e-06   1.1419025736424283e-05
-6.46743861695152e-06   2.281819720897091e-06   1.1419025736424283e-05
-1.0431255948778321e-05   1.8717755462353824e-06   4.566637011915991e-06
-1.0431255948778321e-05   1.8717755462353824e-06   4.566637011915991e-06
-1.0431255948778321e-05   1.8717755462353824e-06   4.566637011915991e-06
-1.0431255948778321e-05   1.8717755462353824e-06   4.566637011915991e-06
-1.0621980716504282e-05   2.0466337591056472e-06   1.1211562612006257e-05
-1.0621980716504282e-05   2.0466337591056472e-06   1.1211562612006257e-05
-1.0621980716504282e-05   2.0466337591056472e-06   1.1211562612006257e-05
-1.0621980716504282e-05   2.0466337591056472e-06   1.1211562612006257e-05
-6.641976607655605e-06   1.623683477219558e-06   4.831992599723615e-06
-6.641976607655605e-06   1.623683477219558e-06   4.831992599723615e-06
-6.641976607655605e-06   1.623683477219558e-06   4.831992599723615e-06
-6.641976607655605e-06   1.623683477219558e-06   4.831992599723615e-06
-8.519871488064782e-06   1.9223458622561113e-06   7.782619969384113e-06
-8.519871488064782e-06   1.9223458622561113e-06   7.782619969384113e-06
-8.519871488064782e-06   1.9223458622561113e-06   7.782619969384113e-06
-8.519871488064782e-06   1.9223458622561113e-06   7.782619969384113e-06
-6.641976607655632e-06   2.0466337591056472e-06   1.1465332781137932e-05
-6.641976607655632e-06   2.0466337591056472e-06   1.1465332781137932e-05
-6.641976607655632e-06   2.0466337591056472e-06   1.1465332781137932e-05
-6.641976607655632e-06   2.0466337591056472e-06   1.1465332781137932e-05
-1.0621980716504255e-05   1.6236834772196665e-06   4.578222430592021e-06
-1.0621980716504255e-05   1.6236834772196665e-06   4.578222430592021e-06
-1.0621980716504255e-05   1.6236834772196665e-06   4.578222430592021e-06
-1.0621980716504255e-05   1.6236834772196665e-06   4.578222430592021e-06
-1.0847275133803083e-05   1.8279102479419433e-06   1.1579690160931177e-05
-1.0847275133803083e-05   1.8279102479419433e-06   1.1579690160931177e-05
-1.0847275133803083e-05   1.8279102479419433e-06   1.1579690160931177e-05
-1.0847275133803083e-05   1.8279102479419433e-06   1.1579690160931177e-05
-6.822067951290845e-06   1.3971937817600479e-06   5.1294414031199855e-06
-6.822067951290845e-06   1.3971937817600479e-06   5.1294414031199855e-06
-6.822067951290845e-06   1.3971937817600479e-06   5.1294414031199855e-06
-6.822067951290845e-06   1.3971937817600479e-06   5.1294414031199855e-06
-8.64195972836861e-06   1.7473860912383754e-06   7.952478979229239e-06
-8.64195972836861e-06   1.7473860912383754e-06   7.952478979229239e-06
-8.64195972836861e-06   1.7473860912383754e-06   7.952478979229239e-06
-8.64195972836861e-06   1.7473860912383754e-06   7.952478979229239e-06
-6.822067951290858e-06   1.8279102479420517e-06   1.1838120040640288e-05
-6.822067951290858e-06   1.8279102479420517e-06   1.1838120040640288e-05
-6.822067951290858e-06   1.8279102479420517e-06   1.1838120040640288e-05
-6.822067951290858e-06   1.8279102479420517e-06   1.1838120040640288e-05
-1.0847275133803056e-05   1.3971937817600479e-06   4.871011523410821e-06
-1.0847275133803056e-05   1.3971937817600479e-06   4.871011523410821e-06
-1.0847275133803056e-05   1.3971937817600479e-06   4.871011523410821e-06
-1.0847275133803056e-05   1.3971937817600479e-06   4.871011523410821e-06
-1.1039877078432574e-05   1.5823142573067814e-06   1.1931505691935664e-05
-1.1039877078432574e-05   1.5823142573067814e-06   1.1931505691935664e-05
-1.1039877078432574e-05   1.5823142573067814e-06   1.1931505691935664e-05
-1.1039877078432574e-05   1.5823142573067814e-06   1.1931505691935664e-05
-6.999231203855816e-06   1.1541674187772561e-06   5.4539840040923365e-06
-6.999231203855816e-06   1.1541674187772561e-06   5.4539840040923365e-06
-6.999231203855816e-06   1.1541674187772561e-06   5.4539840040923365e-06
-6.999231203855816e-06   1.1541674187772561e-06   5.4539840040923365e-06
-8.85471562003714e-06   1.5711089208578634e-06   8.29629312981269e-06
-8.85471562003714e-06   1.5711089208578634e-06   8.29629312981269e-06
-8.85471562003714e-06   1.5711089208578634e-06   8.29629312981269e-06
-8.85471562003714e-06   1.5711089208578634e-06   8.29629312981269e-06
-1.0431255948778348e-05   3.00922340352853e-06   5.358224466438667e-06
-1.0431255948778348e-05   3.00922340352853e-06   5.358224466438667e-06
-1.0431255948778348e-05   3.00922340352853e-06   5.358224466438667e-06
-1.0431255948778348e-05   3.00922340352853e-06   5.358224466438667e-06
-1.4035817996967711e-05   2.3181577688275844e-06   -1.064018328030854e-06
-1.4035817996967711e-05   2.3181577688275844e-06   -1.064018328030854e-06
-1.4035817996967711e-05   2.3181577688275844e-06   -1.064018328030854e-06
-1.4035817996967711e-05   2.3181577688275844e-06   -1.064018328030854e-06
-1.4526050596680928e-05   2.9365926188184253e-06   6.625557191665865e-06
-1.4526050596680928e-05   2.9365926188184253e-06   6.625557191665865e-06
-1.4526050596680928e-05   2.9365926188184253e-06   6.625557191665865e-06
-1.4526050596680928e-05   2.9365926188184253e-06   6.625557191665865e-06
-1.0621980716504228e-05   2.1925178761756812e-06   5.652189036238573e-07
-1.0621980716504228e-05   2.1925178761756812e-06   5.652189036238573e-07
-1.0621980716504228e-05   2.1925178761756812e-06   5.652189036238573e-07
-1.0621980716504228e-05   2.1925178761756812e-06   5.652189036238573e-07
-1.1951250836936354e-05   2.564011849437702e-06   2.5577727203872927e-06
-1.1951250836936354e-05   2.564011849437702e-06   2.5577727203872927e-06
-1.1951250836936354e-05   2.564011849437702e-06   2.5577727203872927e-06
-1.1951250836936354e-05   2.564011849437702e-06   2.5577727203872927e-06
-1.0621980716504228e-05   2.9365926188184253e-06   7.072002037251555e-06
-1.0621980716504228e-05   2.9365926188184253e-06   7.072002037251555e-06
-1.0621980716504228e-05   2.9365926188184253e-06   7.072002037251555e-06
-1.0621980716504228e-05   2.9365926188184253e-06   7.072002037251555e-06
-1.4526050596680955e-05   2.1925178761756812e-06   1.1877405803824878e-07
-1.4526050596680955e-05   2.1925178761756812e-06   1.1877405803824878e-07
-1.4526050596680955e-05   2.1925178761756812e-06   1.1877405803824878e-07
-1.4526050596680955e-05   2.1925178761756812e-06   1.1877405803824878e-07
-1.494681204444799e-05   2.8436221772936126e-06   7.841712583322178e-06
-1.494681204444799e-05   2.8436221772936126e-06   7.841712583322178e-06
-1.494681204444799e-05   2.8436221772936126e-06   7.841712583322178e-06
-1.494681204444799e-05   2.8436221772936126e-06   7.841712583322178e-06
-1.0847275133803029e-05   2.0856389664023357e-06   1.463940992115333e-06
-1.0847275133803029e-05   2.0856389664023357e-06   1.463940992115333e-06
-1.0847275133803029e-05   2.0856389664023357e-06   1.463940992115333e-06
-1.0847275133803029e-05   2.0856389664023357e-06   1.463940992115333e-06
-1.2424818361011201e-05   2.532705021267951e-06   3.824940071209783e-06
-1.2424818361011201e-05   2.532705021267951e-06   3.824940071209783e-06
-1.2424818361011201e-05   2.532705021267951e-06   3.824940071209783e-06
-1.2424818361011201e-05   2.532705021267951e-06   3.824940071209783e-06
-1.0847275133803056e-05   2.843622177293504e-06   8.29650250985689e-06
-1.0847275133803056e-05   2.843622177293504e-06   8.29650250985689e-06
-1.0847275133803056e-05   2.843622177293504e-06   8.29650250985689e-06
-1.0847275133803056e-05   2.843622177293504e-06   8.29650250985689e-06
-1.4946812044448017e-05   2.085638966402444e-06   1.0091510655806752e-06
-1.4946812044448017e-05   2.085638966402444e-06   1.0091510655806752e-06
-1.4946812044448017e-05   2.085638966402444e-06   1.0091510655806752e-06
-1.4946812044448017e-05   2.085638966402444e-06   1.0091510655806752e-06
-1.5448928120013127e-05   2.5283683832469893e-06   9.989829283289895e-06
-1.5448928120013127e-05   2.5283683832469893e-06   9.989829283289895e-06
-1.5448928120013127e-05   2.5283683832469893e-06   9.989829283289895e-06
-1.5448928120013127e-05   2.5283683832469893e-06   9.989829283289895e-06
-1.103987707843252e-05   1.791839308319036e-06   3.0833283256122192e-06
-1.103987707843252e-05   1.791839308319036e-06   3.0833283256122192e-06
-1.103987707843252e-05   1.791839308319036e-06   3.0833283256122192e-06
-1.103987707843252e-05   1.791839308319036e-06   3.0833283256122192e-06
-1.2536816125868061e-05   2.399085644130773e-06   5.213878936517493e-06
-1.2536816125868061e-05   2.399085644130773e-06   5.213878936517493e-06
-1.2536816125868061e-05   2.399085644130773e-06   5.213878936517493e-06
-1.2536816125868061e-05   2.399085644130773e-06   5.213878936517493e-06
1.4271790539440333e-06   -1.2415076545480887e-08   6.463007053773007e-06
1.4271790539440333e-06   -1.2415076545480887e-08   6.463007053773007e-06
1.4271790539440333e-06   -1.2415076545480887e-08   6.463007053773007e-06
1.4271790539440333e-06   -1.2415076545480887e-08   6.463007053773007e-06
-1.212541222923623e-06   6.623410470085744e-07   2.468326933125907e-06
-1.212541222923623e-06   6.623410470085744e-07   2.468326933125907e-06
-1.212541222923623e-06   6.623410470085744e-07   2.468326933125907e-06
-1.212541222923623e-06   6.623410470085744e-07   2.468326933125907e-06
-1.3613150481947443e-06   -2.5225032810889236e-07   6.3506516124030516e-06
-1.3613150481947443e-06   -2.5225032810889236e-07   6.3506516124030516e-06
-1.3613150481947443e-06   -2.5225032810889236e-07   6.3506516124030516e-06
-1.3613150481947443e-06   -2.5225032810889236e-07   6.3506516124030516e-06
9.767678444649096e-07   4.3840834058992296e-07   2.039451590084404e-06
9.767678444649096e-07   4.3840834058992296e-07   2.039451590084404e-06
9.767678444649096e-07   4.3840834058992296e-07   2.039451590084404e-06
9.767678444649096e-07   4.3840834058992296e-07   2.039451590084404e-06
-1.0960838468505621e-07   1.6998328419707068e-07   4.011133672503323e-06
-1.0960838468505621e-07   1.6998328419707068e-07   4.011133672503323e-06
-1.0960838468505621e-07   1.6998328419707068e-07   4.011133672503323e-06
-1.0960838468505621e-07   1.6998328419707068e-07   4.011133672503323e-06
9.767678444649096e-07   -2.5225032810889236e-07   5.9362564111838356e-06
9.767678444649096e-07   -2.5225032810889236e-07   5.9362564111838356e-06
9.767678444649096e-07   -2.5225032810889236e-07   5.9362564111838356e-06
9.767678444649096e-07   -2.5225032810889236e-07   5.9362564111838356e-06
-1.3613150481947443e-06   4.3840834058992296e-07   2.4538467913036064e-06
-1.3613150481947443e-06   4.3840834058992296e-07   2.4538467913036064e-06
-1.3613150481947443e-06   4.3840834058992296e-07   2.4538467913036064e-06
-1.3613150481947443e-06   4.3840834058992296e-07   2.4538467913036064e-06
-1.5455820517237315e-06   -3.54225798394241e-07   6.1692933983945974e-06
-1.5455820517237315e-06   -3.54225798394241e-07   6.1692933983945974e-06
-1.5455820517237315e-06   -3.54225798394241e-07   6.1692933983945974e-06
-1.5455820517237315e-06   -3.54225798394241e-07   6.1692933983945974e-06
5.846613821366522e-07   3.1717131050945603e-07   2.216049409951696e-06
5.846613821366522e-07   3.1717131050945603e-07   2.216049409951696e-06
5.846613821366522e-07   3.1717131050945603e-07   2.216049409951696e-06
5.846613821366522e-07   3.1717131050945603e-07   2.216049409951696e-06
-3.5056070317843675e-07   7.471942483803454e-08   3.920224016879729e-06
-3.5056070317843675e-07   7.471942483803454e-08   3.920224016879729e-06
-3.5056070317843675e-07   7.471942483803454e-08   3.920224016879729e-06
-3.5056070317843675e-07   7.471942483803454e-08   3.920224016879729e-06
5.846613821366522e-07   -3.5422579839434944e-07   5.766455133052315e-06
5.846613821366522e-07   -3.5422579839434944e-07   5.766455133052315e-06
5.846613821366522e-07   -3.5422579839434944e-07   5.766455133052315e-06
5.846613821366522e-07   -3.5422579839434944e-07   5.766455133052315e-06
-1.5455820517237281e-06   3.1717131050945603e-07   2.6188876752939686e-06
-1.5455820517237281e-06   3.1717131050945603e-07   2.6188876752939686e-06
-1.5455820517237281e-06   3.1717131050945603e-07   2.6188876752939686e-06
-1.5455820517237281e-06   3.1717131050945603e-07   2.6188876752939686e-06
-1.7004034806392623e-06   -5.213796882892361e-07   6.0823883330901585e-06
-1.7004034806392623e-06   -5.213796882892361e-07   6.0823883330901585e-06
-1.7004034806392623e-06   -5.213796882892361e-07   6.0823883330901585e-06
-1.7004034806392623e-06   -5.213796882892361e-07   6.0823883330901585e-06
9.1740761296361e-08   6.199772495006032e-08   2.7454548152539416e-06
9.1740761296361e-08   6.199772495006032e-08   2.7454548152539416e-06
9.1740761296361e-08   6.199772495006032e-08   2.7454548152539416e-06
9.1740761296361e-08   6.199772495006032e-08   2.7454548152539416e-06
-6.172337659352448e-07   -9.628641410336543e-09   3.970054847122887e-06
-6.172337659352448e-07   -9.628641410336543e-09   3.970054847122887e-06
-6.172337659352448e-07   -9.628641410336543e-09   3.970054847122887e-06
-6.172337659352448e-07   -9.628641410336543e-09   3.970054847122887e-06
-1.212541222923623e-06   6.613034742679585e-07   1.0253576615179796e-05
-1.212541222923623e-06   6.613034742679585e-07   1.0253576615179796e-05
-1.212541222923623e-06   6.613034742679585e-07   1.0253576615179796e-05
-1.212541222923623e-06   6.613034742679585e-07   1.0253576615179796e-05
-3.41800358046342e-06   7.983017465910264e-07   6.6600049826740166e-06
-3.41800358046342e-06   7.983017465910264e-07   6.6600049826740166e-06
-3.41800358046342e-06   7.983017465910264e-07   6.6600049826740166e-06
-3.41800358046342e-06   7.983017465910264e-07   6.6600049826740166e-06
-3.531217481344969e-06   3.921938874549115e-07   1.022188756068655e-05
-3.531217481344969e-06   3.921938874549115e-07   1.022188756068655e-05
-3.531217481344969e-06   3.921938874549115e-07   1.022188756068655e-05
-3.531217481344969e-06   3.921938874549115e-07   1.022188756068655e-05
-1.3613150481947443e-06   5.493215829195522e-07   6.511106888157294e-06
-1.3613150481947443e-06   5.493215829195522e-07   6.511106888157294e-06
-1.3613150481947443e-06   5.493215829195522e-07   6.511106888157294e-06
-1.3613150481947443e-06   5.493215829195522e-07   6.511106888157294e-06
-2.3970467065749184e-06   5.70250453340985e-07   8.224768996538154e-06
-2.3970467065749184e-06   5.70250453340985e-07   8.224768996538154e-06
-2.3970467065749184e-06   5.70250453340985e-07   8.224768996538154e-06
-2.3970467065749184e-06   5.70250453340985e-07   8.224768996538154e-06
-1.3613150481947409e-06   3.921938874549115e-07   1.0127610943407606e-05
-1.3613150481947409e-06   3.921938874549115e-07   1.0127610943407606e-05
-1.3613150481947409e-06   3.921938874549115e-07   1.0127610943407606e-05
-1.3613150481947409e-06   3.921938874549115e-07   1.0127610943407606e-05
-3.5312174813449757e-06   5.493215829195522e-07   6.60538350543617e-06
-3.5312174813449757e-06   5.493215829195522e-07   6.60538350543617e-06
-3.5312174813449757e-06   5.493215829195522e-07   6.60538350543617e-06
-3.5312174813449757e-06   5.493215829195522e-07   6.60538350543617e-06
-3.6481368383691165e-06   1.65536839417859e-07   1.0232774022847762e-05
-3.6481368383691165e-06   1.65536839417859e-07   1.0232774022847762e-05
-3.6481368383691165e-06   1.65536839417859e-07   1.0232774022847762e-05
-3.6481368383691165e-06   1.65536839417859e-07   1.0232774022847762e-05
-1.5455820517237281e-06   3.2131250280917865e-07   6.635050647070691e-06
-1.5455820517237281e-06   3.2131250280917865e-07   6.635050647070691e-06
-1.5455820517237281e-06   3.2131250280917865e-07   6.635050647070691e-06
-1.5455820517237281e-06   3.2131250280917865e-07   6.635050647070691e-06
-2.512962774206827e-06   3.893813488722929e-07   8.206510543571418e-06
-2.512962774206827e-06   3.893813488722929e-07   8.206510543571418e-06
-2.512962774206827e-06   3.893813488722929e-07   8.206510543571418e-06
-2.512962774206827e-06   3.893813488722929e-07   8.206510543571418e-06
-1.5455820517237281e-06   1.65536839417859e-07   1.0139308624812913e-05
-1.5455820517237281e-06   1.65536839417859e-07   1.0139308624812913e-05
-1.5455820517237281e-06   1.65536839417859e-07   1.0139308624812913e-05
-1.5455820517237281e-06   1.65536839417859e-07   1.0139308624812913e-05
-3.6481368383691165e-06   3.2131250280917865e-07   6.728516045105445e-06
-3.6481368383691165e-06   3.2131250280917865e-07   6.728516045105445e-06
-3.6481368383691165e-06   3.2131250280917865e-07   6.728516045105445e-06
-3.6481368383691165e-06   3.2131250280917865e-07   6.728516045105445e-06
-3.763212526227456e-06   -6.436039473166778e-08   1.0422338120539491e-05
-3.763212526227456e-06   -6.436039473166778e-08   1.0422338120539491e-05
-3.763212526227456e-06   -6.436039473166778e-08   1.0422338120539491e-05
-3.763212526227456e-06   -6.436039473166778e-08   1.0422338120539491e-05
-1.7004034806392623e-06   7.62270577679366e-08   6.89997057305952e-06
-1.7004034806392623e-06   7.62270577679366e-08   6.89997057305952e-06
-1.7004034806392623e-06   7.62270577679366e-08   6.89997057305952e-06
-1.7004034806392623e-06   7.62270577679366e-08   6.89997057305952e-06
-2.628085378800163e-06   2.133574960724242e-07   8.363828807011602e-06
-2.628085378800163e-06   2.133574960724242e-07   8.363828807011602e-06
-2.628085378800163e-06   2.133574960724242e-07   8.363828807011602e-06
-2.628085378800163e-06   2.133574960724242e-07   8.363828807011602e-06
-3.41800358046342e-06   1.2534060888454894e-06   1.152549570120298e-05
-3.41800358046342e-06   1.2534060888454894e-06   1.152549570120298e-05
-3.41800358046342e-06   1.2534060888454894e-06   1.152549570120298e-05
-3.41800358046342e-06   1.2534060888454894e-06   1.152549570120298e-05
-5.605725788090745e-06   9.69370661102096e-07   7.708870765178022e-06
-5.605725788090745e-06   9.69370661102096e-07   7.708870765178022e-06
-5.605725788090745e-06   9.69370661102096e-07   7.708870765178022e-06
-5.605725788090745e-06   9.69370661102096e-07   7.708870765178022e-06
-5.702214381948236e-06   1.0067490519115449e-06   1.1311578039378313e-05
-5.702214381948236e-06   1.0067490519115449e-06   1.1311578039378313e-05
-5.702214381948236e-06   1.0067490519115449e-06   1.1311578039378313e-05
-5.702214381948236e-06   1.0067490519115449e-06   1.1311578039378313e-05
-3.5312174813449757e-06   7.400860969419094e-07   7.853247644688008e-06
-3.5312174813449757e-06   7.400860969419094e-07   7.853247644688008e-06
-3.5312174813449757e-06   7.400860969419094e-07   7.853247644688008e-06
-3.5312174813449757e-06   7.400860969419094e-07   7.853247644688008e-06
-4.567285896933161e-06   9.717487292116612e-07   9.441030757973147e-06
-4.567285896933161e-06   9.717487292116612e-07   9.441030757973147e-06
-4.567285896933161e-06   9.717487292116612e-07   9.441030757973147e-06
-4.567285896933161e-06   9.717487292116612e-07   9.441030757973147e-06
-3.5312174813449757e-06   1.0067490519115449e-06   1.14715758123601e-05
-3.5312174813449757e-06   1.0067490519115449e-06   1.14715758123601e-05
-3.5312174813449757e-06   1.0067490519115449e-06   1.14715758123601e-05
-3.5312174813449757e-06   1.0067490519115449e-06   1.14715758123601e-05
-5.702214381948236e-06   7.400860969419094e-07   7.693249871706248e-06
-5.702214381948236e-06   7.400860969419094e-07   7.693249871706248e-06
-5.702214381948236e-06   7.400860969419094e-07   7.693249871706248e-06
-5.702214381948236e-06   7.400860969419094e-07   7.693249871706248e-06
-5.8053485745547485e-06   7.613974976429299e-07   1.1419116682225494e-05
-5.8053485745547485e-06   7.613974976429299e-07   1.1419116682225494e-05
-5.8053485745547485e-06   7.613974976429299e-07   1.1419116682225494e-05
-5.8053485745547485e-06   7.613974976429299e-07   1.1419116682225494e-05
-3.6481368383691165e-06   5.072040422125562e-07   7.976279861841038e-06
-3.6481368383691165e-06   5.072040422125562e-07   7.976279861841038e-06
-3.6481368383691165e-06   5.072040422125562e-07   7.976279861841038e-06
-3.6481368383691165e-06   5.072040422125562e-07   7.976279861841038e-06
-4.6497687145860474e-06   7.889286847656378e-07   9.47663153667078e-06
-4.6497687145860474e-06   7.889286847656378e-07   9.47663153667078e-06
-4.6497687145860474e-06   7.889286847656378e-07   9.47663153667078e-06
-4.6497687145860474e-06   7.889286847656378e-07   9.47663153667078e-06
-3.6481368383691165e-06   7.613974976429299e-07   1.157163275548374e-05
-3.6481368383691165e-06   7.613974976429299e-07   1.157163275548374e-05
-3.6481368383691165e-06   7.613974976429299e-07   1.157163275548374e-05
-3.6481368383691165e-06   7.613974976429299e-07   1.157163275548374e-05
-5.8053485745547485e-06   5.072040422125562e-07   7.823763788582819e-06
-5.8053485745547485e-06   5.072040422125562e-07   7.823763788582819e-06
-5.8053485745547485e-06   5.072040422125562e-07   7.823763788582819e-06
-5.8053485745547485e-06   5.072040422125562e-07   7.823763788582819e-06
-5.906369349758495e-06   5.268427360687966e-07   1.1648473174326443e-05
-5.906369349758495e-06   5.268427360687966e-07   1.1648473174326443e-05
-5.906369349758495e-06   5.268427360687966e-07   1.1648473174326443e-05
-5.906369349758495e-06   5.268427360687966e-07   1.1648473174326443e-05
-3.763212526227456e-06   2.8715264646368525e-07   8.220359188871218e-06
-3.763212526227456e-06   2.8715264646368525e-07   8.220359188871218e-06
-3.763212526227456e-06   2.8715264646368525e-07   8.220359188871218e-06
-3.763212526227456e-06   2.8715264646368525e-07   8.220359188871218e-06
-4.741614071414161e-06   6.091565140869492e-07   9.657826110275055e-06
-4.741614071414161e-06   6.091565140869492e-07   9.657826110275055e-06
-4.741614071414161e-06   6.091565140869492e-07   9.657826110275055e-06
-4.741614071414161e-06   6.091565140869492e-07   9.657826110275055e-06
-5.605725788090758e-06   1.8717755462353824e-06   9.978336009596373e-06
-5.605725788090758e-06   1.8717755462353824e-06   9.978336009596373e-06
-5.605725788090758e-06   1.8717755462353824e-06   9.978336009596373e-06
-5.605725788090758e-06   1.8717755462353824e-06   9.978336009596373e-06
-7.762246041763946e-06   1.3183077226216794e-06   6.052054892639481e-06
-7.762246041763946e-06   1.3183077226216794e-06   6.052054892639481e-06
-7.762246041763946e-06   1.3183077226216794e-06   6.052054892639481e-06
-7.762246041763946e-06   1.3183077226216794e-06   6.052054892639481e-06
-7.868494533952512e-06   1.6236834772196665e-06   9.68672263545827e-06
-7.868494533952512e-06   1.6236834772196665e-06   9.68672263545827e-06
-7.868494533952512e-06   1.6236834772196665e-06   9.68672263545827e-06
-7.868494533952512e-06   1.6236834772196665e-06   9.68672263545827e-06
-5.702214381948236e-06   1.077256829623151e-06   6.404111704009054e-06
-5.702214381948236e-06   1.077256829623151e-06   6.404111704009054e-06
-5.702214381948236e-06   1.077256829623151e-06   6.404111704009054e-06
-5.702214381948236e-06   1.077256829623151e-06   6.404111704009054e-06
-6.720365370869468e-06   1.4582050606341346e-06   7.872461080271113e-06
-6.720365370869468e-06   1.4582050606341346e-06   7.872461080271113e-06
-6.720365370869468e-06   1.4582050606341346e-06   7.872461080271113e-06
-6.720365370869468e-06   1.4582050606341346e-06   7.872461080271113e-06
-5.702214381948236e-06   1.6236834772196665e-06   1.001457862401619e-05
-5.702214381948236e-06   1.6236834772196665e-06   1.001457862401619e-05
-5.702214381948236e-06   1.6236834772196665e-06   1.001457862401619e-05
-5.702214381948236e-06   1.6236834772196665e-06   1.001457862401619e-05
-7.868494533952485e-06   1.077256829623151e-06   6.076255715451107e-06
-7.868494533952485e-06   1.077256829623151e-06   6.076255715451107e-06
-7.868494533952485e-06   1.077256829623151e-06   6.076255715451107e-06
-7.868494533952485e-06   1.077256829623151e-06   6.076255715451107e-06
-8.01394768722689e-06   1.3971937817600479e-06   1.0006221603168499e-05
-8.01394768722689e-06   1.3971937817600479e-06   1.0006221603168499e-05
-8.01394768722689e-06   1.3971937817600479e-06   1.0006221603168499e-05
-8.01394768722689e-06   1.3971937817600479e-06   1.0006221603168499e-05
-5.8053485745547485e-06   8.62088274684457e-07   6.646286386293549e-06
-5.8053485745547485e-06   8.62088274684457e-07   6.646286386293549e-06
-5.8053485745547485e-06   8.62088274684457e-07   6.646286386293549e-06
-5.8053485745547485e-06   8.62088274684457e-07   6.646286386293549e-06
-6.778016429058616e-06   1.2810727634252799e-06   8.016008783888878e-06
-6.778016429058616e-06   1.2810727634252799e-06   8.016008783888878e-06
-6.778016429058616e-06   1.2810727634252799e-06   8.016008783888878e-06
-6.778016429058616e-06   1.2810727634252799e-06   8.016008783888878e-06
-5.8053485745547485e-06   1.3971937817600479e-06   1.0327284907413713e-05
-5.8053485745547485e-06   1.3971937817600479e-06   1.0327284907413713e-05
-5.8053485745547485e-06   1.3971937817600479e-06   1.0327284907413713e-05
-5.8053485745547485e-06   1.3971937817600479e-06   1.0327284907413713e-05
-8.01394768722689e-06   8.62088274684457e-07   6.325223082048241e-06
-8.01394768722689e-06   8.62088274684457e-07   6.325223082048241e-06
-8.01394768722689e-06   8.62088274684457e-07   6.325223082048241e-06
-8.01394768722689e-06   8.62088274684457e-07   6.325223082048241e-06
-8.130233090122418e-06   1.1541674187771477e-06   1.035907715772849e-05
-8.130233090122418e-06   1.1541674187771477e-06   1.035907715772849e-05
-8.130233090122418e-06   1.1541674187771477e-06   1.035907715772849e-05
-8.130233090122418e-06   1.1541674187771477e-06   1.035907715772849e-05
-5.906369349758495e-06   6.421240927853892e-07   6.959863586050502e-06
-5.906369349758495e-06   6.421240927853892e-07   6.959863586050502e-06
-5.906369349758495e-06   6.421240927853892e-07   6.959863586050502e-06
-5.906369349758495e-06   6.421240927853892e-07   6.959863586050502e-06
-6.89925328354628e-06   1.1117920622189914e-06   8.33286936070326e-06
-6.89925328354628e-06   1.1117920622189914e-06   8.33286936070326e-06
-6.89925328354628e-06   1.1117920622189914e-06   8.33286936070326e-06
-6.89925328354628e-06   1.1117920622189914e-06   8.33286936070326e-06
-7.762246041763946e-06   2.318157768827693e-06   4.430239356301797e-06
-7.762246041763946e-06   2.318157768827693e-06   4.430239356301797e-06
-7.762246041763946e-06   2.318157768827693e-06   4.430239356301797e-06
-7.762246041763946e-06   2.318157768827693e-06   4.430239356301797e-06
-9.490937101266016e-06   1.5711022808632112e-06   1.1008542976864216e-06
-9.490937101266016e-06   1.5711022808632112e-06   1.1008542976864216e-06
-9.490937101266016e-06   1.5711022808632112e-06   1.1008542976864216e-06
-9.490937101266016e-06   1.5711022808632112e-06   1.1008542976864216e-06
-9.889516332366714e-06   2.1925178761756812e-06   5.204751053150525e-06
-9.889516332366714e-06   2.1925178761756812e-06   5.204751053150525e-06
-9.889516332366714e-06   2.1925178761756812e-06   5.204751053150525e-06
-9.889516332366714e-06   2.1925178761756812e-06   5.204751053150525e-06
-7.868494533952512e-06   1.4109044506097589e-06   2.3053494444663907e-06
-7.868494533952512e-06   1.4109044506097589e-06   2.3053494444663907e-06
-7.868494533952512e-06   1.4109044506097589e-06   2.3053494444663907e-06
-7.868494533952512e-06   1.4109044506097589e-06   2.3053494444663907e-06
-8.448232667265728e-06   1.8517405704321875e-06   3.007077994761603e-06
-8.448232667265728e-06   1.8517405704321875e-06   3.007077994761603e-06
-8.448232667265728e-06   1.8517405704321875e-06   3.007077994761603e-06
-8.448232667265728e-06   1.8517405704321875e-06   3.007077994761603e-06
-7.868494533952512e-06   2.192517876175573e-06   5.6737191084900245e-06
-7.868494533952512e-06   2.192517876175573e-06   5.6737191084900245e-06
-7.868494533952512e-06   2.192517876175573e-06   5.6737191084900245e-06
-7.868494533952512e-06   2.192517876175573e-06   5.6737191084900245e-06
-9.889516332366741e-06   1.4109044506097589e-06   1.8363813891268322e-06
-9.889516332366741e-06   1.4109044506097589e-06   1.8363813891268322e-06
-9.889516332366741e-06   1.4109044506097589e-06   1.8363813891268322e-06
-9.889516332366741e-06   1.4109044506097589e-06   1.8363813891268322e-06
-1.0230673014084121e-05   2.0856389664023357e-06   6.12790670616412e-06
-1.0230673014084121e-05   2.0856389664023357e-06   6.12790670616412e-06
-1.0230673014084121e-05   2.0856389664023357e-06   6.12790670616412e-06
-1.0230673014084121e-05   2.0856389664023357e-06   6.12790670616412e-06
-8.01394768722689e-06   1.3002316902212393e-06   2.904608860444238e-06
-8.01394768722689e-06   1.3002316902212393e-06   2.904608860444238e-06
-8.01394768722689e-06   1.3002316902212393e-06   2.904608860444238e-06
-8.01394768722689e-06   1.3002316902212393e-06   2.904608860444238e-06
-8.787739269787513e-06   1.7902222409320865e-06   3.900267167618893e-06
-8.787739269787513e-06   1.7902222409320865e-06   3.900267167618893e-06
-8.787739269787513e-06   1.7902222409320865e-06   3.900267167618893e-06
-8.787739269787513e-06   1.7902222409320865e-06   3.900267167618893e-06
-8.01394768722689e-06   2.085638966402444e-06   6.59915107187293e-06
-8.01394768722689e-06   2.085638966402444e-06   6.59915107187293e-06
-8.01394768722689e-06   2.085638966402444e-06   6.59915107187293e-06
-8.01394768722689e-06   2.085638966402444e-06   6.59915107187293e-06
-1.0230673014084148e-05   1.3002316902211851e-06   2.43336449473547e-06
-1.0230673014084148e-05   1.3002316902211851e-06   2.43336449473547e-06
-1.0230673014084148e-05   1.3002316902211851e-06   2.43336449473547e-06
-1.0230673014084148e-05   1.3002316902211851e-06   2.43336449473547e-06
-1.066278094010074e-05   1.7918393083191445e-06   7.795930443000535e-06
-1.066278094010074e-05   1.7918393083191445e-06   7.795930443000535e-06
-1.066278094010074e-05   1.7918393083191445e-06   7.795930443000535e-06
-1.066278094010074e-05   1.7918393083191445e-06   7.795930443000535e-06
-8.13023309012239e-06   1.0428740760429168e-06   4.024396499068916e-06
-8.13023309012239e-06   1.0428740760429168e-06   4.024396499068916e-06
-8.13023309012239e-06   1.0428740760429168e-06   4.024396499068916e-06
-8.13023309012239e-06   1.0428740760429168e-06   4.024396499068916e-06
-8.881835878091595e-06   1.6679207367108152e-06   4.90203981595004e-06
-8.881835878091595e-06   1.6679207367108152e-06   4.90203981595004e-06
-8.881835878091595e-06   1.6679207367108152e-06   4.90203981595004e-06
-8.881835878091595e-06   1.6679207367108152e-06   4.90203981595004e-06
-3.5660192708580817e-06   6.623410470085744e-07   4.674565023006057e-06
-3.5660192708580817e-06   6.623410470085744e-07   4.674565023006057e-06
-3.5660192708580817e-06   6.623410470085744e-07   4.674565023006057e-06
-3.5660192708580817e-06   6.623410470085744e-07   4.674565023006057e-06
-4.039152333610298e-06   1.2763883069685355e-06   4.25443827439497e-06
-4.039152333610298e-06   1.2763883069685355e-06   4.25443827439497e-06
-4.039152333610298e-06   1.2763883069685355e-06   4.25443827439497e-06
-4.039152333610298e-06   1.2763883069685355e-06   4.25443827439497e-06
-4.150041735527446e-06   4.3840834058992296e-07   4.98334904147277e-06
-4.150041735527446e-06   4.3840834058992296e-07   4.98334904147277e-06
-4.150041735527446e-06   4.3840834058992296e-07   4.98334904147277e-06
-4.150041735527446e-06   4.3840834058992296e-07   4.98334904147277e-06
-4.018896167287149e-06   9.921411030586603e-07   4.432533436924313e-06
-4.018896167287149e-06   9.921411030586603e-07   4.432533436924313e-06
-4.018896167287149e-06   9.921411030586603e-07   4.432533436924313e-06
-4.018896167287149e-06   9.921411030586603e-07   4.432533436924313e-06
-3.849752198648463e-06   7.846994187873295e-07   4.275091833089319e-06
-3.849752198648463e-06   7.846994187873295e-07   4.275091833089319e-06
-3.849752198648463e-06   7.846994187873295e-07   4.275091833089319e-06
-3.849752198648463e-06   7.846994187873295e-07   4.275091833089319e-06
-4.018896167287156e-06   4.3840834058986875e-07   4.651109383991475e-06
-4.018896167287156e-06   4.3840834058986875e-07   4.651109383991475e-06
-4.018896167287156e-06   4.3840834058986875e-07   4.651109383991475e-06
-4.018896167287156e-06   4.3840834058986875e-07   4.651109383991475e-06
-4.150041735527446e-06   9.921411030586603e-07   4.764773094405615e-06
-4.150041735527446e-06   9.921411030586603e-07   4.764773094405615e-06
-4.150041735527446e-06   9.921411030586603e-07   4.764773094405615e-06
-4.150041735527446e-06   9.921411030586603e-07   4.764773094405615e-06
-4.2936957820512635e-06   3.1717131050945603e-07   5.118881421863395e-06
-4.2936957820512635e-06   3.1717131050945603e-07   5.118881421863395e-06
-4.2936957820512635e-06   3.1717131050945603e-07   5.118881421863395e-06
-4.2936957820512635e-06   3.1717131050945603e-07   5.118881421863395e-06
-4.460979658048966e-06   7.976399448091933e-07   5.109406701279745e-06
-4.460979658048966e-06   7.976399448091933e-07   5.109406701279745e-06
-4.460979658048966e-06   7.976399448091933e-07   5.109406701279745e-06
-4.460979658048966e-06   7.976399448091933e-07   5.109406701279745e-06
-4.118529844818604e-06   6.626939408578894e-07   4.619624614933226e-06
-4.118529844818604e-06   6.626939408578894e-07   4.619624614933226e-06
-4.118529844818604e-06   6.626939408578894e-07   4.619624614933226e-06
-4.118529844818604e-06   6.626939408578894e-07   4.619624614933226e-06
-4.460979658048973e-06   3.1717131050945603e-07   4.830600241283489e-06
-4.460979658048973e-06   3.1717131050945603e-07   4.830600241283489e-06
-4.460979658048973e-06   3.1717131050945603e-07   4.830600241283489e-06
-4.460979658048973e-06   3.1717131050945603e-07   4.830600241283489e-06
-4.2936957820512635e-06   7.976399448091933e-07   5.397687881859576e-06
-4.2936957820512635e-06   7.976399448091933e-07   5.397687881859576e-06
-4.2936957820512635e-06   7.976399448091933e-07   5.397687881859576e-06
-4.2936957820512635e-06   7.976399448091933e-07   5.397687881859576e-06
-4.38766971162664e-06   6.199772495011453e-08   5.587290600153681e-06
-4.38766971162664e-06   6.199772495011453e-08   5.587290600153681e-06
-4.38766971162664e-06   6.199772495011453e-08   5.587290600153681e-06
-4.38766971162664e-06   6.199772495011453e-08   5.587290600153681e-06
-4.9327001947651815e-06   3.2035208871749894e-07   6.340662120457417e-06
-4.9327001947651815e-06   3.2035208871749894e-07   6.340662120457417e-06
-4.9327001947651815e-06   3.2035208871749894e-07   6.340662120457417e-06
-4.9327001947651815e-06   3.2035208871749894e-07   6.340662120457417e-06
-4.3146378055593585e-06   5.154740410144272e-07   5.193484967069408e-06
-4.3146378055593585e-06   5.154740410144272e-07   5.193484967069408e-06
-4.3146378055593585e-06   5.154740410144272e-07   5.193484967069408e-06
-4.3146378055593585e-06   5.154740410144272e-07   5.193484967069408e-06
-4.039152333610298e-06   7.983017465910264e-07   9.152472465136157e-06
-4.039152333610298e-06   7.983017465910264e-07   9.152472465136157e-06
-4.039152333610298e-06   7.983017465910264e-07   9.152472465136157e-06
-4.039152333610298e-06   7.983017465910264e-07   9.152472465136157e-06
-4.179516396394336e-06   3.316721858493614e-07   8.638554624051134e-06
-4.179516396394336e-06   3.316721858493614e-07   8.638554624051134e-06
-4.179516396394336e-06   3.316721858493614e-07   8.638554624051134e-06
-4.179516396394336e-06   3.316721858493614e-07   8.638554624051134e-06
-4.217560747389742e-06   5.493215829195522e-07   8.804082803049254e-06
-4.217560747389742e-06   5.493215829195522e-07   8.804082803049254e-06
-4.217560747389742e-06   5.493215829195522e-07   8.804082803049254e-06
-4.217560747389742e-06   5.493215829195522e-07   8.804082803049254e-06
-4.150041735527446e-06   1.5511102412419427e-07   8.928077451889337e-06
-4.150041735527446e-06   1.5511102412419427e-07   8.928077451889337e-06
-4.150041735527446e-06   1.5511102412419427e-07   8.928077451889337e-06
-4.150041735527446e-06   1.5511102412419427e-07   8.928077451889337e-06
-4.135743932745857e-06   4.040074803657106e-07   8.754909906841786e-06
-4.135743932745857e-06   4.040074803657106e-07   8.754909906841786e-06
-4.135743932745857e-06   4.040074803657106e-07   8.754909906841786e-06
-4.135743932745857e-06   4.040074803657106e-07   8.754909906841786e-06
-4.1500417355274495e-06   5.493215829196064e-07   9.040609138326444e-06
-4.1500417355274495e-06   5.493215829196064e-07   9.040609138326444e-06
-4.1500417355274495e-06   5.493215829196064e-07   9.040609138326444e-06
-4.1500417355274495e-06   5.493215829196064e-07   9.040609138326444e-06
-4.217560747389742e-06   1.5511102412419427e-07   8.691551116612106e-06
-4.217560747389742e-06   1.5511102412419427e-07   8.691551116612106e-06
-4.217560747389742e-06   1.5511102412419427e-07   8.691551116612106e-06
-4.217560747389742e-06   1.5511102412419427e-07   8.691551116612106e-06
-4.2639649286383105e-06   3.2131250280917865e-07   8.914615315610424e-06
-4.2639649286383105e-06   3.2131250280917865e-07   8.914615315610424e-06
-4.2639649286383105e-06   3.2131250280917865e-07   8.914615315610424e-06
-4.2639649286383105e-06   3.2131250280917865e-07   8.914615315610424e-06
-4.2936957820512635e-06   -4.606929390700348e-08   9.18459581599501e-06
-4.2936957820512635e-06   -4.606929390700348e-08   9.18459581599501e-06
-4.2936957820512635e-06   -4.606929390700348e-08   9.18459581599501e-06
-4.2936957820512635e-06   -4.606929390700348e-08   9.18459581599501e-06
-4.181566339755352e-06   2.5966387858013273e-07   8.814273508676306e-06
-4.181566339755352e-06   2.5966387858013273e-07   8.814273508676306e-06
-4.181566339755352e-06   2.5966387858013273e-07   8.814273508676306e-06
-4.181566339755352e-06   2.5966387858013273e-07   8.814273508676306e-06
-4.2936957820512635e-06   3.2131250280912444e-07   9.135044393640036e-06
-4.2936957820512635e-06   3.2131250280912444e-07   9.135044393640036e-06
-4.2936957820512635e-06   3.2131250280912444e-07   9.135044393640036e-06
-4.2936957820512635e-06   3.2131250280912444e-07   9.135044393640036e-06
-4.263964928638297e-06   -4.606929390700348e-08   8.964166737965344e-06
-4.263964928638297e-06   -4.606929390700348e-08   8.964166737965344e-06
-4.263964928638297e-06   -4.606929390700348e-08   8.964166737965344e-06
-4.263964928638297e-06   -4.606929390700348e-08   8.964166737965344e-06
-4.299860738707293e-06   7.62270577679366e-08   9.16109375224451e-06
-4.299860738707293e-06   7.62270577679366e-08   9.16109375224451e-06
-4.299860738707293e-06   7.62270577679366e-08   9.16109375224451e-06
-4.299860738707293e-06   7.62270577679366e-08   9.16109375224451e-06
-4.3876697116266285e-06   -3.082498718506117e-07   9.53812819821443e-06
-4.3876697116266285e-06   -3.082498718506117e-07   9.53812819821443e-06
-4.3876697116266285e-06   -3.082498718506117e-07   9.53812819821443e-06
-4.3876697116266285e-06   -3.082498718506117e-07   9.53812819821443e-06
-4.250593479675263e-06   9.218652161405681e-08   9.069405975549813e-06
-4.250593479675263e-06   9.218652161405681e-08   9.069405975549813e-06
-4.250593479675263e-06   9.218652161405681e-08   9.069405975549813e-06
-4.250593479675263e-06   9.218652161405681e-08   9.069405975549813e-06
-4.179516396394343e-06   9.693706611020418e-07   1.0091781767841267e-05
-4.179516396394343e-06   9.693706611020418e-07   1.0091781767841267e-05
-4.179516396394343e-06   9.693706611020418e-07   1.0091781767841267e-05
-4.179516396394343e-06   9.693706611020418e-07   1.0091781767841267e-05
-4.569798764278898e-06   9.41200319900604e-08   8.916160777233155e-06
-4.569798764278898e-06   9.41200319900604e-08   8.916160777233155e-06
-4.569798764278898e-06   9.41200319900604e-08   8.916160777233155e-06
-4.569798764278898e-06   9.41200319900604e-08   8.916160777233155e-06
-4.586296493578969e-06   7.400860969419094e-07   9.576202596524807e-06
-4.586296493578969e-06   7.400860969419094e-07   9.576202596524807e-06
-4.586296493578969e-06   7.400860969419094e-07   9.576202596524807e-06
-4.586296493578969e-06   7.400860969419094e-07   9.576202596524807e-06
-4.217560747389742e-06   -5.282114601859152e-08   9.437387365319018e-06
-4.217560747389742e-06   -5.282114601859152e-08   9.437387365319018e-06
-4.217560747389742e-06   -5.282114601859152e-08   9.437387365319018e-06
-4.217560747389742e-06   -5.282114601859152e-08   9.437387365319018e-06
-4.38172070720195e-06   4.2178535352295184e-07   9.426223398614461e-06
-4.38172070720195e-06   4.2178535352295184e-07   9.426223398614461e-06
-4.38172070720195e-06   4.2178535352295184e-07   9.426223398614461e-06
-4.38172070720195e-06   4.2178535352295184e-07   9.426223398614461e-06
-4.217560747389742e-06   7.400860969419094e-07   1.0051946942301091e-05
-4.217560747389742e-06   7.400860969419094e-07   1.0051946942301091e-05
-4.217560747389742e-06   7.400860969419094e-07   1.0051946942301091e-05
-4.217560747389742e-06   7.400860969419094e-07   1.0051946942301091e-05
-4.586296493578969e-06   -5.282114601859152e-08   8.961643019542734e-06
-4.586296493578969e-06   -5.282114601859152e-08   8.961643019542734e-06
-4.586296493578969e-06   -5.282114601859152e-08   8.961643019542734e-06
-4.586296493578969e-06   -5.282114601859152e-08   8.961643019542734e-06
-4.6120018906133195e-06   5.072040422125562e-07   9.72088928043077e-06
-4.6120018906133195e-06   5.072040422125562e-07   9.72088928043077e-06
-4.6120018906133195e-06   5.072040422125562e-07   9.72088928043077e-06
-4.6120018906133195e-06   5.072040422125562e-07   9.72088928043077e-06
-4.263964928638297e-06   -2.286123776461084e-07   9.582317529054324e-06
-4.263964928638297e-06   -2.286123776461084e-07   9.582317529054324e-06
-4.263964928638297e-06   -2.286123776461084e-07   9.582317529054324e-06
-4.263964928638297e-06   -2.286123776461084e-07   9.582317529054324e-06
-4.389374423428922e-06   2.7718897476134677e-07   9.48785254226086e-06
-4.389374423428922e-06   2.7718897476134677e-07   9.48785254226086e-06
-4.389374423428922e-06   2.7718897476134677e-07   9.48785254226086e-06
-4.389374423428922e-06   2.7718897476134677e-07   9.48785254226086e-06
-4.263964928638297e-06   5.072040422126104e-07   1.0162379132345963e-05
-4.263964928638297e-06   5.072040422126104e-07   1.0162379132345963e-05
-4.263964928638297e-06   5.072040422126104e-07   1.0162379132345963e-05
-4.263964928638297e-06   5.072040422126104e-07   1.0162379132345963e-05
-4.6120018906133195e-06   -2.286123776461084e-07   9.140827677139076e-06
-4.6120018906133195e-06   -2.286123776461084e-07   9.140827677139076e-06
-4.6120018906133195e-06   -2.286123776461084e-07   9.140827677139076e-06
-4.6120018906133195e-06   -2.286123776461084e-07   9.140827677139076e-06
-4.63059206794834e-06   2.8715264646368525e-07   9.982586279588584e-06
-4.63059206794834e-06   2.8715264646368525e-07   9.982586279588584e-06
-4.63059206794834e-06   2.8715264646368525e-07   9.982586279588584e-06
-4.63059206794834e-06   2.8715264646368525e-07   9.982586279588584e-06
-4.299860738707293e-06   -4.037533818162446e-07   9.845911014488048e-06
-4.299860738707293e-06   -4.037533818162446e-07   9.845911014488048e-06
-4.299860738707293e-06   -4.037533818162446e-07   9.845911014488048e-06
-4.299860738707293e-06   -4.037533818162446e-07   9.845911014488048e-06
-4.404612019316364e-06   1.2883296988180025e-07   9.700944671150751e-06
-4.404612019316364e-06   1.2883296988180025e-07   9.700944671150751e-06
-4.404612019316364e-06   1.2883296988180025e-07   9.700944671150751e-06
-4.404612019316364e-06   1.2883296988180025e-07   9.700944671150751e-06
-4.569798764278898e-06   1.3183077226216794e-06   8.241896212003784e-06
-4.569798764278898e-06   1.3183077226216794e-06   8.241896212003784e-06
-4.569798764278898e-06   1.3183077226216794e-06   8.241896212003784e-06
-4.569798764278898e-06   1.3183077226216794e-06   8.241896212003784e-06
-5.103527694149724e-06   4.366797366557227e-07   6.823371203972851e-06
-5.103527694149724e-06   4.366797366557227e-07   6.823371203972851e-06
-5.103527694149724e-06   4.366797366557227e-07   6.823371203972851e-06
-5.103527694149724e-06   4.366797366557227e-07   6.823371203972851e-06
-5.11748480741501e-06   1.0772568296232052e-06   7.786112388773983e-06
-5.11748480741501e-06   1.0772568296232052e-06   7.786112388773983e-06
-5.11748480741501e-06   1.0772568296232052e-06   7.786112388773983e-06
-5.11748480741501e-06   1.0772568296232052e-06   7.786112388773983e-06
-4.586296493578969e-06   2.4233676286706564e-07   7.4017505724341805e-06
-4.586296493578969e-06   2.4233676286706564e-07   7.4017505724341805e-06
-4.586296493578969e-06   2.4233676286706564e-07   7.4017505724341805e-06
-4.586296493578969e-06   2.4233676286706564e-07   7.4017505724341805e-06
-4.831776944860317e-06   7.850045318013395e-07   7.485283996542533e-06
-4.831776944860317e-06   7.850045318013395e-07   7.485283996542533e-06
-4.831776944860317e-06   7.850045318013395e-07   7.485283996542533e-06
-4.831776944860317e-06   7.850045318013395e-07   7.485283996542533e-06
-4.586296493578969e-06   1.077256829623151e-06   8.287064428827559e-06
-4.586296493578969e-06   1.077256829623151e-06   8.287064428827559e-06
-4.586296493578969e-06   1.077256829623151e-06   8.287064428827559e-06
-4.586296493578969e-06   1.077256829623151e-06   8.287064428827559e-06
-5.11748480741501e-06   2.4233676286706564e-07   6.900798532380531e-06
-5.11748480741501e-06   2.4233676286706564e-07   6.900798532380531e-06
-5.11748480741501e-06   2.4233676286706564e-07   6.900798532380531e-06
-5.11748480741501e-06   2.4233676286706564e-07   6.900798532380531e-06
-5.177498847959043e-06   8.620882746845113e-07   8.071462286320238e-06
-5.177498847959043e-06   8.620882746845113e-07   8.071462286320238e-06
-5.177498847959043e-06   8.620882746845113e-07   8.071462286320238e-06
-5.177498847959043e-06   8.620882746845113e-07   8.071462286320238e-06
-4.6120018906133195e-06   7.55056216489758e-08   7.6009169492320336e-06
-4.6120018906133195e-06   7.55056216489758e-08   7.6009169492320336e-06
-4.6120018906133195e-06   7.55056216489758e-08   7.6009169492320336e-06
-4.6120018906133195e-06   7.55056216489758e-08   7.6009169492320336e-06
-4.822992545573971e-06   6.263787523004278e-07   7.622044162442279e-06
-4.822992545573971e-06   6.263787523004278e-07   7.622044162442279e-06
-4.822992545573971e-06   6.263787523004278e-07   7.622044162442279e-06
-4.822992545573971e-06   6.263787523004278e-07   7.622044162442279e-06
-4.6120018906133195e-06   8.62088274684457e-07   8.5434118781415e-06
-4.6120018906133195e-06   8.62088274684457e-07   8.5434118781415e-06
-4.6120018906133195e-06   8.62088274684457e-07   8.5434118781415e-06
-4.6120018906133195e-06   8.62088274684457e-07   8.5434118781415e-06
-5.177498847959043e-06   7.55056216489758e-08   7.128967357410772e-06
-5.177498847959043e-06   7.55056216489758e-08   7.128967357410772e-06
-5.177498847959043e-06   7.55056216489758e-08   7.128967357410772e-06
-5.177498847959043e-06   7.55056216489758e-08   7.128967357410772e-06
-5.214801567694484e-06   6.421240927853892e-07   8.424863041460223e-06
-5.214801567694484e-06   6.421240927853892e-07   8.424863041460223e-06
-5.214801567694484e-06   6.421240927853892e-07   8.424863041460223e-06
-5.214801567694484e-06   6.421240927853892e-07   8.424863041460223e-06
-4.6305920679483265e-06   -9.294538899927473e-08   7.892222230954001e-06
-4.6305920679483265e-06   -9.294538899927473e-08   7.892222230954001e-06
-4.6305920679483265e-06   -9.294538899927473e-08   7.892222230954001e-06
-4.6305920679483265e-06   -9.294538899927473e-08   7.892222230954001e-06
-4.852496494207496e-06   4.84134278315603e-07   7.915815140996653e-06
-4.852496494207496e-06   4.84134278315603e-07   7.915815140996653e-06
-4.852496494207496e-06   4.84134278315603e-07   7.915815140996653e-06
-4.852496494207496e-06   4.84134278315603e-07   7.915815140996653e-06
-5.103527694149724e-06   1.5711022808632112e-06   3.2099521182498043e-06
-5.103527694149724e-06   1.5711022808632112e-06   3.2099521182498043e-06
-5.103527694149724e-06   1.5711022808632112e-06   3.2099521182498043e-06
-5.103527694149724e-06   1.5711022808632112e-06   3.2099521182498043e-06
-5.119242439878492e-06   7.290827219833288e-07   2.678549140040559e-06
-5.119242439878492e-06   7.290827219833288e-07   2.678549140040559e-06
-5.119242439878492e-06   7.290827219833288e-07   2.678549140040559e-06
-5.119242439878492e-06   7.290827219833288e-07   2.678549140040559e-06
-5.3828749319410625e-06   1.4109044506097589e-06   3.5228805501342705e-06
-5.3828749319410625e-06   1.4109044506097589e-06   3.5228805501342705e-06
-5.3828749319410625e-06   1.4109044506097589e-06   3.5228805501342705e-06
-5.3828749319410625e-06   1.4109044506097589e-06   3.5228805501342705e-06
-5.11748480741501e-06   5.903618378514763e-07   3.572889243579026e-06
-5.11748480741501e-06   5.903618378514763e-07   3.572889243579026e-06
-5.11748480741501e-06   5.903618378514763e-07   3.572889243579026e-06
-5.11748480741501e-06   5.903618378514763e-07   3.572889243579026e-06
-5.011718162701857e-06   1.1087683080192464e-06   3.0855676202898432e-06
-5.011718162701857e-06   1.1087683080192464e-06   3.0855676202898432e-06
-5.011718162701857e-06   1.1087683080192464e-06   3.0855676202898432e-06
-5.011718162701857e-06   1.1087683080192464e-06   3.0855676202898432e-06
-5.11748480741501e-06   1.4109044506097589e-06   4.015206117789132e-06
-5.11748480741501e-06   1.4109044506097589e-06   4.015206117789132e-06
-5.11748480741501e-06   1.4109044506097589e-06   4.015206117789132e-06
-5.11748480741501e-06   1.4109044506097589e-06   4.015206117789132e-06
-5.3828749319410896e-06   5.903618378514763e-07   3.0805636759240836e-06
-5.3828749319410896e-06   5.903618378514763e-07   3.0805636759240836e-06
-5.3828749319410896e-06   5.903618378514763e-07   3.0805636759240836e-06
-5.3828749319410896e-06   5.903618378514763e-07   3.0805636759240836e-06
-5.613767253303414e-06   1.3002316902212393e-06   4.170681300048396e-06
-5.613767253303414e-06   1.3002316902212393e-06   4.170681300048396e-06
-5.613767253303414e-06   1.3002316902212393e-06   4.170681300048396e-06
-5.613767253303414e-06   1.3002316902212393e-06   4.170681300048396e-06
-5.1774988479590155e-06   4.999537491082238e-07   3.923734055808891e-06
-5.1774988479590155e-06   4.999537491082238e-07   3.923734055808891e-06
-5.1774988479590155e-06   4.999537491082238e-07   3.923734055808891e-06
-5.1774988479590155e-06   4.999537491082238e-07   3.923734055808891e-06
-5.201633290349936e-06   1.0295953333836578e-06   3.6461731758952737e-06
-5.201633290349936e-06   1.0295953333836578e-06   3.6461731758952737e-06
-5.201633290349936e-06   1.0295953333836578e-06   3.6461731758952737e-06
-5.201633290349936e-06   1.0295953333836578e-06   3.6461731758952737e-06
-5.1774988479590155e-06   1.3002316902211851e-06   4.650848064716195e-06
-5.1774988479590155e-06   1.3002316902211851e-06   4.650848064716195e-06
-5.1774988479590155e-06   1.3002316902211851e-06   4.650848064716195e-06
-5.1774988479590155e-06   1.3002316902211851e-06   4.650848064716195e-06
-5.613767253303441e-06   4.999537491082238e-07   3.4435672911410924e-06
-5.613767253303441e-06   4.999537491082238e-07   3.4435672911410924e-06
-5.613767253303441e-06   4.999537491082238e-07   3.4435672911410924e-06
-5.613767253303441e-06   4.999537491082238e-07   3.4435672911410924e-06
-5.952347783510256e-06   1.0428740760428626e-06   5.359694213948019e-06
-5.952347783510256e-06   1.0428740760428626e-06   5.359694213948019e-06
-5.952347783510256e-06   1.0428740760428626e-06   5.359694213948019e-06
-5.952347783510256e-06   1.0428740760428626e-06   5.359694213948019e-06
-5.214801567694457e-06   3.146611824998745e-07   4.5673782570473465e-06
-5.214801567694457e-06   3.146611824998745e-07   4.5673782570473465e-06
-5.214801567694457e-06   3.146611824998745e-07   4.5673782570473465e-06
-5.214801567694457e-06   3.146611824998745e-07   4.5673782570473465e-06
-5.266306141722975e-06   9.327658574589774e-07   4.282356408785525e-06
-5.266306141722975e-06   9.327658574589774e-07   4.282356408785525e-06
-5.266306141722975e-06   9.327658574589774e-07   4.282356408785525e-06
-5.266306141722975e-06   9.327658574589774e-07   4.282356408785525e-06
-9.626531848660313e-06   1.2763883069685355e-06   3.960933182925166e-06
-9.626531848660313e-06   1.2763883069685355e-06   3.960933182925166e-06
-9.626531848660313e-06   1.2763883069685355e-06   3.960933182925166e-06
-9.626531848660313e-06   1.2763883069685355e-06   3.960933182925166e-06
-6.562699535702657e-06   1.7595793628204627e-06   9.35723500469909e-06
-6.562699535702657e-06   1.7595793628204627e-06   9.35723500469909e-06
-6.562699535702657e-06   1.7595793628204627e-06   9.35723500469909e-06
-6.562699535702657e-06   1.7595793628204627e-06   9.35723500469909e-06
-6.563979563610254e-06   9.921411030586061e-07   4.439857465833271e-06
-6.563979563610254e-06   9.921411030586061e-07   4.439857465833271e-06
-6.563979563610254e-06   9.921411030586061e-07   4.439857465833271e-06
-6.563979563610254e-06   9.921411030586061e-07   4.439857465833271e-06
-1.0639178657981347e-05   6.813363294071845e-07   1.141833882064265e-05
-1.0639178657981347e-05   6.813363294071845e-07   1.141833882064265e-05
-1.0639178657981347e-05   6.813363294071845e-07   1.141833882064265e-05
-1.0639178657981347e-05   6.813363294071845e-07   1.141833882064265e-05
-7.91598365433503e-06   1.035390352436294e-06   6.667248067414662e-06
-7.91598365433503e-06   1.035390352436294e-06   6.667248067414662e-06
-7.91598365433503e-06   1.035390352436294e-06   6.667248067414662e-06
-7.91598365433503e-06   1.035390352436294e-06   6.667248067414662e-06
-1.0639178657981368e-05   9.921411030586061e-07   4.626340330024063e-06
-1.0639178657981368e-05   9.921411030586061e-07   4.626340330024063e-06
-1.0639178657981368e-05   9.921411030586061e-07   4.626340330024063e-06
-1.0639178657981368e-05   9.921411030586061e-07   4.626340330024063e-06
-6.563979563610244e-06   6.813363294071845e-07   1.1231855956451796e-05
-6.563979563610244e-06   6.813363294071845e-07   1.1231855956451796e-05
-6.563979563610244e-06   6.813363294071845e-07   1.1231855956451796e-05
-6.563979563610244e-06   6.813363294071845e-07   1.1231855956451796e-05
-6.664731480702652e-06   7.976399448091933e-07   4.938065137477944e-06
-6.664731480702652e-06   7.976399448091933e-07   4.938065137477944e-06
-6.664731480702652e-06   7.976399448091933e-07   4.938065137477944e-06
-6.664731480702652e-06   7.976399448091933e-07   4.938065137477944e-06
-1.0686788314601736e-05   4.777376978116121e-07   1.1833434542174996e-05
-1.0686788314601736e-05   4.777376978116121e-07   1.1833434542174996e-05
-1.0686788314601736e-05   4.777376978116121e-07   1.1833434542174996e-05
-1.0686788314601736e-05   4.777376978116121e-07   1.1833434542174996e-05
-8.4649742173724e-06   6.352699413408831e-07   8.035891700675138e-06
-8.4649742173724e-06   6.352699413408831e-07   8.035891700675138e-06
-8.4649742173724e-06   6.352699413408831e-07   8.035891700675138e-06
-8.4649742173724e-06   6.352699413408831e-07   8.035891700675138e-06
-1.0686788314601753e-05   7.976399448091933e-07   5.130006485676589e-06
-1.0686788314601753e-05   7.976399448091933e-07   5.130006485676589e-06
-1.0686788314601753e-05   7.976399448091933e-07   5.130006485676589e-06
-1.0686788314601753e-05   7.976399448091933e-07   5.130006485676589e-06
-6.664731480702645e-06   4.777376978116121e-07   1.1641493193976455e-05
-6.664731480702645e-06   4.777376978116121e-07   1.1641493193976455e-05
-6.664731480702645e-06   4.777376978116121e-07   1.1641493193976455e-05
-6.664731480702645e-06   4.777376978116121e-07   1.1641493193976455e-05
-6.604632008033784e-06   3.2035208871749894e-07   5.8073022366020316e-06
-6.604632008033784e-06   3.2035208871749894e-07   5.8073022366020316e-06
-6.604632008033784e-06   3.2035208871749894e-07   5.8073022366020316e-06
-6.604632008033784e-06   3.2035208871749894e-07   5.8073022366020316e-06
-1.081998156746487e-05   -3.9469489128001215e-07   1.326191302365235e-05
-1.081998156746487e-05   -3.9469489128001215e-07   1.326191302365235e-05
-1.081998156746487e-05   -3.9469489128001215e-07   1.326191302365235e-05
-1.081998156746487e-05   -3.9469489128001215e-07   1.326191302365235e-05
-8.347149978468905e-06   2.940753012877146e-07   8.727264926451748e-06
-8.347149978468905e-06   2.940753012877146e-07   8.727264926451748e-06
-8.347149978468905e-06   2.940753012877146e-07   8.727264926451748e-06
-8.347149978468905e-06   2.940753012877146e-07   8.727264926451748e-06
-6.562699535702667e-06   3.316721858494156e-07   8.914941902537441e-06
-6.562699535702667e-06   3.316721858494156e-07   8.914941902537441e-06
-6.562699535702667e-06   3.316721858494156e-07   8.914941902537441e-06
-6.562699535702667e-06   3.316721858494156e-07   8.914941902537441e-06
-4.057416693040626e-06   -2.0881874145579373e-06   1.1638497546729775e-05
-4.057416693040626e-06   -2.0881874145579373e-06   1.1638497546729775e-05
-4.057416693040626e-06   -2.0881874145579373e-06   1.1638497546729775e-05
-4.057416693040626e-06   -2.0881874145579373e-06   1.1638497546729775e-05
-4.07282981775799e-06   1.5511102412424848e-07   7.478001007240297e-06
-4.07282981775799e-06   1.5511102412424848e-07   7.478001007240297e-06
-4.07282981775799e-06   1.5511102412424848e-07   7.478001007240297e-06
-4.07282981775799e-06   1.5511102412424848e-07   7.478001007240297e-06
-6.563979563610244e-06   -1.7201570026703086e-06   1.2755078066404126e-05
-6.563979563610244e-06   -1.7201570026703086e-06   1.2755078066404126e-05
-6.563979563610244e-06   -1.7201570026703086e-06   1.2755078066404126e-05
-6.563979563610244e-06   -1.7201570026703086e-06   1.2755078066404126e-05
-5.288729543515287e-06   -1.034712288913687e-06   1.0218394537991872e-05
-5.288729543515287e-06   -1.034712288913687e-06   1.0218394537991872e-05
-5.288729543515287e-06   -1.034712288913687e-06   1.0218394537991872e-05
-5.288729543515287e-06   -1.034712288913687e-06   1.0218394537991872e-05
-6.563979563610247e-06   1.5511102412424848e-07   8.603161823316871e-06
-6.563979563610247e-06   1.5511102412424848e-07   8.603161823316871e-06
-6.563979563610247e-06   1.5511102412424848e-07   8.603161823316871e-06
-6.563979563610247e-06   1.5511102412424848e-07   8.603161823316871e-06
-4.072829817757976e-06   -1.7201570026703086e-06   1.1629917250327396e-05
-4.072829817757976e-06   -1.7201570026703086e-06   1.1629917250327396e-05
-4.072829817757976e-06   -1.7201570026703086e-06   1.1629917250327396e-05
-4.072829817757976e-06   -1.7201570026703086e-06   1.1629917250327396e-05
-4.099082726711863e-06   -4.606929390700348e-08   7.699186840711748e-06
-4.099082726711863e-06   -4.606929390700348e-08   7.699186840711748e-06
-4.099082726711863e-06   -4.606929390700348e-08   7.699186840711748e-06
-4.099082726711863e-06   -4.606929390700348e-08   7.699186840711748e-06
-6.664731480702645e-06   -1.7557130120764229e-06   1.300105432826474e-05
-6.664731480702645e-06   -1.7557130120764229e-06   1.300105432826474e-05
-6.664731480702645e-06   -1.7557130120764229e-06   1.300105432826474e-05
-6.664731480702645e-06   -1.7557130120764229e-06   1.300105432826474e-05
-5.257469220195895e-06   -9.045191897434065e-07   1.0144900934020336e-05
-5.257469220195895e-06   -9.045191897434065e-07   1.0144900934020336e-05
-5.257469220195895e-06   -9.045191897434065e-07   1.0144900934020336e-05
-5.257469220195895e-06   -9.045191897434065e-07   1.0144900934020336e-05
-6.664731480702652e-06   -4.606929390700348e-08   8.724973071613459e-06
-6.664731480702652e-06   -4.606929390700348e-08   8.724973071613459e-06
-6.664731480702652e-06   -4.606929390700348e-08   8.724973071613459e-06
-6.664731480702652e-06   -4.606929390700348e-08   8.724973071613459e-06
-4.099082726711843e-06   -1.7557130120764229e-06   1.1975268097363103e-05
-4.099082726711843e-06   -1.7557130120764229e-06   1.1975268097363103e-05
-4.099082726711843e-06   -1.7557130120764229e-06   1.1975268097363103e-05
-4.099082726711843e-06   -1.7557130120764229e-06   1.1975268097363103e-05
-4.071373464271575e-06   -3.082498718506117e-07   7.977508318974933e-06
-4.071373464271575e-06   -3.082498718506117e-07   7.977508318974933e-06
-4.071373464271575e-06   -3.082498718506117e-07   7.977508318974933e-06
-4.071373464271575e-06   -3.082498718506117e-07   7.977508318974933e-06
-6.604632008033767e-06   -1.7619955003901015e-06   1.3071853269035585e-05
-6.604632008033767e-06   -1.7619955003901015e-06   1.3071853269035585e-05
-6.604632008033767e-06   -1.7619955003901015e-06   1.3071853269035585e-05
-6.604632008033767e-06   -1.7619955003901015e-06   1.3071853269035585e-05
-5.2928286320299046e-06   -1.0090019891253798e-06   1.043371820227033e-05
-5.2928286320299046e-06   -1.0090019891253798e-06   1.043371820227033e-05
-5.2928286320299046e-06   -1.0090019891253798e-06   1.043371820227033e-05
-5.2928286320299046e-06   -1.0090019891253798e-06   1.043371820227033e-05
-4.057416693040626e-06   9.412003199000618e-08   8.265782672942247e-06
-4.057416693040626e-06   9.412003199000618e-08   8.265782672942247e-06
-4.057416693040626e-06   9.412003199000618e-08   8.265782672942247e-06
-4.057416693040626e-06   9.412003199000618e-08   8.265782672942247e-06
-3.0223496867063347e-06   -1.6324130826172935e-06   8.954974481401669e-06
-3.0223496867063347e-06   -1.6324130826172935e-06   8.954974481401669e-06
-3.0223496867063347e-06   -1.6324130826172935e-06   8.954974481401669e-06
-3.0223496867063347e-06   -1.6324130826172935e-06   8.954974481401669e-06
-3.0036233826796353e-06   -5.282114601853731e-08   7.293569177196869e-06
-3.0036233826796353e-06   -5.282114601853731e-08   7.293569177196869e-06
-3.0036233826796353e-06   -5.282114601853731e-08   7.293569177196869e-06
-3.0036233826796353e-06   -5.282114601853731e-08   7.293569177196869e-06
-4.072829817757976e-06   -1.6032679439358696e-06   1.0005847981077768e-05
-4.072829817757976e-06   -1.6032679439358696e-06   1.0005847981077768e-05
-4.072829817757976e-06   -1.6032679439358696e-06   1.0005847981077768e-05
-4.072829817757976e-06   -1.6032679439358696e-06   1.0005847981077768e-05
-3.518560989227771e-06   -8.227480496697743e-07   8.613754663634473e-06
-3.518560989227771e-06   -8.227480496697743e-07   8.613754663634473e-06
-3.518560989227771e-06   -8.227480496697743e-07   8.613754663634473e-06
-3.518560989227771e-06   -8.227480496697743e-07   8.613754663634473e-06
-4.072829817757976e-06   -5.282114601859152e-08   8.223837255947155e-06
-4.072829817757976e-06   -5.282114601859152e-08   8.223837255947155e-06
-4.072829817757976e-06   -5.282114601859152e-08   8.223837255947155e-06
-4.072829817757976e-06   -5.282114601859152e-08   8.223837255947155e-06
-3.0036233826796353e-06   -1.6032679439358696e-06   9.075579902327445e-06
-3.0036233826796353e-06   -1.6032679439358696e-06   9.075579902327445e-06
-3.0036233826796353e-06   -1.6032679439358696e-06   9.075579902327445e-06
-3.0036233826796353e-06   -1.6032679439358696e-06   9.075579902327445e-06
-2.9903499843764647e-06   -2.2861237764605418e-07   7.464368273656845e-06
-2.9903499843764647e-06   -2.2861237764605418e-07   7.464368273656845e-06
-2.9903499843764647e-06   -2.2861237764605418e-07   7.464368273656845e-06
-2.9903499843764647e-06   -2.2861237764605418e-07   7.464368273656845e-06
-4.099082726711843e-06   -1.650227974552606e-06   1.0165225535693062e-05
-4.099082726711843e-06   -1.650227974552606e-06   1.0165225535693062e-05
-4.099082726711843e-06   -1.650227974552606e-06   1.0165225535693062e-05
-4.099082726711843e-06   -1.650227974552606e-06   1.0165225535693062e-05
-3.495833613387513e-06   -8.729306017403492e-07   8.693431923131636e-06
-3.495833613387513e-06   -8.729306017403492e-07   8.693431923131636e-06
-3.495833613387513e-06   -8.729306017403492e-07   8.693431923131636e-06
-3.495833613387513e-06   -8.729306017403492e-07   8.693431923131636e-06
-4.099082726711843e-06   -2.2861237764605418e-07   8.317337631800808e-06
-4.099082726711843e-06   -2.2861237764605418e-07   8.317337631800808e-06
-4.099082726711843e-06   -2.2861237764605418e-07   8.317337631800808e-06
-4.099082726711843e-06   -2.2861237764605418e-07   8.317337631800808e-06
-2.9903499843764647e-06   -1.650227974552606e-06   9.312256177549114e-06
-2.9903499843764647e-06   -1.650227974552606e-06   9.312256177549114e-06
-2.9903499843764647e-06   -1.650227974552606e-06   9.312256177549114e-06
-2.9903499843764647e-06   -1.650227974552606e-06   9.312256177549114e-06
-2.9433377850501363e-06   -4.037533818161904e-07   7.730133538078174e-06
-2.9433377850501363e-06   -4.037533818161904e-07   7.730133538078174e-06
-2.9433377850501363e-06   -4.037533818161904e-07   7.730133538078174e-06
-2.9433377850501363e-06   -4.037533818161904e-07   7.730133538078174e-06
-4.071373464271561e-06   -1.7134929733853411e-06   1.039603675838865e-05
-4.071373464271561e-06   -1.7134929733853411e-06   1.039603675838865e-05
-4.071373464271561e-06   -1.7134929733853411e-06   1.039603675838865e-05
-4.071373464271561e-06   -1.7134929733853411e-06   1.039603675838865e-05
-3.4698909605370814e-06   -9.480732226775873e-07   8.934314068406522e-06
-3.4698909605370814e-06   -9.480732226775873e-07   8.934314068406522e-06
-3.4698909605370814e-06   -9.480732226775873e-07   8.934314068406522e-06
-3.4698909605370814e-06   -9.480732226775873e-07   8.934314068406522e-06
-3.0223496867063347e-06   4.366797366557769e-07   5.666050022497086e-06
-3.0223496867063347e-06   4.366797366557769e-07   5.666050022497086e-06
-3.0223496867063347e-06   4.366797366557769e-07   5.666050022497086e-06
-3.0223496867063347e-06   4.366797366557769e-07   5.666050022497086e-06
-2.5637632341671875e-06   -6.736009872209791e-07   5.7641923424029854e-06
-2.5637632341671875e-06   -6.736009872209791e-07   5.7641923424029854e-06
-2.5637632341671875e-06   -6.736009872209791e-07   5.7641923424029854e-06
-2.5637632341671875e-06   -6.736009872209791e-07   5.7641923424029854e-06
-2.5182254789634273e-06   2.4233676286701143e-07   5.117281660989574e-06
-2.5182254789634273e-06   2.4233676286701143e-07   5.117281660989574e-06
-2.5182254789634273e-06   2.4233676286701143e-07   5.117281660989574e-06
-2.5182254789634273e-06   2.4233676286701143e-07   5.117281660989574e-06
-3.0036233826796353e-06   -7.849883522976391e-07   6.54267323628205e-06
-3.0036233826796353e-06   -7.849883522976391e-07   6.54267323628205e-06
-3.0036233826796353e-06   -7.849883522976391e-07   6.54267323628205e-06
-3.0036233826796353e-06   -7.849883522976391e-07   6.54267323628205e-06
-2.7571524338308446e-06   -1.542852431727764e-07   5.753466456059119e-06
-2.7571524338308446e-06   -1.542852431727764e-07   5.753466456059119e-06
-2.7571524338308446e-06   -1.542852431727764e-07   5.753466456059119e-06
-2.7571524338308446e-06   -1.542852431727764e-07   5.753466456059119e-06
-3.0036233826796353e-06   2.4233676286706564e-07   5.733676730088262e-06
-3.0036233826796353e-06   2.4233676286706564e-07   5.733676730088262e-06
-3.0036233826796353e-06   2.4233676286706564e-07   5.733676730088262e-06
-3.0036233826796353e-06   2.4233676286706564e-07   5.733676730088262e-06
-2.5182254789634002e-06   -7.849883522976662e-07   5.926278167183241e-06
-2.5182254789634002e-06   -7.849883522976662e-07   5.926278167183241e-06
-2.5182254789634002e-06   -7.849883522976662e-07   5.926278167183241e-06
-2.5182254789634002e-06   -7.849883522976662e-07   5.926278167183241e-06
-2.503244489409322e-06   7.55056216489758e-08   5.356583083653281e-06
-2.503244489409322e-06   7.55056216489758e-08   5.356583083653281e-06
-2.503244489409322e-06   7.55056216489758e-08   5.356583083653281e-06
-2.503244489409322e-06   7.55056216489758e-08   5.356583083653281e-06
-2.9903499843764647e-06   -8.709518151785503e-07   6.736300037361707e-06
-2.9903499843764647e-06   -8.709518151785503e-07   6.736300037361707e-06
-2.9903499843764647e-06   -8.709518151785503e-07   6.736300037361707e-06
-2.9903499843764647e-06   -8.709518151785503e-07   6.736300037361707e-06
-2.7116831326042716e-06   -2.712979671051297e-07   5.912062975563912e-06
-2.7116831326042716e-06   -2.712979671051297e-07   5.912062975563912e-06
-2.7116831326042716e-06   -2.712979671051297e-07   5.912062975563912e-06
-2.7116831326042716e-06   -2.712979671051297e-07   5.912062975563912e-06
-2.9903499843764782e-06   7.55056216489758e-08   5.9244575457498565e-06
-2.9903499843764782e-06   7.55056216489758e-08   5.9244575457498565e-06
-2.9903499843764782e-06   7.55056216489758e-08   5.9244575457498565e-06
-2.9903499843764782e-06   7.55056216489758e-08   5.9244575457498565e-06
-2.503244489409322e-06   -8.709518151785774e-07   6.168425575265213e-06
-2.503244489409322e-06   -8.709518151785774e-07   6.168425575265213e-06
-2.503244489409322e-06   -8.709518151785774e-07   6.168425575265213e-06
-2.503244489409322e-06   -8.709518151785774e-07   6.168425575265213e-06
-2.4724498722921687e-06   -9.294538899932894e-08   5.657069964604589e-06
-2.4724498722921687e-06   -9.294538899932894e-08   5.657069964604589e-06
-2.4724498722921687e-06   -9.294538899932894e-08   5.657069964604589e-06
-2.4724498722921687e-06   -9.294538899932894e-08   5.657069964604589e-06
-2.9433377850501363e-06   -9.828094005117955e-07   6.975801559441997e-06
-2.9433377850501363e-06   -9.828094005117955e-07   6.975801559441997e-06
-2.9433377850501363e-06   -9.828094005117955e-07   6.975801559441997e-06
-2.9433377850501363e-06   -9.828094005117955e-07   6.975801559441997e-06
-2.6798509645881076e-06   -3.747344339245719e-07   6.171811878719627e-06
-2.6798509645881076e-06   -3.747344339245719e-07   6.171811878719627e-06
-2.6798509645881076e-06   -3.747344339245719e-07   6.171811878719627e-06
-2.6798509645881076e-06   -3.747344339245719e-07   6.171811878719627e-06
-2.5637632341671604e-06   7.290827219833288e-07   1.3602712595667298e-06
-2.5637632341671604e-06   7.290827219833288e-07   1.3602712595667298e-06
-2.5637632341671604e-06   7.290827219833288e-07   1.3602712595667298e-06
-2.5637632341671604e-06   7.290827219833288e-07   1.3602712595667298e-06
-1.5506544680900843e-06   -6.928266972950378e-08   2.5697666346674868e-06
-1.5506544680900843e-06   -6.928266972950378e-08   2.5697666346674868e-06
-1.5506544680900843e-06   -6.928266972950378e-08   2.5697666346674868e-06
-1.5506544680900843e-06   -6.928266972950378e-08   2.5697666346674868e-06
-1.6462121706898756e-06   5.903618378514763e-07   1.375665880427369e-06
-1.6462121706898756e-06   5.903618378514763e-07   1.375665880427369e-06
-1.6462121706898756e-06   5.903618378514763e-07   1.375665880427369e-06
-1.6462121706898756e-06   5.903618378514763e-07   1.375665880427369e-06
-2.5182254789634273e-06   -9.914898174963956e-08   3.242727885977302e-06
-2.5182254789634273e-06   -9.914898174963956e-08   3.242727885977302e-06
-2.5182254789634273e-06   -9.914898174963956e-08   3.242727885977302e-06
-2.5182254789634273e-06   -9.914898174963956e-08   3.242727885977302e-06
-1.998342241483651e-06   3.763137391210521e-07   2.0909781909885525e-06
-1.998342241483651e-06   3.763137391210521e-07   2.0909781909885525e-06
-1.998342241483651e-06   3.763137391210521e-07   2.0909781909885525e-06
-1.998342241483651e-06   3.763137391210521e-07   2.0909781909885525e-06
-2.5182254789634273e-06   5.903618378514763e-07   1.7893723721878595e-06
-2.5182254789634273e-06   5.903618378514763e-07   1.7893723721878595e-06
-2.5182254789634273e-06   5.903618378514763e-07   1.7893723721878595e-06
-2.5182254789634273e-06   5.903618378514763e-07   1.7893723721878595e-06
-1.6462121706898756e-06   -9.914898174963956e-08   2.8290213942165946e-06
-1.6462121706898756e-06   -9.914898174963956e-08   2.8290213942165946e-06
-1.6462121706898756e-06   -9.914898174963956e-08   2.8290213942165946e-06
-1.6462121706898756e-06   -9.914898174963956e-08   2.8290213942165946e-06
-1.725875605906467e-06   4.999537491082238e-07   1.768138036578723e-06
-1.725875605906467e-06   4.999537491082238e-07   1.768138036578723e-06
-1.725875605906467e-06   4.999537491082238e-07   1.768138036578723e-06
-1.725875605906467e-06   4.999537491082238e-07   1.768138036578723e-06
-2.5032444894092947e-06   -1.3873249334622902e-07   3.4469645878894826e-06
-2.5032444894092947e-06   -1.3873249334622902e-07   3.4469645878894826e-06
-2.5032444894092947e-06   -1.3873249334622902e-07   3.4469645878894826e-06
-2.5032444894092947e-06   -1.3873249334622902e-07   3.4469645878894826e-06
-2.0434969428347765e-06   3.0925807047183917e-07   2.4119243386410842e-06
-2.0434969428347765e-06   3.0925807047183917e-07   2.4119243386410842e-06
-2.0434969428347765e-06   3.0925807047183917e-07   2.4119243386410842e-06
-2.0434969428347765e-06   3.0925807047183917e-07   2.4119243386410842e-06
-2.5032444894092947e-06   4.999537491081696e-07   2.1513497820514543e-06
-2.5032444894092947e-06   4.999537491081696e-07   2.1513497820514543e-06
-2.5032444894092947e-06   4.999537491081696e-07   2.1513497820514543e-06
-2.5032444894092947e-06   4.999537491081696e-07   2.1513497820514543e-06
-1.7258756059064398e-06   -1.3873249334622902e-07   3.0637528424167784e-06
-1.7258756059064398e-06   -1.3873249334622902e-07   3.0637528424167784e-06
-1.7258756059064398e-06   -1.3873249334622902e-07   3.0637528424167784e-06
-1.7258756059064398e-06   -1.3873249334622902e-07   3.0637528424167784e-06
-1.9055735686846972e-06   3.1466118249992873e-07   2.470685590209192e-06
-1.9055735686846972e-06   3.1466118249992873e-07   2.470685590209192e-06
-1.9055735686846972e-06   3.1466118249992873e-07   2.470685590209192e-06
-1.9055735686846972e-06   3.1466118249992873e-07   2.470685590209192e-06
-2.4724498722921416e-06   -1.8964230009944037e-07   3.7180615191144493e-06
-2.4724498722921416e-06   -1.8964230009944037e-07   3.7180615191144493e-06
-2.4724498722921416e-06   -1.8964230009944037e-07   3.7180615191144493e-06
-2.4724498722921416e-06   -1.8964230009944037e-07   3.7180615191144493e-06
-2.056430760271049e-06   2.6236989266873237e-07   2.753489016751564e-06
-2.056430760271049e-06   2.6236989266873237e-07   2.753489016751564e-06
-2.056430760271049e-06   2.6236989266873237e-07   2.753489016751564e-06
-2.056430760271049e-06   2.6236989266873237e-07   2.753489016751564e-06
-2.2904072262799307e-05   1.7595793628204627e-06   1.0227972362695003e-05
-2.2904072262799307e-05   1.7595793628204627e-06   1.0227972362695003e-05
-2.2904072262799307e-05   1.7595793628204627e-06   1.0227972362695003e-05
-2.2904072262799307e-05   1.7595793628204627e-06   1.0227972362695003e-05
-5.336934138920914e-06   -1.169836765393253e-05   3.143176769244054e-05
-5.336934138920914e-06   -1.169836765393253e-05   3.143176769244054e-05
-5.336934138920914e-06   -1.169836765393253e-05   3.143176769244054e-05
-5.336934138920914e-06   -1.169836765393253e-05   3.143176769244054e-05
-6.296742361732686e-06   6.813363294072116e-07   5.572936684421352e-06
-6.296742361732686e-06   6.813363294072116e-07   5.572936684421352e-06
-6.296742361732686e-06   6.813363294072116e-07   5.572936684421352e-06
-6.296742361732686e-06   6.813363294072116e-07   5.572936684421352e-06
-2.0889509875202595e-05   -9.16900870712808e-06   3.5804422895459e-05
-2.0889509875202595e-05   -9.16900870712808e-06   3.5804422895459e-05
-2.0889509875202595e-05   -9.16900870712808e-06   3.5804422895459e-05
-2.0889509875202595e-05   -9.16900870712808e-06   3.5804422895459e-05
-1.391545186975899e-05   -4.561392559411422e-06   2.1416423197756318e-05
-1.391545186975899e-05   -4.561392559411422e-06   2.1416423197756318e-05
-1.391545186975899e-05   -4.561392559411422e-06   2.1416423197756318e-05
-1.391545186975899e-05   -4.561392559411422e-06   2.1416423197756318e-05
-2.0889509875202558e-05   6.813363294072116e-07   1.1483143706342512e-05
-2.0889509875202558e-05   6.813363294072116e-07   1.1483143706342512e-05
-2.0889509875202558e-05   6.813363294072116e-07   1.1483143706342512e-05
-2.0889509875202558e-05   6.813363294072116e-07   1.1483143706342512e-05
-6.296742361732696e-06   -9.16900870712808e-06   2.989421587353783e-05
-6.296742361732696e-06   -9.16900870712808e-06   2.989421587353783e-05
-6.296742361732696e-06   -9.16900870712808e-06   2.989421587353783e-05
-6.296742361732696e-06   -9.16900870712808e-06   2.989421587353783e-05
-6.455391435632529e-06   4.777376978116121e-07   6.126929123997272e-06
-6.455391435632529e-06   4.777376978116121e-07   6.126929123997272e-06
-6.455391435632529e-06   4.777376978116121e-07   6.126929123997272e-06
-6.455391435632529e-06   4.777376978116121e-07   6.126929123997272e-06
-1.9713417059535594e-05   -7.960423215140826e-06   3.328653504494046e-05
-1.9713417059535594e-05   -7.960423215140826e-06   3.328653504494046e-05
-1.9713417059535594e-05   -7.960423215140826e-06   3.328653504494046e-05
-1.9713417059535594e-05   -7.960423215140826e-06   3.328653504494046e-05
-1.351204093368394e-05   -4.329557698716085e-06   2.0772388858666208e-05
-1.351204093368394e-05   -4.329557698716085e-06   2.0772388858666208e-05
-1.351204093368394e-05   -4.329557698716085e-06   2.0772388858666208e-05
-1.351204093368394e-05   -4.329557698716085e-06   2.0772388858666208e-05
-1.971341705953556e-05   4.777376978116121e-07   1.1189825671768713e-05
-1.971341705953556e-05   4.777376978116121e-07   1.1189825671768713e-05
-1.971341705953556e-05   4.777376978116121e-07   1.1189825671768713e-05
-1.971341705953556e-05   4.777376978116121e-07   1.1189825671768713e-05
-6.455391435632539e-06   -7.960423215140826e-06   2.8223638497168996e-05
-6.455391435632539e-06   -7.960423215140826e-06   2.8223638497168996e-05
-6.455391435632539e-06   -7.960423215140826e-06   2.8223638497168996e-05
-6.455391435632539e-06   -7.960423215140826e-06   2.8223638497168996e-05
-7.104358294116756e-06   -3.9469489128001215e-07   7.657139008632863e-06
-7.104358294116756e-06   -3.9469489128001215e-07   7.657139008632863e-06
-7.104358294116756e-06   -3.9469489128001215e-07   7.657139008632863e-06
-7.104358294116756e-06   -3.9469489128001215e-07   7.657139008632863e-06
-1.820041115727701e-05   -6.348888398120175e-06   2.9723076551337324e-05
-1.820041115727701e-05   -6.348888398120175e-06   2.9723076551337324e-05
-1.820041115727701e-05   -6.348888398120175e-06   2.9723076551337324e-05
-1.820041115727701e-05   -6.348888398120175e-06   2.9723076551337324e-05
-1.3013681131211287e-05   -4.0001801093887364e-06   1.9669301534655613e-05
-1.3013681131211287e-05   -4.0001801093887364e-06   1.9669301534655613e-05
-1.3013681131211287e-05   -4.0001801093887364e-06   1.9669301534655613e-05
-1.3013681131211287e-05   -4.0001801093887364e-06   1.9669301534655613e-05
-5.336934138920904e-06   -2.0881874145579373e-06   5.886382454918271e-06
-5.336934138920904e-06   -2.0881874145579373e-06   5.886382454918271e-06
-5.336934138920904e-06   -2.0881874145579373e-06   5.886382454918271e-06
-5.336934138920904e-06   -2.0881874145579373e-06   5.886382454918271e-06
-1.8451589079048538e-06   -3.766311484489522e-06   1.0699133397986092e-05
-1.8451589079048538e-06   -3.766311484489522e-06   1.0699133397986092e-05
-1.8451589079048538e-06   -3.766311484489522e-06   1.0699133397986092e-05
-1.8451589079048538e-06   -3.766311484489522e-06   1.0699133397986092e-05
-2.0803649373052086e-06   -1.7201570026703086e-06   5.1672273879102315e-06
-2.0803649373052086e-06   -1.7201570026703086e-06   5.1672273879102315e-06
-2.0803649373052086e-06   -1.7201570026703086e-06   5.1672273879102315e-06
-2.0803649373052086e-06   -1.7201570026703086e-06   5.1672273879102315e-06
-6.296742361732696e-06   -4.935042680109388e-06   1.4123454501752776e-05
-6.296742361732696e-06   -4.935042680109388e-06   1.4123454501752776e-05
-6.296742361732696e-06   -4.935042680109388e-06   1.4123454501752776e-05
-6.296742361732696e-06   -4.935042680109388e-06   1.4123454501752776e-05
-3.6866809533028986e-06   -2.5644919444824354e-06   8.351021712993572e-06
-3.6866809533028986e-06   -2.5644919444824354e-06   8.351021712993572e-06
-3.6866809533028986e-06   -2.5644919444824354e-06   8.351021712993572e-06
-3.6866809533028986e-06   -2.5644919444824354e-06   8.351021712993572e-06
-6.296742361732679e-06   -1.7201570026703086e-06   7.0961587943736205e-06
-6.296742361732679e-06   -1.7201570026703086e-06   7.0961587943736205e-06
-6.296742361732679e-06   -1.7201570026703086e-06   7.0961587943736205e-06
-6.296742361732679e-06   -1.7201570026703086e-06   7.0961587943736205e-06
-2.080364937305222e-06   -4.935042680109388e-06   1.2194523095289336e-05
-2.080364937305222e-06   -4.935042680109388e-06   1.2194523095289336e-05
-2.080364937305222e-06   -4.935042680109388e-06   1.2194523095289336e-05
-2.080364937305222e-06   -4.935042680109388e-06   1.2194523095289336e-05
-2.283347177005872e-06   -1.7557130120764229e-06   5.812408033187009e-06
-2.283347177005872e-06   -1.7557130120764229e-06   5.812408033187009e-06
-2.283347177005872e-06   -1.7557130120764229e-06   5.812408033187009e-06
-2.283347177005872e-06   -1.7557130120764229e-06   5.812408033187009e-06
-6.455391435632539e-06   -4.545850053907374e-06   1.4439897355996613e-05
-6.455391435632539e-06   -4.545850053907374e-06   1.4439897355996613e-05
-6.455391435632539e-06   -4.545850053907374e-06   1.4439897355996613e-05
-6.455391435632539e-06   -4.545850053907374e-06   1.4439897355996613e-05
-4.178733340334855e-06   -3.116925722346708e-06   9.788112598230814e-06
-4.178733340334855e-06   -3.116925722346708e-06   9.788112598230814e-06
-4.178733340334855e-06   -3.116925722346708e-06   9.788112598230814e-06
-4.178733340334855e-06   -3.116925722346708e-06   9.788112598230814e-06
-6.455391435632529e-06   -1.7557130120764229e-06   7.486490258285536e-06
-6.455391435632529e-06   -1.7557130120764229e-06   7.486490258285536e-06
-6.455391435632529e-06   -1.7557130120764229e-06   7.486490258285536e-06
-6.455391435632529e-06   -1.7557130120764229e-06   7.486490258285536e-06
-2.283347177005872e-06   -4.545850053907374e-06   1.2765815130898053e-05
-2.283347177005872e-06   -4.545850053907374e-06   1.2765815130898053e-05
-2.283347177005872e-06   -4.545850053907374e-06   1.2765815130898053e-05
-2.283347177005872e-06   -4.545850053907374e-06   1.2765815130898053e-05
-2.6167331771584606e-06   -1.7619955003901015e-06   6.375143577011912e-06
-2.6167331771584606e-06   -1.7619955003901015e-06   6.375143577011912e-06
-2.6167331771584606e-06   -1.7619955003901015e-06   6.375143577011912e-06
-2.6167331771584606e-06   -1.7619955003901015e-06   6.375143577011912e-06
-7.104358294116749e-06   -4.2969352753946086e-06   1.5375482636945052e-05
-7.104358294116749e-06   -4.2969352753946086e-06   1.5375482636945052e-05
-7.104358294116749e-06   -4.2969352753946086e-06   1.5375482636945052e-05
-7.104358294116749e-06   -4.2969352753946086e-06   1.5375482636945052e-05
-4.477033571052579e-06   -2.8489451999138182e-06   1.0127814053216313e-05
-4.477033571052579e-06   -2.8489451999138182e-06   1.0127814053216313e-05
-4.477033571052579e-06   -2.8489451999138182e-06   1.0127814053216313e-05
-4.477033571052579e-06   -2.8489451999138182e-06   1.0127814053216313e-05
-1.8451589079048538e-06   -1.6324130826172935e-06   3.23190481639566e-06
-1.8451589079048538e-06   -1.6324130826172935e-06   3.23190481639566e-06
-1.8451589079048538e-06   -1.6324130826172935e-06   3.23190481639566e-06
-1.8451589079048538e-06   -1.6324130826172935e-06   3.23190481639566e-06
-1.038070147395216e-06   -1.1313193729026898e-06   4.877708976407178e-06
-1.038070147395216e-06   -1.1313193729026898e-06   4.877708976407178e-06
-1.038070147395216e-06   -1.1313193729026898e-06   4.877708976407178e-06
-1.038070147395216e-06   -1.1313193729026898e-06   4.877708976407178e-06
-1.0077416181913088e-06   -1.6032679439358696e-06   3.6321910803111283e-06
-1.0077416181913088e-06   -1.6032679439358696e-06   3.6321910803111283e-06
-1.0077416181913088e-06   -1.6032679439358696e-06   3.6321910803111283e-06
-1.0077416181913088e-06   -1.6032679439358696e-06   3.6321910803111283e-06
-2.080364937305222e-06   -1.4548796745184426e-06   5.330863650517128e-06
-2.080364937305222e-06   -1.4548796745184426e-06   5.330863650517128e-06
-2.080364937305222e-06   -1.4548796745184426e-06   5.330863650517128e-06
-2.080364937305222e-06   -1.4548796745184426e-06   5.330863650517128e-06
-1.3974215000436764e-06   -1.364904079470395e-06   4.138639231385692e-06
-1.3974215000436764e-06   -1.364904079470395e-06   4.138639231385692e-06
-1.3974215000436764e-06   -1.364904079470395e-06   4.138639231385692e-06
-1.3974215000436764e-06   -1.364904079470395e-06   4.138639231385692e-06
-2.080364937305222e-06   -1.6032679439358696e-06   3.5431581186606647e-06
-2.080364937305222e-06   -1.6032679439358696e-06   3.5431581186606647e-06
-2.080364937305222e-06   -1.6032679439358696e-06   3.5431581186606647e-06
-2.080364937305222e-06   -1.6032679439358696e-06   3.5431581186606647e-06
-1.0077416181912953e-06   -1.4548796745184426e-06   5.419896612167578e-06
-1.0077416181912953e-06   -1.4548796745184426e-06   5.419896612167578e-06
-1.0077416181912953e-06   -1.4548796745184426e-06   5.419896612167578e-06
-1.0077416181912953e-06   -1.4548796745184426e-06   5.419896612167578e-06
-1.0197757386967742e-06   -1.650227974552606e-06   3.89026069488421e-06
-1.0197757386967742e-06   -1.650227974552606e-06   3.89026069488421e-06
-1.0197757386967742e-06   -1.650227974552606e-06   3.89026069488421e-06
-1.0197757386967742e-06   -1.650227974552606e-06   3.89026069488421e-06
-2.283347177005872e-06   -1.8370692689404705e-06   6.108317868698732e-06
-2.283347177005872e-06   -1.8370692689404705e-06   6.108317868698732e-06
-2.283347177005872e-06   -1.8370692689404705e-06   6.108317868698732e-06
-2.283347177005872e-06   -1.8370692689404705e-06   6.108317868698732e-06
-1.4945508966927347e-06   -1.4917164826919725e-06   4.5864457297610905e-06
-1.4945508966927347e-06   -1.4917164826919725e-06   4.5864457297610905e-06
-1.4945508966927347e-06   -1.4917164826919725e-06   4.5864457297610905e-06
-1.4945508966927347e-06   -1.4917164826919725e-06   4.5864457297610905e-06
-2.283347177005872e-06   -1.650227974552606e-06   4.002365471516948e-06
-2.283347177005872e-06   -1.650227974552606e-06   4.002365471516948e-06
-2.283347177005872e-06   -1.650227974552606e-06   4.002365471516948e-06
-2.283347177005872e-06   -1.650227974552606e-06   4.002365471516948e-06
-1.0197757386967742e-06   -1.8370692689404705e-06   5.996213092066021e-06
-1.0197757386967742e-06   -1.8370692689404705e-06   5.996213092066021e-06
-1.0197757386967742e-06   -1.8370692689404705e-06   5.996213092066021e-06
-1.0197757386967742e-06   -1.8370692689404705e-06   5.996213092066021e-06
-1.0539376148297218e-06   -1.7134929733853411e-06   4.280430885572969e-06
-1.0539376148297218e-06   -1.7134929733853411e-06   4.280430885572969e-06
-1.0539376148297218e-06   -1.7134929733853411e-06   4.280430885572969e-06
-1.0539376148297218e-06   -1.7134929733853411e-06   4.280430885572969e-06
-2.6167331771584606e-06   -2.1987322365781985e-06   7.176233714036514e-06
-2.6167331771584606e-06   -2.1987322365781985e-06   7.176233714036514e-06
-2.6167331771584606e-06   -2.1987322365781985e-06   7.176233714036514e-06
-2.6167331771584606e-06   -2.1987322365781985e-06   7.176233714036514e-06
-1.607671632130838e-06   -1.619502528330498e-06   5.146926647375221e-06
-1.607671632130838e-06   -1.619502528330498e-06   5.146926647375221e-06
-1.607671632130838e-06   -1.619502528330498e-06   5.146926647375221e-06
-1.607671632130838e-06   -1.619502528330498e-06   5.146926647375221e-06
-1.038070147395216e-06   -6.736009872209791e-07   1.0079473375518007e-06
-1.038070147395216e-06   -6.736009872209791e-07   1.0079473375518007e-06
-1.038070147395216e-06   -6.736009872209791e-07   1.0079473375518007e-06
-1.038070147395216e-06   -6.736009872209791e-07   1.0079473375518007e-06
-7.904872826175469e-07   1.0437353025625004e-07   1.8873701560009068e-06
-7.904872826175469e-07   1.0437353025625004e-07   1.8873701560009068e-06
-7.904872826175469e-07   1.0437353025625004e-07   1.8873701560009068e-06
-7.904872826175469e-07   1.0437353025625004e-07   1.8873701560009068e-06
-6.482811593933589e-07   -7.849883522976662e-07   1.559089507744576e-06
-6.482811593933589e-07   -7.849883522976662e-07   1.559089507744576e-06
-6.482811593933589e-07   -7.849883522976662e-07   1.559089507744576e-06
-6.482811593933589e-07   -7.849883522976662e-07   1.559089507744576e-06
-1.0077416181913088e-06   -1.86465298329212e-08   1.6983851789289232e-06
-1.0077416181913088e-06   -1.86465298329212e-08   1.6983851789289232e-06
-1.0077416181913088e-06   -1.86465298329212e-08   1.6983851789289232e-06
-1.0077416181913088e-06   -1.86465298329212e-08   1.6983851789289232e-06
-8.16634778801707e-07   -3.437341795780604e-07   1.5749263697932347e-06
-8.16634778801707e-07   -3.437341795780604e-07   1.5749263697932347e-06
-8.16634778801707e-07   -3.437341795780604e-07   1.5749263697932347e-06
-8.16634778801707e-07   -3.437341795780604e-07   1.5749263697932347e-06
-1.0077416181913088e-06   -7.849883522976391e-07   1.09928441426575e-06
-1.0077416181913088e-06   -7.849883522976391e-07   1.09928441426575e-06
-1.0077416181913088e-06   -7.849883522976391e-07   1.09928441426575e-06
-1.0077416181913088e-06   -7.849883522976391e-07   1.09928441426575e-06
-6.482811593933589e-07   -1.86465298329212e-08   2.1581902724077627e-06
-6.482811593933589e-07   -1.86465298329212e-08   2.1581902724077627e-06
-6.482811593933589e-07   -1.86465298329212e-08   2.1581902724077627e-06
-6.482811593933589e-07   -1.86465298329212e-08   2.1581902724077627e-06
-5.739722107946674e-07   -8.709518151785774e-07   1.7136557192374549e-06
-5.739722107946674e-07   -8.709518151785774e-07   1.7136557192374549e-06
-5.739722107946674e-07   -8.709518151785774e-07   1.7136557192374549e-06
-5.739722107946674e-07   -8.709518151785774e-07   1.7136557192374549e-06
-1.0197757386967742e-06   -2.0536654094417994e-07   2.0573104345335724e-06
-1.0197757386967742e-06   -2.0536654094417994e-07   2.0573104345335724e-06
-1.0197757386967742e-06   -2.0536654094417994e-07   2.0573104345335724e-06
-1.0197757386967742e-06   -2.0536654094417994e-07   2.0573104345335724e-06
-7.482523154273544e-07   -4.3434010477736535e-07   1.7421555340511446e-06
-7.482523154273544e-07   -4.3434010477736535e-07   1.7421555340511446e-06
-7.482523154273544e-07   -4.3434010477736535e-07   1.7421555340511446e-06
-7.482523154273544e-07   -4.3434010477736535e-07   1.7421555340511446e-06
-1.0197757386967742e-06   -8.709518151785503e-07   1.314304554696818e-06
-1.0197757386967742e-06   -8.709518151785503e-07   1.314304554696818e-06
-1.0197757386967742e-06   -8.709518151785503e-07   1.314304554696818e-06
-1.0197757386967742e-06   -8.709518151785503e-07   1.314304554696818e-06
-5.739722107946945e-07   -2.0536654094417994e-07   2.4566615990742093e-06
-5.739722107946945e-07   -2.0536654094417994e-07   2.4566615990742093e-06
-5.739722107946945e-07   -2.0536654094417994e-07   2.4566615990742093e-06
-5.739722107946945e-07   -2.0536654094417994e-07   2.4566615990742093e-06
-4.6052827615359476e-07   -9.828094005117955e-07   1.8886399049013853e-06
-4.6052827615359476e-07   -9.828094005117955e-07   1.8886399049013853e-06
-4.6052827615359476e-07   -9.828094005117955e-07   1.8886399049013853e-06
-4.6052827615359476e-07   -9.828094005117955e-07   1.8886399049013853e-06
-1.0539376148297218e-06   -5.784752949557996e-07   2.635055006027908e-06
-1.0539376148297218e-06   -5.784752949557996e-07   2.635055006027908e-06
-1.0539376148297218e-06   -5.784752949557996e-07   2.635055006027908e-06
-1.0539376148297218e-06   -5.784752949557996e-07   2.635055006027908e-06
-6.96711834783536e-07   -5.689349622347748e-07   2.0339545063184254e-06
-6.96711834783536e-07   -5.689349622347748e-07   2.0339545063184254e-06
-6.96711834783536e-07   -5.689349622347748e-07   2.0339545063184254e-06
-6.96711834783536e-07   -5.689349622347748e-07   2.0339545063184254e-06
-7.904872826175469e-07   -6.928266972947668e-08   -1.240674424669711e-06
-7.904872826175469e-07   -6.928266972947668e-08   -1.240674424669711e-06
-7.904872826175469e-07   -6.928266972947668e-08   -1.240674424669711e-06
-7.904872826175469e-07   -6.928266972947668e-08   -1.240674424669711e-06
-1.677748541598393e-07   1.0484971734391917e-07   -9.83409449961919e-08
-1.677748541598393e-07   1.0484971734391917e-07   -9.83409449961919e-08
-1.677748541598393e-07   1.0484971734391917e-07   -9.83409449961919e-08
-1.677748541598393e-07   1.0484971734391917e-07   -9.83409449961919e-08
-2.8895616847944387e-08   -9.914898174963956e-08   -9.581121806309548e-07
-2.8895616847944387e-08   -9.914898174963956e-08   -9.581121806309548e-07
-2.8895616847944387e-08   -9.914898174963956e-08   -9.581121806309548e-07
-2.8895616847944387e-08   -9.914898174963956e-08   -9.581121806309548e-07
-6.482811593933589e-07   1.7809867296775662e-07   -9.215153588579381e-08
-6.482811593933589e-07   1.7809867296775662e-07   -9.215153588579381e-08
-6.482811593933589e-07   1.7809867296775662e-07   -9.215153588579381e-08
-6.482811593933589e-07   1.7809867296775662e-07   -9.215153588579381e-08
-3.7359371768961366e-07   5.0981233061777524e-08   -4.736934747819055e-07
-3.7359371768961366e-07   5.0981233061777524e-08   -4.736934747819055e-07
-3.7359371768961366e-07   5.0981233061777524e-08   -4.736934747819055e-07
-3.7359371768961366e-07   5.0981233061777524e-08   -4.736934747819055e-07
-6.482811593933589e-07   -9.914898174966666e-08   -1.1244607734614575e-06
-6.482811593933589e-07   -9.914898174966666e-08   -1.1244607734614575e-06
-6.482811593933589e-07   -9.914898174966666e-08   -1.1244607734614575e-06
-6.482811593933589e-07   -9.914898174966666e-08   -1.1244607734614575e-06
-2.8895616847944387e-08   1.7809867296775662e-07   7.419705694462764e-08
-2.8895616847944387e-08   1.7809867296775662e-07   7.419705694462764e-08
-2.8895616847944387e-08   1.7809867296775662e-07   7.419705694462764e-08
-2.8895616847944387e-08   1.7809867296775662e-07   7.419705694462764e-08
3.995232338930015e-08   -1.3873249334622902e-07   -8.385691021211357e-07
3.995232338930015e-08   -1.3873249334622902e-07   -8.385691021211357e-07
3.995232338930015e-08   -1.3873249334622902e-07   -8.385691021211357e-07
3.995232338930015e-08   -1.3873249334622902e-07   -8.385691021211357e-07
-5.739722107946945e-07   1.433277833490475e-07   1.540228883494042e-08
-5.739722107946945e-07   1.433277833490475e-07   1.540228883494042e-08
-5.739722107946945e-07   1.433277833490475e-07   1.540228883494042e-08
-5.739722107946945e-07   1.433277833490475e-07   1.540228883494042e-08
-2.7293303078723425e-07   3.2548468528070156e-08   -4.1986208895139726e-07
-2.7293303078723425e-07   3.2548468528070156e-08   -4.1986208895139726e-07
-2.7293303078723425e-07   3.2548468528070156e-08   -4.1986208895139726e-07
-2.7293303078723425e-07   3.2548468528070156e-08   -4.1986208895139726e-07
-5.739722107946945e-07   -1.3873249334622902e-07   -1.0078052681382755e-06
-5.739722107946945e-07   -1.3873249334622902e-07   -1.0078052681382755e-06
-5.739722107946945e-07   -1.3873249334622902e-07   -1.0078052681382755e-06
-5.739722107946945e-07   -1.3873249334622902e-07   -1.0078052681382755e-06
3.995232338930015e-08   1.433277833490475e-07   1.8463845485210736e-07
3.995232338930015e-08   1.433277833490475e-07   1.8463845485210736e-07
3.995232338930015e-08   1.433277833490475e-07   1.8463845485210736e-07
3.995232338930015e-08   1.433277833490475e-07   1.8463845485210736e-07
1.2305392006899704e-07   -1.8964230009944037e-07   -6.581686885082094e-07
1.2305392006899704e-07   -1.8964230009944037e-07   -6.581686885082094e-07
1.2305392006899704e-07   -1.8964230009944037e-07   -6.581686885082094e-07
1.2305392006899704e-07   -1.8964230009944037e-07   -6.581686885082094e-07
-4.6052827615359476e-07   1.053794332511979e-07   1.3745526518555166e-07
-4.6052827615359476e-07   1.053794332511979e-07   1.3745526518555166e-07
-4.6052827615359476e-07   1.053794332511979e-07   1.3745526518555166e-07
-4.6052827615359476e-07   1.053794332511979e-07   1.3745526518555166e-07
-1.827271665345799e-07   8.476478445692236e-09   -2.674048112962218e-07
-1.827271665345799e-07   8.476478445692236e-09   -2.674048112962218e-07
-1.827271665345799e-07   8.476478445692236e-09   -2.674048112962218e-07
-1.827271665345799e-07   8.476478445692236e-09   -2.674048112962218e-07
              </DataArray>   
             <DataArray type="Float64" NumberOfComponents="3" Name="Stress" format="ascii">   
-1.1963337128571883   -0.29908342821429706   -0.29908342821429706
-1.1963337128571883   -0.29908342821429706   -0.29908342821429706
-1.1963337128571883   -0.29908342821429706   -0.29908342821429706
-1.1963337128571883   -0.29908342821429706   -0.29908342821429706
-0.692017298261044   -0.022536346268535228   -0.014114484599877797
-0.692017298261044   -0.022536346268535228   -0.014114484599877797
-0.692017298261044   -0.022536346268535228   -0.014114484599877797
-0.692017298261044   -0.022536346268535228   -0.014114484599877797
-0.7453834114909762   -0.18634585287274405   -0.18634585287274405
-0.7453834114909762   -0.18634585287274405   -0.18634585287274405
-0.7453834114909762   -0.18634585287274405   -0.18634585287274405
-0.7453834114909762   -0.18634585287274405   -0.18634585287274405
-1.1527833821248685   -0.09515011638838823   -0.03653959118647493
-1.1527833821248685   -0.09515011638838823   -0.03653959118647493
-1.1527833821248685   -0.09515011638838823   -0.03653959118647493
-1.1527833821248685   -0.09515011638838823   -0.03653959118647493
-0.9039760348708589   -0.1484871025569065   -0.0025295420140257763
-0.9039760348708589   -0.1484871025569065   -0.0025295420140257763
-0.9039760348708589   -0.1484871025569065   -0.0025295420140257763
-0.9039760348708589   -0.1484871025569065   -0.0025295420140257763
-1.2516060451221085   -0.3129015112805271   -0.3129015112805271
-1.2516060451221085   -0.3129015112805271   -0.3129015112805271
-1.2516060451221085   -0.3129015112805271   -0.3129015112805271
-1.2516060451221085   -0.3129015112805271   -0.3129015112805271
-0.6700462425055302   0.007920048007602466   -0.003925908825860663
-0.6700462425055302   0.007920048007602466   -0.003925908825860663
-0.6700462425055302   0.007920048007602466   -0.003925908825860663
-0.6700462425055302   0.007920048007602466   -0.003925908825860663
-0.7471236809366304   -0.1867809202341576   -0.1867809202341576
-0.7471236809366304   -0.1867809202341576   -0.1867809202341576
-0.7471236809366304   -0.1867809202341576   -0.1867809202341576
-0.7471236809366304   -0.1867809202341576   -0.1867809202341576
-1.1911198484296677   -0.09594912981841165   -0.05349294967308882
-1.1911198484296677   -0.09594912981841165   -0.05349294967308882
-1.1911198484296677   -0.09594912981841165   -0.05349294967308882
-1.1911198484296677   -0.09594912981841165   -0.05349294967308882
-0.9373040542630461   -0.13967231090064014   -0.04970607678243577
-0.9373040542630461   -0.13967231090064014   -0.04970607678243577
-0.9373040542630461   -0.13967231090064014   -0.04970607678243577
-0.9373040542630461   -0.13967231090064014   -0.04970607678243577
-1.2902571472570774   -0.32256428681426935   -0.32256428681426935
-1.2902571472570774   -0.32256428681426935   -0.32256428681426935
-1.2902571472570774   -0.32256428681426935   -0.32256428681426935
-1.2902571472570774   -0.32256428681426935   -0.32256428681426935
-0.6677613071894992   0.020059311681422318   0.0031907165859124675
-0.6677613071894992   0.020059311681422318   0.0031907165859124675
-0.6677613071894992   0.020059311681422318   0.0031907165859124675
-0.6677613071894992   0.020059311681422318   0.0031907165859124675
-0.7463230773457569   -0.18658076933643922   -0.18658076933643922
-0.7463230773457569   -0.18658076933643922   -0.18658076933643922
-0.7463230773457569   -0.18658076933643922   -0.18658076933643922
-0.7463230773457569   -0.18658076933643922   -0.18658076933643922
-1.2597296288268724   -0.08389645223401752   -0.03228557340107796
-1.2597296288268724   -0.08389645223401752   -0.03228557340107796
-1.2597296288268724   -0.08389645223401752   -0.03228557340107796
-1.2597296288268724   -0.08389645223401752   -0.03228557340107796
-0.9618910785040691   -0.13738833547413712   -0.08976155168983929
-0.9618910785040691   -0.13738833547413712   -0.08976155168983929
-0.9618910785040691   -0.13738833547413712   -0.08976155168983929
-0.9618910785040691   -0.13738833547413712   -0.08976155168983929
-0.7607634800970696   -0.1901908700242674   -0.1901908700242674
-0.7607634800970696   -0.1901908700242674   -0.1901908700242674
-0.7607634800970696   -0.1901908700242674   -0.1901908700242674
-0.7607634800970696   -0.1901908700242674   -0.1901908700242674
-0.3178913241291053   -0.021554447500755407   -0.006968054628635756
-0.3178913241291053   -0.021554447500755407   -0.006968054628635756
-0.3178913241291053   -0.021554447500755407   -0.006968054628635756
-0.3178913241291053   -0.021554447500755407   -0.006968054628635756
-0.3332660782287218   -0.08331651955718045   -0.08331651955718045
-0.3332660782287218   -0.08331651955718045   -0.08331651955718045
-0.3332660782287218   -0.08331651955718045   -0.08331651955718045
-0.3332660782287218   -0.08331651955718045   -0.08331651955718045
-0.6923826253482904   -0.08167291189036632   -0.026014863141693073
-0.6923826253482904   -0.08167291189036632   -0.026014863141693073
-0.6923826253482904   -0.08167291189036632   -0.026014863141693073
-0.6923826253482904   -0.08167291189036632   -0.026014863141693073
-0.5109117215594919   -0.09692372004393654   0.0039316184795046005
-0.5109117215594919   -0.09692372004393654   0.0039316184795046005
-0.5109117215594919   -0.09692372004393654   0.0039316184795046005
-0.5109117215594919   -0.09692372004393654   0.0039316184795046005
-0.7453834114909755   -0.18634585287274388   -0.18634585287274388
-0.7453834114909755   -0.18634585287274388   -0.18634585287274388
-0.7453834114909755   -0.18634585287274388   -0.18634585287274388
-0.7453834114909755   -0.18634585287274388   -0.18634585287274388
-0.2995919010262314   0.0020298124850017946   -0.000291965586910678
-0.2995919010262314   0.0020298124850017946   -0.000291965586910678
-0.2995919010262314   0.0020298124850017946   -0.000291965586910678
-0.2995919010262314   0.0020298124850017946   -0.000291965586910678
-0.3254753981868412   -0.0813688495467103   -0.0813688495467103
-0.3254753981868412   -0.0813688495467103   -0.0813688495467103
-0.3254753981868412   -0.0813688495467103   -0.0813688495467103
-0.3254753981868412   -0.0813688495467103   -0.0813688495467103
-0.6902906364170884   -0.06653151721742717   -0.02286510065317826
-0.6902906364170884   -0.06653151721742717   -0.02286510065317826
-0.6902906364170884   -0.06653151721742717   -0.02286510065317826
-0.6902906364170884   -0.06653151721742717   -0.02286510065317826
-0.5034479876228891   -0.081524024602184   -0.02628359173717572
-0.5034479876228891   -0.081524024602184   -0.02628359173717572
-0.5034479876228891   -0.081524024602184   -0.02628359173717572
-0.5034479876228891   -0.081524024602184   -0.02628359173717572
-0.7471236809366304   -0.1867809202341576   -0.1867809202341576
-0.7471236809366304   -0.1867809202341576   -0.1867809202341576
-0.7471236809366304   -0.1867809202341576   -0.1867809202341576
-0.7471236809366304   -0.1867809202341576   -0.1867809202341576
-0.2873619569247382   0.02016095021258153   0.007668557004515089
-0.2873619569247382   0.02016095021258153   0.007668557004515089
-0.2873619569247382   0.02016095021258153   0.007668557004515089
-0.2873619569247382   0.02016095021258153   0.007668557004515089
-0.3183215992386278   -0.07958039980965695   -0.07958039980965695
-0.3183215992386278   -0.07958039980965695   -0.07958039980965695
-0.3183215992386278   -0.07958039980965695   -0.07958039980965695
-0.3183215992386278   -0.07958039980965695   -0.07958039980965695
-0.684834420947596   -0.05123540681674284   -0.014482849865339903
-0.684834420947596   -0.05123540681674284   -0.014482849865339903
-0.684834420947596   -0.05123540681674284   -0.014482849865339903
-0.684834420947596   -0.05123540681674284   -0.014482849865339903
-0.5055601333706993   -0.07204357052456348   -0.05850521593460266
-0.5055601333706993   -0.07204357052456348   -0.05850521593460266
-0.5055601333706993   -0.07204357052456348   -0.05850521593460266
-0.5055601333706993   -0.07204357052456348   -0.05850521593460266
-0.3468742485591418   -0.08671856213978545   -0.08671856213978545
-0.3468742485591418   -0.08671856213978545   -0.08671856213978545
-0.3468742485591418   -0.08671856213978545   -0.08671856213978545
-0.3468742485591418   -0.08671856213978545   -0.08671856213978545
0.040031985448471405   0.0024274575093101393   0.00034410892038524467
0.040031985448471405   0.0024274575093101393   0.00034410892038524467
0.040031985448471405   0.0024274575093101393   0.00034410892038524467
0.040031985448471405   0.0024274575093101393   0.00034410892038524467
0.05271788764074308   0.01317947191018577   0.01317947191018577
0.05271788764074308   0.01317947191018577   0.01317947191018577
0.05271788764074308   0.01317947191018577   0.01317947191018577
0.05271788764074308   0.01317947191018577   0.01317947191018577
-0.3132795650648176   -0.054138049982677454   -0.012562423312162424
-0.3132795650648176   -0.054138049982677454   -0.012562423312162424
-0.3132795650648176   -0.054138049982677454   -0.012562423312162424
-0.3132795650648176   -0.054138049982677454   -0.012562423312162424
-0.13468330707425302   -0.03414237148566725   0.022577648180797695
-0.13468330707425302   -0.03414237148566725   0.022577648180797695
-0.13468330707425302   -0.03414237148566725   0.022577648180797695
-0.13468330707425302   -0.03414237148566725   0.022577648180797695
-0.33326607822872234   -0.08331651955718058   -0.08331651955718058
-0.33326607822872234   -0.08331651955718058   -0.08331651955718058
-0.33326607822872234   -0.08331651955718058   -0.08331651955718058
-0.33326607822872234   -0.08331651955718058   -0.08331651955718058
0.05371119254409019   0.023364733224131594   0.007960735112975056
0.05371119254409019   0.023364733224131594   0.007960735112975056
0.05371119254409019   0.023364733224131594   0.007960735112975056
0.05371119254409019   0.023364733224131594   0.007960735112975056
0.05975370016816407   0.014938425042041018   0.014938425042041018
0.05975370016816407   0.014938425042041018   0.014938425042041018
0.05975370016816407   0.014938425042041018   0.014938425042041018
0.05975370016816407   0.014938425042041018   0.014938425042041018
-0.30187773421164704   -0.036328570413715094   -0.008420808803737093
-0.30187773421164704   -0.036328570413715094   -0.008420808803737093
-0.30187773421164704   -0.036328570413715094   -0.008420808803737093
-0.30187773421164704   -0.036328570413715094   -0.008420808803737093
-0.12885630667348064   -0.021052025350192575   -0.007826657380955834
-0.12885630667348064   -0.021052025350192575   -0.007826657380955834
-0.12885630667348064   -0.021052025350192575   -0.007826657380955834
-0.12885630667348064   -0.021052025350192575   -0.007826657380955834
-0.32547539818684174   -0.08136884954671043   -0.08136884954671043
-0.32547539818684174   -0.08136884954671043   -0.08136884954671043
-0.32547539818684174   -0.08136884954671043   -0.08136884954671043
-0.32547539818684174   -0.08136884954671043   -0.08136884954671043
0.06474126779496199   0.04136860782664045   0.013446080391430675
0.06474126779496199   0.04136860782664045   0.013446080391430675
0.06474126779496199   0.04136860782664045   0.013446080391430675
0.06474126779496199   0.04136860782664045   0.013446080391430675
0.06910030332223015   0.017275075830557537   0.017275075830557537
0.06910030332223015   0.017275075830557537   0.017275075830557537
0.06910030332223015   0.017275075830557537   0.017275075830557537
0.06910030332223015   0.017275075830557537   0.017275075830557537
-0.2894749892253175   -0.015117925045538595   0.00019017549277521029
-0.2894749892253175   -0.015117925045538595   0.00019017549277521029
-0.2894749892253175   -0.015117925045538595   0.00019017549277521029
-0.2894749892253175   -0.015117925045538595   0.00019017549277521029
-0.1246469811308236   -0.008431984649370587   -0.03795895755937265
-0.1246469811308236   -0.008431984649370587   -0.03795895755937265
-0.1246469811308236   -0.008431984649370587   -0.03795895755937265
-0.1246469811308236   -0.008431984649370587   -0.03795895755937265
0.043864080180591555   0.010966020045147889   0.010966020045147889
0.043864080180591555   0.010966020045147889   0.010966020045147889
0.043864080180591555   0.010966020045147889   0.010966020045147889
0.043864080180591555   0.010966020045147889   0.010966020045147889
0.43212642728913386   0.03969444161693839   0.013531573136664879
0.43212642728913386   0.03969444161693839   0.013531573136664879
0.43212642728913386   0.03969444161693839   0.013531573136664879
0.43212642728913386   0.03969444161693839   0.013531573136664879
0.4695925975925753   0.11739814939814383   0.11739814939814383
0.4695925975925753   0.11739814939814383   0.11739814939814383
0.4695925975925753   0.11739814939814383   0.11739814939814383
0.4695925975925753   0.11739814939814383   0.11739814939814383
0.040127592885893855   -0.030391890716568955   -0.006200639237306085
0.040127592885893855   -0.030391890716568955   -0.006200639237306085
0.040127592885893855   -0.030391890716568955   -0.006200639237306085
0.040127592885893855   -0.030391890716568955   -0.006200639237306085
0.2461134404122475   0.030662186457402547   0.044627490614209425
0.2461134404122475   0.030662186457402547   0.044627490614209425
0.2461134404122475   0.030662186457402547   0.044627490614209425
0.2461134404122475   0.030662186457402547   0.044627490614209425
0.05271788764074326   0.013179471910185816   0.013179471910185816
0.05271788764074326   0.013179471910185816   0.013179471910185816
0.05271788764074326   0.013179471910185816   0.013179471910185816
0.05271788764074326   0.013179471910185816   0.013179471910185816
0.4376869946922483   0.054511478625912005   0.0207568056687443
0.4376869946922483   0.054511478625912005   0.0207568056687443
0.4376869946922483   0.054511478625912005   0.0207568056687443
0.4376869946922483   0.054511478625912005   0.0207568056687443
0.46796695085606493   0.11699173771401623   0.11699173771401623
0.46796695085606493   0.11699173771401623   0.11699173771401623
0.46796695085606493   0.11699173771401623   0.11699173771401623
0.46796695085606493   0.11699173771401623   0.11699173771401623
0.051225500454032555   -0.0129623321139276   0.0001981836273515971
0.051225500454032555   -0.0129623321139276   0.0001981836273515971
0.051225500454032555   -0.0129623321139276   0.0001981836273515971
0.051225500454032555   -0.0129623321139276   0.0001981836273515971
0.2446898275060858   0.04038789569414377   0.011520355218466845
0.2446898275060858   0.04038789569414377   0.011520355218466845
0.2446898275060858   0.04038789569414377   0.011520355218466845
0.2446898275060858   0.04038789569414377   0.011520355218466845
0.05975370016816418   0.014938425042041044   0.014938425042041044
0.05975370016816418   0.014938425042041044   0.014938425042041044
0.05975370016816418   0.014938425042041044   0.014938425042041044
0.05975370016816418   0.014938425042041044   0.014938425042041044
0.4403112568885668   0.06996348630468172   0.02574151928586392
0.4403112568885668   0.06996348630468172   0.02574151928586392
0.4403112568885668   0.06996348630468172   0.02574151928586392
0.4403112568885668   0.06996348630468172   0.02574151928586392
0.4774005251622674   0.11935013129056685   0.11935013129056685
0.4774005251622674   0.11935013129056685   0.11935013129056685
0.4774005251622674   0.11935013129056685   0.11935013129056685
0.4774005251622674   0.11935013129056685   0.11935013129056685
0.06567668839516477   0.010060528399703809   0.0073715486260839055
0.06567668839516477   0.010060528399703809   0.0073715486260839055
0.06567668839516477   0.010060528399703809   0.0073715486260839055
0.06567668839516477   0.010060528399703809   0.0073715486260839055
0.24886166694690398   0.054886394524421185   -0.019175066783372288
0.24886166694690398   0.054886394524421185   -0.019175066783372288
0.24886166694690398   0.054886394524421185   -0.019175066783372288
0.24886166694690398   0.054886394524421185   -0.019175066783372288
0.4683124714871274   0.11707811787178185   0.11707811787178185
0.4683124714871274   0.11707811787178185   0.11707811787178185
0.4683124714871274   0.11707811787178185   0.11707811787178185
0.4683124714871274   0.11707811787178185   0.11707811787178185
0.973745586725579   0.07434820523239122   0.025964669048434114
0.973745586725579   0.07434820523239122   0.025964669048434114
0.973745586725579   0.07434820523239122   0.025964669048434114
0.973745586725579   0.07434820523239122   0.025964669048434114
0.9957614043253563   0.24894035108133908   0.24894035108133908
0.9957614043253563   0.24894035108133908   0.24894035108133908
0.9957614043253563   0.24894035108133908   0.24894035108133908
0.9957614043253563   0.24894035108133908   0.24894035108133908
0.4175147338522921   -0.023552805025861143   -0.0020402148792634245
0.4175147338522921   -0.023552805025861143   -0.0020402148792634245
0.4175147338522921   -0.023552805025861143   -0.0020402148792634245
0.4175147338522921   -0.023552805025861143   -0.0020402148792634245
0.6941506940156897   0.09838026148266533   0.07820698801769498
0.6941506940156897   0.09838026148266533   0.07820698801769498
0.6941506940156897   0.09838026148266533   0.07820698801769498
0.6941506940156897   0.09838026148266533   0.07820698801769498
0.46959259759257493   0.11739814939814373   0.11739814939814373
0.46959259759257493   0.11739814939814373   0.11739814939814373
0.46959259759257493   0.11739814939814373   0.11739814939814373
0.46959259759257493   0.11739814939814373   0.11739814939814373
0.922966809099396   0.0872726651716562   0.04663506086122038
0.922966809099396   0.0872726651716562   0.04663506086122038
0.922966809099396   0.0872726651716562   0.04663506086122038
0.922966809099396   0.0872726651716562   0.04663506086122038
0.9664749861313268   0.2416187465328317   0.2416187465328317
0.9664749861313268   0.2416187465328317   0.2416187465328317
0.9664749861313268   0.2416187465328317   0.2416187465328317
0.9664749861313268   0.2416187465328317   0.2416187465328317
0.4193393283495413   -0.012783011483002062   0.0036283743784200906
0.4193393283495413   -0.012783011483002062   0.0036283743784200906
0.4193393283495413   -0.012783011483002062   0.0036283743784200906
0.4193393283495413   -0.012783011483002062   0.0036283743784200906
0.6739940430013626   0.1013405523199656   0.037477599308069404
0.6739940430013626   0.1013405523199656   0.037477599308069404
0.6739940430013626   0.1013405523199656   0.037477599308069404
0.6739940430013626   0.1013405523199656   0.037477599308069404
0.46796695085606493   0.11699173771401623   0.11699173771401623
0.46796695085606493   0.11699173771401623   0.11699173771401623
0.46796695085606493   0.11699173771401623   0.11699173771401623
0.46796695085606493   0.11699173771401623   0.11699173771401623
0.8936750832998801   0.08767171701089088   0.031566261897546105
0.8936750832998801   0.08767171701089088   0.031566261897546105
0.8936750832998801   0.08767171701089088   0.031566261897546105
0.8936750832998801   0.08767171701089088   0.031566261897546105
0.9226062692763433   0.23065156731908582   0.23065156731908582
0.9226062692763433   0.23065156731908582   0.23065156731908582
0.9226062692763433   0.23065156731908582   0.23065156731908582
0.9226062692763433   0.23065156731908582   0.23065156731908582
0.4352486191484035   0.014337031695770962   0.01360370081604921
0.4352486191484035   0.014337031695770962   0.01360370081604921
0.4352486191484035   0.014337031695770962   0.01360370081604921
0.4352486191484035   0.014337031695770962   0.01360370081604921
0.6457745179737588   0.11002280443098762   -0.009939959860107012
0.6457745179737588   0.11002280443098762   -0.009939959860107012
0.6457745179737588   0.11002280443098762   -0.009939959860107012
0.6457745179737588   0.11002280443098762   -0.009939959860107012
-0.9421968368676201   -0.06752896754306717   0.011101947634038406
-0.9421968368676201   -0.06752896754306717   0.011101947634038406
-0.9421968368676201   -0.06752896754306717   0.011101947634038406
-0.9421968368676201   -0.06752896754306717   0.011101947634038406
-0.6002102244006573   -0.014315733736553767   -0.004055228513496767
-0.6002102244006573   -0.014315733736553767   -0.004055228513496767
-0.6002102244006573   -0.014315733736553767   -0.004055228513496767
-0.6002102244006573   -0.014315733736553767   -0.004055228513496767
-0.6038818437016201   0.02452300484031148   0.012924476533776236
-0.6038818437016201   0.02452300484031148   0.012924476533776236
-0.6038818437016201   0.02452300484031148   0.012924476533776236
-0.6038818437016201   0.02452300484031148   0.012924476533776236
-0.9560251803163294   -0.06546319942616613   -0.011539312502850951
-0.9560251803163294   -0.06546319942616613   -0.011539312502850951
-0.9560251803163294   -0.06546319942616613   -0.011539312502850951
-0.9560251803163294   -0.06546319942616613   -0.011539312502850951
-0.7451083697568669   -0.025594837207984125   -0.003207981380495717
-0.7451083697568669   -0.025594837207984125   -0.003207981380495717
-0.7451083697568669   -0.025594837207984125   -0.003207981380495717
-0.7451083697568669   -0.025594837207984125   -0.003207981380495717
-0.9488509409643603   -0.046068310794021725   0.004936995624850449
-0.9488509409643603   -0.046068310794021725   0.004936995624850449
-0.9488509409643603   -0.046068310794021725   0.004936995624850449
-0.9488509409643603   -0.046068310794021725   0.004936995624850449
-0.6120354069510305   0.004148792310727796   -0.007469127183682089
-0.6120354069510305   0.004148792310727796   -0.007469127183682089
-0.6120354069510305   0.004148792310727796   -0.007469127183682089
-0.6120354069510305   0.004148792310727796   -0.007469127183682089
-0.6043638900654976   0.035027043959546825   0.01463196085253432
-0.6043638900654976   0.035027043959546825   0.01463196085253432
-0.6043638900654976   0.035027043959546825   0.01463196085253432
-0.6043638900654976   0.035027043959546825   0.01463196085253432
-0.9614868064605537   -0.05757340730614434   -0.015209219999675616
-0.9614868064605537   -0.05757340730614434   -0.015209219999675616
-0.9614868064605537   -0.05757340730614434   -0.015209219999675616
-0.9614868064605537   -0.05757340730614434   -0.015209219999675616
-0.765734857734141   -0.01703803772984249   -0.007384702095712903
-0.765734857734141   -0.01703803772984249   -0.007384702095712903
-0.765734857734141   -0.01703803772984249   -0.007384702095712903
-0.765734857734141   -0.01703803772984249   -0.007384702095712903
-0.9439744587178647   -0.027388033049925153   0.04216714445754155
-0.9439744587178647   -0.027388033049925153   0.04216714445754155
-0.9439744587178647   -0.027388033049925153   0.04216714445754155
-0.9439744587178647   -0.027388033049925153   0.04216714445754155
-0.6146415065690816   0.012076400942432099   -0.013805478648265784
-0.6146415065690816   0.012076400942432099   -0.013805478648265784
-0.6146415065690816   0.012076400942432099   -0.013805478648265784
-0.6146415065690816   0.012076400942432099   -0.013805478648265784
-0.5931035364743679   0.06115412770336437   0.026341233933327005
-0.5931035364743679   0.06115412770336437   0.026341233933327005
-0.5931035364743679   0.06115412770336437   0.026341233933327005
-0.5931035364743679   0.06115412770336437   0.026341233933327005
-0.9344157146080495   -0.0462473977292648   -0.0247648076820621
-0.9344157146080495   -0.0462473977292648   -0.0247648076820621
-0.9344157146080495   -0.0462473977292648   -0.0247648076820621
-0.9344157146080495   -0.0462473977292648   -0.0247648076820621
-0.7360789567175248   0.007087502525394182   0.016394102389045317
-0.7360789567175248   0.007087502525394182   0.016394102389045317
-0.7360789567175248   0.007087502525394182   0.016394102389045317
-0.7360789567175248   0.007087502525394182   0.016394102389045317
-0.6149806820127106   -0.0816861318448441   -0.010537118465472978
-0.6149806820127106   -0.0816861318448441   -0.010537118465472978
-0.6149806820127106   -0.0816861318448441   -0.010537118465472978
-0.6149806820127106   -0.0816861318448441   -0.010537118465472978
-0.2839345363060779   -0.0066191280811986886   0.002940378631794846
-0.2839345363060779   -0.0066191280811986886   0.002940378631794846
-0.2839345363060779   -0.0066191280811986886   0.002940378631794846
-0.2839345363060779   -0.0066191280811986886   0.002940378631794846
-0.28783099988846456   0.005324339347777117   0.004419767589199097
-0.28783099988846456   0.005324339347777117   0.004419767589199097
-0.28783099988846456   0.005324339347777117   0.004419767589199097
-0.28783099988846456   0.005324339347777117   0.004419767589199097
-0.6270216520069234   -0.05974766072082525   -0.018503899431604104
-0.6270216520069234   -0.05974766072082525   -0.018503899431604104
-0.6270216520069234   -0.05974766072082525   -0.018503899431604104
-0.6270216520069234   -0.05974766072082525   -0.018503899431604104
-0.4534522872679221   -0.03696459126329417   -0.010520440889779284
-0.4534522872679221   -0.03696459126329417   -0.010520440889779284
-0.4534522872679221   -0.03696459126329417   -0.010520440889779284
-0.4534522872679221   -0.03696459126329417   -0.010520440889779284
-0.6263831788956649   -0.06523490740894214   -0.009824287187196884
-0.6263831788956649   -0.06523490740894214   -0.009824287187196884
-0.6263831788956649   -0.06523490740894214   -0.009824287187196884
-0.6263831788956649   -0.06523490740894214   -0.009824287187196884
-0.28735720572682644   0.011923853308789829   0.00018922443637421626
-0.28735720572682644   0.011923853308789829   0.00018922443637421626
-0.28735720572682644   0.011923853308789829   0.00018922443637421626
-0.28735720572682644   0.011923853308789829   0.00018922443637421626
-0.2865338572090528   0.01997457801116725   0.00590859628175823
-0.2865338572090528   0.01997457801116725   0.00590859628175823
-0.2865338572090528   0.01997457801116725   0.00590859628175823
-0.2865338572090528   0.01997457801116725   0.00590859628175823
-0.6270345683623512   -0.04366305728674507   -0.020031329385441166
-0.6270345683623512   -0.04366305728674507   -0.020031329385441166
-0.6270345683623512   -0.04366305728674507   -0.020031329385441166
-0.6270345683623512   -0.04366305728674507   -0.020031329385441166
-0.4523584098059633   -0.0205211993442195   -0.005010905922360545
-0.4523584098059633   -0.0205211993442195   -0.005010905922360545
-0.4523584098059633   -0.0205211993442195   -0.005010905922360545
-0.4523584098059633   -0.0205211993442195   -0.005010905922360545
-0.6245422272854172   -0.04921279293163397   -0.0020198883558825154
-0.6245422272854172   -0.04921279293163397   -0.0020198883558825154
-0.6245422272854172   -0.04921279293163397   -0.0020198883558825154
-0.6245422272854172   -0.04921279293163397   -0.0020198883558825154
-0.28695789426632834   0.027592617675714665   -0.0038296286691652318
-0.28695789426632834   0.027592617675714665   -0.0038296286691652318
-0.28695789426632834   0.027592617675714665   -0.0038296286691652318
-0.28695789426632834   0.027592617675714665   -0.0038296286691652318
-0.28153283621166103   0.034668664921286424   0.011735924088871502
-0.28153283621166103   0.034668664921286424   0.011735924088871502
-0.28153283621166103   0.034668664921286424   0.011735924088871502
-0.28153283621166103   0.034668664921286424   0.011735924088871502
-0.6200823225960289   -0.025074705774558694   -0.022323863197053248
-0.6200823225960289   -0.025074705774558694   -0.022323863197053248
-0.6200823225960289   -0.025074705774558694   -0.022323863197053248
-0.6200823225960289   -0.025074705774558694   -0.022323863197053248
-0.450237170615068   -0.004956215871155363   0.002249285845817281
-0.450237170615068   -0.004956215871155363   0.002249285845817281
-0.450237170615068   -0.004956215871155363   0.002249285845817281
-0.450237170615068   -0.004956215871155363   0.002249285845817281
-0.29931161314775306   -0.06801909227130692   -0.012545041386475622
-0.29931161314775306   -0.06801909227130692   -0.012545041386475622
-0.29931161314775306   -0.06801909227130692   -0.012545041386475622
-0.29931161314775306   -0.06801909227130692   -0.012545041386475622
0.02984004502470779   0.006770582529759752   0.011658571922238493
0.02984004502470779   0.006770582529759752   0.011658571922238493
0.02984004502470779   0.006770582529759752   0.011658571922238493
0.02984004502470779   0.006770582529759752   0.011658571922238493
0.028643338438239477   0.016953326024647733   0.0009715532214064713
0.028643338438239477   0.016953326024647733   0.0009715532214064713
0.028643338438239477   0.016953326024647733   0.0009715532214064713
0.028643338438239477   0.016953326024647733   0.0009715532214064713
-0.3003791366150102   -0.04497655073500248   -0.00802002596075238
-0.3003791366150102   -0.04497655073500248   -0.00802002596075238
-0.3003791366150102   -0.04497655073500248   -0.00802002596075238
-0.3003791366150102   -0.04497655073500248   -0.00802002596075238
-0.1366142298814343   -0.02263569225589164   -0.004387081125257181
-0.1366142298814343   -0.02263569225589164   -0.004387081125257181
-0.1366142298814343   -0.02263569225589164   -0.004387081125257181
-0.1366142298814343   -0.02263569225589164   -0.004387081125257181
-0.30246346813593983   -0.05178832732879164   -0.011629906971611148
-0.30246346813593983   -0.05178832732879164   -0.011629906971611148
-0.30246346813593983   -0.05178832732879164   -0.011629906971611148
-0.30246346813593983   -0.05178832732879164   -0.011629906971611148
0.031867903351754295   0.024905336011022423   0.009142367802605706
0.031867903351754295   0.024905336011022423   0.009142367802605706
0.031867903351754295   0.024905336011022423   0.009142367802605706
0.031867903351754295   0.024905336011022423   0.009142367802605706
0.031208595687497353   0.03305240744398667   0.005397750585627409
0.031208595687497353   0.03305240744398667   0.005397750585627409
0.031208595687497353   0.03305240744398667   0.005397750585627409
0.031208595687497353   0.03305240744398667   0.005397750585627409
-0.2991782996113929   -0.027316060597067857   -0.010022977121710436
-0.2991782996113929   -0.027316060597067857   -0.010022977121710436
-0.2991782996113929   -0.027316060597067857   -0.010022977121710436
-0.2991782996113929   -0.027316060597067857   -0.010022977121710436
-0.13426793260136322   -0.005541504168465725   0.0015534360548954684
-0.13426793260136322   -0.005541504168465725   0.0015534360548954684
-0.13426793260136322   -0.005541504168465725   0.0015534360548954684
-0.13426793260136322   -0.005541504168465725   0.0015534360548954684
-0.30000057548173364   -0.03546588360090114   -0.005984533469580666
-0.30000057548173364   -0.03546588360090114   -0.005984533469580666
-0.30000057548173364   -0.03546588360090114   -0.005984533469580666
-0.30000057548173364   -0.03546588360090114   -0.005984533469580666
0.03325997153397054   0.042431330423952446   0.006275706838027598
0.03325997153397054   0.042431330423952446   0.006275706838027598
0.03325997153397054   0.042431330423952446   0.006275706838027598
0.03325997153397054   0.042431330423952446   0.006275706838027598
0.03216610931650137   0.05094138019828338   0.008845603170067138
0.03216610931650137   0.05094138019828338   0.008845603170067138
0.03216610931650137   0.05094138019828338   0.008845603170067138
0.03216610931650137   0.05094138019828338   0.008845603170067138
-0.29503539000463547   -0.00845377383562113   -0.012654406119093901
-0.29503539000463547   -0.00845377383562113   -0.012654406119093901
-0.29503539000463547   -0.00845377383562113   -0.012654406119093901
-0.29503539000463547   -0.00845377383562113   -0.012654406119093901
-0.1306857971793246   0.01233425772682447   0.008057395475399715
-0.1306857971793246   0.01233425772682447   0.008057395475399715
-0.1306857971793246   0.01233425772682447   0.008057395475399715
-0.1306857971793246   0.01233425772682447   0.008057395475399715
0.01306442177717782   -0.0499283887249301   -0.015520573060721521
0.01306442177717782   -0.0499283887249301   -0.015520573060721521
0.01306442177717782   -0.0499283887249301   -0.015520573060721521
0.01306442177717782   -0.0499283887249301   -0.015520573060721521
0.35409353221230055   0.02430288519987347   0.021472962697304143
0.35409353221230055   0.02430288519987347   0.021472962697304143
0.35409353221230055   0.02430288519987347   0.021472962697304143
0.35409353221230055   0.02430288519987347   0.021472962697304143
0.35386352232702933   0.03289942060759437   -0.003480012057624937
0.35386352232702933   0.03289942060759437   -0.003480012057624937
0.35386352232702933   0.03289942060759437   -0.003480012057624937
0.35386352232702933   0.03289942060759437   -0.003480012057624937
0.0195450331974784   -0.029843416673826676   0.0022767697160753298
0.0195450331974784   -0.029843416673826676   0.0022767697160753298
0.0195450331974784   -0.029843416673826676   0.0022767697160753298
0.0195450331974784   -0.029843416673826676   0.0022767697160753298
0.18284592981062214   -0.004376796938988105   0.00031259216182358274
0.18284592981062214   -0.004376796938988105   0.00031259216182358274
0.18284592981062214   -0.004376796938988105   0.00031259216182358274
0.18284592981062214   -0.004376796938988105   0.00031259216182358274
0.015444921908099644   -0.0364181147879963   -0.01164908861664863
0.015444921908099644   -0.0364181147879963   -0.01164908861664863
0.015444921908099644   -0.0364181147879963   -0.01164908861664863
0.015444921908099644   -0.0364181147879963   -0.01164908861664863
0.3600268466527868   0.04153733175814277   0.018698698420614127
0.3600268466527868   0.04153733175814277   0.018698698420614127
0.3600268466527868   0.04153733175814277   0.018698698420614127
0.3600268466527868   0.04153733175814277   0.018698698420614127
0.3569460856914453   0.048836889413296745   0.0034737060260605634
0.3569460856914453   0.048836889413296745   0.0034737060260605634
0.3569460856914453   0.048836889413296745   0.0034737060260605634
0.3569460856914453   0.048836889413296745   0.0034737060260605634
0.020526214186736114   -0.014045593534658061   -0.0009161559395340279
0.020526214186736114   -0.014045593534658061   -0.0009161559395340279
0.020526214186736114   -0.014045593534658061   -0.0009161559395340279
0.020526214186736114   -0.014045593534658061   -0.0009161559395340279
0.1855662007233296   0.010848062317785491   0.007615401661201532
0.1855662007233296   0.010848062317785491   0.007615401661201532
0.1855662007233296   0.010848062317785491   0.007615401661201532
0.1855662007233296   0.010848062317785491   0.007615401661201532
0.017514247962001135   -0.021457112881147843   -0.008564467716719152
0.017514247962001135   -0.021457112881147843   -0.008564467716719152
0.017514247962001135   -0.021457112881147843   -0.008564467716719152
0.017514247962001135   -0.021457112881147843   -0.008564467716719152
0.3614533644064263   0.057743721250032715   0.01710326776422963
0.3614533644064263   0.057743721250032715   0.01710326776422963
0.3614533644064263   0.057743721250032715   0.01710326776422963
0.3614533644064263   0.057743721250032715   0.01710326776422963
0.3514455573192029   0.06722409258490167   0.0074205006280351204
0.3514455573192029   0.06722409258490167   0.0074205006280351204
0.3514455573192029   0.06722409258490167   0.0074205006280351204
0.3514455573192029   0.06722409258490167   0.0074205006280351204
0.02057309787113218   0.005474883434029268   -0.0036529572925247094
0.02057309787113218   0.005474883434029268   -0.0036529572925247094
0.02057309787113218   0.005474883434029268   -0.0036529572925247094
0.02057309787113218   0.005474883434029268   -0.0036529572925247094
0.18858368893390182   0.028244919466270918   0.01438983321545581
0.18858368893390182   0.028244919466270918   0.01438983321545581
0.18858368893390182   0.028244919466270918   0.01438983321545581
0.18858368893390182   0.028244919466270918   0.01438983321545581
0.32592416776791655   -0.06618600602814702   -0.02888496829659567
0.32592416776791655   -0.06618600602814702   -0.02888496829659567
0.32592416776791655   -0.06618600602814702   -0.02888496829659567
0.32592416776791655   -0.06618600602814702   -0.02888496829659567
0.6722820613901541   0.04441929299176058   0.0211460586053433
0.6722820613901541   0.04441929299176058   0.0211460586053433
0.6722820613901541   0.04441929299176058   0.0211460586053433
0.6722820613901541   0.04441929299176058   0.0211460586053433
0.680189255835212   0.020694681990991406   -0.0434773017779195
0.680189255835212   0.020694681990991406   -0.0434773017779195
0.680189255835212   0.020694681990991406   -0.0434773017779195
0.680189255835212   0.020694681990991406   -0.0434773017779195
0.3478794171794453   -0.013225566532259675   0.012724449344306277
0.3478794171794453   -0.013225566532259675   0.012724449344306277
0.3478794171794453   -0.013225566532259675   0.012724449344306277
0.3478794171794453   -0.013225566532259675   0.012724449344306277
0.4813376166443903   -0.00866395591894601   -0.012233663244015536
0.4813376166443903   -0.00866395591894601   -0.012233663244015536
0.4813376166443903   -0.00866395591894601   -0.012233663244015536
0.4813376166443903   -0.00866395591894601   -0.012233663244015536
0.3354411012924406   -0.043415023238810926   -0.019277673384161725
0.3354411012924406   -0.043415023238810926   -0.019277673384161725
0.3354411012924406   -0.043415023238810926   -0.019277673384161725
0.3354411012924406   -0.043415023238810926   -0.019277673384161725
0.6988548710211908   0.057111437996519035   0.013434018146454313
0.6988548710211908   0.057111437996519035   0.013434018146454313
0.6988548710211908   0.057111437996519035   0.013434018146454313
0.6988548710211908   0.057111437996519035   0.013434018146454313
0.6881143248589183   0.03821699910307089   -0.010146569200592231
0.6881143248589183   0.03821699910307089   -0.010146569200592231
0.6881143248589183   0.03821699910307089   -0.010146569200592231
0.6881143248589183   0.03821699910307089   -0.010146569200592231
0.34675457733740744   -0.005319770447284534   0.0066728241164528
0.34675457733740744   -0.005319770447284534   0.0066728241164528
0.34675457733740744   -0.005319770447284534   0.0066728241164528
0.34675457733740744   -0.005319770447284534   0.0066728241164528
0.5070066107976173   0.012690021266903214   0.008380069761957432
0.5070066107976173   0.012690021266903214   0.008380069761957432
0.5070066107976173   0.012690021266903214   0.008380069761957432
0.5070066107976173   0.012690021266903214   0.008380069761957432
0.33673496806469805   -0.03314879746210806   -0.015596195232267601
0.33673496806469805   -0.03314879746210806   -0.015596195232267601
0.33673496806469805   -0.03314879746210806   -0.015596195232267601
0.33673496806469805   -0.03314879746210806   -0.015596195232267601
0.6973374724229466   0.06524956440921523   0.008936603313410618
0.6973374724229466   0.06524956440921523   0.008936603313410618
0.6973374724229466   0.06524956440921523   0.008936603313410618
0.6973374724229466   0.06524956440921523   0.008936603313410618
0.6874527293248319   0.05897354490408165   -0.015417843318825675
0.6874527293248319   0.05897354490408165   -0.015417843318825675
0.6874527293248319   0.05897354490408165   -0.015417843318825675
0.6874527293248319   0.05897354490408165   -0.015417843318825675
0.3398364358528575   0.012806540064751445   0.0037924458164596137
0.3398364358528575   0.012806540064751445   0.0037924458164596137
0.3398364358528575   0.012806540064751445   0.0037924458164596137
0.3398364358528575   0.012806540064751445   0.0037924458164596137
0.4943818839966318   0.022410164162235492   0.006365521905203869
0.4943818839966318   0.022410164162235492   0.006365521905203869
0.4943818839966318   0.022410164162235492   0.006365521905203869
0.4943818839966318   0.022410164162235492   0.006365521905203869
-0.7378155600587066   -0.03331948424862798   0.03853135458418144
-0.7378155600587066   -0.03331948424862798   0.03853135458418144
-0.7378155600587066   -0.03331948424862798   0.03853135458418144
-0.7378155600587066   -0.03331948424862798   0.03853135458418144
-0.49084607400541586   -0.019003149078995234   -0.010025700448377348
-0.49084607400541586   -0.019003149078995234   -0.010025700448377348
-0.49084607400541586   -0.019003149078995234   -0.010025700448377348
-0.49084607400541586   -0.019003149078995234   -0.010025700448377348
-0.47284209200417093   0.03993498924943543   0.03226854256299834
-0.47284209200417093   0.03993498924943543   0.03226854256299834
-0.47284209200417093   0.03993498924943543   0.03226854256299834
-0.47284209200417093   0.03993498924943543   0.03226854256299834
-0.7411048309130958   -0.053035400443272346   -0.015675541508504115
-0.7411048309130958   -0.053035400443272346   -0.015675541508504115
-0.7411048309130958   -0.053035400443272346   -0.015675541508504115
-0.7411048309130958   -0.053035400443272346   -0.015675541508504115
-0.5859138716907586   -0.009052159497373015   -0.0013281122323120786
-0.5859138716907586   -0.009052159497373015   -0.0013281122323120786
-0.5859138716907586   -0.009052159497373015   -0.0013281122323120786
-0.5859138716907586   -0.009052159497373015   -0.0013281122323120786
-0.7202216800554522   -0.0073780620051102155   0.043082874341551364
-0.7202216800554522   -0.0073780620051102155   0.043082874341551364
-0.7202216800554522   -0.0073780620051102155   0.043082874341551364
-0.7202216800554522   -0.0073780620051102155   0.043082874341551364
-0.4904416363480957   -0.0024387426750078975   -0.013355447232181905
-0.4904416363480957   -0.0024387426750078975   -0.013355447232181905
-0.4904416363480957   -0.0024387426750078975   -0.013355447232181905
-0.4904416363480957   -0.0024387426750078975   -0.013355447232181905
-0.470790804150884   0.04958087931100528   0.029866210776402544
-0.470790804150884   0.04958087931100528   0.029866210776402544
-0.470790804150884   0.04958087931100528   0.029866210776402544
-0.470790804150884   0.04958087931100528   0.029866210776402544
-0.7293555977853485   -0.04427820868359915   -0.02142321544280662
-0.7293555977853485   -0.04427820868359915   -0.02142321544280662
-0.7293555977853485   -0.04427820868359915   -0.02142321544280662
-0.7293555977853485   -0.04427820868359915   -0.02142321544280662
-0.5869367178087023   0.002277355767970328   0.006643713321861394
-0.5869367178087023   0.002277355767970328   0.006643713321861394
-0.5869367178087023   0.002277355767970328   0.006643713321861394
-0.5869367178087023   0.002277355767970328   0.006643713321861394
-0.7099243441858243   0.0017265816024831723   0.029728262268732347
-0.7099243441858243   0.0017265816024831723   0.029728262268732347
-0.7099243441858243   0.0017265816024831723   0.029728262268732347
-0.7099243441858243   0.0017265816024831723   0.029728262268732347
-0.48914141345559   0.004656733319741781   -0.01696268975586049
-0.48914141345559   0.004656733319741781   -0.01696268975586049
-0.48914141345559   0.004656733319741781   -0.01696268975586049
-0.48914141345559   0.004656733319741781   -0.01696268975586049
-0.4711353134573826   0.056101812494165106   0.023700842284420515
-0.4711353134573826   0.056101812494165106   0.023700842284420515
-0.4711353134573826   0.056101812494165106   0.023700842284420515
-0.4711353134573826   0.056101812494165106   0.023700842284420515
-0.7141782649857678   -0.03490404180797323   -0.027284645878376868
-0.7141782649857678   -0.03490404180797323   -0.027284645878376868
-0.7141782649857678   -0.03490404180797323   -0.027284645878376868
-0.7141782649857678   -0.03490404180797323   -0.027284645878376868
-0.5698779220490248   0.012455916045610617   0.01403634425999914
-0.5698779220490248   0.012455916045610617   0.01403634425999914
-0.5698779220490248   0.012455916045610617   0.01403634425999914
-0.5698779220490248   0.012455916045610617   0.01403634425999914
-0.4921476527311561   -0.046630979769823395   0.011094236613749545
-0.4921476527311561   -0.046630979769823395   0.011094236613749545
-0.4921476527311561   -0.046630979769823395   0.011094236613749545
-0.4921476527311561   -0.046630979769823395   0.011094236613749545
-0.24933128911377395   -0.00921536387847925   0.00043956872580716566
-0.24933128911377395   -0.00921536387847925   0.00043956872580716566
-0.24933128911377395   -0.00921536387847925   0.00043956872580716566
-0.24933128911377395   -0.00921536387847925   0.00043956872580716566
-0.24210789156113477   0.024439351972977044   0.017517403591618616
-0.24210789156113477   0.024439351972977044   0.017517403591618616
-0.24210789156113477   0.024439351972977044   0.017517403591618616
-0.24210789156113477   0.024439351972977044   0.017517403591618616
-0.49992745631791896   -0.045984952217689654   -0.017238337538616866
-0.49992745631791896   -0.045984952217689654   -0.017238337538616866
-0.49992745631791896   -0.045984952217689654   -0.017238337538616866
-0.49992745631791896   -0.045984952217689654   -0.017238337538616866
-0.36958928642558714   -0.018139510722129524   -0.0076069662658703185
-0.36958928642558714   -0.018139510722129524   -0.0076069662658703185
-0.36958928642558714   -0.018139510722129524   -0.0076069662658703185
-0.36958928642558714   -0.018139510722129524   -0.0076069662658703185
-0.4904626522653807   -0.026595778987432768   0.010696509493815565
-0.4904626522653807   -0.026595778987432768   0.010696509493815565
-0.4904626522653807   -0.026595778987432768   0.010696509493815565
-0.4904626522653807   -0.026595778987432768   0.010696509493815565
-0.24966398339353016   0.006958890962862325   -0.0027825945602420257
-0.24966398339353016   0.006958890962862325   -0.0027825945602420257
-0.24966398339353016   0.006958890962862325   -0.0027825945602420257
-0.24966398339353016   0.006958890962862325   -0.0027825945602420257
-0.241232654593399   0.040530691817077025   0.015135502364717154
-0.241232654593399   0.040530691817077025   0.015135502364717154
-0.241232654593399   0.040530691817077025   0.015135502364717154
-0.241232654593399   0.040530691817077025   0.015135502364717154
-0.4969508010168714   -0.03098613550966175   -0.02036675873286782
-0.4969508010168714   -0.03098613550966175   -0.02036675873286782
-0.4969508010168714   -0.03098613550966175   -0.02036675873286782
-0.4969508010168714   -0.03098613550966175   -0.02036675873286782
-0.3654360292168037   -0.0018954357547913865   -9.181783438870494e-05
-0.3654360292168037   -0.0018954357547913865   -9.181783438870494e-05
-0.3654360292168037   -0.0018954357547913865   -9.181783438870494e-05
-0.3654360292168037   -0.0018954357547913865   -9.181783438870494e-05
-0.4872953399815513   -0.010270052955568869   0.007194463889639985
-0.4872953399815513   -0.010270052955568869   0.007194463889639985
-0.4872953399815513   -0.010270052955568869   0.007194463889639985
-0.4872953399815513   -0.010270052955568869   0.007194463889639985
-0.24933464945966   0.021368075432043655   -0.006211855581552211
-0.24933464945966   0.021368075432043655   -0.006211855581552211
-0.24933464945966   0.021368075432043655   -0.006211855581552211
-0.24933464945966   0.021368075432043655   -0.006211855581552211
-0.24105549810993482   0.057460309549442604   0.011324388936859067
-0.24105549810993482   0.057460309549442604   0.011324388936859067
-0.24105549810993482   0.057460309549442604   0.011324388936859067
-0.24105549810993482   0.057460309549442604   0.011324388936859067
-0.49443188359855594   -0.01477338789906793   -0.021906808028215805
-0.49443188359855594   -0.01477338789906793   -0.021906808028215805
-0.49443188359855594   -0.01477338789906793   -0.021906808028215805
-0.49443188359855594   -0.01477338789906793   -0.021906808028215805
-0.3655439457737847   0.013038472364281451   0.005669619582337124
-0.3655439457737847   0.013038472364281451   0.005669619582337124
-0.3655439457737847   0.013038472364281451   0.005669619582337124
-0.3655439457737847   0.013038472364281451   0.005669619582337124
-0.2585507082453712   -0.05351155055903013   -0.0013613402516300943
-0.2585507082453712   -0.05351155055903013   -0.0013613402516300943
-0.2585507082453712   -0.05351155055903013   -0.0013613402516300943
-0.2585507082453712   -0.05351155055903013   -0.0013613402516300943
-0.009995137711160495   0.002384403311987759   0.011032454676743917
-0.009995137711160495   0.002384403311987759   0.011032454676743917
-0.009995137711160495   0.002384403311987759   0.011032454676743917
-0.009995137711160495   0.002384403311987759   0.011032454676743917
-0.010837094568769981   0.015593404547827733   0.0052877084071565345
-0.010837094568769981   0.015593404547827733   0.0052877084071565345
-0.010837094568769981   0.015593404547827733   0.0052877084071565345
-0.010837094568769981   0.015593404547827733   0.0052877084071565345
-0.25861787607758197   -0.034182075938652946   -0.006411091078989371
-0.25861787607758197   -0.034182075938652946   -0.006411091078989371
-0.25861787607758197   -0.034182075938652946   -0.006411091078989371
-0.25861787607758197   -0.034182075938652946   -0.006411091078989371
-0.13491890643727267   -0.016853566015929328   -0.004282989890774535
-0.13491890643727267   -0.016853566015929328   -0.004282989890774535
-0.13491890643727267   -0.016853566015929328   -0.004282989890774535
-0.13491890643727267   -0.016853566015929328   -0.004282989890774535
-0.25833827611002325   -0.03566950573151963   -0.0035256614483270277
-0.25833827611002325   -0.03566950573151963   -0.0035256614483270277
-0.25833827611002325   -0.03566950573151963   -0.0035256614483270277
-0.25833827611002325   -0.03566950573151963   -0.0035256614483270277
-0.009695820923523349   0.01850170795349947   0.00808577322771796
-0.009695820923523349   0.01850170795349947   0.00808577322771796
-0.009695820923523349   0.01850170795349947   0.00808577322771796
-0.009695820923523349   0.01850170795349947   0.00808577322771796
-0.009548052491908916   0.03311479805990078   0.002501069043648734
-0.009548052491908916   0.03311479805990078   0.002501069043648734
-0.009548052491908916   0.03311479805990078   0.002501069043648734
-0.009548052491908916   0.03311479805990078   0.002501069043648734
-0.2578560077811012   -0.01803149510532369   -0.009419076651393438
-0.2578560077811012   -0.01803149510532369   -0.009419076651393438
-0.2578560077811012   -0.01803149510532369   -0.009419076651393438
-0.2578560077811012   -0.01803149510532369   -0.009419076651393438
-0.13350402944442052   -0.0006674798106074062   0.0017947752519111224
-0.13350402944442052   -0.0006674798106074062   0.0017947752519111224
-0.13350402944442052   -0.0006674798106074062   0.0017947752519111224
-0.13350402944442052   -0.0006674798106074062   0.0017947752519111224
-0.2574710978668113   -0.01839602438405251   -0.00712999780121526
-0.2574710978668113   -0.01839602438405251   -0.00712999780121526
-0.2574710978668113   -0.01839602438405251   -0.00712999780121526
-0.2574710978668113   -0.01839602438405251   -0.00712999780121526
-0.008760600522440189   0.034651689222388836   0.004901437728504313
-0.008760600522440189   0.034651689222388836   0.004901437728504313
-0.008760600522440189   0.034651689222388836   0.004901437728504313
-0.008760600522440189   0.034651689222388836   0.004901437728504313
-0.009187259039959414   0.05115284636335733   -0.0004694360888776068
-0.009187259039959414   0.05115284636335733   -0.0004694360888776068
-0.009187259039959414   0.05115284636335733   -0.0004694360888776068
-0.009187259039959414   0.05115284636335733   -0.0004694360888776068
-0.25762831213209164   -0.0016126403516955358   -0.012466731272786372
-0.25762831213209164   -0.0016126403516955358   -0.012466731272786372
-0.25762831213209164   -0.0016126403516955358   -0.012466731272786372
-0.25762831213209164   -0.0016126403516955358   -0.012466731272786372
-0.13238050187238085   0.015534594249146274   0.007370146969034885
-0.13238050187238085   0.015534594249146274   0.007370146969034885
-0.13238050187238085   0.015534594249146274   0.007370146969034885
-0.13238050187238085   0.015534594249146274   0.007370146969034885
-0.02699666794620269   -0.05877325500715321   -0.012817538179326004
-0.02699666794620269   -0.05877325500715321   -0.012817538179326004
-0.02699666794620269   -0.05877325500715321   -0.012817538179326004
-0.02699666794620269   -0.05877325500715321   -0.012817538179326004
0.22825017034715125   0.015930090368148287   0.020989523032416774
0.22825017034715125   0.015930090368148287   0.020989523032416774
0.22825017034715125   0.015930090368148287   0.020989523032416774
0.22825017034715125   0.015930090368148287   0.020989523032416774
0.2207518585972718   0.008261879843522543   -0.008403573096971984
0.2207518585972718   0.008261879843522543   -0.008403573096971984
0.2207518585972718   0.008261879843522543   -0.008403573096971984
0.2207518585972718   0.008261879843522543   -0.008403573096971984
-0.01836694764968293   -0.021374470396851957   0.004606317947271487
-0.01836694764968293   -0.021374470396851957   0.004606317947271487
-0.01836694764968293   -0.021374470396851957   0.004606317947271487
-0.01836694764968293   -0.021374470396851957   0.004606317947271487
0.0994696444663346   -0.013764462903394097   -0.002443575388110991
0.0994696444663346   -0.013764462903394097   -0.002443575388110991
0.0994696444663346   -0.013764462903394097   -0.002443575388110991
0.0994696444663346   -0.013764462903394097   -0.002443575388110991
-0.026798146101542943   -0.04279352951551843   -0.016130615193362105
-0.026798146101542943   -0.04279352951551843   -0.016130615193362105
-0.026798146101542943   -0.04279352951551843   -0.016130615193362105
-0.026798146101542943   -0.04279352951551843   -0.016130615193362105
0.23079990536933914   0.03129778728239599   0.01880075332448919
0.23079990536933914   0.03129778728239599   0.01880075332448919
0.23079990536933914   0.03129778728239599   0.01880075332448919
0.23079990536933914   0.03129778728239599   0.01880075332448919
0.22450407751105766   0.02457348538150104   -0.011798624683060054
0.22450407751105766   0.02457348538150104   -0.011798624683060054
0.22450407751105766   0.02457348538150104   -0.011798624683060054
0.22450407751105766   0.02457348538150104   -0.011798624683060054
-0.017773382686820945   -0.006900585962807666   0.0013898020917972069
-0.017773382686820945   -0.006900585962807666   0.0013898020917972069
-0.017773382686820945   -0.006900585962807666   0.0013898020917972069
-0.017773382686820945   -0.006900585962807666   0.0013898020917972069
0.10049430704677872   0.0009045501072699686   0.0036054867064830055
0.10049430704677872   0.0009045501072699686   0.0036054867064830055
0.10049430704677872   0.0009045501072699686   0.0036054867064830055
0.10049430704677872   0.0009045501072699686   0.0036054867064830055
-0.025976406218925205   -0.02705672227849159   -0.01946917925304036
-0.025976406218925205   -0.02705672227849159   -0.01946917925304036
-0.025976406218925205   -0.02705672227849159   -0.01946917925304036
-0.025976406218925205   -0.02705672227849159   -0.01946917925304036
0.23446994687288347   0.046492467526905515   0.016111739980662516
0.23446994687288347   0.046492467526905515   0.016111739980662516
0.23446994687288347   0.046492467526905515   0.016111739980662516
0.23446994687288347   0.046492467526905515   0.016111739980662516
0.22686584717637814   0.04499107163252718   -0.012364765605281103
0.22686584717637814   0.04499107163252718   -0.012364765605281103
0.22686584717637814   0.04499107163252718   -0.012364765605281103
0.22686584717637814   0.04499107163252718   -0.012364765605281103
-0.017692392485076855   0.00997750129782807   -0.0018197582489353648
-0.017692392485076855   0.00997750129782807   -0.0018197582489353648
-0.017692392485076855   0.00997750129782807   -0.0018197582489353648
-0.017692392485076855   0.00997750129782807   -0.0018197582489353648
0.10414392437726072   0.017222171020112698   0.010772056848646247
0.10414392437726072   0.017222171020112698   0.010772056848646247
0.10414392437726072   0.017222171020112698   0.010772056848646247
0.10414392437726072   0.017222171020112698   0.010772056848646247
0.20416453857657826   -0.05844594365206904   -0.025062601800229012
0.20416453857657826   -0.05844594365206904   -0.025062601800229012
0.20416453857657826   -0.05844594365206904   -0.025062601800229012
0.20416453857657826   -0.05844594365206904   -0.025062601800229012
0.45026984882478444   0.033474374668259074   0.023511342124901385
0.45026984882478444   0.033474374668259074   0.023511342124901385
0.45026984882478444   0.033474374668259074   0.023511342124901385
0.45026984882478444   0.033474374668259074   0.023511342124901385
0.44679821742890447   -0.0026600105294587936   -0.03336657089115039
0.44679821742890447   -0.0026600105294587936   -0.03336657089115039
0.44679821742890447   -0.0026600105294587936   -0.03336657089115039
0.44679821742890447   -0.0026600105294587936   -0.03336657089115039
0.2230178711507715   -0.004640563004551724   0.015828932518600826
0.2230178711507715   -0.004640563004551724   0.015828932518600826
0.2230178711507715   -0.004640563004551724   0.015828932518600826
0.2230178711507715   -0.004640563004551724   0.015828932518600826
0.31498348045847385   -0.011535441735608633   -0.010435732587668056
0.31498348045847385   -0.011535441735608633   -0.010435732587668056
0.31498348045847385   -0.011535441735608633   -0.010435732587668056
0.31498348045847385   -0.011535441735608633   -0.010435732587668056
0.20448897552590684   -0.05061647204490283   -0.03083963656537099
0.20448897552590684   -0.05061647204490283   -0.03083963656537099
0.20448897552590684   -0.05061647204490283   -0.03083963656537099
0.20448897552590684   -0.05061647204490283   -0.03083963656537099
0.4666545063337292   0.04464329179085205   0.018611571312662084
0.4666545063337292   0.04464329179085205   0.018611571312662084
0.4666545063337292   0.04464329179085205   0.018611571312662084
0.4666545063337292   0.04464329179085205   0.018611571312662084
0.45806319712391674   0.00664382066694396   -0.0448178400989159
0.45806319712391674   0.00664382066694396   -0.0448178400989159
0.45806319712391674   0.00664382066694396   -0.0448178400989159
0.45806319712391674   0.00664382066694396   -0.0448178400989159
0.22480838865970001   0.0024612699296438327   0.011835146512010938
0.22480838865970001   0.0024612699296438327   0.011835146512010938
0.22480838865970001   0.0024612699296438327   0.011835146512010938
0.22480838865970001   0.0024612699296438327   0.011835146512010938
0.3295010887136855   -0.0014523619670630539   -0.003126287078988349
0.3295010887136855   -0.0014523619670630539   -0.003126287078988349
0.3295010887136855   -0.0014523619670630539   -0.003126287078988349
0.3295010887136855   -0.0014523619670630539   -0.003126287078988349
0.206959728161211   -0.04133556859664372   -0.03361131745414851
0.206959728161211   -0.04133556859664372   -0.03361131745414851
0.206959728161211   -0.04133556859664372   -0.03361131745414851
0.206959728161211   -0.04133556859664372   -0.03361131745414851
0.4788484027243263   0.05337720429515298   0.012374804274926612
0.4788484027243263   0.05337720429515298   0.012374804274926612
0.4788484027243263   0.05337720429515298   0.012374804274926612
0.4788484027243263   0.05337720429515298   0.012374804274926612
0.4759335245711302   0.030821509184744654   -0.04222979730184713
0.4759335245711302   0.030821509184744654   -0.04222979730184713
0.4759335245711302   0.030821509184744654   -0.04222979730184713
0.4759335245711302   0.030821509184744654   -0.04222979730184713
0.22568676600904206   0.01806190824004582   0.0086689919505223
0.22568676600904206   0.01806190824004582   0.0086689919505223
0.22568676600904206   0.01806190824004582   0.0086689919505223
0.22568676600904206   0.01806190824004582   0.0086689919505223
0.3322082752506118   0.010039761254055153   0.004999356056077778
0.3322082752506118   0.010039761254055153   0.004999356056077778
0.3322082752506118   0.010039761254055153   0.004999356056077778
0.3322082752506118   0.010039761254055153   0.004999356056077778
-0.5250681718466544   -0.0168902650821664   0.03476081737700534
-0.5250681718466544   -0.0168902650821664   0.03476081737700534
-0.5250681718466544   -0.0168902650821664   0.03476081737700534
-0.5250681718466544   -0.0168902650821664   0.03476081737700534
-0.3684429181181368   -0.02488642550103481   -0.01306348043759914
-0.3684429181181368   -0.02488642550103481   -0.01306348043759914
-0.3684429181181368   -0.02488642550103481   -0.01306348043759914
-0.3684429181181368   -0.02488642550103481   -0.01306348043759914
-0.34661716809314047   0.03491810680457799   0.02960433191079237
-0.34661716809314047   0.03491810680457799   0.02960433191079237
-0.34661716809314047   0.03491810680457799   0.02960433191079237
-0.34661716809314047   0.03491810680457799   0.02960433191079237
-0.5250966991229932   -0.0432839587982849   -0.01912262267306436
-0.5250966991229932   -0.0432839587982849   -0.01912262267306436
-0.5250966991229932   -0.0432839587982849   -0.01912262267306436
-0.5250966991229932   -0.0432839587982849   -0.01912262267306436
-0.4232858194040714   -0.006683889380824055   -0.0011536421175443456
-0.4232858194040714   -0.006683889380824055   -0.0011536421175443456
-0.4232858194040714   -0.006683889380824055   -0.0011536421175443456
-0.4232858194040714   -0.006683889380824055   -0.0011536421175443456
-0.5052325865063507   0.0038807942184583694   0.03303318739340444
-0.5052325865063507   0.0038807942184583694   0.03303318739340444
-0.5052325865063507   0.0038807942184583694   0.03303318739340444
-0.5052325865063507   0.0038807942184583694   0.03303318739340444
-0.36486003562727576   -0.010625401129657461   -0.01606649782564451
-0.36486003562727576   -0.010625401129657461   -0.01606649782564451
-0.36486003562727576   -0.010625401129657461   -0.01606649782564451
-0.36486003562727576   -0.010625401129657461   -0.01606649782564451
-0.34334287419942255   0.04220769777985233   0.024993593288524768
-0.34334287419942255   0.04220769777985233   0.024993593288524768
-0.34334287419942255   0.04220769777985233   0.024993593288524768
-0.34334287419942255   0.04220769777985233   0.024993593288524768
-0.5125314240058405   -0.03515257982212197   -0.024140262591822656
-0.5125314240058405   -0.03515257982212197   -0.024140262591822656
-0.5125314240058405   -0.03515257982212197   -0.024140262591822656
-0.5125314240058405   -0.03515257982212197   -0.024140262591822656
-0.4202285169095788   0.002916871639297009   0.004296211733892857
-0.4202285169095788   0.002916871639297009   0.004296211733892857
-0.4202285169095788   0.002916871639297009   0.004296211733892857
-0.4202285169095788   0.002916871639297009   0.004296211733892857
-0.4928561257360564   0.012602548834846461   0.026481100100129343
-0.4928561257360564   0.012602548834846461   0.026481100100129343
-0.4928561257360564   0.012602548834846461   0.026481100100129343
-0.4928561257360564   0.012602548834846461   0.026481100100129343
-0.3615572193302927   -0.004086477738201824   -0.01978395684776979
-0.3615572193302927   -0.004086477738201824   -0.01978395684776979
-0.3615572193302927   -0.004086477738201824   -0.01978395684776979
-0.3615572193302927   -0.004086477738201824   -0.01978395684776979
-0.34153446523433534   0.04938241454466437   0.021503836133374782
-0.34153446523433534   0.04938241454466437   0.021503836133374782
-0.34153446523433534   0.04938241454466437   0.021503836133374782
-0.34153446523433534   0.04938241454466437   0.021503836133374782
-0.4957412428906204   -0.024367936177813493   -0.028882113639512583
-0.4957412428906204   -0.024367936177813493   -0.028882113639512583
-0.4957412428906204   -0.024367936177813493   -0.028882113639512583
-0.4957412428906204   -0.024367936177813493   -0.028882113639512583
-0.4043893344790139   0.011945301503167569   0.011899449842825663
-0.4043893344790139   0.011945301503167569   0.011899449842825663
-0.4043893344790139   0.011945301503167569   0.011899449842825663
-0.4043893344790139   0.011945301503167569   0.011899449842825663
-0.3641401731538943   -0.029626908879291206   0.013190727761867777
-0.3641401731538943   -0.029626908879291206   0.013190727761867777
-0.3641401731538943   -0.029626908879291206   0.013190727761867777
-0.3641401731538943   -0.029626908879291206   0.013190727761867777
-0.21213313470492368   -0.016119256410232808   -0.0021125275845496547
-0.21213313470492368   -0.016119256410232808   -0.0021125275845496547
-0.21213313470492368   -0.016119256410232808   -0.0021125275845496547
-0.21213313470492368   -0.016119256410232808   -0.0021125275845496547
-0.20133053736015583   0.02037360151253218   0.015957512154732886
-0.20133053736015583   0.02037360151253218   0.015957512154732886
-0.20133053736015583   0.02037360151253218   0.015957512154732886
-0.20133053736015583   0.02037360151253218   0.015957512154732886
-0.36966653516551873   -0.035327898249709846   -0.015396498396810732
-0.36966653516551873   -0.035327898249709846   -0.015396498396810732
-0.36966653516551873   -0.035327898249709846   -0.015396498396810732
-0.36966653516551873   -0.035327898249709846   -0.015396498396810732
-0.28569372182642705   -0.013864173123175194   -0.005927559433719802
-0.28569372182642705   -0.013864173123175194   -0.005927559433719802
-0.28569372182642705   -0.013864173123175194   -0.005927559433719802
-0.28569372182642705   -0.013864173123175194   -0.005927559433719802
-0.3598382745052224   -0.012363389180362581   0.010780295835321821
-0.3598382745052224   -0.012363389180362581   0.010780295835321821
-0.3598382745052224   -0.012363389180362581   0.010780295835321821
-0.3598382745052224   -0.012363389180362581   0.010780295835321821
-0.20989652417914945   -0.0013286337155120585   -0.005170186712191022
-0.20989652417914945   -0.0013286337155120585   -0.005170186712191022
-0.20989652417914945   -0.0013286337155120585   -0.005170186712191022
-0.20989652417914945   -0.0013286337155120585   -0.005170186712191022
-0.1987736572163208   0.03533685780577856   0.013071064043783102
-0.1987736572163208   0.03533685780577856   0.013071064043783102
-0.1987736572163208   0.03533685780577856   0.013071064043783102
-0.1987736572163208   0.03533685780577856   0.013071064043783102
-0.3646605697445871   -0.021238051861891993   -0.018149134795553676
-0.3646605697445871   -0.021238051861891993   -0.018149134795553676
-0.3646605697445871   -0.021238051861891993   -0.018149134795553676
-0.3646605697445871   -0.021238051861891993   -0.018149134795553676
-0.28020067110348623   0.0008059501480249878   0.0003771682794522363
-0.28020067110348623   0.0008059501480249878   0.0003771682794522363
-0.28020067110348623   0.0008059501480249878   0.0003771682794522363
-0.28020067110348623   0.0008059501480249878   0.0003771682794522363
-0.35408914081688797   0.0036279498942653893   0.009842008086784454
-0.35408914081688797   0.0036279498942653893   0.009842008086784454
-0.35408914081688797   0.0036279498942653893   0.009842008086784454
-0.35408914081688797   0.0036279498942653893   0.009842008086784454
-0.20777767536867014   0.012038266824970917   -0.008650435737156084
-0.20777767536867014   0.012038266824970917   -0.008650435737156084
-0.20777767536867014   0.012038266824970917   -0.008650435737156084
-0.20777767536867014   0.012038266824970917   -0.008650435737156084
-0.19630208677648367   0.05131056400492143   0.010383154669658612
-0.19630208677648367   0.05131056400492143   0.010383154669658612
-0.19630208677648367   0.05131056400492143   0.010383154669658612
-0.19630208677648367   0.05131056400492143   0.010383154669658612
-0.36092532654694925   -0.006023144284642673   -0.02004491160038966
-0.36092532654694925   -0.006023144284642673   -0.02004491160038966
-0.36092532654694925   -0.006023144284642673   -0.02004491160038966
-0.36092532654694925   -0.006023144284642673   -0.02004491160038966
-0.27805749598825336   0.014649959091543374   0.006395944486832103
-0.27805749598825336   0.014649959091543374   0.006395944486832103
-0.27805749598825336   0.014649959091543374   0.006395944486832103
-0.27805749598825336   0.014649959091543374   0.006395944486832103
-0.21656146455020633   -0.04100836636284134   0.0006349331416480794
-0.21656146455020633   -0.04100836636284134   0.0006349331416480794
-0.21656146455020633   -0.04100836636284134   0.0006349331416480794
-0.21656146455020633   -0.04100836636284134   0.0006349331416480794
-0.05734242403147602   -0.005012648725197861   0.008807550811711458
-0.05734242403147602   -0.005012648725197861   0.008807550811711458
-0.05734242403147602   -0.005012648725197861   0.008807550811711458
-0.05734242403147602   -0.005012648725197861   0.008807550811711458
-0.055979812340883256   0.00822862796058777   0.0030043646805193672
-0.055979812340883256   0.00822862796058777   0.0030043646805193672
-0.055979812340883256   0.00822862796058777   0.0030043646805193672
-0.055979812340883256   0.00822862796058777   0.0030043646805193672
-0.2141905762174125   -0.02389076334501458   -0.004078317274003769
-0.2141905762174125   -0.02389076334501458   -0.004078317274003769
-0.2141905762174125   -0.02389076334501458   -0.004078317274003769
-0.2141905762174125   -0.02389076334501458   -0.004078317274003769
-0.13625528928908798   -0.014755011692194273   -0.004224866493307052
-0.13625528928908798   -0.014755011692194273   -0.004224866493307052
-0.13625528928908798   -0.014755011692194273   -0.004224866493307052
-0.13625528928908798   -0.014755011692194273   -0.004224866493307052
-0.21383469415441236   -0.024317629499187664   -0.0018720408048286605
-0.21383469415441236   -0.024317629499187664   -0.0018720408048286605
-0.21383469415441236   -0.024317629499187664   -0.0018720408048286605
-0.21383469415441236   -0.024317629499187664   -0.0018720408048286605
-0.05507004266619644   0.009921145852449308   0.005860695162091929
-0.05507004266619644   0.009921145852449308   0.005860695162091929
-0.05507004266619644   0.009921145852449308   0.005860695162091929
-0.05507004266619644   0.009921145852449308   0.005860695162091929
-0.05288965119476133   0.024994713186226113   0.0007456082200156932
-0.05288965119476133   0.024994713186226113   0.0007456082200156932
-0.05288965119476133   0.024994713186226113   0.0007456082200156932
-0.05288965119476133   0.024994713186226113   0.0007456082200156932
-0.21162936921090647   -0.008849674289939095   -0.0070209638334276445
-0.21162936921090647   -0.008849674289939095   -0.0070209638334276445
-0.21162936921090647   -0.008849674289939095   -0.0070209638334276445
-0.21162936921090647   -0.008849674289939095   -0.0070209638334276445
-0.13295318169250628   0.0002958051323547241   0.0017238915187555784
-0.13295318169250628   0.0002958051323547241   0.0017238915187555784
-0.13295318169250628   0.0002958051323547241   0.0017238915187555784
-0.13295318169250628   0.0002958051323547241   0.0017238915187555784
-0.2108377737054961   -0.007605470899322474   -0.004307189696992467
-0.2108377737054961   -0.007605470899322474   -0.004307189696992467
-0.2108377737054961   -0.007605470899322474   -0.004307189696992467
-0.2108377737054961   -0.007605470899322474   -0.004307189696992467
-0.052512484827739944   0.024919271668041237   0.0027068815733074965
-0.052512484827739944   0.024919271668041237   0.0027068815733074965
-0.052512484827739944   0.024919271668041237   0.0027068815733074965
-0.052512484827739944   0.024919271668041237   0.0027068815733074965
-0.0501127089606537   0.042004127267110516   -0.001898496350194054
-0.0501127089606537   0.042004127267110516   -0.001898496350194054
-0.0501127089606537   0.042004127267110516   -0.001898496350194054
-0.0501127089606537   0.042004127267110516   -0.001898496350194054
-0.2093899480809448   0.006362463164067529   -0.010108051011791686
-0.2093899480809448   0.006362463164067529   -0.010108051011791686
-0.2093899480809448   0.006362463164067529   -0.010108051011791686
-0.2093899480809448   0.006362463164067529   -0.010108051011791686
-0.12993931840175155   0.015419097147212464   0.007455093950255114
-0.12993931840175155   0.015419097147212464   0.007455093950255114
-0.12993931840175155   0.015419097147212464   0.007455093950255114
-0.12993931840175155   0.015419097147212464   0.007455093950255114
-0.07049135126286152   -0.05033838781201708   -0.011611346258397255
-0.07049135126286152   -0.05033838781201708   -0.011611346258397255
-0.07049135126286152   -0.05033838781201708   -0.011611346258397255
-0.07049135126286152   -0.05033838781201708   -0.011611346258397255
0.09518592875795234   0.00742231482918345   0.01908693109667938
0.09518592875795234   0.00742231482918345   0.01908693109667938
0.09518592875795234   0.00742231482918345   0.01908693109667938
0.09518592875795234   0.00742231482918345   0.01908693109667938
0.08829729782944415   -0.0031253112494080207   -0.010812131794635908
0.08829729782944415   -0.0031253112494080207   -0.010812131794635908
0.08829729782944415   -0.0031253112494080207   -0.010812131794635908
0.08829729782944415   -0.0031253112494080207   -0.010812131794635908
-0.059120303390545956   -0.011603306076786554   0.00713384346957973
-0.059120303390545956   -0.011603306076786554   0.00713384346957973
-0.059120303390545956   -0.011603306076786554   0.00713384346957973
-0.059120303390545956   -0.011603306076786554   0.00713384346957973
0.012871500729009984   -0.014008842027107078   -0.0030160436565296422
0.012871500729009984   -0.014008842027107078   -0.0030160436565296422
0.012871500729009984   -0.014008842027107078   -0.0030160436565296422
0.012871500729009984   -0.014008842027107078   -0.0030160436565296422
-0.06811205336418491   -0.035108664686905725   -0.01431954778849539
-0.06811205336418491   -0.035108664686905725   -0.01431954778849539
-0.06811205336418491   -0.035108664686905725   -0.01431954778849539
-0.06811205336418491   -0.035108664686905725   -0.01431954778849539
0.09879426789325718   0.021885267450885162   0.01666213982413517
0.09879426789325718   0.021885267450885162   0.01666213982413517
0.09879426789325718   0.021885267450885162   0.01666213982413517
0.09879426789325718   0.021885267450885162   0.01666213982413517
0.09406355880290566   0.012737111695544662   -0.012258651106167768
0.09406355880290566   0.012737111695544662   -0.012258651106167768
0.09406355880290566   0.012737111695544662   -0.012258651106167768
0.09406355880290566   0.012737111695544662   -0.012258651106167768
-0.05689189823398041   0.0018474927767505077   0.003881593433395376
-0.05689189823398041   0.0018474927767505077   0.003881593433395376
-0.05689189823398041   0.0018474927767505077   0.003881593433395376
-0.05689189823398041   0.0018474927767505077   0.003881593433395376
0.01594916325078134   -0.0003396223193750848   0.0030427289516841
0.01594916325078134   -0.0003396223193750848   0.0030427289516841
0.01594916325078134   -0.0003396223193750848   0.0030427289516841
0.01594916325078134   -0.0003396223193750848   0.0030427289516841
-0.06556986437759087   -0.02022499301741855   -0.0174357514904873
-0.06556986437759087   -0.02022499301741855   -0.0174357514904873
-0.06556986437759087   -0.02022499301741855   -0.0174357514904873
-0.06556986437759087   -0.02022499301741855   -0.0174357514904873
0.10404761136400785   0.03611568390720537   0.014283039487681441
0.10404761136400785   0.03611568390720537   0.014283039487681441
0.10404761136400785   0.03611568390720537   0.014283039487681441
0.10404761136400785   0.03611568390720537   0.014283039487681441
0.09871359135917492   0.03078650499059733   -0.014180723629340829
0.09871359135917492   0.03078650499059733   -0.014180723629340829
0.09871359135917492   0.03078650499059733   -0.014180723629340829
0.09871359135917492   0.03078650499059733   -0.014180723629340829
-0.054512022933003446   0.017321617863767666   0.0007874431914000821
-0.054512022933003446   0.017321617863767666   0.0007874431914000821
-0.054512022933003446   0.017321617863767666   0.0007874431914000821
-0.054512022933003446   0.017321617863767666   0.0007874431914000821
0.020668082193686703   0.014488113216054336   0.00930301539883599
0.020668082193686703   0.014488113216054336   0.00930301539883599
0.020668082193686703   0.014488113216054336   0.00930301539883599
0.020668082193686703   0.014488113216054336   0.00930301539883599
0.07511331268299926   -0.05085830656238214   -0.02299552788651952
0.07511331268299926   -0.05085830656238214   -0.02299552788651952
0.07511331268299926   -0.05085830656238214   -0.02299552788651952
0.07511331268299926   -0.05085830656238214   -0.02299552788651952
0.23005715267847454   0.022814103096215534   0.024857175547435433
0.23005715267847454   0.022814103096215534   0.024857175547435433
0.23005715267847454   0.022814103096215534   0.024857175547435433
0.23005715267847454   0.022814103096215534   0.024857175547435433
0.2276782301419706   -0.012931926061557027   -0.030288241757624783
0.2276782301419706   -0.012931926061557027   -0.030288241757624783
0.2276782301419706   -0.012931926061557027   -0.030288241757624783
0.2276782301419706   -0.012931926061557027   -0.030288241757624783
0.0956705951086798   0.004358034959288269   0.018571008392846027
0.0956705951086798   0.004358034959288269   0.018571008392846027
0.0956705951086798   0.004358034959288269   0.018571008392846027
0.0956705951086798   0.004358034959288269   0.018571008392846027
0.1489242268598758   -0.010653392206174148   -0.007997651521274761
0.1489242268598758   -0.010653392206174148   -0.007997651521274761
0.1489242268598758   -0.010653392206174148   -0.007997651521274761
0.1489242268598758   -0.010653392206174148   -0.007997651521274761
0.07730845466909081   -0.04227047047814163   -0.026611188367668
0.07730845466909081   -0.04227047047814163   -0.026611188367668
0.07730845466909081   -0.04227047047814163   -0.026611188367668
0.07730845466909081   -0.04227047047814163   -0.026611188367668
0.2475749380027282   0.03523114679704101   0.021032224687568962
0.2475749380027282   0.03523114679704101   0.021032224687568962
0.2475749380027282   0.03523114679704101   0.021032224687568962
0.2475749380027282   0.03523114679704101   0.021032224687568962
0.24043221468556106   -0.004055524211056809   -0.03637265021735331
0.24043221468556106   -0.004055524211056809   -0.03637265021735331
0.24043221468556106   -0.004055524211056809   -0.03637265021735331
0.24043221468556106   -0.004055524211056809   -0.03637265021735331
0.0990419554894583   0.010863183474117293   0.01450726054802182
0.0990419554894583   0.010863183474117293   0.01450726054802182
0.0990419554894583   0.010863183474117293   0.01450726054802182
0.0990419554894583   0.010863183474117293   0.01450726054802182
0.16172953342230575   -0.0016814395052093135   -0.0008799783104897138
0.16172953342230575   -0.0016814395052093135   -0.0008799783104897138
0.16172953342230575   -0.0016814395052093135   -0.0008799783104897138
0.16172953342230575   -0.0016814395052093135   -0.0008799783104897138
0.08081202409336877   -0.034884062398071784   -0.03089515056023588
0.08081202409336877   -0.034884062398071784   -0.03089515056023588
0.08081202409336877   -0.034884062398071784   -0.03089515056023588
0.08081202409336877   -0.034884062398071784   -0.03089515056023588
0.2602653539939354   0.04329492957341655   0.015442592540048719
0.2602653539939354   0.04329492957341655   0.015442592540048719
0.2602653539939354   0.04329492957341655   0.015442592540048719
0.2602653539939354   0.04329492957341655   0.015442592540048719
0.26006023326801425   0.015407447090272617   -0.038976781057312074
0.26006023326801425   0.015407447090272617   -0.038976781057312074
0.26006023326801425   0.015407447090272617   -0.038976781057312074
0.26006023326801425   0.015407447090272617   -0.038976781057312074
0.10248935268364431   0.023946947511196574   0.011537640472406976
0.10248935268364431   0.023946947511196574   0.011537640472406976
0.10248935268364431   0.023946947511196574   0.011537640472406976
0.10248935268364431   0.023946947511196574   0.011537640472406976
0.1682419307853941   0.008170318554771473   0.005278627016239455
0.1682419307853941   0.008170318554771473   0.005278627016239455
0.1682419307853941   0.008170318554771473   0.005278627016239455
0.1682419307853941   0.008170318554771473   0.005278627016239455
-0.3127244600936692   -0.004925327531385373   0.03102355138618053
-0.3127244600936692   -0.004925327531385373   0.03102355138618053
-0.3127244600936692   -0.004925327531385373   0.03102355138618053
-0.3127244600936692   -0.004925327531385373   0.03102355138618053
-0.24530420385152646   -0.03136497445494917   -0.015242445617755604
-0.24530420385152646   -0.03136497445494917   -0.015242445617755604
-0.24530420385152646   -0.03136497445494917   -0.015242445617755604
-0.24530420385152646   -0.03136497445494917   -0.015242445617755604
-0.2219877673004506   0.026461790693818207   0.026497192964908683
-0.2219877673004506   0.026461790693818207   0.026497192964908683
-0.2219877673004506   0.026461790693818207   0.026497192964908683
-0.2219877673004506   0.026461790693818207   0.026497192964908683
-0.3114716310242848   -0.033981323415325004   -0.02078937010106721
-0.3114716310242848   -0.033981323415325004   -0.02078937010106721
-0.3114716310242848   -0.033981323415325004   -0.02078937010106721
-0.3114716310242848   -0.033981323415325004   -0.02078937010106721
-0.26249279574076734   -0.007154388153990969   -0.004079652183625743
-0.26249279574076734   -0.007154388153990969   -0.004079652183625743
-0.26249279574076734   -0.007154388153990969   -0.004079652183625743
-0.26249279574076734   -0.007154388153990969   -0.004079652183625743
-0.29197597931925806   0.013088518915686066   0.02961904609305545
-0.29197597931925806   0.013088518915686066   0.02961904609305545
-0.29197597931925806   0.013088518915686066   0.02961904609305545
-0.29197597931925806   0.013088518915686066   0.02961904609305545
-0.24011644945293806   -0.01924108208465322   -0.018443345019055084
-0.24011644945293806   -0.01924108208465322   -0.018443345019055084
-0.24011644945293806   -0.01924108208465322   -0.018443345019055084
-0.24011644945293806   -0.01924108208465322   -0.018443345019055084
-0.21655398375134335   0.03334887427316319   0.022389567630105904
-0.21655398375134335   0.03334887427316319   0.022389567630105904
-0.21655398375134335   0.03334887427316319   0.022389567630105904
-0.21655398375134335   0.03334887427316319   0.022389567630105904
-0.29709996877401723   -0.026173751314232916   -0.025938130056464212
-0.29709996877401723   -0.026173751314232916   -0.025938130056464212
-0.29709996877401723   -0.026173751314232916   -0.025938130056464212
-0.29709996877401723   -0.026173751314232916   -0.025938130056464212
-0.25497785873704715   0.0018443741064192547   0.0016836328637719888
-0.25497785873704715   0.0018443741064192547   0.0016836328637719888
-0.25497785873704715   0.0018443741064192547   0.0016836328637719888
-0.25497785873704715   0.0018443741064192547   0.0016836328637719888
-0.27760802509109017   0.021441433239983196   0.023906403803952807
-0.27760802509109017   0.021441433239983196   0.023906403803952807
-0.27760802509109017   0.021441433239983196   0.023906403803952807
-0.27760802509109017   0.021441433239983196   0.023906403803952807
-0.23475670181279007   -0.01297708465957264   -0.022298063744389963
-0.23475670181279007   -0.01297708465957264   -0.022298063744389963
-0.23475670181279007   -0.01297708465957264   -0.022298063744389963
-0.23475670181279007   -0.01297708465957264   -0.022298063744389963
-0.2121750830964076   0.04198299135235365   0.019306364217117934
-0.2121750830964076   0.04198299135235365   0.019306364217117934
-0.2121750830964076   0.04198299135235365   0.019306364217117934
-0.2121750830964076   0.04198299135235365   0.019306364217117934
-0.27780248408920516   -0.013662848290592947   -0.030003196422796183
-0.27780248408920516   -0.013662848290592947   -0.030003196422796183
-0.27780248408920516   -0.013662848290592947   -0.030003196422796183
-0.27780248408920516   -0.013662848290592947   -0.030003196422796183
-0.23986487932644524   0.010749600408651212   0.008807880125003192
-0.23986487932644524   0.010749600408651212   0.008807880125003192
-0.23986487932644524   0.010749600408651212   0.008807880125003192
-0.23986487932644524   0.010749600408651212   0.008807880125003192
-0.23655517083723474   -0.017628007600028587   0.014765752598782503
-0.23655517083723474   -0.017628007600028587   0.014765752598782503
-0.23655517083723474   -0.017628007600028587   0.014765752598782503
-0.23655517083723474   -0.017628007600028587   0.014765752598782503
-0.1748920832112319   -0.023763837072124996   -0.004505098639361341
-0.1748920832112319   -0.023763837072124996   -0.004505098639361341
-0.1748920832112319   -0.023763837072124996   -0.004505098639361341
-0.1748920832112319   -0.023763837072124996   -0.004505098639361341
-0.16194558529299188   0.01200558137514146   0.01354994985491137
-0.16194558529299188   0.01200558137514146   0.01354994985491137
-0.16194558529299188   0.01200558137514146   0.01354994985491137
-0.16194558529299188   0.01200558137514146   0.01354994985491137
-0.24017892633525845   -0.025043680243165112   -0.012953131272145181
-0.24017892633525845   -0.025043680243165112   -0.012953131272145181
-0.24017892633525845   -0.025043680243165112   -0.012953131272145181
-0.24017892633525845   -0.025043680243165112   -0.012953131272145181
-0.202861335688702   -0.012515386750442314   -0.0055369710333146235
-0.202861335688702   -0.012515386750442314   -0.0055369710333146235
-0.202861335688702   -0.012515386750442314   -0.0055369710333146235
-0.202861335688702   -0.012515386750442314   -0.0055369710333146235
-0.23044526615007904   -0.0018917057376193237   0.012563195148202262
-0.23044526615007904   -0.0018917057376193237   0.012563195148202262
-0.23044526615007904   -0.0018917057376193237   0.012563195148202262
-0.23044526615007904   -0.0018917057376193237   0.012563195148202262
-0.17057713612860737   -0.010044283780842165   -0.007557939167181546
-0.17057713612860737   -0.010044283780842165   -0.007557939167181546
-0.17057713612860737   -0.010044283780842165   -0.007557939167181546
-0.17057713612860737   -0.010044283780842165   -0.007557939167181546
-0.15726805134021793   0.026035964268575164   0.010828427452412914
-0.15726805134021793   0.026035964268575164   0.010828427452412914
-0.15726805134021793   0.026035964268575164   0.010828427452412914
-0.15726805134021793   0.026035964268575164   0.010828427452412914
-0.23312261872949547   -0.011590308775043285   -0.015514424212444387
-0.23312261872949547   -0.011590308775043285   -0.015514424212444387
-0.23312261872949547   -0.011590308775043285   -0.015514424212444387
-0.23312261872949547   -0.011590308775043285   -0.015514424212444387
-0.1960612236184618   0.0009766110977724902   0.0005052477795912183
-0.1960612236184618   0.0009766110977724902   0.0005052477795912183
-0.1960612236184618   0.0009766110977724902   0.0005052477795912183
-0.1960612236184618   0.0009766110977724902   0.0005052477795912183
-0.22281611580997884   0.01303851850513228   0.011389263104959413
-0.22281611580997884   0.01303851850513228   0.011389263104959413
-0.22281611580997884   0.01303851850513228   0.011389263104959413
-0.22281611580997884   0.01303851850513228   0.011389263104959413
-0.1663024170666671   0.002679274181466393   -0.010986711092724331
-0.1663024170666671   0.002679274181466393   -0.010986711092724331
-0.1663024170666671   0.002679274181466393   -0.010986711092724331
-0.1663024170666671   0.002679274181466393   -0.010986711092724331
-0.1526040483311093   0.041297313478828784   0.008236099001127664
-0.1526040483311093   0.041297313478828784   0.008236099001127664
-0.1526040483311093   0.041297313478828784   0.008236099001127664
-0.1526040483311093   0.041297313478828784   0.008236099001127664
-0.22732349701238125   0.0031360765349989694   -0.017588790545393872
-0.22732349701238125   0.0031360765349989694   -0.017588790545393872
-0.22732349701238125   0.0031360765349989694   -0.017588790545393872
-0.22732349701238125   0.0031360765349989694   -0.017588790545393872
-0.1911551865514056   0.014241738207457996   0.006429327562459508
-0.1911551865514056   0.014241738207457996   0.006429327562459508
-0.1911551865514056   0.014241738207457996   0.006429327562459508
-0.1911551865514056   0.014241738207457996   0.006429327562459508
-0.17464469658847184   -0.02970084493206444   0.002668842334374387
-0.17464469658847184   -0.02970084493206444   0.002668842334374387
-0.17464469658847184   -0.02970084493206444   0.002668842334374387
-0.17464469658847184   -0.02970084493206444   0.002668842334374387
-0.10533829411088641   -0.012711724533983807   0.006378552043658819
-0.10533829411088641   -0.012711724533983807   0.006378552043658819
-0.10533829411088641   -0.012711724533983807   0.006378552043658819
-0.10533829411088641   -0.012711724533983807   0.006378552043658819
-0.101884778851419   -0.000451685935898582   0.0008112724055827185
-0.101884778851419   -0.000451685935898582   0.0008112724055827185
-0.101884778851419   -0.000451685935898582   0.0008112724055827185
-0.101884778851419   -0.000451685935898582   0.0008112724055827185
-0.1700466560204239   -0.013472147183610303   -0.0014776752234970034
-0.1700466560204239   -0.013472147183610303   -0.0014776752234970034
-0.1700466560204239   -0.013472147183610303   -0.0014776752234970034
-0.1700466560204239   -0.013472147183610303   -0.0014776752234970034
-0.1382006576177953   -0.013421182039887958   -0.004043468609393818
-0.1382006576177953   -0.013421182039887958   -0.004043468609393818
-0.1382006576177953   -0.013421182039887958   -0.004043468609393818
-0.1382006576177953   -0.013421182039887958   -0.004043468609393818
-0.16983025164888843   -0.014147162571996132   0.00027936202256437226
-0.16983025164888843   -0.014147162571996132   0.00027936202256437226
-0.16983025164888843   -0.014147162571996132   0.00027936202256437226
-0.16983025164888843   -0.014147162571996132   0.00027936202256437226
-0.10100421243975555   0.001320300235684458   0.0034421182923160924
-0.10100421243975555   0.001320300235684458   0.0034421182923160924
-0.10100421243975555   0.001320300235684458   0.0034421182923160924
-0.10100421243975555   0.001320300235684458   0.0034421182923160924
-0.0967935224956654   0.01523754356764202   -0.0014207212607631296
-0.0967935224956654   0.01523754356764202   -0.0014207212607631296
-0.0967935224956654   0.01523754356764202   -0.0014207212607631296
-0.0967935224956654   0.01523754356764202   -0.0014207212607631296
-0.16535925778193042   0.0007615552117512005   -0.004353195699327683
-0.16535925778193042   0.0007615552117512005   -0.004353195699327683
-0.16535925778193042   0.0007615552117512005   -0.004353195699327683
-0.16535925778193042   0.0007615552117512005   -0.004353195699327683
-0.13282468408512962   0.0006679082290689583   0.0018240915606882596
-0.13282468408512962   0.0006679082290689583   0.0018240915606882596
-0.13282468408512962   0.0006679082290689583   0.0018240915606882596
-0.13282468408512962   0.0006679082290689583   0.0018240915606882596
-0.16477385567976346   0.0014939126563554232   -0.0021585426330980387
-0.16477385567976346   0.0014939126563554232   -0.0021585426330980387
-0.16477385567976346   0.0014939126563554232   -0.0021585426330980387
-0.16477385567976346   0.0014939126563554232   -0.0021585426330980387
-0.09638626660781581   0.015497844113054045   0.00035525763307193287
-0.09638626660781581   0.015497844113054045   0.00035525763307193287
-0.09638626660781581   0.015497844113054045   0.00035525763307193287
-0.09638626660781581   0.015497844113054045   0.00035525763307193287
-0.09198311167784479   0.031074188563520826   -0.003956260417617555
-0.09198311167784479   0.031074188563520826   -0.003956260417617555
-0.09198311167784479   0.031074188563520826   -0.003956260417617555
-0.09198311167784479   0.031074188563520826   -0.003956260417617555
-0.16097732860200842   0.01510379946795546   -0.007436788342494782
-0.16097732860200842   0.01510379946795546   -0.007436788342494782
-0.16097732860200842   0.01510379946795546   -0.007436788342494782
-0.16097732860200842   0.01510379946795546   -0.007436788342494782
-0.12774615037918302   0.014808110568578626   0.007454623151808781
-0.12774615037918302   0.014808110568578626   0.007454623151808781
-0.12774615037918302   0.014808110568578626   0.007454623151808781
-0.12774615037918302   0.014808110568578626   0.007454623151808781
-0.11401120284166136   -0.04014503411576289   -0.009552682028438616
-0.11401120284166136   -0.04014503411576289   -0.009552682028438616
-0.11401120284166136   -0.04014503411576289   -0.009552682028438616
-0.11401120284166136   -0.04014503411576289   -0.009552682028438616
-0.03797694268979967   -0.0009824371376792266   0.016705068526979477
-0.03797694268979967   -0.0009824371376792266   0.016705068526979477
-0.03797694268979967   -0.0009824371376792266   0.016705068526979477
-0.03797694268979967   -0.0009824371376792266   0.016705068526979477
-0.042858743746774584   -0.012269850120800795   -0.012460436394262853
-0.042858743746774584   -0.012269850120800795   -0.012460436394262853
-0.042858743746774584   -0.012269850120800795   -0.012460436394262853
-0.042858743746774584   -0.012269850120800795   -0.012460436394262853
-0.10033803742539948   -0.001523045573143424   0.00961633917292428
-0.10033803742539948   -0.001523045573143424   0.00961633917292428
-0.10033803742539948   -0.001523045573143424   0.00961633917292428
-0.10033803742539948   -0.001523045573143424   0.00961633917292428
-0.0737557554225224   -0.013134862446371883   -0.0029212670942821706
-0.0737557554225224   -0.013134862446371883   -0.0029212670942821706
-0.0737557554225224   -0.013134862446371883   -0.0029212670942821706
-0.0737557554225224   -0.013134862446371883   -0.0029212670942821706
-0.10948397893032609   -0.025525077219690936   -0.01211133670516205
-0.10948397893032609   -0.025525077219690936   -0.01211133670516205
-0.10948397893032609   -0.025525077219690936   -0.01211133670516205
-0.10948397893032609   -0.025525077219690936   -0.01211133670516205
-0.0324852607640152   0.012959723003579357   0.014177405395153903
-0.0324852607640152   0.012959723003579357   0.014177405395153903
-0.0324852607640152   0.012959723003579357   0.014177405395153903
-0.0324852607640152   0.012959723003579357   0.014177405395153903
-0.035361639607922095   0.0025708403979469237   -0.014031927086688526
-0.035361639607922095   0.0025708403979469237   -0.014031927086688526
-0.035361639607922095   0.0025708403979469237   -0.014031927086688526
-0.035361639607922095   0.0025708403979469237   -0.014031927086688526
-0.09602087220436029   0.011254456225954307   0.006425617537449305
-0.09602087220436029   0.011254456225954307   0.006425617537449305
-0.09602087220436029   0.011254456225954307   0.006425617537449305
-0.09602087220436029   0.011254456225954307   0.006425617537449305
-0.06801404509538717   5.346854483477721e-06   0.0030646914914144296
-0.06801404509538717   5.346854483477721e-06   0.0030646914914144296
-0.06801404509538717   5.346854483477721e-06   0.0030646914914144296
-0.06801404509538717   5.346854483477721e-06   0.0030646914914144296
-0.10487568607945795   -0.011536985501200988   -0.015057010110884549
-0.10487568607945795   -0.011536985501200988   -0.015057010110884549
-0.10487568607945795   -0.011536985501200988   -0.015057010110884549
-0.10487568607945795   -0.011536985501200988   -0.015057010110884549
-0.025363569152743622   0.026505538705181613   0.01202372688196916
-0.025363569152743622   0.026505538705181613   0.01202372688196916
-0.025363569152743622   0.026505538705181613   0.01202372688196916
-0.025363569152743622   0.026505538705181613   0.01202372688196916
-0.02902451863412413   0.019115338986027443   -0.01573145549618035
-0.02902451863412413   0.019115338986027443   -0.01573145549618035
-0.02902451863412413   0.019115338986027443   -0.01573145549618035
-0.02902451863412413   0.019115338986027443   -0.01573145549618035
-0.09160061902023228   0.025681310921656833   0.0033490805123090033
-0.09160061902023228   0.025681310921656833   0.0033490805123090033
-0.09160061902023228   0.025681310921656833   0.0033490805123090033
-0.09160061902023228   0.025681310921656833   0.0033490805123090033
-0.062096322512466655   0.013662175981829295   0.00903746367761359
-0.062096322512466655   0.013662175981829295   0.00903746367761359
-0.062096322512466655   0.013662175981829295   0.00903746367761359
-0.062096322512466655   0.013662175981829295   0.00903746367761359
-0.053913710011209356   -0.04311978799563308   -0.02084141722211607
-0.053913710011209356   -0.04311978799563308   -0.02084141722211607
-0.053913710011209356   -0.04311978799563308   -0.02084141722211607
-0.053913710011209356   -0.04311978799563308   -0.02084141722211607
0.012016975722101338   0.012336525695536383   0.025608199057258724
0.012016975722101338   0.012336525695536383   0.025608199057258724
0.012016975722101338   0.012336525695536383   0.025608199057258724
0.012016975722101338   0.012336525695536383   0.025608199057258724
0.01202288905655944   -0.021612716134317374   -0.02763504102305417
0.01202288905655944   -0.021612716134317374   -0.02763504102305417
0.01202288905655944   -0.021612716134317374   -0.02763504102305417
0.01202288905655944   -0.021612716134317374   -0.02763504102305417
-0.031043465401509658   0.01338154483257226   0.020964560378687776
-0.031043465401509658   0.01338154483257226   0.020964560378687776
-0.031043465401509658   0.01338154483257226   0.020964560378687776
-0.031043465401509658   0.01338154483257226   0.020964560378687776
-0.015585680945405966   -0.00928919575509406   -0.004769607329706175
-0.015585680945405966   -0.00928919575509406   -0.004769607329706175
-0.015585680945405966   -0.00928919575509406   -0.004769607329706175
-0.015585680945405966   -0.00928919575509406   -0.004769607329706175
-0.04933744410021051   -0.033152110181257965   -0.023971678100987187
-0.04933744410021051   -0.033152110181257965   -0.023971678100987187
-0.04933744410021051   -0.033152110181257965   -0.023971678100987187
-0.04933744410021051   -0.033152110181257965   -0.023971678100987187
0.031627202936192415   0.026231274060445783   0.02254253818034565
0.031627202936192415   0.026231274060445783   0.02254253818034565
0.031627202936192415   0.026231274060445783   0.02254253818034565
0.031627202936192415   0.026231274060445783   0.02254253818034565
0.02646049881157754   -0.013127019242790285   -0.03286229635862763
0.02646049881157754   -0.013127019242790285   -0.03286229635862763
0.02646049881157754   -0.013127019242790285   -0.03286229635862763
0.02646049881157754   -0.013127019242790285   -0.03286229635862763
-0.02579508221667874   0.019540169802975037   0.01683153046450014
-0.02579508221667874   0.019540169802975037   0.01683153046450014
-0.02579508221667874   0.019540169802975037   0.01683153046450014
-0.02579508221667874   0.019540169802975037   0.01683153046450014
-0.0037990499036831605   -0.0005394654534431075   0.001696268264644501
-0.0037990499036831605   -0.0005394654534431075   0.001696268264644501
-0.0037990499036831605   -0.0005394654534431075   0.001696268264644501
-0.0037990499036831605   -0.0005394654534431075   0.001696268264644501
-0.043853880105731685   -0.026168244658402645   -0.02775404451938788
-0.043853880105731685   -0.026168244658402645   -0.02775404451938788
-0.043853880105731685   -0.026168244658402645   -0.02775404451938788
-0.043853880105731685   -0.026168244658402645   -0.02775404451938788
0.04583422115121901   0.03389631966917672   0.01698297642761082
0.04583422115121901   0.03389631966917672   0.01698297642761082
0.04583422115121901   0.03389631966917672   0.01698297642761082
0.04583422115121901   0.03389631966917672   0.01698297642761082
0.0467710412505408   0.00345073535982476   -0.035225108851348566
0.0467710412505408   0.00345073535982476   -0.035225108851348566
0.0467710412505408   0.00345073535982476   -0.035225108851348566
0.0467710412505408   0.00345073535982476   -0.035225108851348566
-0.020898494049532406   0.030331976876025547   0.01368202953678019
-0.020898494049532406   0.030331976876025547   0.01368202953678019
-0.020898494049532406   0.030331976876025547   0.01368202953678019
-0.020898494049532406   0.030331976876025547   0.01368202953678019
0.006958347877386091   0.008619169630920262   0.008046338848788453
0.006958347877386091   0.008619169630920262   0.008046338848788453
0.006958347877386091   0.008619169630920262   0.008046338848788453
0.006958347877386091   0.008619169630920262   0.008046338848788453
-0.10144218169887892   0.0063109124880700584   0.029274966944692983
-0.10144218169887892   0.0063109124880700584   0.029274966944692983
-0.10144218169887892   0.0063109124880700584   0.029274966944692983
-0.10144218169887892   0.0063109124880700584   0.029274966944692983
-0.12317662982690196   -0.03803326011008248   -0.017132312740988812
-0.12317662982690196   -0.03803326011008248   -0.017132312740988812
-0.12317662982690196   -0.03803326011008248   -0.017132312740988812
-0.12317662982690196   -0.03803326011008248   -0.017132312740988812
-0.09834395591475739   0.017590213957199514   0.02394064165202795
-0.09834395591475739   0.017590213957199514   0.02394064165202795
-0.09834395591475739   0.017590213957199514   0.02394064165202795
-0.09834395591475739   0.017590213957199514   0.02394064165202795
-0.09858089212735117   -0.024669739411390997   -0.02213302115709715
-0.09858089212735117   -0.024669739411390997   -0.02213302115709715
-0.09858089212735117   -0.024669739411390997   -0.02213302115709715
-0.09858089212735117   -0.024669739411390997   -0.02213302115709715
-0.10280439983646263   -0.007893226298603666   -0.008125653357383144
-0.10280439983646263   -0.007893226298603666   -0.008125653357383144
-0.10280439983646263   -0.007893226298603666   -0.008125653357383144
-0.10280439983646263   -0.007893226298603666   -0.008125653357383144
-0.07935940813435638   0.02204993921847608   0.027254720178009756
-0.07935940813435638   0.02204993921847608   0.027254720178009756
-0.07935940813435638   0.02204993921847608   0.027254720178009756
-0.07935940813435638   0.02204993921847608   0.027254720178009756
-0.11634297477942415   -0.027906999544341768   -0.020557239169762705
-0.11634297477942415   -0.027906999544341768   -0.020557239169762705
-0.11634297477942415   -0.027906999544341768   -0.020557239169762705
-0.11634297477942415   -0.027906999544341768   -0.020557239169762705
-0.09081039384240436   0.024296881445186415   0.020125458809019586
-0.09081039384240436   0.024296881445186415   0.020125458809019586
-0.09081039384240436   0.024296881445186415   0.020125458809019586
-0.09081039384240436   0.024296881445186415   0.020125458809019586
-0.08222332123757886   -0.017090331468118617   -0.02752668460811982
-0.08222332123757886   -0.017090331468118617   -0.02752668460811982
-0.08222332123757886   -0.017090331468118617   -0.02752668460811982
-0.08222332123757886   -0.017090331468118617   -0.02752668460811982
-0.09074154940638929   0.0006572232009991906   -0.0018025561404552554
-0.09074154940638929   0.0006572232009991906   -0.0018025561404552554
-0.09074154940638929   0.0006572232009991906   -0.0018025561404552554
-0.09074154940638929   0.0006572232009991906   -0.0018025561404552554
-0.0629099815511947   0.03020150717730138   0.021748175178384763
-0.0629099815511947   0.03020150717730138   0.021748175178384763
-0.0629099815511947   0.03020150717730138   0.021748175178384763
-0.0629099815511947   0.03020150717730138   0.021748175178384763
-0.10897650722603049   -0.021847730897474597   -0.024560495766448108
-0.10897650722603049   -0.021847730897474597   -0.024560495766448108
-0.10897650722603049   -0.021847730897474597   -0.024560495766448108
-0.10897650722603049   -0.021847730897474597   -0.024560495766448108
-0.08393651855643733   0.03458673132112378   0.017378736103019682
-0.08393651855643733   0.03458673132112378   0.017378736103019682
-0.08393651855643733   0.03458673132112378   0.017378736103019682
-0.08393651855643733   0.03458673132112378   0.017378736103019682
-0.06037988709072189   -0.0026874699168170585   -0.03099589922738869
-0.06037988709072189   -0.0026874699168170585   -0.03099589922738869
-0.06037988709072189   -0.0026874699168170585   -0.03099589922738869
-0.06037988709072189   -0.0026874699168170585   -0.03099589922738869
-0.07629211457618668   0.009622389764399797   0.004945371483232132
-0.07629211457618668   0.009622389764399797   0.004945371483232132
-0.07629211457618668   0.009622389764399797   0.004945371483232132
-0.07629211457618668   0.009622389764399797   0.004945371483232132
-0.11010196435700449   -0.006552702228103667   0.016760456726517894
-0.11010196435700449   -0.006552702228103667   0.016760456726517894
-0.11010196435700449   -0.006552702228103667   0.016760456726517894
-0.11010196435700449   -0.006552702228103667   0.016760456726517894
-0.13840304574706788   -0.03103499442383759   -0.006689865588701244
-0.13840304574706788   -0.03103499442383759   -0.006689865588701244
-0.13840304574706788   -0.03103499442383759   -0.006689865588701244
-0.13840304574706788   -0.03103499442383759   -0.006689865588701244
-0.12362760719286454   0.0030805444119688507   0.011116672861130699
-0.12362760719286454   0.0030805444119688507   0.011116672861130699
-0.12362760719286454   0.0030805444119688507   0.011116672861130699
-0.12362760719286454   0.0030805444119688507   0.011116672861130699
-0.1115450099318733   -0.014395898113653011   -0.010078516362697187
-0.1115450099318733   -0.014395898113653011   -0.010078516362697187
-0.1115450099318733   -0.014395898113653011   -0.010078516362697187
-0.1115450099318733   -0.014395898113653011   -0.010078516362697187
-0.12103361009453897   -0.011273191770669499   -0.005658773534666237
-0.12103361009453897   -0.011273191770669499   -0.005658773534666237
-0.12103361009453897   -0.011273191770669499   -0.005658773534666237
-0.12103361009453897   -0.011273191770669499   -0.005658773534666237
-0.10210822654989798   0.008085822045869035   0.014623680387657385
-0.10210822654989798   0.008085822045869035   0.014623680387657385
-0.10210822654989798   0.008085822045869035   0.014623680387657385
-0.10210822654989798   0.008085822045869035   0.014623680387657385
-0.1321048601996734   -0.01844164537238581   -0.00974740238856104
-0.1321048601996734   -0.01844164537238581   -0.00974740238856104
-0.1321048601996734   -0.01844164537238581   -0.00974740238856104
-0.1321048601996734   -0.01844164537238581   -0.00974740238856104
-0.11691125900429607   0.016449652724224266   0.008474023558693998
-0.11691125900429607   0.016449652724224266   0.008474023558693998
-0.11691125900429607   0.016449652724224266   0.008474023558693998
-0.11691125900429607   0.016449652724224266   0.008474023558693998
-0.10250785953099203   -0.001546809981268815   -0.012518178207461692
-0.10250785953099203   -0.001546809981268815   -0.012518178207461692
-0.10250785953099203   -0.001546809981268815   -0.012518178207461692
-0.10250785953099203   -0.001546809981268815   -0.012518178207461692
-0.11298416734193677   0.0011696885674242485   0.00016684575877108296
-0.11298416734193677   0.0011696885674242485   0.00016684575877108296
-0.11298416734193677   0.0011696885674242485   0.00016684575877108296
-0.11298416734193677   0.0011696885674242485   0.00016684575877108296
-0.09260934839154265   0.022250619697283803   0.013176947811230622
-0.09260934839154265   0.022250619697283803   0.013176947811230622
-0.09260934839154265   0.022250619697283803   0.013176947811230622
-0.09260934839154265   0.022250619697283803   0.013176947811230622
-0.12578629053482748   -0.006324297345409589   -0.013127184024330111
-0.12578629053482748   -0.006324297345409589   -0.013127184024330111
-0.12578629053482748   -0.006324297345409589   -0.013127184024330111
-0.12578629053482748   -0.006324297345409589   -0.013127184024330111
-0.1101593108243595   0.03127904473496971   0.005961864266438046
-0.1101593108243595   0.03127904473496971   0.005961864266438046
-0.1101593108243595   0.03127904473496971   0.005961864266438046
-0.1101593108243595   0.03127904473496971   0.005961864266438046
-0.09473898178979406   0.012747163130889727   -0.01479401187352796
-0.09473898178979406   0.012747163130889727   -0.01479401187352796
-0.09473898178979406   0.012747163130889727   -0.01479401187352796
-0.09473898178979406   0.012747163130889727   -0.01479401187352796
-0.1053706513314291   0.014055869903572153   0.006109048524152727
-0.1053706513314291   0.014055869903572153   0.006109048524152727
-0.1053706513314291   0.014055869903572153   0.006109048524152727
-0.1053706513314291   0.014055869903572153   0.006109048524152727
-0.1336461071337411   -0.018697525780389725   0.004757358834483874
-0.1336461071337411   -0.018697525780389725   0.004757358834483874
-0.1336461071337411   -0.018697525780389725   0.004757358834483874
-0.1336461071337411   -0.018697525780389725   0.004757358834483874
-0.15349303761531846   -0.019788193752400013   0.0040245864070354714
-0.15349303761531846   -0.019788193752400013   0.0040245864070354714
-0.15349303761531846   -0.019788193752400013   0.0040245864070354714
-0.15349303761531846   -0.019788193752400013   0.0040245864070354714
-0.14814544039086455   -0.009087995285529763   -0.001458131362646005
-0.14814544039086455   -0.009087995285529763   -0.001458131362646005
-0.14814544039086455   -0.009087995285529763   -0.001458131362646005
-0.14814544039086455   -0.009087995285529763   -0.001458131362646005
-0.1267169874250454   -0.002586690706897982   0.0013370068190913693
-0.1267169874250454   -0.002586690706897982   0.0013370068190913693
-0.1267169874250454   -0.002586690706897982   0.0013370068190913693
-0.1267169874250454   -0.002586690706897982   0.0013370068190913693
-0.14071162218003552   -0.011830300216574066   -0.00377432910899542
-0.14071162218003552   -0.011830300216574066   -0.00377432910899542
-0.14071162218003552   -0.011830300216574066   -0.00377432910899542
-0.14071162218003552   -0.011830300216574066   -0.00377432910899542
-0.12679698297501527   -0.004047174881135089   0.0023975132434780923
-0.12679698297501527   -0.004047174881135089   0.0023975132434780923
-0.12679698297501527   -0.004047174881135089   0.0023975132434780923
-0.12679698297501527   -0.004047174881135089   0.0023975132434780923
-0.14715833926466154   -0.006720405535059674   0.0011097845178990595
-0.14715833926466154   -0.006720405535059674   0.0011097845178990595
-0.14715833926466154   -0.006720405535059674   0.0011097845178990595
-0.14715833926466154   -0.006720405535059674   0.0011097845178990595
-0.14107952084903555   0.005750771927979574   -0.0036868490510806942
-0.14107952084903555   0.005750771927979574   -0.0036868490510806942
-0.14107952084903555   0.005750771927979574   -0.0036868490510806942
-0.14107952084903555   0.005750771927979574   -0.0036868490510806942
-0.12002296236527912   0.01083987768767275   -0.0014747182096706626
-0.12002296236527912   0.01083987768767275   -0.0014747182096706626
-0.12002296236527912   0.01083987768767275   -0.0014747182096706626
-0.12002296236527912   0.01083987768767275   -0.0014747182096706626
-0.13332296816954634   0.0014188776661331927   0.001986027306863633
-0.13332296816954634   0.0014188776661331927   0.001986027306863633
-0.13332296816954634   0.0014188776661331927   0.001986027306863633
-0.13332296816954634   0.0014188776661331927   0.001986027306863633
-0.11976167045866631   0.010738363015402153   -6.674400433702085e-05
-0.11976167045866631   0.010738363015402153   -6.674400433702085e-05
-0.11976167045866631   0.010738363015402153   -6.674400433702085e-05
-0.11976167045866631   0.010738363015402153   -6.674400433702085e-05
-0.14054796195610234   0.006645137399795807   -0.0019234200582321712
-0.14054796195610234   0.006645137399795807   -0.0019234200582321712
-0.14054796195610234   0.006645137399795807   -0.0019234200582321712
-0.14054796195610234   0.006645137399795807   -0.0019234200582321712
-0.13431257731412546   0.020685617424865466   -0.006192449845827716
-0.13431257731412546   0.020685617424865466   -0.006192449845827716
-0.13431257731412546   0.020685617424865466   -0.006192449845827716
-0.13431257731412546   0.020685617424865466   -0.006192449845827716
-0.1136576566690283   0.02432148130012742   -0.004572301522062873
-0.1136576566690283   0.02432148130012742   -0.004572301522062873
-0.1136576566690283   0.02432148130012742   -0.004572301522062873
-0.1136576566690283   0.02432148130012742   -0.004572301522062873
-0.1262845839383171   0.014693728443608278   0.007475805747786127
-0.1262845839383171   0.014693728443608278   0.007475805747786127
-0.1262845839383171   0.014693728443608278   0.007475805747786127
-0.1262845839383171   0.014693728443608278   0.007475805747786127
-0.15780576975485144   -0.029795558220577598   -0.007531709822452944
-0.15780576975485144   -0.029795558220577598   -0.007531709822452944
-0.15780576975485144   -0.029795558220577598   -0.007531709822452944
-0.15780576975485144   -0.029795558220577598   -0.007531709822452944
-0.16997536088266865   -0.008765786682605817   0.014243093251556607
-0.16997536088266865   -0.008765786682605817   0.014243093251556607
-0.16997536088266865   -0.008765786682605817   0.014243093251556607
-0.16997536088266865   -0.008765786682605817   0.014243093251556607
-0.1728334899934191   -0.0207909943985145   -0.014227952385911465
-0.1728334899934191   -0.0207909943985145   -0.014227952385911465
-0.1728334899934191   -0.0207909943985145   -0.014227952385911465
-0.1728334899934191   -0.0207909943985145   -0.014227952385911465
-0.1418438736173205   0.008874707718691137   0.01208699950085329
-0.1418438736173205   0.008874707718691137   0.01208699950085329
-0.1418438736173205   0.008874707718691137   0.01208699950085329
-0.1418438736173205   0.008874707718691137   0.01208699950085329
-0.15992944655769115   -0.011815073447920507   -0.0023798825941654875
-0.15992944655769115   -0.011815073447920507   -0.0023798825941654875
-0.15992944655769115   -0.011815073447920507   -0.0023798825941654875
-0.15992944655769115   -0.011815073447920507   -0.0023798825941654875
-0.1511512959540096   -0.015603371671858948   -0.009972032792043211
-0.1511512959540096   -0.015603371671858948   -0.009972032792043211
-0.1511512959540096   -0.015603371671858948   -0.009972032792043211
-0.1511512959540096   -0.015603371671858948   -0.009972032792043211
-0.16257538632820212   0.004637766320560751   0.011633805221098283
-0.16257538632820212   0.004637766320560751   0.011633805221098283
-0.16257538632820212   0.004637766320560751   0.011633805221098283
-0.16257538632820212   0.004637766320560751   0.011633805221098283
-0.16351797674335125   -0.006723234030853767   -0.015965729207600123
-0.16351797674335125   -0.006723234030853767   -0.015965729207600123
-0.16351797674335125   -0.006723234030853767   -0.015965729207600123
-0.16351797674335125   -0.006723234030853767   -0.015965729207600123
-0.1355001371225122   0.02097944621347779   0.008981395296036605
-0.1355001371225122   0.02097944621347779   0.008981395296036605
-0.1355001371225122   0.02097944621347779   0.008981395296036605
-0.1355001371225122   0.02097944621347779   0.008981395296036605
-0.15149549451848568   0.0009572556050103983   0.003572600015612999
-0.15149549451848568   0.0009572556050103983   0.003572600015612999
-0.15149549451848568   0.0009572556050103983   0.003572600015612999
-0.15149549451848568   0.0009572556050103983   0.003572600015612999
-0.14451743677952744   -0.0022959262930679816   -0.012829730482494993
-0.14451743677952744   -0.0022959262930679816   -0.012829730482494993
-0.14451743677952744   -0.0022959262930679816   -0.012829730482494993
-0.14451743677952744   -0.0022959262930679816   -0.012829730482494993
-0.15354003477188138   0.017512780790146724   0.009687965828750485
-0.15354003477188138   0.017512780790146724   0.009687965828750485
-0.15354003477188138   0.017512780790146724   0.009687965828750485
-0.15354003477188138   0.017512780790146724   0.009687965828750485
-0.15537429895496935   0.008750889029526202   -0.01752934901360707
-0.15537429895496935   0.008750889029526202   -0.01752934901360707
-0.15537429895496935   0.008750889029526202   -0.01752934901360707
-0.15537429895496935   0.008750889029526202   -0.01752934901360707
-0.12913953041869794   0.03444096940573822   0.0059174326504371905
-0.12913953041869794   0.03444096940573822   0.0059174326504371905
-0.12913953041869794   0.03444096940573822   0.0059174326504371905
-0.12913953041869794   0.03444096940573822   0.0059174326504371905
-0.14438424155903162   0.013595392322933596   0.009251634117107124
-0.14438424155903162   0.013595392322933596   0.009251634117107124
-0.14438424155903162   0.013595392322933596   0.009251634117107124
-0.14438424155903162   0.013595392322933596   0.009251634117107124
-0.18193745932047042   -0.03536886520703491   -0.018964320413026002
-0.18193745932047042   -0.03536886520703491   -0.018964320413026002
-0.18193745932047042   -0.03536886520703491   -0.018964320413026002
-0.18193745932047042   -0.03536886520703491   -0.018964320413026002
-0.20298732099365363   0.002317747594640783   0.025790628444035985
-0.20298732099365363   0.002317747594640783   0.025790628444035985
-0.20298732099365363   0.002317747594640783   0.025790628444035985
-0.20298732099365363   0.002317747594640783   0.025790628444035985
-0.20052158893074004   -0.02977120390780706   -0.02532105979397843
-0.20052158893074004   -0.02977120390780706   -0.02532105979397843
-0.20052158893074004   -0.02977120390780706   -0.02532105979397843
-0.20052158893074004   -0.02977120390780706   -0.02532105979397843
-0.15673729145291904   0.022348484536704138   0.02311356138136833
-0.15673729145291904   0.022348484536704138   0.02311356138136833
-0.15673729145291904   0.022348484536704138   0.02311356138136833
-0.15673729145291904   0.022348484536704138   0.02311356138136833
-0.17807305647293323   -0.007734102928712657   -0.0010383210071679208
-0.17807305647293323   -0.007734102928712657   -0.0010383210071679208
-0.17807305647293323   -0.007734102928712657   -0.0010383210071679208
-0.17807305647293323   -0.007734102928712657   -0.0010383210071679208
-0.1749552677115982   -0.023932745650205436   -0.021695089725119847
-0.1749552677115982   -0.023932745650205436   -0.021695089725119847
-0.1749552677115982   -0.023932745650205436   -0.021695089725119847
-0.1749552677115982   -0.023932745650205436   -0.021695089725119847
-0.1812995379441673   0.017514101006997018   0.023503890224081017
-0.1812995379441673   0.017514101006997018   0.023503890224081017
-0.1812995379441673   0.017514101006997018   0.023503890224081017
-0.1812995379441673   0.017514101006997018   0.023503890224081017
-0.18431923849162615   -0.021572467217058244   -0.030207498360718864
-0.18431923849162615   -0.021572467217058244   -0.030207498360718864
-0.18431923849162615   -0.021572467217058244   -0.030207498360718864
-0.18431923849162615   -0.021572467217058244   -0.030207498360718864
-0.14956885255416832   0.02812424916305656   0.018932408544404207
-0.14956885255416832   0.02812424916305656   0.018932408544404207
-0.14956885255416832   0.02812424916305656   0.018932408544404207
-0.14956885255416832   0.02812424916305656   0.018932408544404207
-0.1672268481625712   0.000852205285056978   0.004655516807865245
-0.1672268481625712   0.000852205285056978   0.004655516807865245
-0.1672268481625712   0.000852205285056978   0.004655516807865245
-0.1672268481625712   0.000852205285056978   0.004655516807865245
-0.1674423675715969   -0.01718148069737102   -0.025129436682312014
-0.1674423675715969   -0.01718148069737102   -0.025129436682312014
-0.1674423675715969   -0.01718148069737102   -0.025129436682312014
-0.1674423675715969   -0.01718148069737102   -0.025129436682312014
-0.16539185709681156   0.024787129020755513   0.018069812375542255
-0.16539185709681156   0.024787129020755513   0.018069812375542255
-0.16539185709681156   0.024787129020755513   0.018069812375542255
-0.16539185709681156   0.024787129020755513   0.018069812375542255
-0.162968103377123   -0.0074267722700283294   -0.0330421068658986
-0.162968103377123   -0.0074267722700283294   -0.0330421068658986
-0.162968103377123   -0.0074267722700283294   -0.0330421068658986
-0.162968103377123   -0.0074267722700283294   -0.0330421068658986
-0.14316602555015367   0.03666891293744151   0.015593994102554982
-0.14316602555015367   0.03666891293744151   0.015593994102554982
-0.14316602555015367   0.03666891293744151   0.015593994102554982
-0.14316602555015367   0.03666891293744151   0.015593994102554982
-0.1521450444449427   0.009399247089837207   0.011278245391642218
-0.1521450444449427   0.009399247089837207   0.011278245391642218
-0.1521450444449427   0.009399247089837207   0.011278245391642218
-0.1521450444449427   0.009399247089837207   0.011278245391642218
0.11042156726814778   0.017742839143730704   0.02814998643302736
0.11042156726814778   0.017742839143730704   0.02814998643302736
0.11042156726814778   0.017742839143730704   0.02814998643302736
0.11042156726814778   0.017742839143730704   0.02814998643302736
-0.0019445360597837007   -0.045126364690379624   -0.018494843774503167
-0.0019445360597837007   -0.045126364690379624   -0.018494843774503167
-0.0019445360597837007   -0.045126364690379624   -0.018494843774503167
-0.0019445360597837007   -0.045126364690379624   -0.018494843774503167
0.0243635632529994   0.00868982445364598   0.02172034278773715
0.0243635632529994   0.00868982445364598   0.02172034278773715
0.0243635632529994   0.00868982445364598   0.02172034278773715
0.0243635632529994   0.00868982445364598   0.02172034278773715
0.11487635814572075   -0.015441793856603596   -0.023199457301880153
0.11487635814572075   -0.015441793856603596   -0.023199457301880153
0.11487635814572075   -0.015441793856603596   -0.023199457301880153
0.11487635814572075   -0.015441793856603596   -0.023199457301880153
0.05642195474743785   -0.00862731612817847   -0.013480758677955486
0.05642195474743785   -0.00862731612817847   -0.013480758677955486
0.05642195474743785   -0.00862731612817847   -0.013480758677955486
0.05642195474743785   -0.00862731612817847   -0.013480758677955486
0.13395208963560784   0.03134245202567551   0.025394954265276354
0.13395208963560784   0.03134245202567551   0.025394954265276354
0.13395208963560784   0.03134245202567551   0.025394954265276354
0.13395208963560784   0.03134245202567551   0.025394954265276354
0.00647937255113961   -0.0369028806406058   -0.02210790562731002
0.00647937255113961   -0.0369028806406058   -0.02210790562731002
0.00647937255113961   -0.0369028806406058   -0.02210790562731002
0.00647937255113961   -0.0369028806406058   -0.02210790562731002
0.03381754488988658   0.01524419959749166   0.01810510459246613
0.03381754488988658   0.01524419959749166   0.01810510459246613
0.03381754488988658   0.01524419959749166   0.01810510459246613
0.03381754488988658   0.01524419959749166   0.01810510459246613
0.13318261084689498   -0.008042410041803042   -0.02896878478535648
0.13318261084689498   -0.008042410041803042   -0.02896878478535648
0.13318261084689498   -0.008042410041803042   -0.02896878478535648
0.13318261084689498   -0.008042410041803042   -0.02896878478535648
0.0729635957785019   -0.0004777140899681169   -0.006397736645651408
0.0729635957785019   -0.0004777140899681169   -0.006397736645651408
0.0729635957785019   -0.0004777140899681169   -0.006397736645651408
0.0729635957785019   -0.0004777140899681169   -0.006397736645651408
0.15244906697901323   0.039344750219591794   0.019976335613840105
0.15244906697901323   0.039344750219591794   0.019976335613840105
0.15244906697901323   0.039344750219591794   0.019976335613840105
0.15244906697901323   0.039344750219591794   0.019976335613840105
0.01570848630731431   -0.03098556311435684   -0.02621042560854482
0.01570848630731431   -0.03098556311435684   -0.02621042560854482
0.01570848630731431   -0.03098556311435684   -0.02621042560854482
0.01570848630731431   -0.03098556311435684   -0.02621042560854482
0.04298422633744987   0.027317470874420425   0.015664691300626966
0.04298422633744987   0.027317470874420425   0.015664691300626966
0.04298422633744987   0.027317470874420425   0.015664691300626966
0.04298422633744987   0.027317470874420425   0.015664691300626966
0.15750554459240812   0.008506756228670143   -0.03193002385968549
0.15750554459240812   0.008506756228670143   -0.03193002385968549
0.15750554459240812   0.008506756228670143   -0.03193002385968549
0.15750554459240812   0.008506756228670143   -0.03193002385968549
0.08674167456745085   0.008685976893141024   0.00027393289794370307
0.08674167456745085   0.008685976893141024   0.00027393289794370307
0.08674167456745085   0.008685976893141024   0.00027393289794370307
0.08674167456745085   0.008685976893141024   0.00027393289794370307
0.015614465450693258   0.004951033959129405   0.019222765128372607
0.015614465450693258   0.004951033959129405   0.019222765128372607
0.015614465450693258   0.004951033959129405   0.019222765128372607
0.015614465450693258   0.004951033959129405   0.019222765128372607
-0.10321819796795277   -0.038365571937043236   -0.008494621791591984
-0.10321819796795277   -0.038365571937043236   -0.008494621791591984
-0.10321819796795277   -0.038365571937043236   -0.008494621791591984
-0.10321819796795277   -0.038365571937043236   -0.008494621791591984
-0.08669786194161756   -0.005665761699615791   0.008725017717233177
-0.08669786194161756   -0.005665761699615791   0.008725017717233177
-0.08669786194161756   -0.005665761699615791   0.008725017717233177
-0.08669786194161756   -0.005665761699615791   0.008725017717233177
0.01612042963398909   -0.004124102629996456   -0.006681398223671977
0.01612042963398909   -0.004124102629996456   -0.006681398223671977
0.01612042963398909   -0.004124102629996456   -0.006681398223671977
0.01612042963398909   -0.004124102629996456   -0.006681398223671977
-0.04041214985967502   -0.009819543808484203   -0.0064506034955710894
-0.04041214985967502   -0.009819543808484203   -0.0064506034955710894
-0.04041214985967502   -0.009819543808484203   -0.0064506034955710894
-0.04041214985967502   -0.009819543808484203   -0.0064506034955710894
0.02537435612754005   0.01841375391132166   0.01705037770276282
0.02537435612754005   0.01841375391132166   0.01705037770276282
0.02537435612754005   0.01841375391132166   0.01705037770276282
0.02537435612754005   0.01841375391132166   0.01705037770276282
-0.09507879435629969   -0.027330624162065397   -0.011514781893727892
-0.09507879435629969   -0.027330624162065397   -0.011514781893727892
-0.09507879435629969   -0.027330624162065397   -0.011514781893727892
-0.09507879435629969   -0.027330624162065397   -0.011514781893727892
-0.07808784896399033   0.007072597458577514   0.006158848424768243
-0.07808784896399033   0.007072597458577514   0.006158848424768243
-0.07808784896399033   0.007072597458577514   0.006158848424768243
-0.07808784896399033   0.007072597458577514   0.006158848424768243
0.026923679922764635   0.007932039482676586   -0.00905206012832854
0.026923679922764635   0.007932039482676586   -0.00905206012832854
0.026923679922764635   0.007932039482676586   -0.00905206012832854
0.026923679922764635   0.007932039482676586   -0.00905206012832854
-0.03128028784970208   0.0013930035544167916   -0.0008103322790331737
-0.03128028784970208   0.0013930035544167916   -0.0008103322790331737
-0.03128028784970208   0.0013930035544167916   -0.0008103322790331737
-0.03128028784970208   0.0013930035544167916   -0.0008103322790331737
0.03657041267562637   0.03182934060439879   0.015284302514257941
0.03657041267562637   0.03182934060439879   0.015284302514257941
0.03657041267562637   0.03182934060439879   0.015284302514257941
0.03657041267562637   0.03182934060439879   0.015284302514257941
-0.08689218940542387   -0.01598231135171651   -0.014807944972105492
-0.08689218940542387   -0.01598231135171651   -0.014807944972105492
-0.08689218940542387   -0.01598231135171651   -0.014807944972105492
-0.08689218940542387   -0.01598231135171651   -0.014807944972105492
-0.0694218086759629   0.0215119942621526   0.003712970668955245
-0.0694218086759629   0.0215119942621526   0.003712970668955245
-0.0694218086759629   0.0215119942621526   0.003712970668955245
-0.0694218086759629   0.0215119942621526   0.003712970668955245
0.036406031222813995   0.021637492170366493   -0.011546305568500406
0.036406031222813995   0.021637492170366493   -0.011546305568500406
0.036406031222813995   0.021637492170366493   -0.011546305568500406
0.036406031222813995   0.021637492170366493   -0.011546305568500406
-0.02114571119080866   0.013807590748961094   0.0052158066522251054
-0.02114571119080866   0.013807590748961094   0.0052158066522251054
-0.02114571119080866   0.013807590748961094   0.0052158066522251054
-0.02114571119080866   0.013807590748961094   0.0052158066522251054
-0.09391149943171313   -0.007285119672144371   0.0069584186247083485
-0.09391149943171313   -0.007285119672144371   0.0069584186247083485
-0.09391149943171313   -0.007285119672144371   0.0069584186247083485
-0.09391149943171313   -0.007285119672144371   0.0069584186247083485
-0.2026306650811069   -0.027457055576597236   0.0017160365944279901
-0.2026306650811069   -0.027457055576597236   0.0017160365944279901
-0.2026306650811069   -0.027457055576597236   0.0017160365944279901
-0.2026306650811069   -0.027457055576597236   0.0017160365944279901
-0.19512990818793288   -0.017297610431974208   -0.0038046710434022496
-0.19512990818793288   -0.017297610431974208   -0.0038046710434022496
-0.19512990818793288   -0.017297610431974208   -0.0038046710434022496
-0.19512990818793288   -0.017297610431974208   -0.0038046710434022496
-0.08501751304282984   0.007201975775595776   0.004259024735960213
-0.08501751304282984   0.007201975775595776   0.004259024735960213
-0.08501751304282984   0.007201975775595776   0.004259024735960213
-0.08501751304282984   0.007201975775595776   0.004259024735960213
-0.14438161821119566   -0.010302859276852512   -0.0037811394011329977
-0.14438161821119566   -0.010302859276852512   -0.0037811394011329977
-0.14438161821119566   -0.010302859276852512   -0.0037811394011329977
-0.14438161821119566   -0.010302859276852512   -0.0037811394011329977
-0.08510768012233905   0.006391502010522512   0.004618663103487498
-0.08510768012233905   0.006391502010522512   0.004618663103487498
-0.08510768012233905   0.006391502010522512   0.004618663103487498
-0.08510768012233905   0.006391502010522512   0.004618663103487498
-0.194285890626462   -0.015733286184939542   -0.0011489074830842022
-0.194285890626462   -0.015733286184939542   -0.0011489074830842022
-0.194285890626462   -0.015733286184939542   -0.0011489074830842022
-0.194285890626462   -0.015733286184939542   -0.0011489074830842022
-0.18606727036265908   -0.003270442071673719   -0.005982009009023077
-0.18606727036265908   -0.003270442071673719   -0.005982009009023077
-0.18606727036265908   -0.003270442071673719   -0.005982009009023077
-0.18606727036265908   -0.003270442071673719   -0.005982009009023077
-0.07649450150545806   0.019608318055962085   0.0015898651200459309
-0.07649450150545806   0.019608318055962085   0.0015898651200459309
-0.07649450150545806   0.019608318055962085   0.0015898651200459309
-0.07649450150545806   0.019608318055962085   0.0015898651200459309
-0.13501792194584114   0.0020056195338015604   0.0019102264815991851
-0.13501792194584114   0.0020056195338015604   0.0019102264815991851
-0.13501792194584114   0.0020056195338015604   0.0019102264815991851
-0.13501792194584114   0.0020056195338015604   0.0019102264815991851
-0.07625061255784962   0.020310680728252355   0.0021069471857978507
-0.07625061255784962   0.020310680728252355   0.0021069471857978507
-0.07625061255784962   0.020310680728252355   0.0021069471857978507
-0.07625061255784962   0.020310680728252355   0.0021069471857978507
-0.18570491930138427   -0.0033665647350835555   -0.00407413103924073
-0.18570491930138427   -0.0033665647350835555   -0.00407413103924073
-0.18570491930138427   -0.0033665647350835555   -0.00407413103924073
-0.18570491930138427   -0.0033665647350835555   -0.00407413103924073
-0.1773682691820287   0.01080262219298395   -0.008455984544779815
-0.1773682691820287   0.01080262219298395   -0.008455984544779815
-0.1773682691820287   0.01080262219298395   -0.008455984544779815
-0.1773682691820287   0.01080262219298395   -0.008455984544779815
-0.0683553889671659   0.03205098840766947   -0.0014939249325767057
-0.0683553889671659   0.03205098840766947   -0.0014939249325767057
-0.0683553889671659   0.03205098840766947   -0.0014939249325767057
-0.0683553889671659   0.03205098840766947   -0.0014939249325767057
-0.12615165340966247   0.014283700453988043   0.007230328388862971
-0.12615165340966247   0.014283700453988043   0.007230328388862971
-0.12615165340966247   0.014283700453988043   0.007230328388862971
-0.12615165340966247   0.014283700453988043   0.007230328388862971
-0.20246342933736042   -0.01924415589711883   -0.0056606843663166845
-0.20246342933736042   -0.01924415589711883   -0.0056606843663166845
-0.20246342933736042   -0.01924415589711883   -0.0056606843663166845
-0.20246342933736042   -0.01924415589711883   -0.0056606843663166845
-0.3012948283993019   -0.017194972345534104   0.011718620347669129
-0.3012948283993019   -0.017194972345534104   0.011718620347669129
-0.3012948283993019   -0.017194972345534104   0.011718620347669129
-0.3012948283993019   -0.017194972345534104   0.011718620347669129
-0.3016224311841993   -0.028713579572188532   -0.016075879386666256
-0.3016224311841993   -0.028713579572188532   -0.016075879386666256
-0.3016224311841993   -0.028713579572188532   -0.016075879386666256
-0.3016224311841993   -0.028713579572188532   -0.016075879386666256
-0.18439915174744703   0.01808145862547672   0.014470042101574564
-0.18439915174744703   0.01808145862547672   0.014470042101574564
-0.18439915174744703   0.01808145862547672   0.014470042101574564
-0.18439915174744703   0.01808145862547672   0.014470042101574564
-0.24605013006111637   -0.010586367364272063   -0.0016120976464088083
-0.24605013006111637   -0.010586367364272063   -0.0016120976464088083
-0.24605013006111637   -0.010586367364272063   -0.0016120976464088083
-0.24605013006111637   -0.010586367364272063   -0.0016120976464088083
-0.19359060876433398   -0.0054776634019654945   -0.00792812095541641
-0.19359060876433398   -0.0054776634019654945   -0.00792812095541641
-0.19359060876433398   -0.0054776634019654945   -0.00792812095541641
-0.19359060876433398   -0.0054776634019654945   -0.00792812095541641
-0.29180121455903324   -0.004524697936466714   0.008841322103443641
-0.29180121455903324   -0.004524697936466714   0.008841322103443641
-0.29180121455903324   -0.004524697936466714   0.008841322103443641
-0.29180121455903324   -0.004524697936466714   0.008841322103443641
-0.2902194138767679   -0.015338748861589669   -0.017890303325044966
-0.2902194138767679   -0.015338748861589669   -0.017890303325044966
-0.2902194138767679   -0.015338748861589669   -0.017890303325044966
-0.2902194138767679   -0.015338748861589669   -0.017890303325044966
-0.176039811377579   0.02936489853418589   0.011519945310517678
-0.176039811377579   0.02936489853418589   0.011519945310517678
-0.176039811377579   0.02936489853418589   0.011519945310517678
-0.176039811377579   0.02936489853418589   0.011519945310517678
-0.23476419439665053   0.0018275409616093832   0.00426143844656425
-0.23476419439665053   0.0018275409616093832   0.00426143844656425
-0.23476419439665053   0.0018275409616093832   0.00426143844656425
-0.23476419439665053   0.0018275409616093832   0.00426143844656425
-0.184924105876188   0.0071592063948891825   -0.010695835043230625
-0.184924105876188   0.0071592063948891825   -0.010695835043230625
-0.184924105876188   0.0071592063948891825   -0.010695835043230625
-0.184924105876188   0.0071592063948891825   -0.010695835043230625
-0.28062840196249667   0.007573660693369285   0.00715234669135234
-0.28062840196249667   0.007573660693369285   0.00715234669135234
-0.28062840196249667   0.007573660693369285   0.00715234669135234
-0.28062840196249667   0.007573660693369285   0.00715234669135234
-0.2800253487819607   -0.0007729285658997897   -0.019266238844474697
-0.2800253487819607   -0.0007729285658997897   -0.019266238844474697
-0.2800253487819607   -0.0007729285658997897   -0.019266238844474697
-0.2800253487819607   -0.0007729285658997897   -0.019266238844474697
-0.167769269484351   0.04179610355450841   0.008545532582084323
-0.167769269484351   0.04179610355450841   0.008545532582084323
-0.167769269484351   0.04179610355450841   0.008545532582084323
-0.167769269484351   0.04179610355450841   0.008545532582084323
-0.22639663857463896   0.013375633247664769   0.009516659416369505
-0.22639663857463896   0.013375633247664769   0.009516659416369505
-0.22639663857463896   0.013375633247664769   0.009516659416369505
-0.22639663857463896   0.013375633247664769   0.009516659416369505
-0.30918050642492767   -0.02754996967135003   -0.017354772454644035
-0.30918050642492767   -0.02754996967135003   -0.017354772454644035
-0.30918050642492767   -0.02754996967135003   -0.017354772454644035
-0.30918050642492767   -0.02754996967135003   -0.017354772454644035
-0.41400872929458227   -0.007611566781026681   0.025610820314045907
-0.41400872929458227   -0.007611566781026681   0.025610820314045907
-0.41400872929458227   -0.007611566781026681   0.025610820314045907
-0.41400872929458227   -0.007611566781026681   0.025610820314045907
-0.4085773088179141   -0.037292098896372236   -0.023249338419018523
-0.4085773088179141   -0.037292098896372236   -0.023249338419018523
-0.4085773088179141   -0.037292098896372236   -0.023249338419018523
-0.4085773088179141   -0.037292098896372236   -0.023249338419018523
-0.28148851983720535   0.030634351039099728   0.02524574673701519
-0.28148851983720535   0.030634351039099728   0.02524574673701519
-0.28148851983720535   0.030634351039099728   0.02524574673701519
-0.28148851983720535   0.030634351039099728   0.02524574673701519
-0.33805750203329277   -0.006035492783482813   0.0029155473374088414
-0.33805750203329277   -0.006035492783482813   0.0029155473374088414
-0.33805750203329277   -0.006035492783482813   0.0029155473374088414
-0.33805750203329277   -0.006035492783482813   0.0029155473374088414
-0.29954544383224274   -0.014763968879373606   -0.01964055331969671
-0.29954544383224274   -0.014763968879373606   -0.01964055331969671
-0.29954544383224274   -0.014763968879373606   -0.01964055331969671
-0.29954544383224274   -0.014763968879373606   -0.01964055331969671
-0.3899442518583676   0.008682353986609315   0.0239414934957254
-0.3899442518583676   0.008682353986609315   0.0239414934957254
-0.3899442518583676   0.008682353986609315   0.0239414934957254
-0.3899442518583676   0.008682353986609315   0.0239414934957254
-0.39041302815777684   -0.0293702013234938   -0.027695668284739045
-0.39041302815777684   -0.0293702013234938   -0.027695668284739045
-0.39041302815777684   -0.0293702013234938   -0.027695668284739045
-0.39041302815777684   -0.0293702013234938   -0.027695668284739045
-0.2722389789541479   0.03584534467895772   0.020827777747505417
-0.2722389789541479   0.03584534467895772   0.020827777747505417
-0.2722389789541479   0.03584534467895772   0.020827777747505417
-0.2722389789541479   0.03584534467895772   0.020827777747505417
-0.32793090807005887   0.0022959182407550176   0.0076441876710174606
-0.32793090807005887   0.0022959182407550176   0.0076441876710174606
-0.32793090807005887   0.0022959182407550176   0.0076441876710174606
-0.32793090807005887   0.0022959182407550176   0.0076441876710174606
-0.2897637386576825   -0.008242787487307243   -0.022707888603900543
-0.2897637386576825   -0.008242787487307243   -0.022707888603900543
-0.2897637386576825   -0.008242787487307243   -0.022707888603900543
-0.2897637386576825   -0.008242787487307243   -0.022707888603900543
-0.37218811896878334   0.015418080328232636   0.018640596008500154
-0.37218811896878334   0.015418080328232636   0.018640596008500154
-0.37218811896878334   0.015418080328232636   0.018640596008500154
-0.37218811896878334   0.015418080328232636   0.018640596008500154
-0.3679527396782849   -0.01759081947674631   -0.030917953840252956
-0.3679527396782849   -0.01759081947674631   -0.030917953840252956
-0.3679527396782849   -0.01759081947674631   -0.030917953840252956
-0.3679527396782849   -0.01759081947674631   -0.030917953840252956
-0.2641377194741733   0.042052690065182266   0.0173462890633796
-0.2641377194741733   0.042052690065182266   0.0173462890633796
-0.2641377194741733   0.042052690065182266   0.0173462890633796
-0.2641377194741733   0.042052690065182266   0.0173462890633796
-0.30851956486457033   0.010070157454838354   0.01434157322875651
-0.30851956486457033   0.010070157454838354   0.01434157322875651
-0.30851956486457033   0.010070157454838354   0.01434157322875651
-0.30851956486457033   0.010070157454838354   0.01434157322875651
0.3254368099096606   0.02963444960714124   0.02792788174365679
0.3254368099096606   0.02963444960714124   0.02792788174365679
0.3254368099096606   0.02963444960714124   0.02792788174365679
0.3254368099096606   0.02963444960714124   0.02792788174365679
0.11882719037956625   -0.05348615787036116   -0.01836742896545891
0.11882719037956625   -0.05348615787036116   -0.01836742896545891
0.11882719037956625   -0.05348615787036116   -0.01836742896545891
0.11882719037956625   -0.05348615787036116   -0.01836742896545891
0.14623514685371256   -0.0005175744847654203   0.02006285084931892
0.14623514685371256   -0.0005175744847654203   0.02006285084931892
0.14623514685371256   -0.0005175744847654203   0.02006285084931892
0.14623514685371256   -0.0005175744847654203   0.02006285084931892
0.3310530561301609   -0.0069632256368274865   -0.02347099129317194
0.3310530561301609   -0.0069632256368274865   -0.02347099129317194
0.3310530561301609   -0.0069632256368274865   -0.02347099129317194
0.3310530561301609   -0.0069632256368274865   -0.02347099129317194
0.21622273300944392   -0.009537259932550505   -0.020732226587784522
0.21622273300944392   -0.009537259932550505   -0.020732226587784522
0.21622273300944392   -0.009537259932550505   -0.020732226587784522
0.21622273300944392   -0.009537259932550505   -0.020732226587784522
0.3502182219702495   0.041120660685638744   0.02427095158480278
0.3502182219702495   0.041120660685638744   0.02427095158480278
0.3502182219702495   0.041120660685638744   0.02427095158480278
0.3502182219702495   0.041120660685638744   0.02427095158480278
0.1284411442125069   -0.047230297608348695   -0.022194439233123975
0.1284411442125069   -0.047230297608348695   -0.022194439233123975
0.1284411442125069   -0.047230297608348695   -0.022194439233123975
0.1284411442125069   -0.047230297608348695   -0.022194439233123975
0.15691976859278362   0.005803050423202016   0.016521359793780152
0.15691976859278362   0.005803050423202016   0.016521359793780152
0.15691976859278362   0.005803050423202016   0.016521359793780152
0.15691976859278362   0.005803050423202016   0.016521359793780152
0.3507167816770818   0.00020991301227311215   -0.02949921552595461
0.3507167816770818   0.00020991301227311215   -0.02949921552595461
0.3507167816770818   0.00020991301227311215   -0.02949921552595461
0.3507167816770818   0.00020991301227311215   -0.02949921552595461
0.23682172510064853   -0.001807448184240952   -0.012598372061892377
0.23682172510064853   -0.001807448184240952   -0.012598372061892377
0.23682172510064853   -0.001807448184240952   -0.012598372061892377
0.23682172510064853   -0.001807448184240952   -0.012598372061892377
0.37007803040035103   0.048861515872076336   0.018655425230584333
0.37007803040035103   0.048861515872076336   0.018655425230584333
0.37007803040035103   0.048861515872076336   0.018655425230584333
0.37007803040035103   0.048861515872076336   0.018655425230584333
0.13900418529512978   -0.041402887010988744   -0.025850619260296474
0.13900418529512978   -0.041402887010988744   -0.025850619260296474
0.13900418529512978   -0.041402887010988744   -0.025850619260296474
0.13900418529512978   -0.041402887010988744   -0.025850619260296474
0.16759265940233725   0.019773841967978437   0.01431829002692683
0.16759265940233725   0.019773841967978437   0.01431829002692683
0.16759265940233725   0.019773841967978437   0.01431829002692683
0.16759265940233725   0.019773841967978437   0.01431829002692683
0.3765720117771631   0.018908767173963083   -0.031799536705297504
0.3765720117771631   0.018908767173963083   -0.031799536705297504
0.3765720117771631   0.018908767173963083   -0.031799536705297504
0.3765720117771631   0.018908767173963083   -0.031799536705297504
0.24936090729891533   0.007629532613351666   -0.0056009416966122105
0.24936090729891533   0.007629532613351666   -0.0056009416966122105
0.24936090729891533   0.007629532613351666   -0.0056009416966122105
0.24936090729891533   0.007629532613351666   -0.0056009416966122105
0.14102443316036561   0.016673670050478512   0.022458957017698324
0.14102443316036561   0.016673670050478512   0.022458957017698324
0.14102443316036561   0.016673670050478512   0.022458957017698324
0.14102443316036561   0.016673670050478512   0.022458957017698324
-0.06939352063681445   -0.04993066258325421   -0.00964605424209565
-0.06939352063681445   -0.04993066258325421   -0.00964605424209565
-0.06939352063681445   -0.04993066258325421   -0.00964605424209565
-0.06939352063681445   -0.04993066258325421   -0.00964605424209565
-0.050633848937886285   -0.014791256478407481   0.006737111106148273
-0.050633848937886285   -0.014791256478407481   0.006737111106148273
-0.050633848937886285   -0.014791256478407481   0.006737111106148273
-0.050633848937886285   -0.014791256478407481   0.006737111106148273
0.1419252834469708   0.0008721150906254565   -0.002876155759780674
0.1419252834469708   0.0008721150906254565   -0.002876155759780674
0.1419252834469708   0.0008721150906254565   -0.002876155759780674
0.1419252834469708   0.0008721150906254565   -0.002876155759780674
0.03887083637198522   -0.010420594123943083   -0.008783415273807434
0.03887083637198522   -0.010420594123943083   -0.008783415273807434
0.03887083637198522   -0.010420594123943083   -0.008783415273807434
0.03887083637198522   -0.010420594123943083   -0.008783415273807434
0.1520192370560358   0.028404236645318045   0.020061490730853795
0.1520192370560358   0.028404236645318045   0.020061490730853795
0.1520192370560358   0.028404236645318045   0.020061490730853795
0.1520192370560358   0.028404236645318045   0.020061490730853795
-0.05989001455853242   -0.04148559004468086   -0.01284938343080903
-0.05989001455853242   -0.04148559004468086   -0.01284938343080903
-0.05989001455853242   -0.04148559004468086   -0.01284938343080903
-0.05989001455853242   -0.04148559004468086   -0.01284938343080903
-0.04068917707118035   -0.0029315277201092628   0.004242960851687204
-0.04068917707118035   -0.0029315277201092628   0.004242960851687204
-0.04068917707118035   -0.0029315277201092628   0.004242960851687204
-0.04068917707118035   -0.0029315277201092628   0.004242960851687204
0.153671751832604   0.011488820502934014   -0.005404494086848011
0.153671751832604   0.011488820502934014   -0.005404494086848011
0.153671751832604   0.011488820502934014   -0.005404494086848011
0.153671751832604   0.011488820502934014   -0.005404494086848011
0.04846183287437864   -0.0010627406468375908   -0.003485626898753067
0.04846183287437864   -0.0010627406468375908   -0.003485626898753067
0.04846183287437864   -0.0010627406468375908   -0.003485626898753067
0.04846183287437864   -0.0010627406468375908   -0.003485626898753067
0.16417284763172185   0.04075853844372113   0.017831266967952283
0.16417284763172185   0.04075853844372113   0.017831266967952283
0.16417284763172185   0.04075853844372113   0.017831266967952283
0.16417284763172185   0.04075853844372113   0.017831266967952283
-0.0503525835395868   -0.031363556330187836   -0.01564204288026644
-0.0503525835395868   -0.031363556330187836   -0.01564204288026644
-0.0503525835395868   -0.031363556330187836   -0.01564204288026644
-0.0503525835395868   -0.031363556330187836   -0.01564204288026644
-0.030861612117509037   0.010845990799131377   0.0017638309156470513
-0.030861612117509037   0.010845990799131377   0.0017638309156470513
-0.030861612117509037   0.010845990799131377   0.0017638309156470513
-0.030861612117509037   0.010845990799131377   0.0017638309156470513
0.16406172328323657   0.0241633213832341   -0.007725869983830548
0.16406172328323657   0.0241633213832341   -0.007725869983830548
0.16406172328323657   0.0241633213832341   -0.007725869983830548
0.16406172328323657   0.0241633213832341   -0.007725869983830548
0.06038933002930376   0.010445171855846298   0.0027092958280500665
0.06038933002930376   0.010445171855846298   0.0027092958280500665
0.06038933002930376   0.010445171855846298   0.0027092958280500665
0.06038933002930376   0.010445171855846298   0.0027092958280500665
-0.05482352966023114   0.003679843166838035   0.009593394890728597
-0.05482352966023114   0.003679843166838035   0.009593394890728597
-0.05482352966023114   0.003679843166838035   0.009593394890728597
-0.05482352966023114   0.003679843166838035   0.009593394890728597
-0.2538937198581005   -0.04417328562780824   -0.0013295385934105897
-0.2538937198581005   -0.04417328562780824   -0.0013295385934105897
-0.2538937198581005   -0.04417328562780824   -0.0013295385934105897
-0.2538937198581005   -0.04417328562780824   -0.0013295385934105897
-0.2421395297422513   -0.02626364328747588   -0.00594705387997662
-0.2421395297422513   -0.02626364328747588   -0.00594705387997662
-0.2421395297422513   -0.02626364328747588   -0.00594705387997662
-0.2421395297422513   -0.02626364328747588   -0.00594705387997662
-0.046363022415091305   0.006961507769013234   0.006338479472702465
-0.046363022415091305   0.006961507769013234   0.006338479472702465
-0.046363022415091305   0.006961507769013234   0.006338479472702465
-0.046363022415091305   0.006961507769013234   0.006338479472702465
-0.14956275432988148   -0.013536164158009817   -0.005495032236678427
-0.14956275432988148   -0.013536164158009817   -0.005495032236678427
-0.14956275432988148   -0.013536164158009817   -0.005495032236678427
-0.14956275432988148   -0.013536164158009817   -0.005495032236678427
-0.0443809178352286   0.015932993248441524   0.007277516892587712
-0.0443809178352286   0.015932993248441524   0.007277516892587712
-0.0443809178352286   0.015932993248441524   0.007277516892587712
-0.0443809178352286   0.015932993248441524   0.007277516892587712
-0.24355083469727837   -0.034664329142068545   -0.004602892800519343
-0.24355083469727837   -0.034664329142068545   -0.004602892800519343
-0.24355083469727837   -0.034664329142068545   -0.004602892800519343
-0.24355083469727837   -0.034664329142068545   -0.004602892800519343
-0.23117171591893565   -0.013251021782983222   -0.008029619661187669
-0.23117171591893565   -0.013251021782983222   -0.008029619661187669
-0.23117171591893565   -0.013251021782983222   -0.008029619661187669
-0.23117171591893565   -0.013251021782983222   -0.008029619661187669
-0.036687846745326484   0.017691597183399285   0.003626487577447996
-0.036687846745326484   0.017691597183399285   0.003626487577447996
-0.036687846745326484   0.017691597183399285   0.003626487577447996
-0.036687846745326484   0.017691597183399285   0.003626487577447996
-0.13849483941211013   -0.0026536838075670865   -7.751385833147661e-05
-0.13849483941211013   -0.0026536838075670865   -7.751385833147661e-05
-0.13849483941211013   -0.0026536838075670865   -7.751385833147661e-05
-0.13849483941211013   -0.0026536838075670865   -7.751385833147661e-05
-0.03429157063267129   0.02865902022611241   0.004640445098010808
-0.03429157063267129   0.02865902022611241   0.004640445098010808
-0.03429157063267129   0.02865902022611241   0.004640445098010808
-0.03429157063267129   0.02865902022611241   0.004640445098010808
-0.2330401553108447   -0.02369060810494767   -0.006932230298768549
-0.2330401553108447   -0.02369060810494767   -0.006932230298768549
-0.2330401553108447   -0.02369060810494767   -0.006932230298768549
-0.2330401553108447   -0.02369060810494767   -0.006932230298768549
-0.22095775499137432   -0.0002718508923971637   -0.01050575540870146
-0.22095775499137432   -0.0002718508923971637   -0.01050575540870146
-0.22095775499137432   -0.0002718508923971637   -0.01050575540870146
-0.22095775499137432   -0.0002718508923971637   -0.01050575540870146
-0.027468407759620752   0.028640283302046925   0.0009355602021739085
-0.027468407759620752   0.028640283302046925   0.0009355602021739085
-0.027468407759620752   0.028640283302046925   0.0009355602021739085
-0.027468407759620752   0.028640283302046925   0.0009355602021739085
-0.1283368703635713   0.008190258594117794   0.005072974529054749
-0.1283368703635713   0.008190258594117794   0.005072974529054749
-0.1283368703635713   0.008190258594117794   0.005072974529054749
-0.1283368703635713   0.008190258594117794   0.005072974529054749
-0.2474218805735187   -0.009494027007977333   -0.003649600790330193
-0.2474218805735187   -0.009494027007977333   -0.003649600790330193
-0.2474218805735187   -0.009494027007977333   -0.003649600790330193
-0.2474218805735187   -0.009494027007977333   -0.003649600790330193
-0.43458316393081486   -0.03594545245977601   0.008128158505375918
-0.43458316393081486   -0.03594545245977601   0.008128158505375918
-0.43458316393081486   -0.03594545245977601   0.008128158505375918
-0.43458316393081486   -0.03594545245977601   0.008128158505375918
-0.4290682147167211   -0.0373185154979527   -0.01786076554629845
-0.4290682147167211   -0.0373185154979527   -0.01786076554629845
-0.4290682147167211   -0.0373185154979527   -0.01786076554629845
-0.4290682147167211   -0.0373185154979527   -0.01786076554629845
-0.22914622803132603   0.01691766207472477   0.015838149312451096
-0.22914622803132603   0.01691766207472477   0.015838149312451096
-0.22914622803132603   0.01691766207472477   0.015838149312451096
-0.22914622803132603   0.01691766207472477   0.015838149312451096
-0.33273829852412207   -0.014420518673482145   -0.0019275295793707847
-0.33273829852412207   -0.014420518673482145   -0.0019275295793707847
-0.33273829852412207   -0.014420518673482145   -0.0019275295793707847
-0.33273829852412207   -0.014420518673482145   -0.0019275295793707847
-0.23607426466699924   0.0037296277191777635   -0.005613999510367992
-0.23607426466699924   0.0037296277191777635   -0.005613999510367992
-0.23607426466699924   0.0037296277191777635   -0.005613999510367992
-0.23607426466699924   0.0037296277191777635   -0.005613999510367992
-0.4220781758892531   -0.024068478950610907   0.003839392043699791
-0.4220781758892531   -0.024068478950610907   0.003839392043699791
-0.4220781758892531   -0.024068478950610907   0.003839392043699791
-0.4220781758892531   -0.024068478950610907   0.003839392043699791
-0.41469703845467215   -0.024621996417723373   -0.01975730237193546
-0.41469703845467215   -0.024621996417723373   -0.01975730237193546
-0.41469703845467215   -0.024621996417723373   -0.01975730237193546
-0.41469703845467215   -0.024621996417723373   -0.01975730237193546
-0.21895462518682748   0.027129664405322423   0.012675147811049024
-0.21895462518682748   0.027129664405322423   0.012675147811049024
-0.21895462518682748   0.027129664405322423   0.012675147811049024
-0.21895462518682748   0.027129664405322423   0.012675147811049024
-0.318077012783902   -0.002402020091917329   0.003520031230216908
-0.318077012783902   -0.002402020091917329   0.003520031230216908
-0.318077012783902   -0.002402020091917329   0.003520031230216908
-0.318077012783902   -0.002402020091917329   0.003520031230216908
-0.22545925361243227   0.01552779586898435   -0.008246125780636743
-0.22545925361243227   0.01552779586898435   -0.008246125780636743
-0.22545925361243227   0.01552779586898435   -0.008246125780636743
-0.22545925361243227   0.01552779586898435   -0.008246125780636743
-0.40781474905785986   -0.012642466910177789   0.0026746151045803496
-0.40781474905785986   -0.012642466910177789   0.0026746151045803496
-0.40781474905785986   -0.012642466910177789   0.0026746151045803496
-0.40781474905785986   -0.012642466910177789   0.0026746151045803496
-0.40185077294851834   -0.010886120399632385   -0.020784083724452326
-0.40185077294851834   -0.010886120399632385   -0.020784083724452326
-0.40185077294851834   -0.010886120399632385   -0.020784083724452326
-0.40185077294851834   -0.010886120399632385   -0.020784083724452326
-0.20908434906530027   0.03832697563161945   0.010262447697653769
-0.20908434906530027   0.03832697563161945   0.010262447697653769
-0.20908434906530027   0.03832697563161945   0.010262447697653769
-0.20908434906530027   0.03832697563161945   0.010262447697653769
-0.3082739468323661   0.007848093495876118   0.00821045688625631
-0.3082739468323661   0.007848093495876118   0.00821045688625631
-0.3082739468323661   0.007848093495876118   0.00821045688625631
-0.3082739468323661   0.007848093495876118   0.00821045688625631
-0.4362761736244503   -0.020369740161937447   -0.015912602260639883
-0.4362761736244503   -0.020369740161937447   -0.015912602260639883
-0.4362761736244503   -0.020369740161937447   -0.015912602260639883
-0.4362761736244503   -0.020369740161937447   -0.015912602260639883
-0.6225982774310193   -0.022565022672397725   0.027527676964800907
-0.6225982774310193   -0.022565022672397725   0.027527676964800907
-0.6225982774310193   -0.022565022672397725   0.027527676964800907
-0.6225982774310193   -0.022565022672397725   0.027527676964800907
-0.6111424283564831   -0.044587813792275686   -0.021211168900584082
-0.6111424283564831   -0.044587813792275686   -0.021211168900584082
-0.6111424283564831   -0.044587813792275686   -0.021211168900584082
-0.6111424283564831   -0.044587813792275686   -0.021211168900584082
-0.4055117374060261   0.034559642672443006   0.028043462836777278
-0.4055117374060261   0.034559642672443006   0.028043462836777278
-0.4055117374060261   0.034559642672443006   0.028043462836777278
-0.4055117374060261   0.034559642672443006   0.028043462836777278
-0.4958387331702711   -0.006117891183509062   0.005914833963117691
-0.4958387331702711   -0.006117891183509062   0.005914833963117691
-0.4958387331702711   -0.006117891183509062   0.005914833963117691
-0.4958387331702711   -0.006117891183509062   0.005914833963117691
-0.4228166732693887   -0.006220619796881804   -0.017700954010709105
-0.4228166732693887   -0.006220619796881804   -0.017700954010709105
-0.4228166732693887   -0.006220619796881804   -0.017700954010709105
-0.4228166732693887   -0.006220619796881804   -0.017700954010709105
-0.5935248226971467   -0.003494881526977474   0.025783927130795442
-0.5935248226971467   -0.003494881526977474   0.025783927130795442
-0.5935248226971467   -0.003494881526977474   0.025783927130795442
-0.5935248226971467   -0.003494881526977474   0.025783927130795442
-0.5892633140811621   -0.036725870672059596   -0.025003963880567068
-0.5892633140811621   -0.036725870672059596   -0.025003963880567068
-0.5892633140811621   -0.036725870672059596   -0.025003963880567068
-0.5892633140811621   -0.036725870672059596   -0.025003963880567068
-0.3934898441250115   0.039404932226645296   0.02225174063199936
-0.3934898441250115   0.039404932226645296   0.02225174063199936
-0.3934898441250115   0.039404932226645296   0.02225174063199936
-0.3934898441250115   0.039404932226645296   0.02225174063199936
-0.4847966343287574   0.0024746160233195293   0.010404560805537685
-0.4847966343287574   0.0024746160233195293   0.010404560805537685
-0.4847966343287574   0.0024746160233195293   0.010404560805537685
-0.4847966343287574   0.0024746160233195293   0.010404560805537685
-0.40983162081152674   0.00012568220266206617   -0.020177892776593973
-0.40983162081152674   0.00012568220266206617   -0.020177892776593973
-0.40983162081152674   0.00012568220266206617   -0.020177892776593973
-0.40983162081152674   0.00012568220266206617   -0.020177892776593973
-0.5726041595470611   0.0028707571995074607   0.01869518091835984
-0.5726041595470611   0.0028707571995074607   0.01869518091835984
-0.5726041595470611   0.0028707571995074607   0.01869518091835984
-0.5726041595470611   0.0028707571995074607   0.01869518091835984
-0.5652733508636554   -0.027349695117306415   -0.028530005459581703
-0.5652733508636554   -0.027349695117306415   -0.028530005459581703
-0.5652733508636554   -0.027349695117306415   -0.028530005459581703
-0.5652733508636554   -0.027349695117306415   -0.028530005459581703
-0.3829611267030442   0.04383682845475387   0.01894119864852982
-0.3829611267030442   0.04383682845475387   0.01894119864852982
-0.3829611267030442   0.04383682845475387   0.01894119864852982
-0.3829611267030442   0.04383682845475387   0.01894119864852982
-0.4604827926834821   0.009587462754967482   0.017261178606571392
-0.4604827926834821   0.009587462754967482   0.017261178606571392
-0.4604827926834821   0.009587462754967482   0.017261178606571392
-0.4604827926834821   0.009587462754967482   0.017261178606571392
0.5428810621029342   0.04068286799286536   0.028423828627321082
0.5428810621029342   0.04068286799286536   0.028423828627321082
0.5428810621029342   0.04068286799286536   0.028423828627321082
0.5428810621029342   0.04068286799286536   0.028423828627321082
0.2389120290355143   -0.06330063037552014   -0.013205869776183002
0.2389120290355143   -0.06330063037552014   -0.013205869776183002
0.2389120290355143   -0.06330063037552014   -0.013205869776183002
0.2389120290355143   -0.06330063037552014   -0.013205869776183002
0.2659224044373779   -0.011401446492411009   0.019468556121693452
0.2659224044373779   -0.011401446492411009   0.019468556121693452
0.2659224044373779   -0.011401446492411009   0.019468556121693452
0.2659224044373779   -0.011401446492411009   0.019468556121693452
0.5486001871605709   -0.0003686745320906626   -0.02059881796355373
0.5486001871605709   -0.0003686745320906626   -0.02059881796355373
0.5486001871605709   -0.0003686745320906626   -0.02059881796355373
0.5486001871605709   -0.0003686745320906626   -0.02059881796355373
0.375732896348778   -0.011134881076055453   -0.029161033816424334
0.375732896348778   -0.011134881076055453   -0.029161033816424334
0.375732896348778   -0.011134881076055453   -0.029161033816424334
0.375732896348778   -0.011134881076055453   -0.029161033816424334
0.5675029304363197   0.0497751602163816   0.023771063666714665
0.5675029304363197   0.0497751602163816   0.023771063666714665
0.5675029304363197   0.0497751602163816   0.023771063666714665
0.5675029304363197   0.0497751602163816   0.023771063666714665
0.2488407491935819   -0.05972419320893073   -0.01761697338076508
0.2488407491935819   -0.05972419320893073   -0.01761697338076508
0.2488407491935819   -0.05972419320893073   -0.01761697338076508
0.2488407491935819   -0.05972419320893073   -0.01761697338076508
0.27638052336696867   -0.005614162834035468   0.015716663552631016
0.27638052336696867   -0.005614162834035468   0.015716663552631016
0.27638052336696867   -0.005614162834035468   0.015716663552631016
0.27638052336696867   -0.005614162834035468   0.015716663552631016
0.5670322693154353   0.006002368794715364   -0.02567070092264115
0.5670322693154353   0.006002368794715364   -0.02567070092264115
0.5670322693154353   0.006002368794715364   -0.02567070092264115
0.5670322693154353   0.006002368794715364   -0.02567070092264115
0.39898450451336254   -0.004348819564667913   -0.01987554142371542
0.39898450451336254   -0.004348819564667913   -0.01987554142371542
0.39898450451336254   -0.004348819564667913   -0.01987554142371542
0.39898450451336254   -0.004348819564667913   -0.01987554142371542
0.585815125069612   0.05664884510379889   0.017597101539159457
0.585815125069612   0.05664884510379889   0.017597101539159457
0.585815125069612   0.05664884510379889   0.017597101539159457
0.585815125069612   0.05664884510379889   0.017597101539159457
0.2591855864153262   -0.05467272034058464   -0.02119946369903211
0.2591855864153262   -0.05467272034058464   -0.02119946369903211
0.2591855864153262   -0.05467272034058464   -0.02119946369903211
0.2591855864153262   -0.05467272034058464   -0.02119946369903211
0.28586847227594303   0.009883885127490997   0.013779592563562128
0.28586847227594303   0.009883885127490997   0.013779592563562128
0.28586847227594303   0.009883885127490997   0.013779592563562128
0.28586847227594303   0.009883885127490997   0.013779592563562128
0.589759941115445   0.02466531122748712   -0.026858999415676682
0.589759941115445   0.02466531122748712   -0.026858999415676682
0.589759941115445   0.02466531122748712   -0.026858999415676682
0.589759941115445   0.02466531122748712   -0.026858999415676682
0.40747197111219624   0.00482690809562894   -0.013484648727327547
0.40747197111219624   0.00482690809562894   -0.013484648727327547
0.40747197111219624   0.00482690809562894   -0.013484648727327547
0.40747197111219624   0.00482690809562894   -0.013484648727327547
0.26424859255240346   0.023968528657966365   0.026207788774774032
0.26424859255240346   0.023968528657966365   0.026207788774774032
0.26424859255240346   0.023968528657966365   0.026207788774774032
0.26424859255240346   0.023968528657966365   0.026207788774774032
-0.03378586919751814   -0.07773825014625728   -0.007558249539354859
-0.03378586919751814   -0.07773825014625728   -0.007558249539354859
-0.03378586919751814   -0.07773825014625728   -0.007558249539354859
-0.03378586919751814   -0.07773825014625728   -0.007558249539354859
-0.010636028350409775   -0.027756875802632607   0.006540201571309603
-0.010636028350409775   -0.027756875802632607   0.006540201571309603
-0.010636028350409775   -0.027756875802632607   0.006540201571309603
-0.010636028350409775   -0.027756875802632607   0.006540201571309603
0.26191008307989067   -0.013373636888291431   0.0013791397301378197
0.26191008307989067   -0.013373636888291431   0.0013791397301378197
0.26191008307989067   -0.013373636888291431   0.0013791397301378197
0.26191008307989067   -0.013373636888291431   0.0013791397301378197
0.11716488177075282   -0.021388132040468345   -0.013777453495077158
0.11716488177075282   -0.021388132040468345   -0.013777453495077158
0.11716488177075282   -0.021388132040468345   -0.013777453495077158
0.11716488177075282   -0.021388132040468345   -0.013777453495077158
0.27551711417925484   0.03281153671397653   0.023229121624690652
0.27551711417925484   0.03281153671397653   0.023229121624690652
0.27551711417925484   0.03281153671397653   0.023229121624690652
0.27551711417925484   0.03281153671397653   0.023229121624690652
-0.023271759206755612   -0.07297074916188225   -0.011424579351169932
-0.023271759206755612   -0.07297074916188225   -0.011424579351169932
-0.023271759206755612   -0.07297074916188225   -0.011424579351169932
-0.023271759206755612   -0.07297074916188225   -0.011424579351169932
2.226843094764539e-05   -0.01736889492169065   0.003956412191685027
2.226843094764539e-05   -0.01736889492169065   0.003956412191685027
2.226843094764539e-05   -0.01736889492169065   0.003956412191685027
2.226843094764539e-05   -0.01736889492169065   0.003956412191685027
0.2728574207550633   -0.005536843261873887   -0.001976169079057427
0.2728574207550633   -0.005536843261873887   -0.001976169079057427
0.2728574207550633   -0.005536843261873887   -0.001976169079057427
0.2728574207550633   -0.005536843261873887   -0.001976169079057427
0.12638071784041888   -0.015000271071723493   -0.008908373649961991
0.12638071784041888   -0.015000271071723493   -0.008908373649961991
0.12638071784041888   -0.015000271071723493   -0.008908373649961991
0.12638071784041888   -0.015000271071723493   -0.008908373649961991
0.2871957174804609   0.04342517225590789   0.020753299030149087
0.2871957174804609   0.04342517225590789   0.020753299030149087
0.2871957174804609   0.04342517225590789   0.020753299030149087
0.2871957174804609   0.04342517225590789   0.020753299030149087
-0.01372803221996486   -0.06574291436498472   -0.016421071619583436
-0.01372803221996486   -0.06574291436498472   -0.016421071619583436
-0.01372803221996486   -0.06574291436498472   -0.016421071619583436
-0.01372803221996486   -0.06574291436498472   -0.016421071619583436
0.008395460782086457   -0.005154897573134017   0.0013492977354789704
0.008395460782086457   -0.005154897573134017   0.0013492977354789704
0.008395460782086457   -0.005154897573134017   0.0013492977354789704
0.008395460782086457   -0.005154897573134017   0.0013492977354789704
0.2810344468733814   0.004490415181289325   -0.004997064503046281
0.2810344468733814   0.004490415181289325   -0.004997064503046281
0.2810344468733814   0.004490415181289325   -0.004997064503046281
0.2810344468733814   0.004490415181289325   -0.004997064503046281
0.13778938306826932   -0.0054263836106809085   -0.0036534701781117326
0.13778938306826932   -0.0054263836106809085   -0.0036534701781117326
0.13778938306826932   -0.0054263836106809085   -0.0036534701781117326
0.13778938306826932   -0.0054263836106809085   -0.0036534701781117326
-0.01272670238254829   0.006938243719857218   0.013061090669379865
-0.01272670238254829   0.006938243719857218   0.013061090669379865
-0.01272670238254829   0.006938243719857218   0.013061090669379865
-0.01272670238254829   0.006938243719857218   0.013061090669379865
-0.30432834900541345   -0.09729583497847989   -0.0060060954988614
-0.30432834900541345   -0.09729583497847989   -0.0060060954988614
-0.30432834900541345   -0.09729583497847989   -0.0060060954988614
-0.30432834900541345   -0.09729583497847989   -0.0060060954988614
-0.28105090358036977   -0.04253023750108699   -0.006432365712520191
-0.28105090358036977   -0.04253023750108699   -0.006432365712520191
-0.28105090358036977   -0.04253023750108699   -0.006432365712520191
-0.28105090358036977   -0.04253023750108699   -0.006432365712520191
-0.011657571021612976   -0.032282873093680525   0.0059584855063415255
-0.011657571021612976   -0.032282873093680525   0.0059584855063415255
-0.011657571021612976   -0.032282873093680525   0.0059584855063415255
-0.011657571021612976   -0.032282873093680525   0.0059584855063415255
-0.1531107744167975   -0.03907493318805015   -0.012274420339335672
-0.1531107744167975   -0.03907493318805015   -0.012274420339335672
-0.1531107744167975   -0.03907493318805015   -0.012274420339335672
-0.1531107744167975   -0.03907493318805015   -0.012274420339335672
-0.0008829500470155759   0.016916308171014572   0.010632409114633427
-0.0008829500470155759   0.016916308171014572   0.010632409114633427
-0.0008829500470155759   0.016916308171014572   0.010632409114633427
-0.0008829500470155759   0.016916308171014572   0.010632409114633427
-0.29111963527416096   -0.09102352948497587   -0.008282732197587225
-0.29111963527416096   -0.09102352948497587   -0.008282732197587225
-0.29111963527416096   -0.09102352948497587   -0.008282732197587225
-0.29111963527416096   -0.09102352948497587   -0.008282732197587225
-0.26782060252238654   -0.031005257911383092   -0.008725032119403883
-0.26782060252238654   -0.031005257911383092   -0.008725032119403883
-0.26782060252238654   -0.031005257911383092   -0.008725032119403883
-0.26782060252238654   -0.031005257911383092   -0.008725032119403883
-0.0017382850046398731   -0.0247429293579774   0.0025276794500341824
-0.0017382850046398731   -0.0247429293579774   0.0025276794500341824
-0.0017382850046398731   -0.0247429293579774   0.0025276794500341824
-0.0017382850046398731   -0.0247429293579774   0.0025276794500341824
-0.1402671459064485   -0.030772219006742194   -0.006774551095553097
-0.1402671459064485   -0.030772219006742194   -0.006774551095553097
-0.1402671459064485   -0.030772219006742194   -0.006774551095553097
-0.1402671459064485   -0.030772219006742194   -0.006774551095553097
0.009951142782905152   0.02795039614959366   0.008281492880188245
0.009951142782905152   0.02795039614959366   0.008281492880188245
0.009951142782905152   0.02795039614959366   0.008281492880188245
0.009951142782905152   0.02795039614959366   0.008281492880188245
-0.27948865839832204   -0.08367721150734464   -0.014393357903119866
-0.27948865839832204   -0.08367721150734464   -0.014393357903119866
-0.27948865839832204   -0.08367721150734464   -0.014393357903119866
-0.27948865839832204   -0.08367721150734464   -0.014393357903119866
-0.25846530526107747   -0.020002120804424345   -0.01127956282871042
-0.25846530526107747   -0.020002120804424345   -0.01127956282871042
-0.25846530526107747   -0.020002120804424345   -0.01127956282871042
-0.25846530526107747   -0.020002120804424345   -0.01127956282871042
0.004759675716020275   -0.018674648340497077   -0.0033098768274888793
0.004759675716020275   -0.018674648340497077   -0.0033098768274888793
0.004759675716020275   -0.018674648340497077   -0.0033098768274888793
0.004759675716020275   -0.018674648340497077   -0.0033098768274888793
-0.1308532832947717   -0.023006139612099838   -0.0033000932533921237
-0.1308532832947717   -0.023006139612099838   -0.0033000932533921237
-0.1308532832947717   -0.023006139612099838   -0.0033000932533921237
-0.1308532832947717   -0.023006139612099838   -0.0033000932533921237
-0.28528956680852585   -0.007778307195809204   -0.00032971229709431726
-0.28528956680852585   -0.007778307195809204   -0.00032971229709431726
-0.28528956680852585   -0.007778307195809204   -0.00032971229709431726
-0.28528956680852585   -0.007778307195809204   -0.00032971229709431726
-0.5763695107520707   -0.10460454109381147   -0.004759877090598497
-0.5763695107520707   -0.10460454109381147   -0.004759877090598497
-0.5763695107520707   -0.10460454109381147   -0.004759877090598497
-0.5763695107520707   -0.10460454109381147   -0.004759877090598497
-0.5515151490549502   -0.054518314164572396   -0.018972810860410624
-0.5515151490549502   -0.054518314164572396   -0.018972810860410624
-0.5515151490549502   -0.054518314164572396   -0.018972810860410624
-0.5515151490549502   -0.054518314164572396   -0.018972810860410624
-0.275473440201465   -0.033582782980590004   0.01250749666150644
-0.275473440201465   -0.033582782980590004   0.01250749666150644
-0.275473440201465   -0.033582782980590004   0.01250749666150644
-0.275473440201465   -0.033582782980590004   0.01250749666150644
-0.41850234131335995   -0.04711573095606452   -0.008633052464971216
-0.41850234131335995   -0.04711573095606452   -0.008633052464971216
-0.41850234131335995   -0.04711573095606452   -0.008633052464971216
-0.41850234131335995   -0.04711573095606452   -0.008633052464971216
-0.27067058721242837   0.005027463417695022   -0.002088484791595291
-0.27067058721242837   0.005027463417695022   -0.002088484791595291
-0.27067058721242837   0.005027463417695022   -0.002088484791595291
-0.27067058721242837   0.005027463417695022   -0.002088484791595291
-0.556498288926309   -0.09330884744518134   -0.0050979769365909755
-0.556498288926309   -0.09330884744518134   -0.0050979769365909755
-0.556498288926309   -0.09330884744518134   -0.0050979769365909755
-0.556498288926309   -0.09330884744518134   -0.0050979769365909755
-0.5325628656577895   -0.04251644091152076   -0.021947138302189473
-0.5325628656577895   -0.04251644091152076   -0.021947138302189473
-0.5325628656577895   -0.04251644091152076   -0.021947138302189473
-0.5325628656577895   -0.04251644091152076   -0.021947138302189473
-0.2626547519888612   -0.024596656433021745   0.010695619069863549
-0.2626547519888612   -0.024596656433021745   0.010695619069863549
-0.2626547519888612   -0.024596656433021745   0.010695619069863549
-0.2626547519888612   -0.024596656433021745   0.010695619069863549
-0.3989596249471764   -0.03559808646047137   -0.002745496680793061
-0.3989596249471764   -0.03559808646047137   -0.002745496680793061
-0.3989596249471764   -0.03559808646047137   -0.002745496680793061
-0.3989596249471764   -0.03559808646047137   -0.002745496680793061
-0.2574163043889028   0.016133782608350668   -0.0038425819717191542
-0.2574163043889028   0.016133782608350668   -0.0038425819717191542
-0.2574163043889028   0.016133782608350668   -0.0038425819717191542
-0.2574163043889028   0.016133782608350668   -0.0038425819717191542
-0.538678627799633   -0.08412419449477537   -0.010918195428148009
-0.538678627799633   -0.08412419449477537   -0.010918195428148009
-0.538678627799633   -0.08412419449477537   -0.010918195428148009
-0.538678627799633   -0.08412419449477537   -0.010918195428148009
-0.5172556039068168   -0.029892476430048595   -0.022663557769185355
-0.5172556039068168   -0.029892476430048595   -0.022663557769185355
-0.5172556039068168   -0.029892476430048595   -0.022663557769185355
-0.5172556039068168   -0.029892476430048595   -0.022663557769185355
-0.2553052348963318   -0.018883417423459344   0.0034020856140552364
-0.2553052348963318   -0.018883417423459344   0.0034020856140552364
-0.2553052348963318   -0.018883417423459344   0.0034020856140552364
-0.2553052348963318   -0.018883417423459344   0.0034020856140552364
-0.38836219637483543   -0.028590262160274667   -0.000803612281679994
-0.38836219637483543   -0.028590262160274667   -0.000803612281679994
-0.38836219637483543   -0.028590262160274667   -0.000803612281679994
-0.38836219637483543   -0.028590262160274667   -0.000803612281679994
-0.5609176470156704   -0.018462876568974836   -0.01364222293343359
-0.5609176470156704   -0.018462876568974836   -0.01364222293343359
-0.5609176470156704   -0.018462876568974836   -0.01364222293343359
-0.5609176470156704   -0.018462876568974836   -0.01364222293343359
-0.8459506947187392   -0.07135700223765923   0.03128801080290672
-0.8459506947187392   -0.07135700223765923   0.03128801080290672
-0.8459506947187392   -0.07135700223765923   0.03128801080290672
-0.8459506947187392   -0.07135700223765923   0.03128801080290672
-0.8177323547328228   -0.05717750015884143   -0.018421633992848158
-0.8177323547328228   -0.05717750015884143   -0.018421633992848158
-0.8177323547328228   -0.05717750015884143   -0.018421633992848158
-0.8177323547328228   -0.05717750015884143   -0.018421633992848158
-0.5279489865090258   0.015412126439885536   0.02892756126474949
-0.5279489865090258   0.015412126439885536   0.02892756126474949
-0.5279489865090258   0.015412126439885536   0.02892756126474949
-0.5279489865090258   0.015412126439885536   0.02892756126474949
-0.6572759429473681   -0.0222051838272632   0.0035310482721395975
-0.6572759429473681   -0.0222051838272632   0.0035310482721395975
-0.6572759429473681   -0.0222051838272632   0.0035310482721395975
-0.6572759429473681   -0.0222051838272632   0.0035310482721395975
-0.5400404654449582   -0.000981947414752514   -0.015135759560268192
-0.5400404654449582   -0.000981947414752514   -0.015135759560268192
-0.5400404654449582   -0.000981947414752514   -0.015135759560268192
-0.5400404654449582   -0.000981947414752514   -0.015135759560268192
-0.8036935630654772   -0.03883611357279038   0.03343093775782144
-0.8036935630654772   -0.03883611357279038   0.03343093775782144
-0.8036935630654772   -0.03883611357279038   0.03343093775782144
-0.8036935630654772   -0.03883611357279038   0.03343093775782144
-0.7874134862526623   -0.04821782310444171   -0.021938393895800157
-0.7874134862526623   -0.04821782310444171   -0.021938393895800157
-0.7874134862526623   -0.04821782310444171   -0.021938393895800157
-0.7874134862526623   -0.04821782310444171   -0.021938393895800157
-0.509237621084447   0.024288931276820698   0.02787371237618183
-0.509237621084447   0.024288931276820698   0.02787371237618183
-0.509237621084447   0.024288931276820698   0.02787371237618183
-0.509237621084447   0.024288931276820698   0.02787371237618183
-0.6397210262907689   -0.008952186080724463   0.013197794069309682
-0.6397210262907689   -0.008952186080724463   0.013197794069309682
-0.6397210262907689   -0.008952186080724463   0.013197794069309682
-0.6397210262907689   -0.008952186080724463   0.013197794069309682
-0.5217394411213214   0.006029477828925402   -0.016375934360290154
-0.5217394411213214   0.006029477828925402   -0.016375934360290154
-0.5217394411213214   0.006029477828925402   -0.016375934360290154
-0.5217394411213214   0.006029477828925402   -0.016375934360290154
-0.7744946853867305   -0.029541388827489787   0.02397917615691289
-0.7744946853867305   -0.029541388827489787   0.02397917615691289
-0.7744946853867305   -0.029541388827489787   0.02397917615691289
-0.7744946853867305   -0.029541388827489787   0.02397917615691289
-0.7560213630301803   -0.03987077165001294   -0.026536565548168106
-0.7560213630301803   -0.03987077165001294   -0.026536565548168106
-0.7560213630301803   -0.03987077165001294   -0.026536565548168106
-0.7560213630301803   -0.03987077165001294   -0.026536565548168106
-0.4955018070970548   0.034725785198545474   0.02148716465103201
-0.4955018070970548   0.034725785198545474   0.02148716465103201
-0.4955018070970548   0.034725785198545474   0.02148716465103201
-0.4955018070970548   0.034725785198545474   0.02148716465103201
-0.6057746511556088   0.002334327061877875   0.022994937217170358
-0.6057746511556088   0.002334327061877875   0.022994937217170358
-0.6057746511556088   0.002334327061877875   0.022994937217170358
-0.6057746511556088   0.002334327061877875   0.022994937217170358
0.7386547409271786   0.044569011976340174   0.026399630091454185
0.7386547409271786   0.044569011976340174   0.026399630091454185
0.7386547409271786   0.044569011976340174   0.026399630091454185
0.7386547409271786   0.044569011976340174   0.026399630091454185
0.3513872991599319   -0.06536535233836882   0.005521960885474249
0.3513872991599319   -0.06536535233836882   0.005521960885474249
0.3513872991599319   -0.06536535233836882   0.005521960885474249
0.3513872991599319   -0.06536535233836882   0.005521960885474249
0.3704367570814286   -0.027843496430820455   0.020190502621939596
0.3704367570814286   -0.027843496430820455   0.020190502621939596
0.3704367570814286   -0.027843496430820455   0.020190502621939596
0.3704367570814286   -0.027843496430820455   0.020190502621939596
0.7423398972493075   0.007057398511065044   -0.0061988751353954374
0.7423398972493075   0.007057398511065044   -0.0061988751353954374
0.7423398972493075   0.007057398511065044   -0.0061988751353954374
0.7423398972493075   0.007057398511065044   -0.0061988751353954374
0.5188929692679408   -0.013823508438029285   -0.03422542593680901
0.5188929692679408   -0.013823508438029285   -0.03422542593680901
0.5188929692679408   -0.013823508438029285   -0.03422542593680901
0.5188929692679408   -0.013823508438029285   -0.03422542593680901
0.756229498161258   0.049448547373201625   0.020857980562220657
0.756229498161258   0.049448547373201625   0.020857980562220657
0.756229498161258   0.049448547373201625   0.020857980562220657
0.756229498161258   0.049448547373201625   0.020857980562220657
0.35985428771304584   -0.0669275137493893   0.006362173098594472
0.35985428771304584   -0.0669275137493893   0.006362173098594472
0.35985428771304584   -0.0669275137493893   0.006362173098594472
0.35985428771304584   -0.0669275137493893   0.006362173098594472
0.37756920066448685   -0.02368895170823507   0.01533576521355505
0.37756920066448685   -0.02368895170823507   0.01533576521355505
0.37756920066448685   -0.02368895170823507   0.01533576521355505
0.37756920066448685   -0.02368895170823507   0.01533576521355505
0.7550814590412724   0.011727041622686563   -0.0022015505685831216
0.7550814590412724   0.011727041622686563   -0.0022015505685831216
0.7550814590412724   0.011727041622686563   -0.0022015505685831216
0.7550814590412724   0.011727041622686563   -0.0022015505685831216
0.5400293898657093   -0.010876759656717631   -0.023455955282571078
0.5400293898657093   -0.010876759656717631   -0.023455955282571078
0.5400293898657093   -0.010876759656717631   -0.023455955282571078
0.5400293898657093   -0.010876759656717631   -0.023455955282571078
0.7668587357093611   0.05398681428078183   0.014425060113765292
0.7668587357093611   0.05398681428078183   0.014425060113765292
0.7668587357093611   0.05398681428078183   0.014425060113765292
0.7668587357093611   0.05398681428078183   0.014425060113765292
0.3680916989171727   -0.06364894944555574   0.00790825421430505
0.3680916989171727   -0.06364894944555574   0.00790825421430505
0.3680916989171727   -0.06364894944555574   0.00790825421430505
0.3680916989171727   -0.06364894944555574   0.00790825421430505
0.38810501074077997   -0.007489668664036924   0.014021031501368172
0.38810501074077997   -0.007489668664036924   0.014021031501368172
0.38810501074077997   -0.007489668664036924   0.014021031501368172
0.38810501074077997   -0.007489668664036924   0.014021031501368172
0.7683930642154596   0.022566111987676073   -0.0006948539449207203
0.7683930642154596   0.022566111987676073   -0.0006948539449207203
0.7683930642154596   0.022566111987676073   -0.0006948539449207203
0.7683930642154596   0.022566111987676073   -0.0006948539449207203
0.5424129255346406   -0.004858049773341526   -0.017635911314715313
0.5424129255346406   -0.004858049773341526   -0.017635911314715313
0.5424129255346406   -0.004858049773341526   -0.017635911314715313
0.5424129255346406   -0.004858049773341526   -0.017635911314715313
0.37100731497082645   0.01031947842966269   0.02793720917191579
0.37100731497082645   0.01031947842966269   0.02793720917191579
0.37100731497082645   0.01031947842966269   0.02793720917191579
0.37100731497082645   0.01031947842966269   0.02793720917191579
0.017719061534386876   -0.12913667551269972   0.012896149757577476
0.017719061534386876   -0.12913667551269972   0.012896149757577476
0.017719061534386876   -0.12913667551269972   0.012896149757577476
0.017719061534386876   -0.12913667551269972   0.012896149757577476
0.04239670463372192   -0.055111414033670654   0.01220363244941048
0.04239670463372192   -0.055111414033670654   0.01220363244941048
0.04239670463372192   -0.055111414033670654   0.01220363244941048
0.04239670463372192   -0.055111414033670654   0.01220363244941048
0.3615903712139896   -0.06043380742503121   0.008548884278953318
0.3615903712139896   -0.06043380742503121   0.008548884278953318
0.3615903712139896   -0.06043380742503121   0.008548884278953318
0.3615903712139896   -0.06043380742503121   0.008548884278953318
0.1917841781541432   -0.05733115072825237   -0.021617515765238647
0.1917841781541432   -0.05733115072825237   -0.021617515765238647
0.1917841781541432   -0.05733115072825237   -0.021617515765238647
0.1917841781541432   -0.05733115072825237   -0.021617515765238647
0.3795549048180068   0.014555873740088997   0.023381871133923857
0.3795549048180068   0.014555873740088997   0.023381871133923857
0.3795549048180068   0.014555873740088997   0.023381871133923857
0.3795549048180068   0.014555873740088997   0.023381871133923857
0.029178783411286394   -0.12535448281720327   0.016357095120765462
0.029178783411286394   -0.12535448281720327   0.016357095120765462
0.029178783411286394   -0.12535448281720327   0.016357095120765462
0.029178783411286394   -0.12535448281720327   0.016357095120765462
0.05226603650637817   -0.047504646219822595   0.00877620037986875
0.05226603650637817   -0.047504646219822595   0.00877620037986875
0.05226603650637817   -0.047504646219822595   0.00877620037986875
0.05226603650637817   -0.047504646219822595   0.00877620037986875
0.37006104432362363   -0.05640249614132016   0.010508527942323855
0.37006104432362363   -0.05640249614132016   0.010508527942323855
0.37006104432362363   -0.05640249614132016   0.010508527942323855
0.37006104432362363   -0.05640249614132016   0.010508527942323855
0.2001289040484502   -0.05438221251985151   -0.010814880657851147
0.2001289040484502   -0.05438221251985151   -0.010814880657851147
0.2001289040484502   -0.05438221251985151   -0.010814880657851147
0.2001289040484502   -0.05438221251985151   -0.010814880657851147
0.3875400614840656   0.02174595185031733   0.019755165752896348
0.3875400614840656   0.02174595185031733   0.019755165752896348
0.3875400614840656   0.02174595185031733   0.019755165752896348
0.3875400614840656   0.02174595185031733   0.019755165752896348
0.039348922340683434   -0.12109119121671524   0.01777717454828863
0.039348922340683434   -0.12109119121671524   0.01777717454828863
0.039348922340683434   -0.12109119121671524   0.01777717454828863
0.039348922340683434   -0.12109119121671524   0.01777717454828863
0.06744938011662392   -0.036077694297191244   0.005747454861293017
0.06744938011662392   -0.036077694297191244   0.005747454861293017
0.06744938011662392   -0.036077694297191244   0.005747454861293017
0.06744938011662392   -0.036077694297191244   0.005747454861293017
0.3793037692570211   -0.050296085627373095   0.012821241045911258
0.3793037692570211   -0.050296085627373095   0.012821241045911258
0.3793037692570211   -0.050296085627373095   0.012821241045911258
0.3793037692570211   -0.050296085627373095   0.012821241045911258
0.2149581765468035   -0.04730128230318432   0.0017785852756998163
0.2149581765468035   -0.04730128230318432   0.0017785852756998163
0.2149581765468035   -0.04730128230318432   0.0017785852756998163
0.2149581765468035   -0.04730128230318432   0.0017785852756998163
0.03982952638706128   -0.02366723424880226   0.01797903275705203
0.03982952638706128   -0.02366723424880226   0.01797903275705203
0.03982952638706128   -0.02366723424880226   0.01797903275705203
0.03982952638706128   -0.02366723424880226   0.01797903275705203
-0.31841255413383496   -0.22102028779447006   0.018951205081608524
-0.31841255413383496   -0.22102028779447006   0.018951205081608524
-0.31841255413383496   -0.22102028779447006   0.018951205081608524
-0.31841255413383496   -0.22102028779447006   0.018951205081608524
-0.2795414151154971   -0.08684296599870728   0.001041865075076559
-0.2795414151154971   -0.08684296599870728   0.001041865075076559
-0.2795414151154971   -0.08684296599870728   0.001041865075076559
-0.2795414151154971   -0.08684296599870728   0.001041865075076559
0.02071121168393316   -0.15888096768602555   0.007545721352821569
0.02071121168393316   -0.15888096768602555   0.007545721352821569
0.02071121168393316   -0.15888096768602555   0.007545721352821569
0.02071121168393316   -0.15888096768602555   0.007545721352821569
-0.1383951639701656   -0.12346345076506912   -0.025924420950984368
-0.1383951639701656   -0.12346345076506912   -0.025924420950984368
-0.1383951639701656   -0.12346345076506912   -0.025924420950984368
-0.1383951639701656   -0.12346345076506912   -0.025924420950984368
0.050164975037286196   -0.01826945574704474   0.014203026180605928
0.050164975037286196   -0.01826945574704474   0.014203026180605928
0.050164975037286196   -0.01826945574704474   0.014203026180605928
0.050164975037286196   -0.01826945574704474   0.014203026180605928
-0.302081978367729   -0.2205412778365664   0.02203736065177958
-0.302081978367729   -0.2205412778365664   0.02203736065177958
-0.302081978367729   -0.2205412778365664   0.02203736065177958
-0.302081978367729   -0.2205412778365664   0.02203736065177958
-0.26453906069078065   -0.07787604443957874   -0.000337120271831734
-0.26453906069078065   -0.07787604443957874   -0.000337120271831734
-0.26453906069078065   -0.07787604443957874   -0.000337120271831734
-0.26453906069078065   -0.07787604443957874   -0.000337120271831734
0.031130107461454178   -0.1551886229656773   0.01078053190110441
0.031130107461454178   -0.1551886229656773   0.01078053190110441
0.031130107461454178   -0.1551886229656773   0.01078053190110441
0.031130107461454178   -0.1551886229656773   0.01078053190110441
-0.1231621521089879   -0.11905755064851115   -0.009552878373417936
-0.1231621521089879   -0.11905755064851115   -0.009552878373417936
-0.1231621521089879   -0.11905755064851115   -0.009552878373417936
-0.1231621521089879   -0.11905755064851115   -0.009552878373417936
0.05961644781884029   -0.011143997115680555   0.009167607838038236
0.05961644781884029   -0.011143997115680555   0.009167607838038236
0.05961644781884029   -0.011143997115680555   0.009167607838038236
0.05961644781884029   -0.011143997115680555   0.009167607838038236
-0.286825560359577   -0.21572082960098493   0.026075166545597425
-0.286825560359577   -0.21572082960098493   0.026075166545597425
-0.286825560359577   -0.21572082960098493   0.026075166545597425
-0.286825560359577   -0.21572082960098493   0.026075166545597425
-0.2397718718417918   -0.0675644730673269   -0.0032274529038104766
-0.2397718718417918   -0.0675644730673269   -0.0032274529038104766
-0.2397718718417918   -0.0675644730673269   -0.0032274529038104766
-0.2397718718417918   -0.0675644730673269   -0.0032274529038104766
0.04738250244773195   -0.14522229716116639   0.01455766938080829
0.04738250244773195   -0.14522229716116639   0.01455766938080829
0.04738250244773195   -0.14522229716116639   0.01455766938080829
0.04738250244773195   -0.14522229716116639   0.01455766938080829
-0.10343678735925693   -0.10948139843095916   0.007467138259502015
-0.10343678735925693   -0.10948139843095916   0.007467138259502015
-0.10343678735925693   -0.10948139843095916   0.007467138259502015
-0.10343678735925693   -0.10948139843095916   0.007467138259502015
-0.2850152423867795   -0.04366518066512311   0.008582656687536924
-0.2850152423867795   -0.04366518066512311   0.008582656687536924
-0.2850152423867795   -0.04366518066512311   0.008582656687536924
-0.2850152423867795   -0.04366518066512311   0.008582656687536924
-0.7046825460374473   -0.3429065555739085   -0.015311512313541442
-0.7046825460374473   -0.3429065555739085   -0.015311512313541442
-0.7046825460374473   -0.3429065555739085   -0.015311512313541442
-0.7046825460374473   -0.3429065555739085   -0.015311512313541442
-0.6406875531418253   -0.11298710455304573   -0.01929999826039669
-0.6406875531418253   -0.11298710455304573   -0.01929999826039669
-0.6406875531418253   -0.11298710455304573   -0.01929999826039669
-0.6406875531418253   -0.11298710455304573   -0.01929999826039669
-0.3182226890607128   -0.2853339219206964   0.006126451270987293
-0.3182226890607128   -0.2853339219206964   0.006126451270987293
-0.3182226890607128   -0.2853339219206964   0.006126451270987293
-0.3182226890607128   -0.2853339219206964   0.006126451270987293
-0.4866337269927874   -0.20290135286744881   -0.027319708656816113
-0.4866337269927874   -0.20290135286744881   -0.027319708656816113
-0.4866337269927874   -0.20290135286744881   -0.027319708656816113
-0.4866337269927874   -0.20290135286744881   -0.027319708656816113
-0.2673245759004015   -0.032831575351926795   0.00811467050377429
-0.2673245759004015   -0.032831575351926795   0.00811467050377429
-0.2673245759004015   -0.032831575351926795   0.00811467050377429
-0.2673245759004015   -0.032831575351926795   0.00811467050377429
-0.6898170075124813   -0.363720792332154   -0.014213582334562908
-0.6898170075124813   -0.363720792332154   -0.014213582334562908
-0.6898170075124813   -0.363720792332154   -0.014213582334562908
-0.6898170075124813   -0.363720792332154   -0.014213582334562908
-0.6206145350041208   -0.10227044602361439   -0.019713545867840104
-0.6206145350041208   -0.10227044602361439   -0.019713545867840104
-0.6206145350041208   -0.10227044602361439   -0.019713545867840104
-0.6206145350041208   -0.10227044602361439   -0.019713545867840104
-0.3036077543529634   -0.28283091170364005   0.009274278681317583
-0.3036077543529634   -0.28283091170364005   0.009274278681317583
-0.3036077543529634   -0.28283091170364005   0.009274278681317583
-0.3036077543529634   -0.28283091170364005   0.009274278681317583
-0.4654118152285252   -0.19710367263572273   -0.018732204436239908
-0.4654118152285252   -0.19710367263572273   -0.018732204436239908
-0.4654118152285252   -0.19710367263572273   -0.018732204436239908
-0.4654118152285252   -0.19710367263572273   -0.018732204436239908
-0.2532085346570012   -0.024298869740937305   0.0027383351984257565
-0.2532085346570012   -0.024298869740937305   0.0027383351984257565
-0.2532085346570012   -0.024298869740937305   0.0027383351984257565
-0.2532085346570012   -0.024298869740937305   0.0027383351984257565
-0.670827237003872   -0.3606159702901002   -0.012431531600105294
-0.670827237003872   -0.3606159702901002   -0.012431531600105294
-0.670827237003872   -0.3606159702901002   -0.012431531600105294
-0.670827237003872   -0.3606159702901002   -0.012431531600105294
-0.5892078402964377   -0.09081687024166918   -0.02236257307688788
-0.5892078402964377   -0.09081687024166918   -0.02236257307688788
-0.5892078402964377   -0.09081687024166918   -0.02236257307688788
-0.5892078402964377   -0.09081687024166918   -0.02236257307688788
-0.27197334671594964   -0.25332422961370166   0.021524929271779347
-0.27197334671594964   -0.25332422961370166   0.021524929271779347
-0.27197334671594964   -0.25332422961370166   0.021524929271779347
-0.27197334671594964   -0.25332422961370166   0.021524929271779347
-0.4418736278164719   -0.17809148208109474   -0.00988639698972496
-0.4418736278164719   -0.17809148208109474   -0.00988639698972496
-0.4418736278164719   -0.17809148208109474   -0.00988639698972496
-0.4418736278164719   -0.17809148208109474   -0.00988639698972496
-0.641429239448817   -0.03758385027759395   -0.004367684666704286
-0.641429239448817   -0.03758385027759395   -0.004367684666704286
-0.641429239448817   -0.03758385027759395   -0.004367684666704286
-0.641429239448817   -0.03758385027759395   -0.004367684666704286
-1.127804681344752   -0.22324702808939795   0.011569540897762298
-1.127804681344752   -0.22324702808939795   0.011569540897762298
-1.127804681344752   -0.22324702808939795   0.011569540897762298
-1.127804681344752   -0.22324702808939795   0.011569540897762298
-1.0840019675384618   -0.10624390696005169   -0.023299624705515942
-1.0840019675384618   -0.10624390696005169   -0.023299624705515942
-1.0840019675384618   -0.10624390696005169   -0.023299624705515942
-1.0840019675384618   -0.10624390696005169   -0.023299624705515942
-0.6285317284188382   -0.11667328460289086   0.045165305404383904
-0.6285317284188382   -0.11667328460289086   0.045165305404383904
-0.6285317284188382   -0.11667328460289086   0.045165305404383904
-0.6285317284188382   -0.11667328460289086   0.045165305404383904
-0.8352765171244563   -0.12914645624820176   0.011415382766539695
-0.8352765171244563   -0.12914645624820176   0.011415382766539695
-0.8352765171244563   -0.12914645624820176   0.011415382766539695
-0.8352765171244563   -0.12914645624820176   0.011415382766539695
-0.615789074580583   -0.007916954524015217   0.00012224451678749526
-0.615789074580583   -0.007916954524015217   0.00012224451678749526
-0.615789074580583   -0.007916954524015217   0.00012224451678749526
-0.615789074580583   -0.007916954524015217   0.00012224451678749526
-1.100794961015126   -0.21905057667733718   0.005542077628439945
-1.100794961015126   -0.21905057667733718   0.005542077628439945
-1.100794961015126   -0.21905057667733718   0.005542077628439945
-1.100794961015126   -0.21905057667733718   0.005542077628439945
-1.060241008939943   -0.0974049526146016   -0.02959231922543376
-1.060241008939943   -0.0974049526146016   -0.02959231922543376
-1.060241008939943   -0.0974049526146016   -0.02959231922543376
-1.060241008939943   -0.0974049526146016   -0.02959231922543376
-0.6078824913524887   -0.1110343774976296   0.052710603864340705
-0.6078824913524887   -0.1110343774976296   0.052710603864340705
-0.6078824913524887   -0.1110343774976296   0.052710603864340705
-0.6078824913524887   -0.1110343774976296   0.052710603864340705
-0.8230433764393057   -0.1064952583119352   0.011101639141684827
-0.8230433764393057   -0.1064952583119352   0.011101639141684827
-0.8230433764393057   -0.1064952583119352   0.011101639141684827
-0.8230433764393057   -0.1064952583119352   0.011101639141684827
-0.5974074623483655   -9.125431144507007e-05   -0.005857374301228457
-0.5974074623483655   -9.125431144507007e-05   -0.005857374301228457
-0.5974074623483655   -9.125431144507007e-05   -0.005857374301228457
-0.5974074623483655   -9.125431144507007e-05   -0.005857374301228457
-1.072095283793529   -0.20972732165025035   0.023458675542277152
-1.072095283793529   -0.20972732165025035   0.023458675542277152
-1.072095283793529   -0.20972732165025035   0.023458675542277152
-1.072095283793529   -0.20972732165025035   0.023458675542277152
-1.0108621251005192   -0.07929262305877426   -0.033244558632102156
-1.0108621251005192   -0.07929262305877426   -0.033244558632102156
-1.0108621251005192   -0.07929262305877426   -0.033244558632102156
-1.0108621251005192   -0.07929262305877426   -0.033244558632102156
-0.5756751935200606   -0.10353190049278818   0.05801569105611962
-0.5756751935200606   -0.10353190049278818   0.05801569105611962
-0.5756751935200606   -0.10353190049278818   0.05801569105611962
-0.5756751935200606   -0.10353190049278818   0.05801569105611962
-0.7747088838784498   -0.08151031870907255   0.02328288304539239
-0.7747088838784498   -0.08151031870907255   0.02328288304539239
-0.7747088838784498   -0.08151031870907255   0.02328288304539239
-0.7747088838784498   -0.08151031870907255   0.02328288304539239
0.8091397668883031   0.027323617550259083   0.01121434260024251
0.8091397668883031   0.027323617550259083   0.01121434260024251
0.8091397668883031   0.027323617550259083   0.01121434260024251
0.8091397668883031   0.027323617550259083   0.01121434260024251
0.4119239511511029   -0.022201553853030284   0.007922931584725637
0.4119239511511029   -0.022201553853030284   0.007922931584725637
0.4119239511511029   -0.022201553853030284   0.007922931584725637
0.4119239511511029   -0.022201553853030284   0.007922931584725637
0.39621309660084436   -0.057725154607585816   0.016015159919813345
0.39621309660084436   -0.057725154607585816   0.016015159919813345
0.39621309660084436   -0.057725154607585816   0.016015159919813345
0.39621309660084436   -0.057725154607585816   0.016015159919813345
0.803315431943956   0.04520372019714896   0.005613825437505687
0.803315431943956   0.04520372019714896   0.005613825437505687
0.803315431943956   0.04520372019714896   0.005613825437505687
0.803315431943956   0.04520372019714896   0.005613825437505687
0.5729039121346479   -0.007924686535283797   -0.021227284435814148
0.5729039121346479   -0.007924686535283797   -0.021227284435814148
0.5729039121346479   -0.007924686535283797   -0.021227284435814148
0.5729039121346479   -0.007924686535283797   -0.021227284435814148
0.7991315651819468   0.021362624574661343   0.008535587249946713
0.7991315651819468   0.021362624574661343   0.008535587249946713
0.7991315651819468   0.021362624574661343   0.008535587249946713
0.7991315651819468   0.021362624574661343   0.008535587249946713
0.39913303069457884   -0.035147991653373026   0.008037667434273019
0.39913303069457884   -0.035147991653373026   0.008037667434273019
0.39913303069457884   -0.035147991653373026   0.008037667434273019
0.39913303069457884   -0.035147991653373026   0.008037667434273019
0.3861310457502236   -0.058981380656901033   0.013206751324527678
0.3861310457502236   -0.058981380656901033   0.013206751324527678
0.3861310457502236   -0.058981380656901033   0.013206751324527678
0.3861310457502236   -0.058981380656901033   0.013206751324527678
0.7941529624027979   0.04333676941992096   0.009929192110937235
0.7941529624027979   0.04333676941992096   0.009929192110937235
0.7941529624027979   0.04333676941992096   0.009929192110937235
0.7941529624027979   0.04333676941992096   0.009929192110937235
0.5714826979495453   -0.010916625126336302   -0.02438499379393988
0.5714826979495453   -0.010916625126336302   -0.02438499379393988
0.5714826979495453   -0.010916625126336302   -0.02438499379393988
0.5714826979495453   -0.010916625126336302   -0.02438499379393988
0.787850958646977   0.01922703350658308   0.002528909245164135
0.787850958646977   0.01922703350658308   0.002528909245164135
0.787850958646977   0.01922703350658308   0.002528909245164135
0.787850958646977   0.01922703350658308   0.002528909245164135
0.3901358928273052   -0.03716880142229845   0.011418407475332903
0.3901358928273052   -0.03716880142229845   0.011418407475332903
0.3901358928273052   -0.03716880142229845   0.011418407475332903
0.3901358928273052   -0.03716880142229845   0.011418407475332903
0.37553142397070954   -0.05358546609319285   0.011408895895484793
0.37553142397070954   -0.05358546609319285   0.011408895895484793
0.37553142397070954   -0.05358546609319285   0.011408895895484793
0.37553142397070954   -0.05358546609319285   0.011408895895484793
0.7800761554982755   0.04408259837641197   0.014450242925203804
0.7800761554982755   0.04408259837641197   0.014450242925203804
0.7800761554982755   0.04408259837641197   0.014450242925203804
0.7800761554982755   0.04408259837641197   0.014450242925203804
0.5502844088771423   -0.010899983010020375   -0.032756205206893596
0.5502844088771423   -0.010899983010020375   -0.032756205206893596
0.5502844088771423   -0.010899983010020375   -0.032756205206893596
0.5502844088771423   -0.010899983010020375   -0.032756205206893596
0.4089379322692013   -0.04942822887734581   0.020219512199532726
0.4089379322692013   -0.04942822887734581   0.020219512199532726
0.4089379322692013   -0.04942822887734581   0.020219512199532726
0.4089379322692013   -0.04942822887734581   0.020219512199532726
0.07650001791372746   -0.048640863670154716   0.003968434310995478
0.07650001791372746   -0.048640863670154716   0.003968434310995478
0.07650001791372746   -0.048640863670154716   0.003968434310995478
0.07650001791372746   -0.048640863670154716   0.003968434310995478
0.04937433580078742   -0.1203915452299757   0.020976230667402396
0.04937433580078742   -0.1203915452299757   0.020976230667402396
0.04937433580078742   -0.1203915452299757   0.020976230667402396
0.04937433580078742   -0.1203915452299757   0.020976230667402396
0.41100067972662535   0.016707777392247117   0.015520143548885604
0.41100067972662535   0.016707777392247117   0.015520143548885604
0.41100067972662535   0.016707777392247117   0.015520143548885604
0.41100067972662535   0.016707777392247117   0.015520143548885604
0.2328051079852437   -0.05064687850111811   -0.0009535183104957892
0.2328051079852437   -0.05064687850111811   -0.0009535183104957892
0.2328051079852437   -0.05064687850111811   -0.0009535183104957892
0.2328051079852437   -0.05064687850111811   -0.0009535183104957892
0.3976487616488454   -0.05153186673616472   0.017000197288399306
0.3976487616488454   -0.05153186673616472   0.017000197288399306
0.3976487616488454   -0.05153186673616472   0.017000197288399306
0.3976487616488454   -0.05153186673616472   0.017000197288399306
0.05934722404145456   -0.05553093093868168   0.0059800575794430955
0.05934722404145456   -0.05553093093868168   0.0059800575794430955
0.05934722404145456   -0.05553093093868168   0.0059800575794430955
0.05934722404145456   -0.05553093093868168   0.0059800575794430955
0.03717571799332668   -0.12132894924554322   0.018761588751505534
0.03717571799332668   -0.12132894924554322   0.018761588751505534
0.03717571799332668   -0.12132894924554322   0.018761588751505534
0.03717571799332668   -0.12132894924554322   0.018761588751505534
0.40170881118742047   0.013776479991746016   0.018337717861865166
0.40170881118742047   0.013776479991746016   0.018337717861865166
0.40170881118742047   0.013776479991746016   0.018337717861865166
0.40170881118742047   0.013776479991746016   0.018337717861865166
0.2161917705005811   -0.05393263657865324   -0.011015591129735061
0.2161917705005811   -0.05393263657865324   -0.011015591129735061
0.2161917705005811   -0.05393263657865324   -0.011015591129735061
0.2161917705005811   -0.05393263657865324   -0.011015591129735061
0.38767977227562805   -0.0521555462337174   0.014124549528363783
0.38767977227562805   -0.0521555462337174   0.014124549528363783
0.38767977227562805   -0.0521555462337174   0.014124549528363783
0.38767977227562805   -0.0521555462337174   0.014124549528363783
0.04752672058570782   -0.05907495933949663   0.008262611807364614
0.04752672058570782   -0.05907495933949663   0.008262611807364614
0.04752672058570782   -0.05907495933949663   0.008262611807364614
0.04752672058570782   -0.05907495933949663   0.008262611807364614
0.023538944083032705   -0.12109022442013825   0.014615372256073879
0.023538944083032705   -0.12109022442013825   0.014615372256073879
0.023538944083032705   -0.12109022442013825   0.014615372256073879
0.023538944083032705   -0.12109022442013825   0.014615372256073879
0.3911629441005712   0.014102877030963482   0.021878153420638494
0.3911629441005712   0.014102877030963482   0.021878153420638494
0.3911629441005712   0.014102877030963482   0.021878153420638494
0.3911629441005712   0.014102877030963482   0.021878153420638494
0.2061366446073699   -0.053369465057685736   -0.019534447379122334
0.2061366446073699   -0.053369465057685736   -0.019534447379122334
0.2061366446073699   -0.053369465057685736   -0.019534447379122334
0.2061366446073699   -0.053369465057685736   -0.019534447379122334
0.059941574919848195   -0.145527193221472   0.018062548892915472
0.059941574919848195   -0.145527193221472   0.018062548892915472
0.059941574919848195   -0.145527193221472   0.018062548892915472
0.059941574919848195   -0.145527193221472   0.018062548892915472
-0.24616986546443598   -0.07505261462907892   -3.730954331111758e-05
-0.24616986546443598   -0.07505261462907892   -3.730954331111758e-05
-0.24616986546443598   -0.07505261462907892   -3.730954331111758e-05
-0.24616986546443598   -0.07505261462907892   -3.730954331111758e-05
-0.29524084598305   -0.21877354441234856   0.024034895388189814
-0.29524084598305   -0.21877354441234856   0.024034895388189814
-0.29524084598305   -0.21877354441234856   0.024034895388189814
-0.29524084598305   -0.21877354441234856   0.024034895388189814
0.06894883143534904   -0.011441005115930814   0.009898168726164575
0.06894883143534904   -0.011441005115930814   0.009898168726164575
0.06894883143534904   -0.011441005115930814   0.009898168726164575
0.06894883143534904   -0.011441005115930814   0.009898168726164575
-0.10180791925609674   -0.1111009560726802   0.004244647306897484
-0.10180791925609674   -0.1111009560726802   0.004244647306897484
-0.10180791925609674   -0.1111009560726802   0.004244647306897484
-0.10180791925609674   -0.1111009560726802   0.004244647306897484
0.04113596543382801   -0.15368882873840414   0.013081662341033806
0.04113596543382801   -0.15368882873840414   0.013081662341033806
0.04113596543382801   -0.15368882873840414   0.013081662341033806
0.04113596543382801   -0.15368882873840414   0.013081662341033806
-0.2721842990911748   -0.0812820398995212   0.0018261253347365142
-0.2721842990911748   -0.0812820398995212   0.0018261253347365142
-0.2721842990911748   -0.0812820398995212   0.0018261253347365142
-0.2721842990911748   -0.0812820398995212   0.0018261253347365142
-0.3121834884450907   -0.2220649850900865   0.019712317185603206
-0.3121834884450907   -0.2220649850900865   0.019712317185603206
-0.3121834884450907   -0.2220649850900865   0.019712317185603206
-0.3121834884450907   -0.2220649850900865   0.019712317185603206
0.057507654011831465   -0.014688341802307159   0.01378066140079338
0.057507654011831465   -0.014688341802307159   0.01378066140079338
0.057507654011831465   -0.014688341802307159   0.01378066140079338
0.057507654011831465   -0.014688341802307159   0.01378066140079338
-0.12300501226259489   -0.11772796506375954   -0.009881547489980769
-0.12300501226259489   -0.11772796506375954   -0.009881547489980769
-0.12300501226259489   -0.11772796506375954   -0.009881547489980769
-0.12300501226259489   -0.11772796506375954   -0.009881547489980769
0.028142121626065754   -0.15624116248254205   0.00850582015219973
0.028142121626065754   -0.15624116248254205   0.00850582015219973
0.028142121626065754   -0.15624116248254205   0.00850582015219973
0.028142121626065754   -0.15624116248254205   0.00850582015219973
-0.288516791363811   -0.08621099971434307   0.002191817216256345
-0.288516791363811   -0.08621099971434307   0.002191817216256345
-0.288516791363811   -0.08621099971434307   0.002191817216256345
-0.288516791363811   -0.08621099971434307   0.002191817216256345
-0.33060210525588063   -0.22045619570910813   0.016372784344712066
-0.33060210525588063   -0.22045619570910813   0.016372784344712066
-0.33060210525588063   -0.22045619570910813   0.016372784344712066
-0.33060210525588063   -0.22045619570910813   0.016372784344712066
0.04479123812797118   -0.016453240935908   0.01623985899653501
0.04479123812797118   -0.016453240935908   0.01623985899653501
0.04479123812797118   -0.016453240935908   0.01623985899653501
0.04479123812797118   -0.016453240935908   0.01623985899653501
-0.14024642125410572   -0.12019350579722367   -0.024080840983047993
-0.14024642125410572   -0.12019350579722367   -0.024080840983047993
-0.14024642125410572   -0.12019350579722367   -0.024080840983047993
-0.14024642125410572   -0.12019350579722367   -0.024080840983047993
-0.2768548591545208   -0.24998474521598105   0.021469852593168956
-0.2768548591545208   -0.24998474521598105   0.021469852593168956
-0.2768548591545208   -0.24998474521598105   0.021469852593168956
-0.2768548591545208   -0.24998474521598105   0.021469852593168956
-0.6115268709025781   -0.09330919941343219   -0.01394551569803576
-0.6115268709025781   -0.09330919941343219   -0.01394551569803576
-0.6115268709025781   -0.09330919941343219   -0.01394551569803576
-0.6115268709025781   -0.09330919941343219   -0.01394551569803576
-0.6974040371233401   -0.3660941475735425   -0.018493328930646813
-0.6974040371233401   -0.3660941475735425   -0.018493328930646813
-0.6974040371233401   -0.3660941475735425   -0.018493328930646813
-0.6974040371233401   -0.3660941475735425   -0.018493328930646813
-0.25853103751284384   -0.019742154704960924   0.008552548031830906
-0.25853103751284384   -0.019742154704960924   0.008552548031830906
-0.25853103751284384   -0.019742154704960924   0.008552548031830906
-0.25853103751284384   -0.019742154704960924   0.008552548031830906
-0.45658512570125664   -0.17495593641777143   -0.014476380994506488
-0.45658512570125664   -0.17495593641777143   -0.014476380994506488
-0.45658512570125664   -0.17495593641777143   -0.014476380994506488
-0.45658512570125664   -0.17495593641777143   -0.014476380994506488
-0.31153475755082904   -0.2837193893712735   0.007511182508217751
-0.31153475755082904   -0.2837193893712735   0.007511182508217751
-0.31153475755082904   -0.2837193893712735   0.007511182508217751
-0.31153475755082904   -0.2837193893712735   0.007511182508217751
-0.6431530271265967   -0.10086962294847776   -0.01246280357200047
-0.6431530271265967   -0.10086962294847776   -0.01246280357200047
-0.6431530271265967   -0.10086962294847776   -0.01246280357200047
-0.6431530271265967   -0.10086962294847776   -0.01246280357200047
-0.7176112708916325   -0.3717626313087747   -0.021380802805717247
-0.7176112708916325   -0.3717626313087747   -0.021380802805717247
-0.7176112708916325   -0.3717626313087747   -0.021380802805717247
-0.7176112708916325   -0.3717626313087747   -0.021380802805717247
-0.2742101030926624   -0.02513592804723928   0.012650186904895375
-0.2742101030926624   -0.02513592804723928   0.012650186904895375
-0.2742101030926624   -0.02513592804723928   0.012650186904895375
-0.2742101030926624   -0.02513592804723928   0.012650186904895375
-0.4813414640128741   -0.1940999431232589   -0.02101132807216194
-0.4813414640128741   -0.1940999431232589   -0.02101132807216194
-0.4813414640128741   -0.1940999431232589   -0.02101132807216194
-0.4813414640128741   -0.1940999431232589   -0.02101132807216194
-0.3289532198578823   -0.28916260461214666   0.0029612796437034627
-0.3289532198578823   -0.28916260461214666   0.0029612796437034627
-0.3289532198578823   -0.28916260461214666   0.0029612796437034627
-0.3289532198578823   -0.28916260461214666   0.0029612796437034627
-0.6631361226154282   -0.1080039232328891   -0.012763769500587885
-0.6631361226154282   -0.1080039232328891   -0.012763769500587885
-0.6631361226154282   -0.1080039232328891   -0.012763769500587885
-0.6631361226154282   -0.1080039232328891   -0.012763769500587885
-0.734779166243095   -0.35501054588695063   -0.024100832567319985
-0.734779166243095   -0.35501054588695063   -0.024100832567319985
-0.734779166243095   -0.35501054588695063   -0.024100832567319985
-0.734779166243095   -0.35501054588695063   -0.024100832567319985
-0.29398490111589237   -0.03278148822763653   0.01178409756318155
-0.29398490111589237   -0.03278148822763653   0.01178409756318155
-0.29398490111589237   -0.03278148822763653   0.01178409756318155
-0.29398490111589237   -0.03278148822763653   0.01178409756318155
-0.504277083168782   -0.20053149492987754   -0.02736710554489455
-0.504277083168782   -0.20053149492987754   -0.02736710554489455
-0.504277083168782   -0.20053149492987754   -0.02736710554489455
-0.504277083168782   -0.20053149492987754   -0.02736710554489455
-0.6016937231978888   -0.1099637832976536   0.05187480670962083
-0.6016937231978888   -0.1099637832976536   0.05187480670962083
-0.6016937231978888   -0.1099637832976536   0.05187480670962083
-0.6016937231978888   -0.1099637832976536   0.05187480670962083
-1.0538003292794302   -0.07818787371610039   -0.01809235331960299
-1.0538003292794302   -0.07818787371610039   -0.01809235331960299
-1.0538003292794302   -0.07818787371610039   -0.01809235331960299
-1.0538003292794302   -0.07818787371610039   -0.01809235331960299
-1.1174041092203244   -0.22064688505829105   0.014169683928869192
-1.1174041092203244   -0.22064688505829105   0.014169683928869192
-1.1174041092203244   -0.22064688505829105   0.014169683928869192
-1.1174041092203244   -0.22064688505829105   0.014169683928869192
-0.6175084094723344   0.009475537733444749   0.005415124017388334
-0.6175084094723344   0.009475537733444749   0.005415124017388334
-0.6175084094723344   0.009475537733444749   0.005415124017388334
-0.6175084094723344   0.009475537733444749   0.005415124017388334
-0.8072481788413539   -0.07746392618774792   0.016087745094502226
-0.8072481788413539   -0.07746392618774792   0.016087745094502226
-0.8072481788413539   -0.07746392618774792   0.016087745094502226
-0.8072481788413539   -0.07746392618774792   0.016087745094502226
-0.6348478304598997   -0.11777571227448247   0.04596926908748736
-0.6348478304598997   -0.11777571227448247   0.04596926908748736
-0.6348478304598997   -0.11777571227448247   0.04596926908748736
-0.6348478304598997   -0.11777571227448247   0.04596926908748736
-1.097392176655089   -0.09072312347269235   -0.015694414830542514
-1.097392176655089   -0.09072312347269235   -0.015694414830542514
-1.097392176655089   -0.09072312347269235   -0.015694414830542514
-1.097392176655089   -0.09072312347269235   -0.015694414830542514
-1.1440199195628906   -0.22985681631427834   -0.005264162008501216
-1.1440199195628906   -0.22985681631427834   -0.005264162008501216
-1.1440199195628906   -0.22985681631427834   -0.005264162008501216
-1.1440199195628906   -0.22985681631427834   -0.005264162008501216
-0.6363639772034366   0.003353419436794701   0.009739614889686027
-0.6363639772034366   0.003353419436794701   0.009739614889686027
-0.6363639772034366   0.003353419436794701   0.009739614889686027
-0.6363639772034366   0.003353419436794701   0.009739614889686027
-0.8546653781465702   -0.10206922441103658   0.006493766428610631
-0.8546653781465702   -0.10206922441103658   0.006493766428610631
-0.8546653781465702   -0.10206922441103658   0.006493766428610631
-0.8546653781465702   -0.10206922441103658   0.006493766428610631
-0.6561314517822895   -0.12364596505834546   0.03790162649056217
-0.6561314517822895   -0.12364596505834546   0.03790162649056217
-0.6561314517822895   -0.12364596505834546   0.03790162649056217
-0.6561314517822895   -0.12364596505834546   0.03790162649056217
-1.1187656993080441   -0.09737068614314273   -0.011479190905393677
-1.1187656993080441   -0.09737068614314273   -0.011479190905393677
-1.1187656993080441   -0.09737068614314273   -0.011479190905393677
-1.1187656993080441   -0.09737068614314273   -0.011479190905393677
-1.1668026871488024   -0.23340417248906872   -0.00021817529654122314
-1.1668026871488024   -0.23340417248906872   -0.00021817529654122314
-1.1668026871488024   -0.23340417248906872   -0.00021817529654122314
-1.1668026871488024   -0.23340417248906872   -0.00021817529654122314
-0.6629176462757217   -0.02390374085944877   0.004099962242041705
-0.6629176462757217   -0.02390374085944877   0.004099962242041705
-0.6629176462757217   -0.02390374085944877   0.004099962242041705
-0.6629176462757217   -0.02390374085944877   0.004099962242041705
-0.8644652395787945   -0.12309563063932047   0.010204655113301653
-0.8644652395787945   -0.12309563063932047   0.010204655113301653
-0.8644652395787945   -0.12309563063932047   0.010204655113301653
-0.8644652395787945   -0.12309563063932047   0.010204655113301653
0.7120108095227476   0.03322256550741707   -0.015043329984682358
0.7120108095227476   0.03322256550741707   -0.015043329984682358
0.7120108095227476   0.03322256550741707   -0.015043329984682358
0.7120108095227476   0.03322256550741707   -0.015043329984682358
0.35742917234048704   -0.007796735717168771   0.00722859813524547
0.35742917234048704   -0.007796735717168771   0.00722859813524547
0.35742917234048704   -0.007796735717168771   0.00722859813524547
0.35742917234048704   -0.007796735717168771   0.00722859813524547
0.33517675062479074   -0.05223335490017854   -0.013432868729966463
0.33517675062479074   -0.05223335490017854   -0.013432868729966463
0.33517675062479074   -0.05223335490017854   -0.013432868729966463
0.33517675062479074   -0.05223335490017854   -0.013432868729966463
0.7039013683134496   0.05115056322748593   0.008457273552806482
0.7039013683134496   0.05115056322748593   0.008457273552806482
0.7039013683134496   0.05115056322748593   0.008457273552806482
0.7039013683134496   0.05115056322748593   0.008457273552806482
0.4995024938672616   0.0012371312479964522   -0.019279591924105027
0.4995024938672616   0.0012371312479964522   -0.019279591924105027
0.4995024938672616   0.0012371312479964522   -0.019279591924105027
0.4995024938672616   0.0012371312479964522   -0.019279591924105027
0.6927134217491138   0.018911811552002757   -0.015243707593383032
0.6927134217491138   0.018911811552002757   -0.015243707593383032
0.6927134217491138   0.018911811552002757   -0.015243707593383032
0.6927134217491138   0.018911811552002757   -0.015243707593383032
0.3457574176392573   -0.020601882774563873   0.007838994216749773
0.3457574176392573   -0.020601882774563873   0.007838994216749773
0.3457574176392573   -0.020601882774563873   0.007838994216749773
0.3457574176392573   -0.020601882774563873   0.007838994216749773
0.32317463550059566   -0.055072517747365254   -0.01113891682332225
0.32317463550059566   -0.055072517747365254   -0.01113891682332225
0.32317463550059566   -0.055072517747365254   -0.01113891682332225
0.32317463550059566   -0.055072517747365254   -0.01113891682332225
0.687270176094676   0.047094836221656666   0.012472093460309641
0.687270176094676   0.047094836221656666   0.012472093460309641
0.687270176094676   0.047094836221656666   0.012472093460309641
0.687270176094676   0.047094836221656666   0.012472093460309641
0.4931746984620966   -0.004842150213137941   -0.02285411048712757
0.4931746984620966   -0.004842150213137941   -0.02285411048712757
0.4931746984620966   -0.004842150213137941   -0.02285411048712757
0.4931746984620966   -0.004842150213137941   -0.02285411048712757
0.6759905531390477   0.015293510104790284   -0.012124695200965901
0.6759905531390477   0.015293510104790284   -0.012124695200965901
0.6759905531390477   0.015293510104790284   -0.012124695200965901
0.6759905531390477   0.015293510104790284   -0.012124695200965901
0.3335951691650102   -0.02413028092171783   0.010021514673102944
0.3335951691650102   -0.02413028092171783   0.010021514673102944
0.3335951691650102   -0.02413028092171783   0.010021514673102944
0.3335951691650102   -0.02413028092171783   0.010021514673102944
0.31158244197438884   -0.05403947645371272   -0.007666417701533028
0.31158244197438884   -0.05403947645371272   -0.007666417701533028
0.31158244197438884   -0.05403947645371272   -0.007666417701533028
0.31158244197438884   -0.05403947645371272   -0.007666417701533028
0.6667075455473439   0.044528435895190066   0.016331395753986372
0.6667075455473439   0.044528435895190066   0.016331395753986372
0.6667075455473439   0.044528435895190066   0.016331395753986372
0.6667075455473439   0.044528435895190066   0.016331395753986372
0.46916406871103145   -0.008404876834377531   -0.02991514248577079
0.46916406871103145   -0.008404876834377531   -0.02991514248577079
0.46916406871103145   -0.008404876834377531   -0.02991514248577079
0.46916406871103145   -0.008404876834377531   -0.02991514248577079
0.35983752706597183   0.007939732089329327   0.0035339039561713415
0.35983752706597183   0.007939732089329327   0.0035339039561713415
0.35983752706597183   0.007939732089329327   0.0035339039561713415
0.35983752706597183   0.007939732089329327   0.0035339039561713415
0.03286729987142541   -0.021885042127838265   -0.0010111278648549825
0.03286729987142541   -0.021885042127838265   -0.0010111278648549825
0.03286729987142541   -0.021885042127838265   -0.0010111278648549825
0.03286729987142541   -0.021885042127838265   -0.0010111278648549825
0.011893642221015948   -0.06881520045558458   -0.012987708184632796
0.011893642221015948   -0.06881520045558458   -0.012987708184632796
0.011893642221015948   -0.06881520045558458   -0.012987708184632796
0.011893642221015948   -0.06881520045558458   -0.012987708184632796
0.3601762741931873   0.041661690468847226   0.017669703742988735
0.3601762741931873   0.041661690468847226   0.017669703742988735
0.3601762741931873   0.041661690468847226   0.017669703742988735
0.3601762741931873   0.041661690468847226   0.017669703742988735
0.18768849731897513   -0.009396642514524921   -0.007305368833361553
0.18768849731897513   -0.009396642514524921   -0.007305368833361553
0.18768849731897513   -0.009396642514524921   -0.007305368833361553
0.18768849731897513   -0.009396642514524921   -0.007305368833361553
0.3499678482684584   0.00254586275705743   0.005743401831134823
0.3499678482684584   0.00254586275705743   0.005743401831134823
0.3499678482684584   0.00254586275705743   0.005743401831134823
0.3499678482684584   0.00254586275705743   0.005743401831134823
0.022501331520588107   -0.029300109368951402   0.0005356472265948087
0.022501331520588107   -0.029300109368951402   0.0005356472265948087
0.022501331520588107   -0.029300109368951402   0.0005356472265948087
0.022501331520588107   -0.029300109368951402   0.0005356472265948087
0.0003200926198184226   -0.0719923372891427   -0.009117649974976338
0.0003200926198184226   -0.0719923372891427   -0.009117649974976338
0.0003200926198184226   -0.0719923372891427   -0.009117649974976338
0.0003200926198184226   -0.0719923372891427   -0.009117649974976338
0.34747747221308434   0.03583280608777325   0.019469942903982615
0.34747747221308434   0.03583280608777325   0.019469942903982615
0.34747747221308434   0.03583280608777325   0.019469942903982615
0.34747747221308434   0.03583280608777325   0.019469942903982615
0.1743099005675934   -0.014788566250804717   -0.010340798856175663
0.1743099005675934   -0.014788566250804717   -0.010340798856175663
0.1743099005675934   -0.014788566250804717   -0.010340798856175663
0.1743099005675934   -0.014788566250804717   -0.010340798856175663
0.33784995917643085   -0.001024831017605577   0.008190014826096811
0.33784995917643085   -0.001024831017605577   0.008190014826096811
0.33784995917643085   -0.001024831017605577   0.008190014826096811
0.33784995917643085   -0.001024831017605577   0.008190014826096811
0.009899901871745973   -0.03518240396848934   0.001971462964008055
0.009899901871745973   -0.03518240396848934   0.001971462964008055
0.009899901871745973   -0.03518240396848934   0.001971462964008055
0.009899901871745973   -0.03518240396848934   0.001971462964008055
-0.012085452259876296   -0.07217854073335864   -0.006280539040524608
-0.012085452259876296   -0.07217854073335864   -0.006280539040524608
-0.012085452259876296   -0.07217854073335864   -0.006280539040524608
-0.012085452259876296   -0.07217854073335864   -0.006280539040524608
0.33466261164946076   0.03219491238814854   0.021500041831966327
0.33466261164946076   0.03219491238814854   0.021500041831966327
0.33466261164946076   0.03219491238814854   0.021500041831966327
0.33466261164946076   0.03219491238814854   0.021500041831966327
0.16395048811601187   -0.016843545835734264   -0.01290954407598354
0.16395048811601187   -0.016843545835734264   -0.01290954407598354
0.16395048811601187   -0.016843545835734264   -0.01290954407598354
0.16395048811601187   -0.016843545835734264   -0.01290954407598354
0.03399209980961515   -0.018722661438291183   0.0014504911365457252
0.03399209980961515   -0.018722661438291183   0.0014504911365457252
0.03399209980961515   -0.018722661438291183   0.0014504911365457252
0.03399209980961515   -0.018722661438291183   0.0014504911365457252
-0.28106108226282966   -0.032365991541696476   -0.00880981339953947
-0.28106108226282966   -0.032365991541696476   -0.00880981339953947
-0.28106108226282966   -0.032365991541696476   -0.00880981339953947
-0.28106108226282966   -0.032365991541696476   -0.00880981339953947
-0.3043802850175798   -0.09106274610143154   -0.014881419748410216
-0.3043802850175798   -0.09106274610143154   -0.014881419748410216
-0.3043802850175798   -0.09106274610143154   -0.014881419748410216
-0.3043802850175798   -0.09106274610143154   -0.014881419748410216
0.03643532704482063   0.030688357902845246   0.010217157575960766
0.03643532704482063   0.030688357902845246   0.010217157575960766
0.03643532704482063   0.030688357902845246   0.010217157575960766
0.03643532704482063   0.030688357902845246   0.010217157575960766
-0.12911133784104156   -0.026537771263227924   -0.007209540274800159
-0.12911133784104156   -0.026537771263227924   -0.007209540274800159
-0.12911133784104156   -0.026537771263227924   -0.007209540274800159
-0.12911133784104156   -0.026537771263227924   -0.007209540274800159
0.02528424711302553   -0.02093627713471844   0.006086392954549937
0.02528424711302553   -0.02093627713471844   0.006086392954549937
0.02528424711302553   -0.02093627713471844   0.006086392954549937
0.02528424711302553   -0.02093627713471844   0.006086392954549937
-0.2923647809007857   -0.038573686878868696   -0.0072929583870026266
-0.2923647809007857   -0.038573686878868696   -0.0072929583870026266
-0.2923647809007857   -0.038573686878868696   -0.0072929583870026266
-0.2923647809007857   -0.038573686878868696   -0.0072929583870026266
-0.31793835625484546   -0.09452847058272906   -0.009973972234639195
-0.31793835625484546   -0.09452847058272906   -0.009973972234639195
-0.31793835625484546   -0.09452847058272906   -0.009973972234639195
-0.31793835625484546   -0.09452847058272906   -0.009973972234639195
0.02374046330013169   0.02445697556762775   0.011534890569819545
0.02374046330013169   0.02445697556762775   0.011534890569819545
0.02374046330013169   0.02445697556762775   0.011534890569819545
0.02374046330013169   0.02445697556762775   0.011534890569819545
-0.14034225015081347   -0.030211835752626565   -0.008634572101635707
-0.14034225015081347   -0.030211835752626565   -0.008634572101635707
-0.14034225015081347   -0.030211835752626565   -0.008634572101635707
-0.14034225015081347   -0.030211835752626565   -0.008634572101635707
0.013276281934405325   -0.024630463863489976   0.008301423172305446
0.013276281934405325   -0.024630463863489976   0.008301423172305446
0.013276281934405325   -0.024630463863489976   0.008301423172305446
0.013276281934405325   -0.024630463863489976   0.008301423172305446
-0.3072849157768795   -0.04525177203937176   -0.005983468388166782
-0.3072849157768795   -0.04525177203937176   -0.005983468388166782
-0.3072849157768795   -0.04525177203937176   -0.005983468388166782
-0.3072849157768795   -0.04525177203937176   -0.005983468388166782
-0.3329660830102961   -0.0970248387467738   -0.008860808919526647
-0.3329660830102961   -0.0970248387467738   -0.008860808919526647
-0.3329660830102961   -0.0970248387467738   -0.008860808919526647
-0.3329660830102961   -0.0970248387467738   -0.008860808919526647
0.010006806639269679   0.01914407500886316   0.012858139712983488
0.010006806639269679   0.01914407500886316   0.012858139712983488
0.010006806639269679   0.01914407500886316   0.012858139712983488
0.010006806639269679   0.01914407500886316   0.012858139712983488
-0.15491475742658423   -0.03460869166526453   -0.012087778337286206
-0.15491475742658423   -0.03460869166526453   -0.012087778337286206
-0.15491475742658423   -0.03460869166526453   -0.012087778337286206
-0.15491475742658423   -0.03460869166526453   -0.012087778337286206
-0.2764753390878438   -0.022632673103445248   0.004385584037134058
-0.2764753390878438   -0.022632673103445248   0.004385584037134058
-0.2764753390878438   -0.022632673103445248   0.004385584037134058
-0.2764753390878438   -0.022632673103445248   0.004385584037134058
-0.5880330018933209   -0.03791100015414245   -0.015405229256247571
-0.5880330018933209   -0.03791100015414245   -0.015405229256247571
-0.5880330018933209   -0.03791100015414245   -0.015405229256247571
-0.5880330018933209   -0.03791100015414245   -0.015405229256247571
-0.6144899622961258   -0.09564552925707201   -0.015005399945473286
-0.6144899622961258   -0.09564552925707201   -0.015005399945473286
-0.6144899622961258   -0.09564552925707201   -0.015005399945473286
-0.6144899622961258   -0.09564552925707201   -0.015005399945473286
-0.277870236437282   0.023587102481445958   0.0030189745701985626
-0.277870236437282   0.023587102481445958   0.0030189745701985626
-0.277870236437282   0.023587102481445958   0.0030189745701985626
-0.277870236437282   0.023587102481445958   0.0030189745701985626
-0.4356258377955801   -0.03162098898383543   -0.005973254720822621
-0.4356258377955801   -0.03162098898383543   -0.005973254720822621
-0.4356258377955801   -0.03162098898383543   -0.005973254720822621
-0.4356258377955801   -0.03162098898383543   -0.005973254720822621
-0.2861091308517579   -0.024904968319380296   0.010316573298648074
-0.2861091308517579   -0.024904968319380296   0.010316573298648074
-0.2861091308517579   -0.024904968319380296   0.010316573298648074
-0.2861091308517579   -0.024904968319380296   0.010316573298648074
-0.6045757863549321   -0.0454781769295334   -0.015601872567048092
-0.6045757863549321   -0.0454781769295334   -0.015601872567048092
-0.6045757863549321   -0.0454781769295334   -0.015601872567048092
-0.6045757863549321   -0.0454781769295334   -0.015601872567048092
-0.6332081074925563   -0.10158910970760043   -0.010617716997016524
-0.6332081074925563   -0.10158910970760043   -0.010617716997016524
-0.6332081074925563   -0.10158910970760043   -0.010617716997016524
-0.6332081074925563   -0.10158910970760043   -0.010617716997016524
-0.29295553418923154   0.016756699316349443   0.003654968194352043
-0.29295553418923154   0.016756699316349443   0.003654968194352043
-0.29295553418923154   0.016756699316349443   0.003654968194352043
-0.29295553418923154   0.016756699316349443   0.003654968194352043
-0.44735828828691165   -0.03484884084167173   -0.005949808442561752
-0.44735828828691165   -0.03484884084167173   -0.005949808442561752
-0.44735828828691165   -0.03484884084167173   -0.005949808442561752
-0.44735828828691165   -0.03484884084167173   -0.005949808442561752
-0.3010661222620239   -0.030887853193952264   0.010746580340691925
-0.3010661222620239   -0.030887853193952264   0.010746580340691925
-0.3010661222620239   -0.030887853193952264   0.010746580340691925
-0.3010661222620239   -0.030887853193952264   0.010746580340691925
-0.6239708927972116   -0.052817930574747325   -0.013202822653151702
-0.6239708927972116   -0.052817930574747325   -0.013202822653151702
-0.6239708927972116   -0.052817930574747325   -0.013202822653151702
-0.6239708927972116   -0.052817930574747325   -0.013202822653151702
-0.6543565944019919   -0.10947298149975354   -0.011301675511273312
-0.6543565944019919   -0.10947298149975354   -0.011301675511273312
-0.6543565944019919   -0.10947298149975354   -0.011301675511273312
-0.6543565944019919   -0.10947298149975354   -0.011301675511273312
-0.30926560526151614   0.00828832746234761   0.004328413615249757
-0.30926560526151614   0.00828832746234761   0.004328413615249757
-0.30926560526151614   0.00828832746234761   0.004328413615249757
-0.30926560526151614   0.00828832746234761   0.004328413615249757
-0.46849068069676564   -0.04300765681710565   -0.009780122199027352
-0.46849068069676564   -0.04300765681710565   -0.009780122199027352
-0.46849068069676564   -0.04300765681710565   -0.009780122199027352
-0.46849068069676564   -0.04300765681710565   -0.009780122199027352
-0.5684074063544736   0.026226275991312213   0.018585472292534017
-0.5684074063544736   0.026226275991312213   0.018585472292534017
-0.5684074063544736   0.026226275991312213   0.018585472292534017
-0.5684074063544736   0.026226275991312213   0.018585472292534017
-0.8808141678379855   -0.04383674808915283   -0.011486838612920963
-0.8808141678379855   -0.04383674808915283   -0.011486838612920963
-0.8808141678379855   -0.04383674808915283   -0.011486838612920963
-0.8808141678379855   -0.04383674808915283   -0.011486838612920963
-0.9018552196130531   -0.04467708377791476   0.018998826601309554
-0.9018552196130531   -0.04467708377791476   0.018998826601309554
-0.9018552196130531   -0.04467708377791476   0.018998826601309554
-0.9018552196130531   -0.04467708377791476   0.018998826601309554
-0.5895155152571735   0.018617364908667274   -0.004396058916455961
-0.5895155152571735   0.018617364908667274   -0.004396058916455961
-0.5895155152571735   0.018617364908667274   -0.004396058916455961
-0.5895155152571735   0.018617364908667274   -0.004396058916455961
-0.7008525204935765   0.000381727864160325   0.01786662901694397
-0.7008525204935765   0.000381727864160325   0.01786662901694397
-0.7008525204935765   0.000381727864160325   0.01786662901694397
-0.7008525204935765   0.000381727864160325   0.01786662901694397
-0.583667551265281   0.019877424801426534   0.023583701150243913
-0.583667551265281   0.019877424801426534   0.023583701150243913
-0.583667551265281   0.019877424801426534   0.023583701150243913
-0.583667551265281   0.019877424801426534   0.023583701150243913
-0.9072998430744833   -0.04553380314021225   -0.0073675713435437384
-0.9072998430744833   -0.04553380314021225   -0.0073675713435437384
-0.9072998430744833   -0.04553380314021225   -0.0073675713435437384
-0.9072998430744833   -0.04553380314021225   -0.0073675713435437384
-0.9283463729342432   -0.05181157142257381   0.02589705632364997
-0.9283463729342432   -0.05181157142257381   0.02589705632364997
-0.9283463729342432   -0.05181157142257381   0.02589705632364997
-0.9283463729342432   -0.05181157142257381   0.02589705632364997
-0.6089401817013359   0.013759932084918235   -0.00462712983343852
-0.6089401817013359   0.013759932084918235   -0.00462712983343852
-0.6089401817013359   0.013759932084918235   -0.00462712983343852
-0.6089401817013359   0.013759932084918235   -0.00462712983343852
-0.7353467956185271   -0.007933336207428525   0.010030774132466974
-0.7353467956185271   -0.007933336207428525   0.010030774132466974
-0.7353467956185271   -0.007933336207428525   0.010030774132466974
-0.7353467956185271   -0.007933336207428525   0.010030774132466974
-0.6035901213994185   0.012614073643228696   0.02326903011783782
-0.6035901213994185   0.012614073643228696   0.02326903011783782
-0.6035901213994185   0.012614073643228696   0.02326903011783782
-0.6035901213994185   0.012614073643228696   0.02326903011783782
-0.9347046813464719   -0.05167396109119424   -0.006032096068864901
-0.9347046813464719   -0.05167396109119424   -0.006032096068864901
-0.9347046813464719   -0.05167396109119424   -0.006032096068864901
-0.9347046813464719   -0.05167396109119424   -0.006032096068864901
-0.9660897268473472   -0.08088762631157022   0.022352615553059896
-0.9660897268473472   -0.08088762631157022   0.022352615553059896
-0.9660897268473472   -0.08088762631157022   0.022352615553059896
-0.9660897268473472   -0.08088762631157022   0.022352615553059896
-0.6313403082777795   -0.0013167556297088226   -0.004376470760257406
-0.6313403082777795   -0.0013167556297088226   -0.004376470760257406
-0.6313403082777795   -0.0013167556297088226   -0.004376470760257406
-0.6313403082777795   -0.0013167556297088226   -0.004376470760257406
-0.7495302004130595   -0.018491302101728717   0.0032676533961431276
-0.7495302004130595   -0.018491302101728717   0.0032676533961431276
-0.7495302004130595   -0.018491302101728717   0.0032676533961431276
-0.7495302004130595   -0.018491302101728717   0.0032676533961431276
0.5805624582682395   0.031350080855193814   -0.020170604930694114
0.5805624582682395   0.031350080855193814   -0.020170604930694114
0.5805624582682395   0.031350080855193814   -0.020170604930694114
0.5805624582682395   0.031350080855193814   -0.020170604930694114
0.2869955423755435   -0.0008628775975080341   0.007160473595452924
0.2869955423755435   -0.0008628775975080341   0.007160473595452924
0.2869955423755435   -0.0008628775975080341   0.007160473595452924
0.2869955423755435   -0.0008628775975080341   0.007160473595452924
0.2628720510327519   -0.04247026118311296   -0.01861753121949021
0.2628720510327519   -0.04247026118311296   -0.01861753121949021
0.2628720510327519   -0.04247026118311296   -0.01861753121949021
0.2628720510327519   -0.04247026118311296   -0.01861753121949021
0.5699100516778357   0.046677194598073374   0.008999143021348355
0.5699100516778357   0.046677194598073374   0.008999143021348355
0.5699100516778357   0.046677194598073374   0.008999143021348355
0.5699100516778357   0.046677194598073374   0.008999143021348355
0.4031083627669573   0.003534399760689033   -0.013281445394191682
0.4031083627669573   0.003534399760689033   -0.013281445394191682
0.4031083627669573   0.003534399760689033   -0.013281445394191682
0.4031083627669573   0.003534399760689033   -0.013281445394191682
0.5581602951297444   0.016413670713314607   -0.019486115834344897
0.5581602951297444   0.016413670713314607   -0.019486115834344897
0.5581602951297444   0.016413670713314607   -0.019486115834344897
0.5581602951297444   0.016413670713314607   -0.019486115834344897
0.2741292496762018   -0.01269929520299573   0.007897496017636757
0.2741292496762018   -0.01269929520299573   0.007897496017636757
0.2741292496762018   -0.01269929520299573   0.007897496017636757
0.2741292496762018   -0.01269929520299573   0.007897496017636757
0.25081210245797264   -0.04593451630277265   -0.01621659552514891
0.25081210245797264   -0.04593451630277265   -0.01621659552514891
0.25081210245797264   -0.04593451630277265   -0.01621659552514891
0.25081210245797264   -0.04593451630277265   -0.01621659552514891
0.5518890021568402   0.04188816104743266   0.012385020026289148
0.5518890021568402   0.04188816104743266   0.012385020026289148
0.5518890021568402   0.04188816104743266   0.012385020026289148
0.5518890021568402   0.04188816104743266   0.012385020026289148
0.3938802127149948   -0.0027699487680940826   -0.017274549338695433
0.3938802127149948   -0.0027699487680940826   -0.017274549338695433
0.3938802127149948   -0.0027699487680940826   -0.017274549338695433
0.3938802127149948   -0.0027699487680940826   -0.017274549338695433
0.5403800126512552   0.012140026291728959   -0.0154117927459234
0.5403800126512552   0.012140026291728959   -0.0154117927459234
0.5403800126512552   0.012140026291728959   -0.0154117927459234
0.5403800126512552   0.012140026291728959   -0.0154117927459234
0.26186935859427385   -0.016638114916351768   0.009773283769933451
0.26186935859427385   -0.016638114916351768   0.009773283769933451
0.26186935859427385   -0.016638114916351768   0.009773283769933451
0.26186935859427385   -0.016638114916351768   0.009773283769933451
0.23982660493576557   -0.04676589559959003   -0.013259321108320427
0.23982660493576557   -0.04676589559959003   -0.013259321108320427
0.23982660493576557   -0.04676589559959003   -0.013259321108320427
0.23982660493576557   -0.04676589559959003   -0.013259321108320427
0.5315738381966687   0.03783876599475767   0.015489229563085988
0.5315738381966687   0.03783876599475767   0.015489229563085988
0.5315738381966687   0.03783876599475767   0.015489229563085988
0.5315738381966687   0.03783876599475767   0.015489229563085988
0.3716993194821006   -0.007048073863698212   -0.023379473069103887
0.3716993194821006   -0.007048073863698212   -0.023379473069103887
0.3716993194821006   -0.007048073863698212   -0.023379473069103887
0.3716993194821006   -0.007048073863698212   -0.023379473069103887
0.29221942416256874   0.03055917440831304   0.001857830524758186
0.29221942416256874   0.03055917440831304   0.001857830524758186
0.29221942416256874   0.03055917440831304   0.001857830524758186
0.29221942416256874   0.03055917440831304   0.001857830524758186
0.008800619714635229   -0.009983813557991423   -0.001344453122795582
0.008800619714635229   -0.009983813557991423   -0.001344453122795582
0.008800619714635229   -0.009983813557991423   -0.001344453122795582
0.008800619714635229   -0.009983813557991423   -0.001344453122795582
-0.009389775149894782   -0.03833600733028557   -0.01275273590960848
-0.009389775149894782   -0.03833600733028557   -0.01275273590960848
-0.009389775149894782   -0.03833600733028557   -0.01275273590960848
-0.009389775149894782   -0.03833600733028557   -0.01275273590960848
0.28671692005887534   0.042382690063656726   0.015753862664352247
0.28671692005887534   0.042382690063656726   0.015753862664352247
0.28671692005887534   0.042382690063656726   0.015753862664352247
0.28671692005887534   0.042382690063656726   0.015753862664352247
0.14232845945892708   0.0060452381544440145   -0.0015661074357075783
0.14232845945892708   0.0060452381544440145   -0.0015661074357075783
0.14232845945892708   0.0060452381544440145   -0.0015661074357075783
0.14232845945892708   0.0060452381544440145   -0.0015661074357075783
0.2803496722718101   0.0228520767454257   0.0034482370472582596
0.2803496722718101   0.0228520767454257   0.0034482370472582596
0.2803496722718101   0.0228520767454257   0.0034482370472582596
0.2803496722718101   0.0228520767454257   0.0034482370472582596
-0.0029052937754065694   -0.01868816042463408   2.182405718013751e-05
-0.0029052937754065694   -0.01868816042463408   2.182405718013751e-05
-0.0029052937754065694   -0.01868816042463408   2.182405718013751e-05
-0.0029052937754065694   -0.01868816042463408   2.182405718013751e-05
-0.020811937440706543   -0.04392964725224926   -0.011052914142323692
-0.020811937440706543   -0.04392964725224926   -0.011052914142323692
-0.020811937440706543   -0.04392964725224926   -0.011052914142323692
-0.020811937440706543   -0.04392964725224926   -0.011052914142323692
0.27377377929227753   0.03524250946845751   0.017414762875142542
0.27377377929227753   0.03524250946845751   0.017414762875142542
0.27377377929227753   0.03524250946845751   0.017414762875142542
0.27377377929227753   0.03524250946845751   0.017414762875142542
0.1283211226002239   -0.0010127066100633388   -0.005568143302986727
0.1283211226002239   -0.0010127066100633388   -0.005568143302986727
0.1283211226002239   -0.0010127066100633388   -0.005568143302986727
0.1283211226002239   -0.0010127066100633388   -0.005568143302986727
0.2676503220508415   0.016984487251508   0.005055498884914557
0.2676503220508415   0.016984487251508   0.005055498884914557
0.2676503220508415   0.016984487251508   0.005055498884914557
0.2676503220508415   0.016984487251508   0.005055498884914557
-0.014678973327267971   -0.025662118163299316   0.0013443773359192238
-0.014678973327267971   -0.025662118163299316   0.0013443773359192238
-0.014678973327267971   -0.025662118163299316   0.0013443773359192238
-0.014678973327267971   -0.025662118163299316   0.0013443773359192238
-0.03210985658750071   -0.04722749084631524   -0.008839506103406463
-0.03210985658750071   -0.04722749084631524   -0.008839506103406463
-0.03210985658750071   -0.04722749084631524   -0.008839506103406463
-0.03210985658750071   -0.04722749084631524   -0.008839506103406463
0.2614614858644567   0.029274879773585533   0.01887430816195749
0.2614614858644567   0.029274879773585533   0.01887430816195749
0.2614614858644567   0.029274879773585533   0.01887430816195749
0.2614614858644567   0.029274879773585533   0.01887430816195749
0.11805236125139366   -0.0054515618528953695   -0.008492554251712112
0.11805236125139366   -0.0054515618528953695   -0.008492554251712112
0.11805236125139366   -0.0054515618528953695   -0.008492554251712112
0.11805236125139366   -0.0054515618528953695   -0.008492554251712112
0.018518250105660064   0.030636512222313842   0.006623373052022372
0.018518250105660064   0.030636512222313842   0.006623373052022372
0.018518250105660064   0.030636512222313842   0.006623373052022372
0.018518250105660064   0.030636512222313842   0.006623373052022372
-0.2609288782537427   -0.017174362618470187   -0.008939716218574555
-0.2609288782537427   -0.017174362618470187   -0.008939716218574555
-0.2609288782537427   -0.017174362618470187   -0.008939716218574555
-0.2609288782537427   -0.017174362618470187   -0.008939716218574555
-0.2751174674396422   -0.03530751139016155   -0.008209394404594991
-0.2751174674396422   -0.03530751139016155   -0.008209394404594991
-0.2751174674396422   -0.03530751139016155   -0.008209394404594991
-0.2751174674396422   -0.03530751139016155   -0.008209394404594991
0.009315093825969354   0.03473366435696329   0.007701937282462376
0.009315093825969354   0.03473366435696329   0.007701937282462376
0.009315093825969354   0.03473366435696329   0.007701937282462376
0.009315093825969354   0.03473366435696329   0.007701937282462376
-0.1268899605686241   0.0037793728445644015   0.0005204917404338094
-0.1268899605686241   0.0037793728445644015   0.0005204917404338094
-0.1268899605686241   0.0037793728445644015   0.0005204917404338094
-0.1268899605686241   0.0037793728445644015   0.0005204917404338094
0.0073792104909137434   0.02448745005808197   0.00826873490606661
0.0073792104909137434   0.02448745005808197   0.00826873490606661
0.0073792104909137434   0.02448745005808197   0.00826873490606661
0.0073792104909137434   0.02448745005808197   0.00826873490606661
-0.27286736870709616   -0.0247470816937896   -0.007519330438236556
-0.27286736870709616   -0.0247470816937896   -0.007519330438236556
-0.27286736870709616   -0.0247470816937896   -0.007519330438236556
-0.27286736870709616   -0.0247470816937896   -0.007519330438236556
-0.2873702185760229   -0.0414458339904399   -0.0068684753443641056
-0.2873702185760229   -0.0414458339904399   -0.0068684753443641056
-0.2873702185760229   -0.0414458339904399   -0.0068684753443641056
-0.2873702185760229   -0.0414458339904399   -0.0068684753443641056
-0.002471947121280564   0.027392720608020817   0.009324669594536126
-0.002471947121280564   0.027392720608020817   0.009324669594536126
-0.002471947121280564   0.027392720608020817   0.009324669594536126
-0.002471947121280564   0.027392720608020817   0.009324669594536126
-0.1386341478906386   -0.002260175321638442   -0.0024706676417264282
-0.1386341478906386   -0.002260175321638442   -0.0024706676417264282
-0.1386341478906386   -0.002260175321638442   -0.0024706676417264282
-0.1386341478906386   -0.002260175321638442   -0.0024706676417264282
-0.004119953463937105   0.018561154832254106   0.009916203657020128
-0.004119953463937105   0.018561154832254106   0.009916203657020128
-0.004119953463937105   0.018561154832254106   0.009916203657020128
-0.004119953463937105   0.018561154832254106   0.009916203657020128
-0.28545642962058126   -0.032348485601885496   -0.006396878955710131
-0.28545642962058126   -0.032348485601885496   -0.006396878955710131
-0.28545642962058126   -0.032348485601885496   -0.006396878955710131
-0.28545642962058126   -0.032348485601885496   -0.006396878955710131
-0.2995325235056711   -0.0462624438207623   -0.004635124290203019
-0.2995325235056711   -0.0462624438207623   -0.004635124290203019
-0.2995325235056711   -0.0462624438207623   -0.004635124290203019
-0.2995325235056711   -0.0462624438207623   -0.004635124290203019
-0.014686816051910606   0.020477477753815213   0.0105707279744136
-0.014686816051910606   0.020477477753815213   0.0105707279744136
-0.014686816051910606   0.020477477753815213   0.0105707279744136
-0.014686816051910606   0.020477477753815213   0.0105707279744136
-0.15127359017581332   -0.00840016149606513   -0.005748144630634996
-0.15127359017581332   -0.00840016149606513   -0.005748144630634996
-0.15127359017581332   -0.00840016149606513   -0.005748144630634996
-0.15127359017581332   -0.00840016149606513   -0.005748144630634996
-0.24615888958561183   0.03591003421614327   0.011825830287472049
-0.24615888958561183   0.03591003421614327   0.011825830287472049
-0.24615888958561183   0.03591003421614327   0.011825830287472049
-0.24615888958561183   0.03591003421614327   0.011825830287472049
-0.5222420008736358   -0.023527953538625673   -0.01458304998801227
-0.5222420008736358   -0.023527953538625673   -0.01458304998801227
-0.5222420008736358   -0.023527953538625673   -0.01458304998801227
-0.5222420008736358   -0.023527953538625673   -0.01458304998801227
-0.5332876882709856   -0.028619766770335193   -0.002597919855018893
-0.5332876882709856   -0.028619766770335193   -0.002597919855018893
-0.5332876882709856   -0.028619766770335193   -0.002597919855018893
-0.5332876882709856   -0.028619766770335193   -0.002597919855018893
-0.26119821832893014   0.026365042890603204   -0.00028570313179736295
-0.26119821832893014   0.026365042890603204   -0.00028570313179736295
-0.26119821832893014   0.026365042890603204   -0.00028570313179736295
-0.26119821832893014   0.026365042890603204   -0.00028570313179736295
-0.3878927613214797   0.0036867273897449697   0.0028569252095827086
-0.3878927613214797   0.0036867273897449697   0.0028569252095827086
-0.3878927613214797   0.0036867273897449697   0.0028569252095827086
-0.3878927613214797   0.0036867273897449697   0.0028569252095827086
-0.2578345153052697   0.029641685641027784   0.01325616923608007
-0.2578345153052697   0.029641685641027784   0.01325616923608007
-0.2578345153052697   0.029641685641027784   0.01325616923608007
-0.2578345153052697   0.029641685641027784   0.01325616923608007
-0.5362364124241286   -0.03148143065024239   -0.01447987674082682
-0.5362364124241286   -0.03148143065024239   -0.01447987674082682
-0.5362364124241286   -0.03148143065024239   -0.01447987674082682
-0.5362364124241286   -0.03148143065024239   -0.01447987674082682
-0.5483683700675432   -0.03553105446136765   -0.0023709648159371544
-0.5483683700675432   -0.03553105446136765   -0.0023709648159371544
-0.5483683700675432   -0.03553105446136765   -0.0023709648159371544
-0.5483683700675432   -0.03553105446136765   -0.0023709648159371544
-0.27360437410270116   0.019360190175339197   0.0011547228564683931
-0.27360437410270116   0.019360190175339197   0.0011547228564683931
-0.27360437410270116   0.019360190175339197   0.0011547228564683931
-0.27360437410270116   0.019360190175339197   0.0011547228564683931
-0.39837764235801815   -0.001794970222137711   0.0004105714468295857
-0.39837764235801815   -0.001794970222137711   0.0004105714468295857
-0.39837764235801815   -0.001794970222137711   0.0004105714468295857
-0.39837764235801815   -0.001794970222137711   0.0004105714468295857
-0.2699135403182893   0.023689934035367323   0.01527914791849927
-0.2699135403182893   0.023689934035367323   0.01527914791849927
-0.2699135403182893   0.023689934035367323   0.01527914791849927
-0.2699135403182893   0.023689934035367323   0.01527914791849927
-0.551199809316505   -0.039001403785948435   -0.01305781173616588
-0.551199809316505   -0.039001403785948435   -0.01305781173616588
-0.551199809316505   -0.039001403785948435   -0.01305781173616588
-0.551199809316505   -0.039001403785948435   -0.01305781173616588
-0.562236705996208   -0.04294797421171256   0.001118005979656167
-0.562236705996208   -0.04294797421171256   0.001118005979656167
-0.562236705996208   -0.04294797421171256   0.001118005979656167
-0.562236705996208   -0.04294797421171256   0.001118005979656167
-0.28675305170461807   0.010988580955366933   0.0020112099389329938
-0.28675305170461807   0.010988580955366933   0.0020112099389329938
-0.28675305170461807   0.010988580955366933   0.0020112099389329938
-0.28675305170461807   0.010988580955366933   0.0020112099389329938
-0.41494466857128265   -0.009587379354712287   -0.002914405458526781
-0.41494466857128265   -0.009587379354712287   -0.002914405458526781
-0.41494466857128265   -0.009587379354712287   -0.002914405458526781
-0.41494466857128265   -0.009587379354712287   -0.002914405458526781
-0.5039089378663766   0.037127106608069865   0.016427204901583725
-0.5039089378663766   0.037127106608069865   0.016427204901583725
-0.5039089378663766   0.037127106608069865   0.016427204901583725
-0.5039089378663766   0.037127106608069865   0.016427204901583725
-0.7713984775907669   -0.035757156242295425   -0.013230246844968652
-0.7713984775907669   -0.035757156242295425   -0.013230246844968652
-0.7713984775907669   -0.035757156242295425   -0.013230246844968652
-0.7713984775907669   -0.035757156242295425   -0.013230246844968652
-0.7816301326008214   -0.016148836631568464   0.013887550726028541
-0.7816301326008214   -0.016148836631568464   0.013887550726028541
-0.7816301326008214   -0.016148836631568464   0.013887550726028541
-0.7816301326008214   -0.016148836631568464   0.013887550726028541
-0.5252785660585196   0.016093913961866133   -0.007265989524890493
-0.5252785660585196   0.016093913961866133   -0.007265989524890493
-0.5252785660585196   0.016093913961866133   -0.007265989524890493
-0.5252785660585196   0.016093913961866133   -0.007265989524890493
-0.6169668760824658   0.007579994079903889   0.014317706443838146
-0.6169668760824658   0.007579994079903889   0.014317706443838146
-0.6169668760824658   0.007579994079903889   0.014317706443838146
-0.6169668760824658   0.007579994079903889   0.014317706443838146
-0.5156577788751158   0.03804541336597333   0.018886446988016517
-0.5156577788751158   0.03804541336597333   0.018886446988016517
-0.5156577788751158   0.03804541336597333   0.018886446988016517
-0.5156577788751158   0.03804541336597333   0.018886446988016517
-0.7906847116645144   -0.03753412791596279   -0.01000005330804038
-0.7906847116645144   -0.03753412791596279   -0.01000005330804038
-0.7906847116645144   -0.03753412791596279   -0.01000005330804038
-0.7906847116645144   -0.03753412791596279   -0.01000005330804038
-0.8003737965246255   -0.019767172077251045   0.019170964179019867
-0.8003737965246255   -0.019767172077251045   0.019170964179019867
-0.8003737965246255   -0.019767172077251045   0.019170964179019867
-0.8003737965246255   -0.019767172077251045   0.019170964179019867
-0.5396647094560333   0.012071278164502885   -0.0064549943842587
-0.5396647094560333   0.012071278164502885   -0.0064549943842587
-0.5396647094560333   0.012071278164502885   -0.0064549943842587
-0.5396647094560333   0.012071278164502885   -0.0064549943842587
-0.6430469702856461   0.0037689084088010846   0.009358645084458078
-0.6430469702856461   0.0037689084088010846   0.009358645084458078
-0.6430469702856461   0.0037689084088010846   0.009358645084458078
-0.6430469702856461   0.0037689084088010846   0.009358645084458078
-0.5290343134542265   0.035350153715736264   0.023418110073542248
-0.5290343134542265   0.035350153715736264   0.023418110073542248
-0.5290343134542265   0.035350153715736264   0.023418110073542248
-0.5290343134542265   0.035350153715736264   0.023418110073542248
-0.8104504379042892   -0.04249229300633824   -0.008487121790208468
-0.8104504379042892   -0.04249229300633824   -0.008487121790208468
-0.8104504379042892   -0.04249229300633824   -0.008487121790208468
-0.8104504379042892   -0.04249229300633824   -0.008487121790208468
-0.8258076423425509   -0.03554011197977408   0.018974081554202937
-0.8258076423425509   -0.03554011197977408   0.018974081554202937
-0.8258076423425509   -0.03554011197977408   0.018974081554202937
-0.8258076423425509   -0.03554011197977408   0.018974081554202937
-0.5551255116607334   -0.00019277092238787277   -0.006081225632299236
-0.5551255116607334   -0.00019277092238787277   -0.006081225632299236
-0.5551255116607334   -0.00019277092238787277   -0.006081225632299236
-0.5551255116607334   -0.00019277092238787277   -0.006081225632299236
-0.6502452578365086   -0.0018064384558605304   0.007800676521210442
-0.6502452578365086   -0.0018064384558605304   0.007800676521210442
-0.6502452578365086   -0.0018064384558605304   0.007800676521210442
-0.6502452578365086   -0.0018064384558605304   0.007800676521210442
0.4434845700356975   0.024873494552180644   -0.020646693316257722
0.4434845700356975   0.024873494552180644   -0.020646693316257722
0.4434845700356975   0.024873494552180644   -0.020646693316257722
0.4434845700356975   0.024873494552180644   -0.020646693316257722
0.2103569904223012   0.003727085801412901   0.007754579899752596
0.2103569904223012   0.003727085801412901   0.007754579899752596
0.2103569904223012   0.003727085801412901   0.007754579899752596
0.2103569904223012   0.003727085801412901   0.007754579899752596
0.18747647240743773   -0.03554531545417627   -0.01967982796950188
0.18747647240743773   -0.03554531545417627   -0.01967982796950188
0.18747647240743773   -0.03554531545417627   -0.01967982796950188
0.18747647240743773   -0.03554531545417627   -0.01967982796950188
0.4341787844482898   0.04049739267952392   0.009606357215906774
0.4341787844482898   0.04049739267952392   0.009606357215906774
0.4341787844482898   0.04049739267952392   0.009606357215906774
0.4341787844482898   0.04049739267952392   0.009606357215906774
0.30240554495254846   0.004069775925498377   -0.008955669508001168
0.30240554495254846   0.004069775925498377   -0.008955669508001168
0.30240554495254846   0.004069775925498377   -0.008955669508001168
0.30240554495254846   0.004069775925498377   -0.008955669508001168
0.4225436335890232   0.011491401246551174   -0.01956340564745017
0.4225436335890232   0.011491401246551174   -0.01956340564745017
0.4225436335890232   0.011491401246551174   -0.01956340564745017
0.4225436335890232   0.011491401246551174   -0.01956340564745017
0.19888623946287826   -0.006764707825029349   0.008588399678551996
0.19888623946287826   -0.006764707825029349   0.008588399678551996
0.19888623946287826   -0.006764707825029349   0.008588399678551996
0.19888623946287826   -0.006764707825029349   0.008588399678551996
0.1768107767187891   -0.03896849578342155   -0.016820038689930754
0.1768107767187891   -0.03896849578342155   -0.016820038689930754
0.1768107767187891   -0.03896849578342155   -0.016820038689930754
0.1768107767187891   -0.03896849578342155   -0.016820038689930754
0.41758833266073925   0.0355878151491185   0.01270072126372046
0.41758833266073925   0.0355878151491185   0.01270072126372046
0.41758833266073925   0.0355878151491185   0.01270072126372046
0.41758833266073925   0.0355878151491185   0.01270072126372046
0.29302159957729407   -0.0019098464570758596   -0.012434073906453236
0.29302159957729407   -0.0019098464570758596   -0.012434073906453236
0.29302159957729407   -0.0019098464570758596   -0.012434073906453236
0.29302159957729407   -0.0019098464570758596   -0.012434073906453236
0.4062118241245252   0.007130766818388593   -0.015724773086616142
0.4062118241245252   0.007130766818388593   -0.015724773086616142
0.4062118241245252   0.007130766818388593   -0.015724773086616142
0.4062118241245252   0.007130766818388593   -0.015724773086616142
0.187892944283506   -0.010805788424188414   0.010428091774419189
0.187892944283506   -0.010805788424188414   0.010428091774419189
0.187892944283506   -0.010805788424188414   0.010428091774419189
0.187892944283506   -0.010805788424188414   0.010428091774419189
0.1672209892397357   -0.04093271159665623   -0.014015309437035068
0.1672209892397357   -0.04093271159665623   -0.014015309437035068
0.1672209892397357   -0.04093271159665623   -0.014015309437035068
0.1672209892397357   -0.04093271159665623   -0.014015309437035068
0.39885931731845   0.030377151514872046   0.015144022146488897
0.39885931731845   0.030377151514872046   0.015144022146488897
0.39885931731845   0.030377151514872046   0.015144022146488897
0.39885931731845   0.030377151514872046   0.015144022146488897
0.2739711427461263   -0.006377548477232976   -0.017667519425412115
0.2739711427461263   -0.006377548477232976   -0.017667519425412115
0.2739711427461263   -0.006377548477232976   -0.017667519425412115
0.2739711427461263   -0.006377548477232976   -0.017667519425412115
0.21408375635882024   0.03113733622679546   -0.0010218408430308426
0.21408375635882024   0.03113733622679546   -0.0010218408430308426
0.21408375635882024   0.03113733622679546   -0.0010218408430308426
0.21408375635882024   0.03113733622679546   -0.0010218408430308426
-0.014517344868844519   -0.0033918087164556657   -0.00024989721749467094
-0.014517344868844519   -0.0033918087164556657   -0.00024989721749467094
-0.014517344868844519   -0.0033918087164556657   -0.00024989721749467094
-0.014517344868844519   -0.0033918087164556657   -0.00024989721749467094
-0.030639383480590435   -0.026756751444953507   -0.012587041339233131
-0.030639383480590435   -0.026756751444953507   -0.012587041339233131
-0.030639383480590435   -0.026756751444953507   -0.012587041339233131
-0.030639383480590435   -0.026756751444953507   -0.012587041339233131
0.20870894490999328   0.036881387876741084   0.014055831212356651
0.20870894490999328   0.036881387876741084   0.014055831212356651
0.20870894490999328   0.036881387876741084   0.014055831212356651
0.20870894490999328   0.036881387876741084   0.014055831212356651
0.09294682878669848   0.009035763632214927   0.0006998392397566076
0.09294682878669848   0.009035763632214927   0.0006998392397566076
0.09294682878669848   0.009035763632214927   0.0006998392397566076
0.09294682878669848   0.009035763632214927   0.0006998392397566076
0.20321834528074956   0.022690872303114847   0.0007933486397686193
0.20321834528074956   0.022690872303114847   0.0007933486397686193
0.20321834528074956   0.022690872303114847   0.0007933486397686193
0.20321834528074956   0.022690872303114847   0.0007933486397686193
-0.025057408735164675   -0.012474860755147059   0.0010409416980892202
-0.025057408735164675   -0.012474860755147059   0.0010409416980892202
-0.025057408735164675   -0.012474860755147059   0.0010409416980892202
-0.025057408735164675   -0.012474860755147059   0.0010409416980892202
-0.04068058289782205   -0.03321920404278043   -0.010439442490932229
-0.04068058289782205   -0.03321920404278043   -0.010439442490932229
-0.04068058289782205   -0.03321920404278043   -0.010439442490932229
-0.04068058289782205   -0.03321920404278043   -0.010439442490932229
0.19686257752419906   0.029111550581561684   0.015358918972134358
0.19686257752419906   0.029111550581561684   0.015358918972134358
0.19686257752419906   0.029111550581561684   0.015358918972134358
0.19686257752419906   0.029111550581561684   0.015358918972134358
0.08052370694055823   0.0013363845723107816   -0.00316018573232129
0.08052370694055823   0.0013363845723107816   -0.00316018573232129
0.08052370694055823   0.0013363845723107816   -0.00316018573232129
0.08052370694055823   0.0013363845723107816   -0.00316018573232129
0.19155715847865493   0.01575408966324731   0.002189284662729482
0.19155715847865493   0.01575408966324731   0.002189284662729482
0.19155715847865493   0.01575408966324731   0.002189284662729482
0.19155715847865493   0.01575408966324731   0.002189284662729482
-0.03545784521619176   -0.019944424488379648   0.002399466362818476
-0.03545784521619176   -0.019944424488379648   0.002399466362818476
-0.03545784521619176   -0.019944424488379648   0.002399466362818476
-0.03545784521619176   -0.019944424488379648   0.002399466362818476
-0.050583524623101284   -0.03859354772336988   -0.008422818835261553
-0.050583524623101284   -0.03859354772336988   -0.008422818835261553
-0.050583524623101284   -0.03859354772336988   -0.008422818835261553
-0.050583524623101284   -0.03859354772336988   -0.008422818835261553
0.18592423197219285   0.02197723802633258   0.01659095460226076
0.18592423197219285   0.02197723802633258   0.01659095460226076
0.18592423197219285   0.02197723802633258   0.01659095460226076
0.18592423197219285   0.02197723802633258   0.01659095460226076
0.0710696875279705   -0.00443367891974972   -0.006353828768295279
0.0710696875279705   -0.00443367891974972   -0.006353828768295279
0.0710696875279705   -0.00443367891974972   -0.006353828768295279
0.0710696875279705   -0.00443367891974972   -0.006353828768295279
-0.005406798001764222   0.03675016862993948   0.005160859771510709
-0.005406798001764222   0.03675016862993948   0.005160859771510709
-0.005406798001764222   0.03675016862993948   0.005160859771510709
-0.005406798001764222   0.03675016862993948   0.005160859771510709
-0.23463738410737697   -0.010515051928825873   -0.007778304167241588
-0.23463738410737697   -0.010515051928825873   -0.007778304167241588
-0.23463738410737697   -0.010515051928825873   -0.007778304167241588
-0.23463738410737697   -0.010515051928825873   -0.007778304167241588
-0.24502164775717397   -0.018894532224240843   -0.006102304040414945
-0.24502164775717397   -0.018894532224240843   -0.006102304040414945
-0.24502164775717397   -0.018894532224240843   -0.006102304040414945
-0.24502164775717397   -0.018894532224240843   -0.006102304040414945
-0.015581380207277782   0.029775471770223137   0.006170751812154438
-0.015581380207277782   0.029775471770223137   0.006170751812154438
-0.015581380207277782   0.029775471770223137   0.006170751812154438
-0.015581380207277782   0.029775471770223137   0.006170751812154438
-0.12486291433335944   0.00932571180353906   0.0024423719528986407
-0.12486291433335944   0.00932571180353906   0.0024423719528986407
-0.12486291433335944   0.00932571180353906   0.0024423719528986407
-0.12486291433335944   0.00932571180353906   0.0024423719528986407
-0.015392146295152218   0.029691922920706316   0.007200470222299087
-0.015392146295152218   0.029691922920706316   0.007200470222299087
-0.015392146295152218   0.029691922920706316   0.007200470222299087
-0.015392146295152218   0.029691922920706316   0.007200470222299087
-0.2450198984396145   -0.01862000014503899   -0.006368089531819464
-0.2450198984396145   -0.01862000014503899   -0.006368089531819464
-0.2450198984396145   -0.01862000014503899   -0.006368089531819464
-0.2450198984396145   -0.01862000014503899   -0.006368089531819464
-0.2553087280256494   -0.025886673629578083   -0.004235520689104905
-0.2553087280256494   -0.025886673629578083   -0.004235520689104905
-0.2553087280256494   -0.025886673629578083   -0.004235520689104905
-0.2553087280256494   -0.025886673629578083   -0.004235520689104905
-0.026055178597972836   0.021776679240814337   0.007691695724720059
-0.026055178597972836   0.021776679240814337   0.007691695724720059
-0.026055178597972836   0.021776679240814337   0.007691695724720059
-0.026055178597972836   0.021776679240814337   0.007691695724720059
-0.13525618326208885   0.0024001176395519394   -0.0006776308522115151
-0.13525618326208885   0.0024001176395519394   -0.0006776308522115151
-0.13525618326208885   0.0024001176395519394   -0.0006776308522115151
-0.13525618326208885   0.0024001176395519394   -0.0006776308522115151
-0.02565573406025458   0.022653457360119936   0.008812140294005753
-0.02565573406025458   0.022653457360119936   0.008812140294005753
-0.02565573406025458   0.022653457360119936   0.008812140294005753
-0.02565573406025458   0.022653457360119936   0.008812140294005753
-0.2556572019035149   -0.026712481089033152   -0.005152082618975366
-0.2556572019035149   -0.026712481089033152   -0.005152082618975366
-0.2556572019035149   -0.026712481089033152   -0.005152082618975366
-0.2556572019035149   -0.026712481089033152   -0.005152082618975366
-0.26546627967226655   -0.03226915722319755   -0.002382983290309601
-0.26546627967226655   -0.03226915722319755   -0.002382983290309601
-0.26546627967226655   -0.03226915722319755   -0.002382983290309601
-0.26546627967226655   -0.03226915722319755   -0.002382983290309601
-0.036577583718854265   0.014040778668868147   0.008972559293735534
-0.036577583718854265   0.014040778668868147   0.008972559293735534
-0.036577583718854265   0.014040778668868147   0.008972559293735534
-0.036577583718854265   0.014040778668868147   0.008972559293735534
-0.1461318127259071   -0.004580131380795716   -0.004157059361307412
-0.1461318127259071   -0.004580131380795716   -0.004157059361307412
-0.1461318127259071   -0.004580131380795716   -0.004157059361307412
-0.1461318127259071   -0.004580131380795716   -0.004157059361307412
-0.22038801748974463   0.041958457111811245   0.010995019880281155
-0.22038801748974463   0.041958457111811245   0.010995019880281155
-0.22038801748974463   0.041958457111811245   0.010995019880281155
-0.22038801748974463   0.041958457111811245   0.010995019880281155
-0.45010907502820224   -0.017818805059474804   -0.013945501721515707
-0.45010907502820224   -0.017818805059474804   -0.013945501721515707
-0.45010907502820224   -0.017818805059474804   -0.013945501721515707
-0.45010907502820224   -0.017818805059474804   -0.013945501721515707
-0.4557673336833156   -0.012300150752457339   0.000957444007285424
-0.4557673336833156   -0.012300150752457339   0.000957444007285424
-0.4557673336833156   -0.012300150752457339   0.000957444007285424
-0.4557673336833156   -0.012300150752457339   0.000957444007285424
-0.2360692504537831   0.02143901441921514   -0.0016738641669146112
-0.2360692504537831   0.02143901441921514   -0.0016738641669146112
-0.2360692504537831   0.02143901441921514   -0.0016738641669146112
-0.2360692504537831   0.02143901441921514   -0.0016738641669146112
-0.3383511987840066   0.008729048353944245   0.004131463866362137
-0.3383511987840066   0.008729048353944245   0.004131463866362137
-0.3383511987840066   0.008729048353944245   0.004131463866362137
-0.3383511987840066   0.008729048353944245   0.004131463866362137
-0.23039548199785612   0.03517460774130349   0.012959384790630059
-0.23039548199785612   0.03517460774130349   0.012959384790630059
-0.23039548199785612   0.03517460774130349   0.012959384790630059
-0.23039548199785612   0.03517460774130349   0.012959384790630059
-0.46139834292872184   -0.025992984864026236   -0.013504768108182796
-0.46139834292872184   -0.025992984864026236   -0.013504768108182796
-0.46139834292872184   -0.025992984864026236   -0.013504768108182796
-0.46139834292872184   -0.025992984864026236   -0.013504768108182796
-0.4677522116901675   -0.019372575006505178   0.0016387345347128601
-0.4677522116901675   -0.019372575006505178   0.0016387345347128601
-0.4677522116901675   -0.019372575006505178   0.0016387345347128601
-0.4677522116901675   -0.019372575006505178   0.0016387345347128601
-0.24650577367202328   0.0140282016656189   -0.0001356242161696386
-0.24650577367202328   0.0140282016656189   -0.0001356242161696386
-0.24650577367202328   0.0140282016656189   -0.0001356242161696386
-0.24650577367202328   0.0140282016656189   -0.0001356242161696386
-0.34707402079904476   0.0025884948006222944   0.0012357553316245107
-0.34707402079904476   0.0025884948006222944   0.0012357553316245107
-0.34707402079904476   0.0025884948006222944   0.0012357553316245107
-0.34707402079904476   0.0025884948006222944   0.0012357553316245107
-0.2405897033706344   0.02868897128478136   0.014783957671612433
-0.2405897033706344   0.02868897128478136   0.014783957671612433
-0.2405897033706344   0.02868897128478136   0.014783957671612433
-0.2405897033706344   0.02868897128478136   0.014783957671612433
-0.4733678134456278   -0.0337328760797397   -0.012078973169358145
-0.4733678134456278   -0.0337328760797397   -0.012078973169358145
-0.4733678134456278   -0.0337328760797397   -0.012078973169358145
-0.4733678134456278   -0.0337328760797397   -0.012078973169358145
-0.4786038636506106   -0.02701197061539337   0.003859264031124021
-0.4786038636506106   -0.02701197061539337   0.003859264031124021
-0.4786038636506106   -0.02701197061539337   0.003859264031124021
-0.4786038636506106   -0.02701197061539337   0.003859264031124021
-0.2572378084608494   0.005513269380180126   0.000976946163400362
-0.2572378084608494   0.005513269380180126   0.000976946163400362
-0.2572378084608494   0.005513269380180126   0.000976946163400362
-0.2572378084608494   0.005513269380180126   0.000976946163400362
-0.36053511798455345   -0.005190936413659669   -0.0024715069656635613
-0.36053511798455345   -0.005190936413659669   -0.0024715069656635613
-0.36053511798455345   -0.005190936413659669   -0.0024715069656635613
-0.36053511798455345   -0.005190936413659669   -0.0024715069656635613
-0.43313481254131253   0.03763585605606732   0.015471149597390793
-0.43313481254131253   0.03763585605606732   0.015471149597390793
-0.43313481254131253   0.03763585605606732   0.015471149597390793
-0.43313481254131253   0.03763585605606732   0.015471149597390793
-0.6557968765433515   -0.03036014837797814   -0.015150474137425568
-0.6557968765433515   -0.03036014837797814   -0.015150474137425568
-0.6557968765433515   -0.03036014837797814   -0.015150474137425568
-0.6557968765433515   -0.03036014837797814   -0.015150474137425568
-0.6628294111143579   -0.007120893338092717   0.014210819031153482
-0.6628294111143579   -0.007120893338092717   0.014210819031153482
-0.6628294111143579   -0.007120893338092717   0.014210819031153482
-0.6628294111143579   -0.007120893338092717   0.014210819031153482
-0.4530290019162905   0.011095565147660039   -0.008746613057706187
-0.4530290019162905   0.011095565147660039   -0.008746613057706187
-0.4530290019162905   0.011095565147660039   -0.008746613057706187
-0.4530290019162905   0.011095565147660039   -0.008746613057706187
-0.5267616161358397   0.008306144018000353   0.013014011253241947
-0.5267616161358397   0.008306144018000353   0.013014011253241947
-0.5267616161358397   0.008306144018000353   0.013014011253241947
-0.5267616161358397   0.008306144018000353   0.013014011253241947
-0.4423135145512562   0.03777116662610004   0.018155222289015588
-0.4423135145512562   0.03777116662610004   0.018155222289015588
-0.4423135145512562   0.03777116662610004   0.018155222289015588
-0.4423135145512562   0.03777116662610004   0.018155222289015588
-0.6733738366946014   -0.03362543303174158   -0.012006769176403392
-0.6733738366946014   -0.03362543303174158   -0.012006769176403392
-0.6733738366946014   -0.03362543303174158   -0.012006769176403392
-0.6733738366946014   -0.03362543303174158   -0.012006769176403392
-0.6785422804987392   -0.010860609859922023   0.017763136536322638
-0.6785422804987392   -0.010860609859922023   0.017763136536322638
-0.6785422804987392   -0.010860609859922023   0.017763136536322638
-0.6785422804987392   -0.010860609859922023   0.017763136536322638
-0.464294165318512   0.0070347724998506   -0.007478381113365462
-0.464294165318512   0.0070347724998506   -0.007478381113365462
-0.464294165318512   0.0070347724998506   -0.007478381113365462
-0.464294165318512   0.0070347724998506   -0.007478381113365462
-0.5489597382439578   0.004151654835271086   0.00805140020769693
-0.5489597382439578   0.004151654835271086   0.00805140020769693
-0.5489597382439578   0.004151654835271086   0.00805140020769693
-0.5489597382439578   0.004151654835271086   0.00805140020769693
-0.4529289234906527   0.03498829528298916   0.021394305242792108
-0.4529289234906527   0.03498829528298916   0.021394305242792108
-0.4529289234906527   0.03498829528298916   0.021394305242792108
-0.4529289234906527   0.03498829528298916   0.021394305242792108
-0.6896145497618541   -0.03852116007831755   -0.009937659560848772
-0.6896145497618541   -0.03852116007831755   -0.009937659560848772
-0.6896145497618541   -0.03852116007831755   -0.009937659560848772
-0.6896145497618541   -0.03852116007831755   -0.009937659560848772
-0.6992870798537477   -0.024333372656562983   0.017377333889854907
-0.6992870798537477   -0.024333372656562983   0.017377333889854907
-0.6992870798537477   -0.024333372656562983   0.017377333889854907
-0.6992870798537477   -0.024333372656562983   0.017377333889854907
-0.4762134195782717   -0.004415805868865041   -0.006784680353711811
-0.4762134195782717   -0.004415805868865041   -0.006784680353711811
-0.4762134195782717   -0.004415805868865041   -0.006784680353711811
-0.4762134195782717   -0.004415805868865041   -0.006784680353711811
-0.5543569336860202   -0.0010775007894788177   0.006453480610878692
-0.5543569336860202   -0.0010775007894788177   0.006453480610878692
-0.5543569336860202   -0.0010775007894788177   0.006453480610878692
-0.5543569336860202   -0.0010775007894788177   0.006453480610878692
0.3078654752243656   0.01763198973846022   -0.020229385217090612
0.3078654752243656   0.01763198973846022   -0.020229385217090612
0.3078654752243656   0.01763198973846022   -0.020229385217090612
0.3078654752243656   0.01763198973846022   -0.020229385217090612
0.13147380352430799   0.007909282338787658   0.008581751298664512
0.13147380352430799   0.007909282338787658   0.008581751298664512
0.13147380352430799   0.007909282338787658   0.008581751298664512
0.13147380352430799   0.007909282338787658   0.008581751298664512
0.11069955754930676   -0.029900196781749815   -0.01890236319147883
0.11069955754930676   -0.029900196781749815   -0.01890236319147883
0.11069955754930676   -0.029900196781749815   -0.01890236319147883
0.11069955754930676   -0.029900196781749815   -0.01890236319147883
0.3009205787478622   0.03463482711832802   0.010438670438189496
0.3009205787478622   0.03463482711832802   0.010438670438189496
0.3009205787478622   0.03463482711832802   0.010438670438189496
0.3009205787478622   0.03463482711832802   0.010438670438189496
0.20148481043957114   0.004440239768150651   -0.005495636197471926
0.20148481043957114   0.004440239768150651   -0.005495636197471926
0.20148481043957114   0.004440239768150651   -0.005495636197471926
0.20148481043957114   0.004440239768150651   -0.005495636197471926
0.28928593694296484   0.005814674534738586   -0.018914386002710296
0.28928593694296484   0.005814674534738586   -0.018914386002710296
0.28928593694296484   0.005814674534738586   -0.018914386002710296
0.28928593694296484   0.005814674534738586   -0.018914386002710296
0.1221147837951714   -0.0012994597571905943   0.009573031013287256
0.1221147837951714   -0.0012994597571905943   0.009573031013287256
0.1221147837951714   -0.0012994597571905943   0.009573031013287256
0.1221147837951714   -0.0012994597571905943   0.009573031013287256
0.10187839989269837   -0.03331912603263479   -0.01612405187700507
0.10187839989269837   -0.03331912603263479   -0.01612405187700507
0.10187839989269837   -0.03331912603263479   -0.01612405187700507
0.10187839989269837   -0.03331912603263479   -0.01612405187700507
0.2863895586680428   0.02977784098438451   0.013511727011092628
0.2863895586680428   0.02977784098438451   0.013511727011092628
0.2863895586680428   0.02977784098438451   0.013511727011092628
0.2863895586680428   0.02977784098438451   0.013511727011092628
0.19248988931126484   -0.0012306882606289808   -0.008823754035149622
0.19248988931126484   -0.0012306882606289808   -0.008823754035149622
0.19248988931126484   -0.0012306882606289808   -0.008823754035149622
0.19248988931126484   -0.0012306882606289808   -0.008823754035149622
0.2749314758388451   0.0014301085849107026   -0.015430954735424357
0.2749314758388451   0.0014301085849107026   -0.015430954735424357
0.2749314758388451   0.0014301085849107026   -0.015430954735424357
0.2749314758388451   0.0014301085849107026   -0.015430954735424357
0.11300656223523488   -0.0053013141198223895   0.011498947922866007
0.11300656223523488   -0.0053013141198223895   0.011498947922866007
0.11300656223523488   -0.0053013141198223895   0.011498947922866007
0.11300656223523488   -0.0053013141198223895   0.011498947922866007
0.09401093274973564   -0.03631120874757088   -0.013449394597011373
0.09401093274973564   -0.03631120874757088   -0.013449394597011373
0.09401093274973564   -0.03631120874757088   -0.013449394597011373
0.09401093274973564   -0.03631120874757088   -0.013449394597011373
0.2693951789302592   0.023470896134443066   0.015468259782902852
0.2693951789302592   0.023470896134443066   0.015468259782902852
0.2693951789302592   0.023470896134443066   0.015468259782902852
0.2693951789302592   0.023470896134443066   0.015468259782902852
0.17690669276095256   -0.005839196649453784   -0.013455951898967741
0.17690669276095256   -0.005839196649453784   -0.013455951898967741
0.17690669276095256   -0.005839196649453784   -0.013455951898967741
0.17690669276095256   -0.005839196649453784   -0.013455951898967741
0.13255605320641498   0.025377755626410127   -0.0034754735784252033
0.13255605320641498   0.025377755626410127   -0.0034754735784252033
0.13255605320641498   0.025377755626410127   -0.0034754735784252033
0.13255605320641498   0.025377755626410127   -0.0034754735784252033
-0.04008804912490327   0.0018832326567590684   0.001059883309851236
-0.04008804912490327   0.0018832326567590684   0.001059883309851236
-0.04008804912490327   0.0018832326567590684   0.001059883309851236
-0.04008804912490327   0.0018832326567590684   0.001059883309851236
-0.05429225965403035   -0.020870128088318937   -0.011700544048904492
-0.05429225965403035   -0.020870128088318937   -0.011700544048904492
-0.05429225965403035   -0.020870128088318937   -0.011700544048904492
-0.05429225965403035   -0.020870128088318937   -0.011700544048904492
0.12907127027018117   0.030447179542553177   0.012608824088592253
0.12907127027018117   0.030447179542553177   0.012608824088592253
0.12907127027018117   0.030447179542553177   0.012608824088592253
0.12907127027018117   0.030447179542553177   0.012608824088592253
0.04090028496401729   0.008756403257963152   0.001584045100319842
0.04090028496401729   0.008756403257963152   0.001584045100319842
0.04090028496401729   0.008756403257963152   0.001584045100319842
0.04090028496401729   0.008756403257963152   0.001584045100319842
0.12342577893862858   0.0166494148622275   -0.0018208678888465696
0.12342577893862858   0.0166494148622275   -0.0018208678888465696
0.12342577893862858   0.0166494148622275   -0.0018208678888465696
0.12342577893862858   0.0166494148622275   -0.0018208678888465696
-0.048735518361143045   -0.007161113446656249   0.002374147773869335
-0.048735518361143045   -0.007161113446656249   0.002374147773869335
-0.048735518361143045   -0.007161113446656249   0.002374147773869335
-0.048735518361143045   -0.007161113446656249   0.002374147773869335
-0.06249036879307847   -0.027730164696680746   -0.009496711101800276
-0.06249036879307847   -0.027730164696680746   -0.009496711101800276
-0.06249036879307847   -0.027730164696680746   -0.009496711101800276
-0.06249036879307847   -0.027730164696680746   -0.009496711101800276
0.11900742516877966   0.022492081026100418   0.013709867444667106
0.11900742516877966   0.022492081026100418   0.013709867444667106
0.11900742516877966   0.022492081026100418   0.013709867444667106
0.11900742516877966   0.022492081026100418   0.013709867444667106
0.030752606099335743   0.0009451441462716838   -0.0021674925645543807
0.030752606099335743   0.0009451441462716838   -0.0021674925645543807
0.030752606099335743   0.0009451441462716838   -0.0021674925645543807
0.030752606099335743   0.0009451441462716838   -0.0021674925645543807
0.11354057049537689   0.009290750335100618   -0.00042307523134882397
0.11354057049537689   0.009290750335100618   -0.00042307523134882397
0.11354057049537689   0.009290750335100618   -0.00042307523134882397
0.11354057049537689   0.009290750335100618   -0.00042307523134882397
-0.05724186693110157   -0.014747186817109688   0.003762820328513161
-0.05724186693110157   -0.014747186817109688   0.003762820328513161
-0.05724186693110157   -0.014747186817109688   0.003762820328513161
-0.05724186693110157   -0.014747186817109688   0.003762820328513161
-0.07057439389108393   -0.034132989335071515   -0.007461556341498331
-0.07057439389108393   -0.034132989335071515   -0.007461556341498331
-0.07057439389108393   -0.034132989335071515   -0.007461556341498331
-0.07057439389108393   -0.034132989335071515   -0.007461556341498331
0.10992614105288856   0.014893593050686112   0.014921845120498446
0.10992614105288856   0.014893593050686112   0.014921845120498446
0.10992614105288856   0.014893593050686112   0.014921845120498446
0.10992614105288856   0.014893593050686112   0.014921845120498446
0.022663207029743986   -0.005480834224615675   -0.005463603113215988
0.022663207029743986   -0.005480834224615675   -0.005463603113215988
0.022663207029743986   -0.005480834224615675   -0.005463603113215988
0.022663207029743986   -0.005480834224615675   -0.005463603113215988
-0.03372407501312149   0.03181322335714767   0.002949763168370603
-0.03372407501312149   0.03181322335714767   0.002949763168370603
-0.03372407501312149   0.03181322335714767   0.002949763168370603
-0.03372407501312149   0.03181322335714767   0.002949763168370603
-0.20904843644738164   -0.005594234019897889   -0.006390417257028824
-0.20904843644738164   -0.005594234019897889   -0.006390417257028824
-0.20904843644738164   -0.005594234019897889   -0.006390417257028824
-0.20904843644738164   -0.005594234019897889   -0.006390417257028824
-0.21715958852918915   -0.012719028322664411   -0.0047235403303719226
-0.21715958852918915   -0.012719028322664411   -0.0047235403303719226
-0.21715958852918915   -0.012719028322664411   -0.0047235403303719226
-0.21715958852918915   -0.012719028322664411   -0.0047235403303719226
-0.042155987580429294   0.023200865952822215   0.004909822277958661
-0.042155987580429294   0.023200865952822215   0.004909822277958661
-0.042155987580429294   0.023200865952822215   0.004909822277958661
-0.042155987580429294   0.023200865952822215   0.004909822277958661
-0.12521149964171083   0.009018263788183744   0.002502916688724547
-0.12521149964171083   0.009018263788183744   0.002502916688724547
-0.12521149964171083   0.009018263788183744   0.002502916688724547
-0.12521149964171083   0.009018263788183744   0.002502916688724547
-0.04191875218359531   0.024277683379599256   0.005019181835352549
-0.04191875218359531   0.024277683379599256   0.005019181835352549
-0.04191875218359531   0.024277683379599256   0.005019181835352549
-0.04191875218359531   0.024277683379599256   0.005019181835352549
-0.21742632493258712   -0.013825346756004926   -0.004950903914019242
-0.21742632493258712   -0.013825346756004926   -0.004950903914019242
-0.21742632493258712   -0.013825346756004926   -0.004950903914019242
-0.21742632493258712   -0.013825346756004926   -0.004950903914019242
-0.22544638208452505   -0.020193518591457165   -0.0027680899500852063
-0.22544638208452505   -0.020193518591457165   -0.0027680899500852063
-0.22544638208452505   -0.020193518591457165   -0.0027680899500852063
-0.22544638208452505   -0.020193518591457165   -0.0027680899500852063
-0.050761110494770244   0.01501513638048671   0.0064042793125724876
-0.050761110494770244   0.01501513638048671   0.0064042793125724876
-0.050761110494770244   0.01501513638048671   0.0064042793125724876
-0.050761110494770244   0.01501513638048671   0.0064042793125724876
-0.1337292772082543   0.001722532682706065   -0.0007128868574938114
-0.1337292772082543   0.001722532682706065   -0.0007128868574938114
-0.1337292772082543   0.001722532682706065   -0.0007128868574938114
-0.1337292772082543   0.001722532682706065   -0.0007128868574938114
-0.050347410670647616   0.01673123053672502   0.0067566842769482376
-0.050347410670647616   0.01673123053672502   0.0067566842769482376
-0.050347410670647616   0.01673123053672502   0.0067566842769482376
-0.050347410670647616   0.01673123053672502   0.0067566842769482376
-0.22600153358995437   -0.022051064429001697   -0.003686301639685398
-0.22600153358995437   -0.022051064429001697   -0.003686301639685398
-0.22600153358995437   -0.022051064429001697   -0.003686301639685398
-0.22600153358995437   -0.022051064429001697   -0.003686301639685398
-0.23358568539427357   -0.027327510567531244   -0.0008607852128267382
-0.23358568539427357   -0.027327510567531244   -0.0008607852128267382
-0.23358568539427357   -0.027327510567531244   -0.0008607852128267382
-0.23358568539427357   -0.027327510567531244   -0.0008607852128267382
-0.05930006311516426   0.007063741456587458   0.007713366746440055
-0.05930006311516426   0.007063741456587458   0.007713366746440055
-0.05930006311516426   0.007063741456587458   0.007713366746440055
-0.05930006311516426   0.007063741456587458   0.007713366746440055
-0.1426048740077011   -0.005578477395881218   -0.004202821259451591
-0.1426048740077011   -0.005578477395881218   -0.004202821259451591
-0.1426048740077011   -0.005578477395881218   -0.004202821259451591
-0.1426048740077011   -0.005578477395881218   -0.004202821259451591
-0.19732270317708905   0.03738031055829594   0.009263704516240166
-0.19732270317708905   0.03738031055829594   0.009263704516240166
-0.19732270317708905   0.03738031055829594   0.009263704516240166
-0.19732270317708905   0.03738031055829594   0.009263704516240166
-0.37531394046198385   -0.013069546935599842   -0.012911284722953761
-0.37531394046198385   -0.013069546935599842   -0.012911284722953761
-0.37531394046198385   -0.013069546935599842   -0.012911284722953761
-0.37531394046198385   -0.013069546935599842   -0.012911284722953761
-0.3783405173719957   -0.00613132496533364   0.002745705828554032
-0.3783405173719957   -0.00613132496533364   0.002745705828554032
-0.3783405173719957   -0.00613132496533364   0.002745705828554032
-0.3783405173719957   -0.00613132496533364   0.002745705828554032
-0.21117401304867006   0.015151662102386821   -0.0026663533528295674
-0.21117401304867006   0.015151662102386821   -0.0026663533528295674
-0.21117401304867006   0.015151662102386821   -0.0026663533528295674
-0.21117401304867006   0.015151662102386821   -0.0026663533528295674
-0.2887874999894353   0.00840570012598419   0.0036143199681501342
-0.2887874999894353   0.00840570012598419   0.0036143199681501342
-0.2887874999894353   0.00840570012598419   0.0036143199681501342
-0.2887874999894353   0.00840570012598419   0.0036143199681501342
-0.20537132546273976   0.0301776013222077   0.01132114535700482
-0.20537132546273976   0.0301776013222077   0.01132114535700482
-0.20537132546273976   0.0301776013222077   0.01132114535700482
-0.20537132546273976   0.0301776013222077   0.01132114535700482
-0.3844066880525921   -0.02142074727981778   -0.012295725259945878
-0.3844066880525921   -0.02142074727981778   -0.012295725259945878
-0.3844066880525921   -0.02142074727981778   -0.012295725259945878
-0.3844066880525921   -0.02142074727981778   -0.012295725259945878
-0.388120356262729   -0.013539275801795952   0.0036415710374618215
-0.388120356262729   -0.013539275801795952   0.0036415710374618215
-0.388120356262729   -0.013539275801795952   0.0036415710374618215
-0.388120356262729   -0.013539275801795952   0.0036415710374618215
-0.21955193085122382   0.007601336142923087   -0.0010906885179610762
-0.21955193085122382   0.007601336142923087   -0.0010906885179610762
-0.21955193085122382   0.007601336142923087   -0.0010906885179610762
-0.21955193085122382   0.007601336142923087   -0.0010906885179610762
-0.2959101981651432   0.0018175117458085373   0.0003978730865736163
-0.2959101981651432   0.0018175117458085373   0.0003978730865736163
-0.2959101981651432   0.0018175117458085373   0.0003978730865736163
-0.2959101981651432   0.0018175117458085373   0.0003978730865736163
-0.21353830730057669   0.023303810715651997   0.013274954662549285
-0.21353830730057669   0.023303810715651997   0.013274954662549285
-0.21353830730057669   0.023303810715651997   0.013274954662549285
-0.21353830730057669   0.023303810715651997   0.013274954662549285
-0.39416226529287585   -0.029270035854024636   -0.010837214061047623
-0.39416226529287585   -0.029270035854024636   -0.010837214061047623
-0.39416226529287585   -0.029270035854024636   -0.010837214061047623
-0.39416226529287585   -0.029270035854024636   -0.010837214061047623
-0.39680891758769493   -0.021458818160660153   0.0056876175860445105
-0.39680891758769493   -0.021458818160660153   0.0056876175860445105
-0.39680891758769493   -0.021458818160660153   0.0056876175860445105
-0.39680891758769493   -0.021458818160660153   0.0056876175860445105
-0.2280801093074766   -0.0008071762074909859   0.00014676086111210795
-0.2280801093074766   -0.0008071762074909859   0.00014676086111210795
-0.2280801093074766   -0.0008071762074909859   0.00014676086111210795
-0.2280801093074766   -0.0008071762074909859   0.00014676086111210795
-0.30673694448888317   -0.00589256400124916   -0.0033604051906854088
-0.30673694448888317   -0.00589256400124916   -0.0033604051906854088
-0.30673694448888317   -0.00589256400124916   -0.0033604051906854088
-0.30673694448888317   -0.00589256400124916   -0.0033604051906854088
-0.36027825012969233   0.03467766311068554   0.014519956892218341
-0.36027825012969233   0.03467766311068554   0.014519956892218341
-0.36027825012969233   0.03467766311068554   0.014519956892218341
-0.36027825012969233   0.03467766311068554   0.014519956892218341
-0.5324623342569017   -0.02464189649373191   -0.016552259811044787
-0.5324623342569017   -0.02464189649373191   -0.016552259811044787
-0.5324623342569017   -0.02464189649373191   -0.016552259811044787
-0.5324623342569017   -0.02464189649373191   -0.016552259811044787
-0.5374194331016265   -0.0011601975339196602   0.014365004719731345
-0.5374194331016265   -0.0011601975339196602   0.014365004719731345
-0.5374194331016265   -0.0011601975339196602   0.014365004719731345
-0.5374194331016265   -0.0011601975339196602   0.014365004719731345
-0.3785507195303972   0.005423417683936151   -0.009860047612729239
-0.3785507195303972   0.005423417683936151   -0.009860047612729239
-0.3785507195303972   0.005423417683936151   -0.009860047612729239
-0.3785507195303972   0.005423417683936151   -0.009860047612729239
-0.43223118256211895   0.00788896258836879   0.011044921287750545
-0.43223118256211895   0.00788896258836879   0.011044921287750545
-0.43223118256211895   0.00788896258836879   0.011044921287750545
-0.43223118256211895   0.00788896258836879   0.011044921287750545
-0.3675637190515916   0.03336468235432688   0.01713369011091387
-0.3675637190515916   0.03336468235432688   0.01713369011091387
-0.3675637190515916   0.03336468235432688   0.01713369011091387
-0.3675637190515916   0.03336468235432688   0.01713369011091387
-0.5486346191458995   -0.02932964776977551   -0.013541475265785294
-0.5486346191458995   -0.02932964776977551   -0.013541475265785294
-0.5486346191458995   -0.02932964776977551   -0.013541475265785294
-0.5486346191458995   -0.02932964776977551   -0.013541475265785294
-0.5512691667857785   -0.0052465638422788535   0.018089938643253728
-0.5512691667857785   -0.0052465638422788535   0.018089938643253728
-0.5512691667857785   -0.0052465638422788535   0.018089938643253728
-0.5512691667857785   -0.0052465638422788535   0.018089938643253728
-0.3875608310598612   0.0012852713795277922   -0.008385350129530678
-0.3875608310598612   0.0012852713795277922   -0.008385350129530678
-0.3875608310598612   0.0012852713795277922   -0.008385350129530678
-0.3875608310598612   0.0012852713795277922   -0.008385350129530678
-0.4510975250835345   0.0032099860014247507   0.005925123448235106
-0.4510975250835345   0.0032099860014247507   0.005925123448235106
-0.4510975250835345   0.0032099860014247507   0.005925123448235106
-0.4510975250835345   0.0032099860014247507   0.005925123448235106
-0.3760646707548631   0.030210410158540556   0.02017031261645083
-0.3760646707548631   0.030210410158540556   0.02017031261645083
-0.3760646707548631   0.030210410158540556   0.02017031261645083
-0.3760646707548631   0.030210410158540556   0.02017031261645083
-0.5629286739414971   -0.034335049472012893   -0.011119111505613469
-0.5629286739414971   -0.034335049472012893   -0.011119111505613469
-0.5629286739414971   -0.034335049472012893   -0.011119111505613469
-0.5629286739414971   -0.034335049472012893   -0.011119111505613469
-0.5697960769844589   -0.01815557070551902   0.018099152869190005
-0.5697960769844589   -0.01815557070551902   0.018099152869190005
-0.5697960769844589   -0.01815557070551902   0.018099152869190005
-0.5697960769844589   -0.01815557070551902   0.018099152869190005
-0.3970046217991276   -0.00933170286691077   -0.0074180187648752866
-0.3970046217991276   -0.00933170286691077   -0.0074180187648752866
-0.3970046217991276   -0.00933170286691077   -0.0074180187648752866
-0.3970046217991276   -0.00933170286691077   -0.0074180187648752866
-0.4561746122955244   -0.0021769552518226577   0.003538293423889019
-0.4561746122955244   -0.0021769552518226577   0.003538293423889019
-0.4561746122955244   -0.0021769552518226577   0.003538293423889019
-0.4561746122955244   -0.0021769552518226577   0.003538293423889019
0.17302358048709193   0.010509738066755741   -0.019965747024279015
0.17302358048709193   0.010509738066755741   -0.019965747024279015
0.17302358048709193   0.010509738066755741   -0.019965747024279015
0.17302358048709193   0.010509738066755741   -0.019965747024279015
0.05141266229838796   0.011823157835064472   0.009459860208104603
0.05141266229838796   0.011823157835064472   0.009459860208104603
0.05141266229838796   0.011823157835064472   0.009459860208104603
0.05141266229838796   0.011823157835064472   0.009459860208104603
0.03288166711057357   -0.024587912278266268   -0.01763611490749326
0.03288166711057357   -0.024587912278266268   -0.01763611490749326
0.03288166711057357   -0.024587912278266268   -0.01763611490749326
0.03288166711057357   -0.024587912278266268   -0.01763611490749326
0.16850648345291716   0.028838175306734395   0.011377814508147746
0.16850648345291716   0.028838175306734395   0.011377814508147746
0.16850648345291716   0.028838175306734395   0.011377814508147746
0.16850648345291716   0.028838175306734395   0.011377814508147746
0.10028533724228084   0.004832904018718737   -0.002285113416854917
0.10028533724228084   0.004832904018718737   -0.002285113416854917
0.10028533724228084   0.004832904018718737   -0.002285113416854917
0.10028533724228084   0.004832904018718737   -0.002285113416854917
0.15680399064485717   5.3733804168499405e-05   -0.018350208029587693
0.15680399064485717   5.3733804168499405e-05   -0.018350208029587693
0.15680399064485717   5.3733804168499405e-05   -0.018350208029587693
0.15680399064485717   5.3733804168499405e-05   -0.018350208029587693
0.04421958569776696   0.003831955003430327   0.010633610746777598
0.04421958569776696   0.003831955003430327   0.010633610746777598
0.04421958569776696   0.003831955003430327   0.010633610746777598
0.04421958569776696   0.003831955003430327   0.010633610746777598
0.025898851704091   -0.02802572760554428   -0.015015408974599565
0.025898851704091   -0.02802572760554428   -0.015015408974599565
0.025898851704091   -0.02802572760554428   -0.015015408974599565
0.025898851704091   -0.02802572760554428   -0.015015408974599565
0.15595153765881598   0.024099357059392684   0.014668198110932552
0.15595153765881598   0.024099357059392684   0.014668198110932552
0.15595153765881598   0.024099357059392684   0.014668198110932552
0.15595153765881598   0.024099357059392684   0.014668198110932552
0.09162821847512846   -0.0005583913731453827   -0.005751029846216886
0.09162821847512846   -0.0005583913731453827   -0.005751029846216886
0.09162821847512846   -0.0005583913731453827   -0.005751029846216886
0.09162821847512846   -0.0005583913731453827   -0.005751029846216886
0.1443013153104235   -0.004365720336404658   -0.015117836235233939
0.1443013153104235   -0.004365720336404658   -0.015117836235233939
0.1443013153104235   -0.004365720336404658   -0.015117836235233939
0.1443013153104235   -0.004365720336404658   -0.015117836235233939
0.03705656561143564   -5.3158650794948945e-05   0.012800591607374727
0.03705656561143564   -5.3158650794948945e-05   0.012800591607374727
0.03705656561143564   -5.3158650794948945e-05   0.012800591607374727
0.03705656561143564   -5.3158650794948945e-05   0.012800591607374727
0.019666009595110737   -0.03207330171396466   -0.012523560123987273
0.019666009595110737   -0.03207330171396466   -0.012523560123987273
0.019666009595110737   -0.03207330171396466   -0.012523560123987273
0.019666009595110737   -0.03207330171396466   -0.012523560123987273
0.14037602036309105   0.016585715171353134   0.016327781386601504
0.14037602036309105   0.016585715171353134   0.016327781386601504
0.14037602036309105   0.016585715171353134   0.016327781386601504
0.14037602036309105   0.016585715171353134   0.016327781386601504
0.07939977617539846   -0.005317283054883469   -0.010035011836397007
0.07939977617539846   -0.005317283054883469   -0.010035011836397007
0.07939977617539846   -0.005317283054883469   -0.010035011836397007
0.07939977617539846   -0.005317283054883469   -0.010035011836397007
0.04972728741800964   0.01850462669302493   -0.005648483051747706
0.04972728741800964   0.01850462669302493   -0.005648483051747706
0.04972728741800964   0.01850462669302493   -0.005648483051747706
0.04972728741800964   0.01850462669302493   -0.005648483051747706
-0.06741887043533124   0.0056757399670211576   0.002223128661536237
-0.06741887043533124   0.0056757399670211576   0.002223128661536237
-0.06741887043533124   0.0056757399670211576   0.002223128661536237
-0.06741887043533124   0.0056757399670211576   0.002223128661536237
-0.07936743789426114   -0.015830057399091838   -0.010338652455190517
-0.07936743789426114   -0.015830057399091838   -0.010338652455190517
-0.07936743789426114   -0.015830057399091838   -0.010338652455190517
-0.07936743789426114   -0.015830057399091838   -0.010338652455190517
0.04811602038535823   0.022926532441398743   0.011021206746765511
0.04811602038535823   0.022926532441398743   0.011021206746765511
0.04811602038535823   0.022926532441398743   0.011021206746765511
0.04811602038535823   0.022926532441398743   0.011021206746765511
-0.012657714621080954   0.00748340396299781   0.0019696326182373023
-0.012657714621080954   0.00748340396299781   0.0019696326182373023
-0.012657714621080954   0.00748340396299781   0.0019696326182373023
-0.012657714621080954   0.00748340396299781   0.0019696326182373023
0.04245194918538646   0.00977252262128069   -0.004145139432975479
0.04245194918538646   0.00977252262128069   -0.004145139432975479
0.04245194918538646   0.00977252262128069   -0.004145139432975479
0.04245194918538646   0.00977252262128069   -0.004145139432975479
-0.07401893732329029   -0.0029916182079721774   0.003565411208544079
-0.07401893732329029   -0.0029916182079721774   0.003565411208544079
-0.07401893732329029   -0.0029916182079721774   0.003565411208544079
-0.07401893732329029   -0.0029916182079721774   0.003565411208544079
-0.0856100124884371   -0.022799047569508332   -0.008128337876159889
-0.0856100124884371   -0.022799047569508332   -0.008128337876159889
-0.0856100124884371   -0.022799047569508332   -0.008128337876159889
-0.0856100124884371   -0.022799047569508332   -0.008128337876159889
0.039926753122928406   0.015074764402433183   0.012023606111610458
0.039926753122928406   0.015074764402433183   0.012023606111610458
0.039926753122928406   0.015074764402433183   0.012023606111610458
0.039926753122928406   0.015074764402433183   0.012023606111610458
-0.020392924365812096   -7.537561621868809e-05   -0.0016571923787554936
-0.020392924365812096   -7.537561621868809e-05   -0.0016571923787554936
-0.020392924365812096   -7.537561621868809e-05   -0.0016571923787554936
-0.020392924365812096   -7.537561621868809e-05   -0.0016571923787554936
0.03442634357879739   0.0022942964815375736   -0.002697973688149497
0.03442634357879739   0.0022942964815375736   -0.002697973688149497
0.03442634357879739   0.0022942964815375736   -0.002697973688149497
0.03442634357879739   0.0022942964815375736   -0.002697973688149497
-0.08051873691031282   -0.010427713614622094   0.00495670605957528
-0.08051873691031282   -0.010427713614622094   0.00495670605957528
-0.08051873691031282   -0.010427713614622094   0.00495670605957528
-0.08051873691031282   -0.010427713614622094   0.00495670605957528
-0.09180216758511417   -0.02966291477998709   -0.006132385394864836
-0.09180216758511417   -0.02966291477998709   -0.006132385394864836
-0.09180216758511417   -0.02966291477998709   -0.006132385394864836
-0.09180216758511417   -0.02966291477998709   -0.006132385394864836
0.03275556635976231   0.007416582081756327   0.013434339903550316
0.03275556635976231   0.007416582081756327   0.013434339903550316
0.03275556635976231   0.007416582081756327   0.013434339903550316
0.03275556635976231   0.007416582081756327   0.013434339903550316
-0.0270453348798789   -0.006785738000478719   -0.005066188097231643
-0.0270453348798789   -0.006785738000478719   -0.005066188097231643
-0.0270453348798789   -0.006785738000478719   -0.005066188097231643
-0.0270453348798789   -0.006785738000478719   -0.005066188097231643
-0.06383338703325184   0.024910097035103936   0.0009161886038504992
-0.06383338703325184   0.024910097035103936   0.0009161886038504992
-0.06383338703325184   0.024910097035103936   0.0009161886038504992
-0.06383338703325184   0.024910097035103936   0.0009161886038504992
-0.18454925668874345   -0.0024660023770332017   -0.005137716768043969
-0.18454925668874345   -0.0024660023770332017   -0.005137716768043969
-0.18454925668874345   -0.0024660023770332017   -0.005137716768043969
-0.18454925668874345   -0.0024660023770332017   -0.005137716768043969
-0.19018987114913127   -0.008008173640822649   -0.003101492121563701
-0.19018987114913127   -0.008008173640822649   -0.003101492121563701
-0.19018987114913127   -0.008008173640822649   -0.003101492121563701
-0.19018987114913127   -0.008008173640822649   -0.003101492121563701
-0.07040889743592306   0.0151116809744946   0.0035123114629124624
-0.07040889743592306   0.0151116809744946   0.0035123114629124624
-0.07040889743592306   0.0151116809744946   0.0035123114629124624
-0.07040889743592306   0.0151116809744946   0.0035123114629124624
-0.12693628150846886   0.007217447174002964   0.002022200816902967
-0.12693628150846886   0.007217447174002964   0.002022200816902967
-0.12693628150846886   0.007217447174002964   0.002022200816902967
-0.12693628150846886   0.007217447174002964   0.002022200816902967
-0.07009200292913143   0.01722782618480275   0.002980638786563461
-0.07009200292913143   0.01722782618480275   0.002980638786563461
-0.07009200292913143   0.01722782618480275   0.002980638786563461
-0.07009200292913143   0.01722782618480275   0.002980638786563461
-0.19078490971021314   -0.010402462905423435   -0.003682395662372308
-0.19078490971021314   -0.010402462905423435   -0.003682395662372308
-0.19078490971021314   -0.010402462905423435   -0.003682395662372308
-0.19078490971021314   -0.010402462905423435   -0.003682395662372308
-0.19640893306819437   -0.01561641170281308   -0.0011056385305023286
-0.19640893306819437   -0.01561641170281308   -0.0011056385305023286
-0.19640893306819437   -0.01561641170281308   -0.0011056385305023286
-0.19640893306819437   -0.01561641170281308   -0.0011056385305023286
-0.07699529724975601   0.0071481065690758025   0.00499808417866043
-0.07699529724975601   0.0071481065690758025   0.00499808417866043
-0.07699529724975601   0.0071481065690758025   0.00499808417866043
-0.07699529724975601   0.0071481065690758025   0.00499808417866043
-0.1334206114059019   -1.9029154576453468e-05   -0.0012226197260200335
-0.1334206114059019   -1.9029154576453468e-05   -0.0012226197260200335
-0.1334206114059019   -1.9029154576453468e-05   -0.0012226197260200335
-0.1334206114059019   -1.9029154576453468e-05   -0.0012226197260200335
-0.07656972441725807   0.009522807262935914   0.004751247647290985
-0.07656972441725807   0.009522807262935914   0.004751247647290985
-0.07656972441725807   0.009522807262935914   0.004751247647290985
-0.07656972441725807   0.009522807262935914   0.004751247647290985
-0.19722917438621246   -0.018385780882190617   -0.0024374759412152044
-0.19722917438621246   -0.018385780882190617   -0.0024374759412152044
-0.19722917438621246   -0.018385780882190617   -0.0024374759412152044
-0.19722917438621246   -0.018385780882190617   -0.0024374759412152044
-0.2025021315505676   -0.022952695051023708   0.0008332526437875576
-0.2025021315505676   -0.022952695051023708   0.0008332526437875576
-0.2025021315505676   -0.022952695051023708   0.0008332526437875576
-0.2025021315505676   -0.022952695051023708   0.0008332526437875576
-0.08347688461257301   -0.0005162537951615151   0.006347368483015356
-0.08347688461257301   -0.0005162537951615151   0.006347368483015356
-0.08347688461257301   -0.0005162537951615151   0.006347368483015356
-0.08347688461257301   -0.0005162537951615151   0.006347368483015356
-0.14024881117618293   -0.007269203361293538   -0.004748697795357113
-0.14024881117618293   -0.007269203361293538   -0.004748697795357113
-0.14024881117618293   -0.007269203361293538   -0.004748697795357113
-0.14024881117618293   -0.007269203361293538   -0.004748697795357113
-0.17527789902808258   0.03105877677284716   0.007694292385379997
-0.17527789902808258   0.03105877677284716   0.007694292385379997
-0.17527789902808258   0.03105877677284716   0.007694292385379997
-0.17527789902808258   0.03105877677284716   0.007694292385379997
-0.299374079142072   -0.009227586384665431   -0.01162009257356185
-0.299374079142072   -0.009227586384665431   -0.01162009257356185
-0.299374079142072   -0.009227586384665431   -0.01162009257356185
-0.299374079142072   -0.009227586384665431   -0.01162009257356185
-0.2999230747136199   -0.0011549166638190854   0.004549814481075373
-0.2999230747136199   -0.0011549166638190854   0.004549814481075373
-0.2999230747136199   -0.0011549166638190854   0.004549814481075373
-0.2999230747136199   -0.0011549166638190854   0.004549814481075373
-0.18712671514894155   0.0078051018526976955   -0.0035989876141374125
-0.18712671514894155   0.0078051018526976955   -0.0035989876141374125
-0.18712671514894155   0.0078051018526976955   -0.0035989876141374125
-0.18712671514894155   0.0078051018526976955   -0.0035989876141374125
-0.23916827991244927   0.007094012599285118   0.002626403399635109
-0.23916827991244927   0.007094012599285118   0.002626403399635109
-0.23916827991244927   0.007094012599285118   0.002626403399635109
-0.23916827991244927   0.007094012599285118   0.002626403399635109
-0.1812923850500635   0.02361400943272335   0.009763755300231138
-0.1812923850500635   0.02361400943272335   0.009763755300231138
-0.1812923850500635   0.02361400943272335   0.009763755300231138
-0.1812923850500635   0.02361400943272335   0.009763755300231138
-0.30628814428186535   -0.017494563713209513   -0.010935886310765044
-0.30628814428186535   -0.017494563713209513   -0.010935886310765044
-0.30628814428186535   -0.017494563713209513   -0.010935886310765044
-0.30628814428186535   -0.017494563713209513   -0.010935886310765044
-0.30758664536756   -0.00866352344807305   0.005619728043409697
-0.30758664536756   -0.00866352344807305   0.005619728043409697
-0.30758664536756   -0.00866352344807305   0.005619728043409697
-0.30758664536756   -0.00866352344807305   0.005619728043409697
-0.1933784525559887   0.0004591366484615108   -0.002028784320750522
-0.1933784525559887   0.0004591366484615108   -0.002028784320750522
-0.1933784525559887   0.0004591366484615108   -0.002028784320750522
-0.1933784525559887   0.0004591366484615108   -0.002028784320750522
-0.24464802473663205   0.00036738084243269006   -0.0007702029614346517
-0.24464802473663205   0.00036738084243269006   -0.0007702029614346517
-0.24464802473663205   0.00036738084243269006   -0.0007702029614346517
-0.24464802473663205   0.00036738084243269006   -0.0007702029614346517
-0.1873900039181276   0.01660531528044852   0.0117672802365699
-0.1873900039181276   0.01660531528044852   0.0117672802365699
-0.1873900039181276   0.01660531528044852   0.0117672802365699
-0.1873900039181276   0.01660531528044852   0.0117672802365699
-0.31390700684892875   -0.025141614923565547   -0.009503987887945778
-0.31390700684892875   -0.025141614923565547   -0.009503987887945778
-0.31390700684892875   -0.025141614923565547   -0.009503987887945778
-0.31390700684892875   -0.025141614923565547   -0.009503987887945778
-0.3141903737856814   -0.016517028117828205   0.007707765787630758
-0.3141903737856814   -0.016517028117828205   0.007707765787630758
-0.3141903737856814   -0.016517028117828205   0.007707765787630758
-0.3141903737856814   -0.016517028117828205   0.007707765787630758
-0.19971236644794904   -0.007428048930852442   -0.0007425679632948878
-0.19971236644794904   -0.007428048930852442   -0.0007425679632948878
-0.19971236644794904   -0.007428048930852442   -0.0007425679632948878
-0.19971236644794904   -0.007428048930852442   -0.0007425679632948878
-0.25288970639689934   -0.007014010974125516   -0.004492260775115914
-0.25288970639689934   -0.007014010974125516   -0.004492260775115914
-0.25288970639689934   -0.007014010974125516   -0.004492260775115914
-0.25288970639689934   -0.007014010974125516   -0.004492260775115914
-0.28635881620146897   0.030612488523768258   0.013616147221023223
-0.28635881620146897   0.030612488523768258   0.013616147221023223
-0.28635881620146897   0.030612488523768258   0.013616147221023223
-0.28635881620146897   0.030612488523768258   0.013616147221023223
-0.4044509620413694   -0.01876970023136369   -0.017416863404552257
-0.4044509620413694   -0.01876970023136369   -0.017416863404552257
-0.4044509620413694   -0.01876970023136369   -0.017416863404552257
-0.4044509620413694   -0.01876970023136369   -0.017416863404552257
-0.4073263250257327   0.004501010806460402   0.014303523495227496
-0.4073263250257327   0.004501010806460402   0.014303523495227496
-0.4073263250257327   0.004501010806460402   0.014303523495227496
-0.4073263250257327   0.004501010806460402   0.014303523495227496
-0.3028499224113115   -0.0006413306006102619   -0.010598010070598712
-0.3028499224113115   -0.0006413306006102619   -0.010598010070598712
-0.3028499224113115   -0.0006413306006102619   -0.010598010070598712
-0.3028499224113115   -0.0006413306006102619   -0.010598010070598712
-0.3351367348093504   0.007181543544304413   0.008236775835437582
-0.3351367348093504   0.007181543544304413   0.008236775835437582
-0.3351367348093504   0.007181543544304413   0.008236775835437582
-0.3351367348093504   0.007181543544304413   0.008236775835437582
-0.2917869122747725   0.02796944221658672   0.01610626779489894
-0.2917869122747725   0.02796944221658672   0.01610626779489894
-0.2917869122747725   0.02796944221658672   0.01610626779489894
-0.2917869122747725   0.02796944221658672   0.01610626779489894
-0.41895694494790575   -0.024677371796370084   -0.014671193512803549
-0.41895694494790575   -0.024677371796370084   -0.014671193512803549
-0.41895694494790575   -0.024677371796370084   -0.014671193512803549
-0.41895694494790575   -0.024677371796370084   -0.014671193512803549
-0.419292566026876   0.00026517436919680157   0.01824589978581377
-0.419292566026876   0.00026517436919680157   0.01824589978581377
-0.419292566026876   0.00026517436919680157   0.01824589978581377
-0.419292566026876   0.00026517436919680157   0.01824589978581377
-0.3097409186414075   -0.004739694444897637   -0.009075467329011204
-0.3097409186414075   -0.004739694444897637   -0.009075467329011204
-0.3097409186414075   -0.004739694444897637   -0.009075467329011204
-0.3097409186414075   -0.004739694444897637   -0.009075467329011204
-0.35055771385841067   0.002190545907006042   0.003132682884025767
-0.35055771385841067   0.002190545907006042   0.003132682884025767
-0.35055771385841067   0.002190545907006042   0.003132682884025767
-0.35055771385841067   0.002190545907006042   0.003132682884025767
-0.29821883093354645   0.024658163986480772   0.01913711277891944
-0.29821883093354645   0.024658163986480772   0.01913711277891944
-0.29821883093354645   0.024658163986480772   0.01913711277891944
-0.29821883093354645   0.024658163986480772   0.01913711277891944
-0.43134648061159   -0.02966451093903325   -0.012093987829522132
-0.43134648061159   -0.02966451093903325   -0.012093987829522132
-0.43134648061159   -0.02966451093903325   -0.012093987829522132
-0.43134648061159   -0.02966451093903325   -0.012093987829522132
-0.4358145013229188   -0.011849925454367728   0.01880074782163116
-0.4358145013229188   -0.011849925454367728   0.01880074782163116
-0.4358145013229188   -0.011849925454367728   0.01880074782163116
-0.4358145013229188   -0.011849925454367728   0.01880074782163116
-0.3168609156629388   -0.014246270875381214   -0.007915700841110915
-0.3168609156629388   -0.014246270875381214   -0.007915700841110915
-0.3168609156629388   -0.014246270875381214   -0.007915700841110915
-0.3168609156629388   -0.014246270875381214   -0.007915700841110915
-0.35539573156205256   -0.0031573814862467173   0.0001382054863145743
-0.35539573156205256   -0.0031573814862467173   0.0001382054863145743
-0.35539573156205256   -0.0031573814862467173   0.0001382054863145743
-0.35539573156205256   -0.0031573814862467173   0.0001382054863145743
0.03697616805456802   0.0030257398105236442   -0.02009073567076426
0.03697616805456802   0.0030257398105236442   -0.02009073567076426
0.03697616805456802   0.0030257398105236442   -0.02009073567076426
0.03697616805456802   0.0030257398105236442   -0.02009073567076426
-0.029292200441277203   0.014923773091290454   0.010189807746016188
-0.029292200441277203   0.014923773091290454   0.010189807746016188
-0.029292200441277203   0.014923773091290454   0.010189807746016188
-0.029292200441277203   0.014923773091290454   0.010189807746016188
-0.0456741254332535   -0.019518682451228824   -0.016225865395482347
-0.0456741254332535   -0.019518682451228824   -0.016225865395482347
-0.0456741254332535   -0.019518682451228824   -0.016225865395482347
-0.0456741254332535   -0.019518682451228824   -0.016225865395482347
0.03449512485767802   0.021798813224626255   0.012464161071979151
0.03449512485767802   0.021798813224626255   0.012464161071979151
0.03449512485767802   0.021798813224626255   0.012464161071979151
0.03449512485767802   0.021798813224626255   0.012464161071979151
-0.001800964396271238   0.004792739128198922   0.0017120253233803456
-0.001800964396271238   0.004792739128198922   0.0017120253233803456
-0.001800964396271238   0.004792739128198922   0.0017120253233803456
-0.001800964396271238   0.004792739128198922   0.0017120253233803456
0.022802626354232483   -0.006181718882299682   -0.01801779933832262
0.022802626354232483   -0.006181718882299682   -0.01801779933832262
0.022802626354232483   -0.006181718882299682   -0.01801779933832262
0.022802626354232483   -0.006181718882299682   -0.01801779933832262
-0.03466061979459761   0.007782856790907464   0.011540123555660826
-0.03466061979459761   0.007782856790907464   0.011540123555660826
-0.03466061979459761   0.007782856790907464   0.011540123555660826
-0.03466061979459761   0.007782856790907464   0.011540123555660826
-0.05110032659531814   -0.02300417495429765   -0.013797597703385017
-0.05110032659531814   -0.02300417495429765   -0.013797597703385017
-0.05110032659531814   -0.02300417495429765   -0.013797597703385017
-0.05110032659531814   -0.02300417495429765   -0.013797597703385017
0.02339246672363778   0.0170841592010964   0.017148588844756205
0.02339246672363778   0.0170841592010964   0.017148588844756205
0.02339246672363778   0.0170841592010964   0.017148588844756205
0.02339246672363778   0.0170841592010964   0.017148588844756205
-0.010465952404585897   -0.00043642938553078054   -0.0022889931376498945
-0.010465952404585897   -0.00043642938553078054   -0.0022889931376498945
-0.010465952404585897   -0.00043642938553078054   -0.0022889931376498945
-0.010465952404585897   -0.00043642938553078054   -0.0022889931376498945
0.011415142400839323   -0.010726946940016802   -0.01492692662812288
0.011415142400839323   -0.010726946940016802   -0.01492692662812288
0.011415142400839323   -0.010726946940016802   -0.01492692662812288
0.011415142400839323   -0.010726946940016802   -0.01492692662812288
-0.04007082501491397   0.0038591084444186312   0.014486626799919093
-0.04007082501491397   0.0038591084444186312   0.014486626799919093
-0.04007082501491397   0.0038591084444186312   0.014486626799919093
-0.04007082501491397   0.0038591084444186312   0.014486626799919093
-0.05606689138102869   -0.02826158027810724   -0.011465784116580594
-0.05606689138102869   -0.02826158027810724   -0.011465784116580594
-0.05606689138102869   -0.02826158027810724   -0.011465784116580594
-0.05606689138102869   -0.02826158027810724   -0.011465784116580594
0.007970223684512332   0.007268783744012075   0.019601016955114507
0.007970223684512332   0.007268783744012075   0.019601016955114507
0.007970223684512332   0.007268783744012075   0.019601016955114507
0.007970223684512332   0.007268783744012075   0.019601016955114507
-0.01998831960325477   -0.005658965416542349   -0.006944054719894355
-0.01998831960325477   -0.005658965416542349   -0.006944054719894355
-0.01998831960325477   -0.005658965416542349   -0.006944054719894355
-0.01998831960325477   -0.005658965416542349   -0.006944054719894355
-0.03381446720326577   0.010377036905502358   -0.007874789878138565
-0.03381446720326577   0.010377036905502358   -0.007874789878138565
-0.03381446720326577   0.010377036905502358   -0.007874789878138565
-0.03381446720326577   0.010377036905502358   -0.007874789878138565
-0.09540022470696509   0.004034309256068944   0.0026120738446795792
-0.09540022470696509   0.004034309256068944   0.0026120738446795792
-0.09540022470696509   0.004034309256068944   0.0026120738446795792
-0.09540022470696509   0.004034309256068944   0.0026120738446795792
-0.10390638253279953   -0.011379264418602356   -0.008485374635082223
-0.10390638253279953   -0.011379264418602356   -0.008485374635082223
-0.10390638253279953   -0.011379264418602356   -0.008485374635082223
-0.10390638253279953   -0.011379264418602356   -0.008485374635082223
-0.0348587692897245   0.010200411260720998   0.00813182161021284
-0.0348587692897245   0.010200411260720998   0.00813182161021284
-0.0348587692897245   0.010200411260720998   0.00813182161021284
-0.0348587692897245   0.010200411260720998   0.00813182161021284
-0.06687860218907277   0.0031001558322772847   0.0016889422027098235
-0.06687860218907277   0.0031001558322772847   0.0016889422027098235
-0.06687860218907277   0.0031001558322772847   0.0016889422027098235
-0.06687860218907277   0.0031001558322772847   0.0016889422027098235
-0.03943846495392572   0.0019151207784785856   -0.006481366228551333
-0.03943846495392572   0.0019151207784785856   -0.006481366228551333
-0.03943846495392572   0.0019151207784785856   -0.006481366228551333
-0.03943846495392572   0.0019151207784785856   -0.006481366228551333
-0.09989259582774863   -0.0036598828955101727   0.0038641773670811223
-0.09989259582774863   -0.0036598828955101727   0.0038641773670811223
-0.09989259582774863   -0.0036598828955101727   0.0038641773670811223
-0.09989259582774863   -0.0036598828955101727   0.0038641773670811223
-0.10814357645362832   -0.018204438885818804   -0.00630208075309276
-0.10814357645362832   -0.018204438885818804   -0.00630208075309276
-0.10814357645362832   -0.018204438885818804   -0.00630208075309276
-0.10814357645362832   -0.018204438885818804   -0.00630208075309276
-0.041375296741452065   0.002652299836282325   0.009171076775364908
-0.041375296741452065   0.002652299836282325   0.009171076775364908
-0.041375296741452065   0.002652299836282325   0.009171076775364908
-0.041375296741452065   0.002652299836282325   0.009171076775364908
-0.07222830514431346   -0.0037813562416975427   -0.001775936929603695
-0.07222830514431346   -0.0037813562416975427   -0.001775936929603695
-0.07222830514431346   -0.0037813562416975427   -0.001775936929603695
-0.07222830514431346   -0.0037813562416975427   -0.001775936929603695
-0.04579869041232056   -0.005444803229564801   -0.004848788513130484
-0.04579869041232056   -0.005444803229564801   -0.004848788513130484
-0.04579869041232056   -0.005444803229564801   -0.004848788513130484
-0.04579869041232056   -0.005444803229564801   -0.004848788513130484
-0.10432950469313138   -0.010716657730343247   0.005280496893916364
-0.10432950469313138   -0.010716657730343247   0.005280496893916364
-0.10432950469313138   -0.010716657730343247   0.005280496893916364
-0.10432950469313138   -0.010716657730343247   0.005280496893916364
-0.1124086280486922   -0.025177365280916512   -0.004371202501359382
-0.1124086280486922   -0.025177365280916512   -0.004371202501359382
-0.1124086280486922   -0.025177365280916512   -0.004371202501359382
-0.1124086280486922   -0.025177365280916512   -0.004371202501359382
-0.04683318837764271   -0.0049343181802062605   0.011375468802448368
-0.04683318837764271   -0.0049343181802062605   0.011375468802448368
-0.04683318837764271   -0.0049343181802062605   0.011375468802448368
-0.04683318837764271   -0.0049343181802062605   0.011375468802448368
-0.07753667550899976   -0.010525981043254584   -0.005283315401521186
-0.07753667550899976   -0.010525981043254584   -0.005283315401521186
-0.07753667550899976   -0.010525981043254584   -0.005283315401521186
-0.07753667550899976   -0.010525981043254584   -0.005283315401521186
-0.09357634951081491   0.016591061857053543   -0.0008253027755541174
-0.09357634951081491   0.016591061857053543   -0.0008253027755541174
-0.09357634951081491   0.016591061857053543   -0.0008253027755541174
-0.09357634951081491   0.016591061857053543   -0.0008253027755541174
-0.16069071393276532   -0.005628022672634174   -0.004615347976352123
-0.16069071393276532   -0.005628022672634174   -0.004615347976352123
-0.16069071393276532   -0.005628022672634174   -0.004615347976352123
-0.16069071393276532   -0.005628022672634174   -0.004615347976352123
-0.1624262041173145   -0.004206483135454683   -0.0010612024054424823
-0.1624262041173145   -0.004206483135454683   -0.0010612024054424823
-0.1624262041173145   -0.004206483135454683   -0.0010612024054424823
-0.1624262041173145   -0.004206483135454683   -0.0010612024054424823
-0.09941781261387121   0.0013137634407278274   0.0012644471002301767
-0.09941781261387121   0.0013137634407278274   0.0012644471002301767
-0.09941781261387121   0.0013137634407278274   0.0012644471002301767
-0.09941781261387121   0.0013137634407278274   0.0012644471002301767
-0.12874993515117525   0.0018789647820734853   0.0006423138780926006
-0.12874993515117525   0.0018789647820734853   0.0006423138780926006
-0.12874993515117525   0.0018789647820734853   0.0006423138780926006
-0.12874993515117525   0.0018789647820734853   0.0006423138780926006
-0.09785424955676611   0.009166127852533509   0.0012298979739500497
-0.09785424955676611   0.009166127852533509   0.0012298979739500497
-0.09785424955676611   0.009166127852533509   0.0012298979739500497
-0.09785424955676611   0.009166127852533509   0.0012298979739500497
-0.16453713701141065   -0.012606217384251347   -0.003216132627126292
-0.16453713701141065   -0.012606217384251347   -0.003216132627126292
-0.16453713701141065   -0.012606217384251347   -0.003216132627126292
-0.16453713701141065   -0.012606217384251347   -0.003216132627126292
-0.16640634183209657   -0.011540580296101308   0.0009656944351154328
-0.16640634183209657   -0.011540580296101308   0.0009656944351154328
-0.16640634183209657   -0.011540580296101308   0.0009656944351154328
-0.16640634183209657   -0.011540580296101308   0.0009656944351154328
-0.10390015072139885   -0.005903361621014391   0.0026139706432501894
-0.10390015072139885   -0.005903361621014391   0.0026139706432501894
-0.10390015072139885   -0.005903361621014391   0.0026139706432501894
-0.10390015072139885   -0.005903361621014391   0.0026139706432501894
-0.13305441512970662   -0.004791801461662705   -0.002538001072944659
-0.13305441512970662   -0.004791801461662705   -0.002538001072944659
-0.13305441512970662   -0.004791801461662705   -0.002538001072944659
-0.13305441512970662   -0.004791801461662705   -0.002538001072944659
-0.1022987624320908   0.0016927556588599802   0.0030247948099161003
-0.1022987624320908   0.0016927556588599802   0.0030247948099161003
-0.1022987624320908   0.0016927556588599802   0.0030247948099161003
-0.1022987624320908   0.0016927556588599802   0.0030247948099161003
-0.16866866799318975   -0.019797635447760795   -0.002088881218690941
-0.16866866799318975   -0.019797635447760795   -0.002088881218690941
-0.16866866799318975   -0.019797635447760795   -0.002088881218690941
-0.16866866799318975   -0.019797635447760795   -0.002088881218690941
-0.17027940162484698   -0.018562816600753363   0.0029170714673454404
-0.17027940162484698   -0.018562816600753363   0.0029170714673454404
-0.17027940162484698   -0.018562816600753363   0.0029170714673454404
-0.17027940162484698   -0.018562816600753363   0.0029170714673454404
-0.10821653019317069   -0.01269541820387128   0.0041073396992028464
-0.10821653019317069   -0.01269541820387128   0.0041073396992028464
-0.10821653019317069   -0.01269541820387128   0.0041073396992028464
-0.10821653019317069   -0.01269541820387128   0.0041073396992028464
-0.13768611929425176   -0.011497112986183925   -0.005995092379971173
-0.13768611929425176   -0.011497112986183925   -0.005995092379971173
-0.13768611929425176   -0.011497112986183925   -0.005995092379971173
-0.13768611929425176   -0.011497112986183925   -0.005995092379971173
-0.15259210450230587   0.023752301965552277   0.006497374537760638
-0.15259210450230587   0.023752301965552277   0.006497374537760638
-0.15259210450230587   0.023752301965552277   0.006497374537760638
-0.15259210450230587   0.023752301965552277   0.006497374537760638
-0.223628279798942   -0.009478553522180994   -0.010305030562930598
-0.223628279798942   -0.009478553522180994   -0.010305030562930598
-0.223628279798942   -0.009478553522180994   -0.010305030562930598
-0.223628279798942   -0.009478553522180994   -0.010305030562930598
-0.22073974952953387   0.0031174485672766598   0.006575780339334376
-0.22073974952953387   0.0031174485672766598   0.006575780339334376
-0.22073974952953387   0.0031174485672766598   0.006575780339334376
-0.22073974952953387   0.0031174485672766598   0.006575780339334376
-0.16287663900374372   -0.0029941095975185   -0.004525750375524627
-0.16287663900374372   -0.0029941095975185   -0.004525750375524627
-0.16287663900374372   -0.0029941095975185   -0.004525750375524627
-0.16287663900374372   -0.0029941095975185   -0.004525750375524627
-0.18926587255732105   0.0036120801189722263   0.0009902570724521428
-0.18926587255732105   0.0036120801189722263   0.0009902570724521428
-0.18926587255732105   0.0036120801189722263   0.0009902570724521428
-0.18926587255732105   0.0036120801189722263   0.0009902570724521428
-0.15638481854735242   0.016384272631357295   0.008554969677556083
-0.15638481854735242   0.016384272631357295   0.008554969677556083
-0.15638481854735242   0.016384272631357295   0.008554969677556083
-0.15638481854735242   0.016384272631357295   0.008554969677556083
-0.22803194159957957   -0.01706130527525417   -0.009706426168367116
-0.22803194159957957   -0.01706130527525417   -0.009706426168367116
-0.22803194159957957   -0.01706130527525417   -0.009706426168367116
-0.22803194159957957   -0.01706130527525417   -0.009706426168367116
-0.2260604552450068   -0.004114368934731539   0.007785690452302346
-0.2260604552450068   -0.004114368934731539   0.007785690452302346
-0.2260604552450068   -0.004114368934731539   0.007785690452302346
-0.2260604552450068   -0.004114368934731539   0.007785690452302346
-0.16682106172611705   -0.00958067603155911   -0.00306780929952917
-0.16682106172611705   -0.00958067603155911   -0.00306780929952917
-0.16682106172611705   -0.00958067603155911   -0.00306780929952917
-0.16682106172611705   -0.00958067603155911   -0.00306780929952917
-0.19287132053026593   -0.002811133740854047   -0.002456144198681412
-0.19287132053026593   -0.002811133740854047   -0.002456144198681412
-0.19287132053026593   -0.002811133740854047   -0.002456144198681412
-0.19287132053026593   -0.002811133740854047   -0.002456144198681412
-0.1602609331953674   0.009599024041056538   0.01055313328160333
-0.1602609331953674   0.009599024041056538   0.01055313328160333
-0.1602609331953674   0.009599024041056538   0.01055313328160333
-0.1602609331953674   0.009599024041056538   0.01055313328160333
-0.2332526509629133   -0.023926136194504063   -0.008363520877457647
-0.2332526509629133   -0.023926136194504063   -0.008363520877457647
-0.2332526509629133   -0.023926136194504063   -0.008363520877457647
-0.2332526509629133   -0.023926136194504063   -0.008363520877457647
-0.23038158649553087   -0.01142447449398281   0.009944524268650425
-0.23038158649553087   -0.01142447449398281   0.009944524268650425
-0.23038158649553087   -0.01142447449398281   0.009944524268650425
-0.23038158649553087   -0.01142447449398281   0.009944524268650425
-0.17078458863814885   -0.01634928495148895   -0.001822395248428449
-0.17078458863814885   -0.01634928495148895   -0.001822395248428449
-0.17078458863814885   -0.01634928495148895   -0.001822395248428449
-0.17078458863814885   -0.01634928495148895   -0.001822395248428449
-0.1983303140605503   -0.009403161322919325   -0.006004069358033617
-0.1983303140605503   -0.009403161322919325   -0.006004069358033617
-0.1983303140605503   -0.009403161322919325   -0.006004069358033617
-0.1983303140605503   -0.009403161322919325   -0.006004069358033617
-0.21193948514946373   0.02579003805032243   0.012870351111957369
-0.21193948514946373   0.02579003805032243   0.012870351111957369
-0.21193948514946373   0.02579003805032243   0.012870351111957369
-0.21193948514946373   0.02579003805032243   0.012870351111957369
-0.27478129011287805   -0.013901528017663789   -0.01703732271758527
-0.27478129011287805   -0.013901528017663789   -0.01703732271758527
-0.27478129011287805   -0.013901528017663789   -0.01703732271758527
-0.27478129011287805   -0.013901528017663789   -0.01703732271758527
-0.27506047885504054   0.009874161229750912   0.014190005524936253
-0.27506047885504054   0.009874161229750912   0.014190005524936253
-0.27506047885504054   0.009874161229750912   0.014190005524936253
-0.27506047885504054   0.009874161229750912   0.014190005524936253
-0.22624129144163174   -0.007402132055704856   -0.010412348598173422
-0.22624129144163174   -0.007402132055704856   -0.010412348598173422
-0.22624129144163174   -0.007402132055704856   -0.010412348598173422
-0.22624129144163174   -0.007402132055704856   -0.010412348598173422
-0.236945509636193   0.005962192552849488   0.0047351816842859384
-0.236945509636193   0.005962192552849488   0.0047351816842859384
-0.236945509636193   0.005962192552849488   0.0047351816842859384
-0.236945509636193   0.005962192552849488   0.0047351816842859384
-0.21523463057205716   0.022037578766796854   0.015181244927197857
-0.21523463057205716   0.022037578766796854   0.015181244927197857
-0.21523463057205716   0.022037578766796854   0.015181244927197857
-0.21523463057205716   0.022037578766796854   0.015181244927197857
-0.2869044113128466   -0.020402821180984146   -0.014752674353354998
-0.2869044113128466   -0.020402821180984146   -0.014752674353354998
-0.2869044113128466   -0.020402821180984146   -0.014752674353354998
-0.2869044113128466   -0.020402821180984146   -0.014752674353354998
-0.28473137016919026   0.005728320703948686   0.018255059943003193
-0.28473137016919026   0.005728320703948686   0.018255059943003193
-0.28473137016919026   0.005728320703948686   0.018255059943003193
-0.28473137016919026   0.005728320703948686   0.018255059943003193
-0.23085280504283978   -0.011193408058021385   -0.009097019413572542
-0.23085280504283978   -0.011193408058021385   -0.009097019413572542
-0.23085280504283978   -0.011193408058021385   -0.009097019413572542
-0.23085280504283978   -0.011193408058021385   -0.009097019413572542
-0.2485233443553965   0.000940247939074065   -9.186304112343557e-05
-0.2485233443553965   0.000940247939074065   -9.186304112343557e-05
-0.2485233443553965   0.000940247939074065   -9.186304112343557e-05
-0.2485233443553965   0.000940247939074065   -9.186304112343557e-05
-0.21940265527176156   0.018779263309663553   0.018181058074133477
-0.21940265527176156   0.018779263309663553   0.018181058074133477
-0.21940265527176156   0.018779263309663553   0.018181058074133477
-0.21940265527176156   0.018779263309663553   0.018181058074133477
-0.29702706812967   -0.025089898853135888   -0.012405210302307144
-0.29702706812967   -0.025089898853135888   -0.012405210302307144
-0.29702706812967   -0.025089898853135888   -0.012405210302307144
-0.29702706812967   -0.025089898853135888   -0.012405210302307144
-0.29894709430926936   -0.005225633450700415   0.019273664928608353
-0.29894709430926936   -0.005225633450700415   0.019273664928608353
-0.29894709430926936   -0.005225633450700415   0.019273664928608353
-0.29894709430926936   -0.005225633450700415   0.019273664928608353
-0.23548800358217062   -0.019155559580105456   -0.007856476078429389
-0.23548800358217062   -0.019155559580105456   -0.007856476078429389
-0.23548800358217062   -0.019155559580105456   -0.007856476078429389
-0.23548800358217062   -0.019155559580105456   -0.007856476078429389
-0.25286635973606486   -0.004067932903641368   -0.0034840890267222938
-0.25286635973606486   -0.004067932903641368   -0.0034840890267222938
-0.25286635973606486   -0.004067932903641368   -0.0034840890267222938
-0.25286635973606486   -0.004067932903641368   -0.0034840890267222938
-0.10658993232646496   -0.00687110149677633   -0.021486833309129965
-0.10658993232646496   -0.00687110149677633   -0.021486833309129965
-0.10658993232646496   -0.00687110149677633   -0.021486833309129965
-0.10658993232646496   -0.00687110149677633   -0.021486833309129965
-0.10914374777057018   0.01621441900308064   0.009606897349925612
-0.10914374777057018   0.01621441900308064   0.009606897349925612
-0.10914374777057018   0.01621441900308064   0.009606897349925612
-0.10914374777057018   0.01621441900308064   0.009606897349925612
-0.12342063200194404   -0.015209684373509422   -0.014662570059077154
-0.12342063200194404   -0.015209684373509422   -0.014662570059077154
-0.12342063200194404   -0.015209684373509422   -0.014662570059077154
-0.12342063200194404   -0.015209684373509422   -0.014662570059077154
-0.10905550663268167   0.009121455659640327   0.014274818848082876
-0.10905550663268167   0.009121455659640327   0.014274818848082876
-0.10905550663268167   0.009121455659640327   0.014274818848082876
-0.10905550663268167   0.009121455659640327   0.014274818848082876
-0.10640977427521693   0.002886043035977167   0.009805021696695636
-0.10640977427521693   0.002886043035977167   0.009805021696695636
-0.10640977427521693   0.002886043035977167   0.009805021696695636
-0.10640977427521693   0.002886043035977167   0.009805021696695636
-0.12041078512177872   -0.015292687144345554   -0.018087430793415474
-0.12041078512177872   -0.015292687144345554   -0.018087430793415474
-0.12041078512177872   -0.015292687144345554   -0.018087430793415474
-0.12041078512177872   -0.015292687144345554   -0.018087430793415474
-0.11343644101404021   0.007833370929282138   0.012215329577650466
-0.11343644101404021   0.007833370929282138   0.012215329577650466
-0.11343644101404021   0.007833370929282138   0.012215329577650466
-0.11343644101404021   0.007833370929282138   0.012215329577650466
-0.12782076063455183   -0.019081145034994862   -0.01246470497751049
-0.12782076063455183   -0.019081145034994862   -0.01246470497751049
-0.12782076063455183   -0.019081145034994862   -0.01246470497751049
-0.12782076063455183   -0.019081145034994862   -0.01246470497751049
-0.12012455484710927   0.0038912241202956714   0.026714623258086767
-0.12012455484710927   0.0038912241202956714   0.026714623258086767
-0.12012455484710927   0.0038912241202956714   0.026714623258086767
-0.12012455484710927   0.0038912241202956714   0.026714623258086767
-0.11650598040688628   -0.00374878612801566   0.00399085713541663
-0.11650598040688628   -0.00374878612801566   0.00399085713541663
-0.11650598040688628   -0.00374878612801566   0.00399085713541663
-0.11650598040688628   -0.00374878612801566   0.00399085713541663
-0.1331815927039768   -0.02049686569547385   -0.014182476210480476
-0.1331815927039768   -0.02049686569547385   -0.014182476210480476
-0.1331815927039768   -0.02049686569547385   -0.014182476210480476
-0.1331815927039768   -0.02049686569547385   -0.014182476210480476
-0.11806584875068324   0.0020048188077758863   0.015223890599061818
-0.11806584875068324   0.0020048188077758863   0.015223890599061818
-0.11806584875068324   0.0020048188077758863   0.015223890599061818
-0.11806584875068324   0.0020048188077758863   0.015223890599061818
-0.13144464045167478   -0.026506650072406324   -0.009861287990798044
-0.13144464045167478   -0.026506650072406324   -0.009861287990798044
-0.13144464045167478   -0.026506650072406324   -0.009861287990798044
-0.13144464045167478   -0.026506650072406324   -0.009861287990798044
-0.13728043620765   -0.013395953188850104   0.02497084970987337
-0.13728043620765   -0.013395953188850104   0.02497084970987337
-0.13728043620765   -0.013395953188850104   0.02497084970987337
-0.13728043620765   -0.013395953188850104   0.02497084970987337
-0.12548086126044775   -0.01157072354541595   -0.00531233327017348
-0.12548086126044775   -0.01157072354541595   -0.00531233327017348
-0.12548086126044775   -0.01157072354541595   -0.00531233327017348
-0.12548086126044775   -0.01157072354541595   -0.00531233327017348
-0.11710461431115171   -0.0030213222530704746   -0.010961694096830897
-0.11710461431115171   -0.0030213222530704746   -0.010961694096830897
-0.11710461431115171   -0.0030213222530704746   -0.010961694096830897
-0.11710461431115171   -0.0030213222530704746   -0.010961694096830897
-0.12141697190397463   -0.015028107839394088   -0.0006551815906804259
-0.12141697190397463   -0.015028107839394088   -0.0006551815906804259
-0.12141697190397463   -0.015028107839394088   -0.0006551815906804259
-0.12141697190397463   -0.015028107839394088   -0.0006551815906804259
-0.12249911635362128   -0.010080141397160423   -0.005630594615297486
-0.12249911635362128   -0.010080141397160423   -0.005630594615297486
-0.12249911635362128   -0.010080141397160423   -0.005630594615297486
-0.12249911635362128   -0.010080141397160423   -0.005630594615297486
-0.12144508871543576   -0.019915236133651232   -7.930186639387715e-05
-0.12144508871543576   -0.019915236133651232   -7.930186639387715e-05
-0.12144508871543576   -0.019915236133651232   -7.930186639387715e-05
-0.12144508871543576   -0.019915236133651232   -7.930186639387715e-05
-0.11960083309000831   -0.012538362264127169   -0.0002580367023755914
-0.11960083309000831   -0.012538362264127169   -0.0002580367023755914
-0.11960083309000831   -0.012538362264127169   -0.0002580367023755914
-0.11960083309000831   -0.012538362264127169   -0.0002580367023755914
-0.12147867986352322   -0.0106520282701468   -0.0095104654703351
-0.12147867986352322   -0.0106520282701468   -0.0095104654703351
-0.12147867986352322   -0.0106520282701468   -0.0095104654703351
-0.12147867986352322   -0.0106520282701468   -0.0095104654703351
-0.12324588053370632   -0.02012370458883598   0.0006791476759529236
-0.12324588053370632   -0.02012370458883598   0.0006791476759529236
-0.12324588053370632   -0.02012370458883598   0.0006791476759529236
-0.12324588053370632   -0.02012370458883598   0.0006791476759529236
-0.12472583693906228   -0.016589710847425637   -0.0036884364455646995
-0.12472583693906228   -0.016589710847425637   -0.0036884364455646995
-0.12472583693906228   -0.016589710847425637   -0.0036884364455646995
-0.12472583693906228   -0.016589710847425637   -0.0036884364455646995
-0.12611504998643588   -0.025941858641033745   0.0029245618691081526
-0.12611504998643588   -0.025941858641033745   0.0029245618691081526
-0.12611504998643588   -0.025941858641033745   0.0029245618691081526
-0.12611504998643588   -0.025941858641033745   0.0029245618691081526
-0.12256657197742991   -0.017827559328351394   -0.0033136634834158435
-0.12256657197742991   -0.017827559328351394   -0.0033136634834158435
-0.12256657197742991   -0.017827559328351394   -0.0033136634834158435
-0.12256657197742991   -0.017827559328351394   -0.0033136634834158435
-0.12645118016241297   -0.017613901444455477   -0.007084046207355532
-0.12645118016241297   -0.017613901444455477   -0.007084046207355532
-0.12645118016241297   -0.017613901444455477   -0.007084046207355532
-0.12645118016241297   -0.017613901444455477   -0.007084046207355532
-0.125385126536147   -0.025913087817067332   0.0023384925386513364
-0.125385126536147   -0.025913087817067332   0.0023384925386513364
-0.125385126536147   -0.025913087817067332   0.0023384925386513364
-0.125385126536147   -0.025913087817067332   0.0023384925386513364
-0.12674924458561712   -0.023546507385409643   -0.0017694210155941165
-0.12674924458561712   -0.023546507385409643   -0.0017694210155941165
-0.12674924458561712   -0.023546507385409643   -0.0017694210155941165
-0.12674924458561712   -0.023546507385409643   -0.0017694210155941165
-0.12971432948385095   -0.03350801159579987   0.005791628371713126
-0.12971432948385095   -0.03350801159579987   0.005791628371713126
-0.12971432948385095   -0.03350801159579987   0.005791628371713126
-0.12971432948385095   -0.03350801159579987   0.005791628371713126
-0.1265513600420369   -0.024134131678297095   -0.007163691157837618
-0.1265513600420369   -0.024134131678297095   -0.007163691157837618
-0.1265513600420369   -0.024134131678297095   -0.007163691157837618
-0.1265513600420369   -0.024134131678297095   -0.007163691157837618
-0.11800078039660916   0.0034271393760139128   -0.0020294712692601954
-0.11800078039660916   0.0034271393760139128   -0.0020294712692601954
-0.11800078039660916   0.0034271393760139128   -0.0020294712692601954
-0.11800078039660916   0.0034271393760139128   -0.0020294712692601954
-0.13580141688639263   -0.025810665274383027   -0.00656989401211603
-0.13580141688639263   -0.025810665274383027   -0.00656989401211603
-0.13580141688639263   -0.025810665274383027   -0.00656989401211603
-0.13580141688639263   -0.025810665274383027   -0.00656989401211603
-0.13043775755137654   -0.004823901458259144   0.0015960675428006409
-0.13043775755137654   -0.004823901458259144   0.0015960675428006409
-0.13043775755137654   -0.004823901458259144   0.0015960675428006409
-0.13043775755137654   -0.004823901458259144   0.0015960675428006409
-0.1256358001885699   -0.027417357922900246   -0.003976797264300662
-0.1256358001885699   -0.027417357922900246   -0.003976797264300662
-0.1256358001885699   -0.027417357922900246   -0.003976797264300662
-0.1256358001885699   -0.027417357922900246   -0.003976797264300662
-0.12737829151136637   -0.0140956069126041   -0.002782370575151811
-0.12737829151136637   -0.0140956069126041   -0.002782370575151811
-0.12737829151136637   -0.0140956069126041   -0.002782370575151811
-0.12737829151136637   -0.0140956069126041   -0.002782370575151811
-0.11997465748592498   -0.00305681940710352   -3.1622266872814025e-05
-0.11997465748592498   -0.00305681940710352   -3.1622266872814025e-05
-0.11997465748592498   -0.00305681940710352   -3.1622266872814025e-05
-0.11997465748592498   -0.00305681940710352   -3.1622266872814025e-05
-0.13681121484307646   -0.029896754563110875   -0.005198365810847219
-0.13681121484307646   -0.029896754563110875   -0.005198365810847219
-0.13681121484307646   -0.029896754563110875   -0.005198365810847219
-0.13681121484307646   -0.029896754563110875   -0.005198365810847219
-0.13208672260300178   -0.011358782687191522   0.0035234371939674505
-0.13208672260300178   -0.011358782687191522   0.0035234371939674505
-0.13208672260300178   -0.011358782687191522   0.0035234371939674505
-0.13208672260300178   -0.011358782687191522   0.0035234371939674505
-0.12772152653021632   -0.03255446220265052   -0.0027021330461119847
-0.12772152653021632   -0.03255446220265052   -0.0027021330461119847
-0.12772152653021632   -0.03255446220265052   -0.0027021330461119847
-0.12772152653021632   -0.03255446220265052   -0.0027021330461119847
-0.12911180386029572   -0.019058683719641874   -0.005403854666644222
-0.12911180386029572   -0.019058683719641874   -0.005403854666644222
-0.12911180386029572   -0.019058683719641874   -0.005403854666644222
-0.12911180386029572   -0.019058683719641874   -0.005403854666644222
-0.12223256281906306   -0.009712494589829172   0.0019007178968328403
-0.12223256281906306   -0.009712494589829172   0.0019007178968328403
-0.12223256281906306   -0.009712494589829172   0.0019007178968328403
-0.12223256281906306   -0.009712494589829172   0.0019007178968328403
-0.13837162075090964   -0.034996684736766245   -0.004263151495997243
-0.13837162075090964   -0.034996684736766245   -0.004263151495997243
-0.13837162075090964   -0.034996684736766245   -0.004263151495997243
-0.13837162075090964   -0.034996684736766245   -0.004263151495997243
-0.13345895075759182   -0.017482137909374904   0.005416161736105866
-0.13345895075759182   -0.017482137909374904   0.005416161736105866
-0.13345895075759182   -0.017482137909374904   0.005416161736105866
-0.13345895075759182   -0.017482137909374904   0.005416161736105866
-0.12932564469938085   -0.03744244619936696   -0.0007554827704553541
-0.12932564469938085   -0.03744244619936696   -0.0007554827704553541
-0.12932564469938085   -0.03744244619936696   -0.0007554827704553541
-0.12932564469938085   -0.03744244619936696   -0.0007554827704553541
-0.1311551518543815   -0.02424140752579145   -0.008281751012850499
-0.1311551518543815   -0.02424140752579145   -0.008281751012850499
-0.1311551518543815   -0.02424140752579145   -0.008281751012850499
-0.1311551518543815   -0.02424140752579145   -0.008281751012850499
-0.12537353117262498   0.013487646810113644   0.006271222472225554
-0.12537353117262498   0.013487646810113644   0.006271222472225554
-0.12537353117262498   0.013487646810113644   0.006271222472225554
-0.12537353117262498   0.013487646810113644   0.006271222472225554
-0.15018435279644743   -0.019527794219952294   -0.009244801040098814
-0.15018435279644743   -0.019527794219952294   -0.009244801040098814
-0.15018435279644743   -0.019527794219952294   -0.009244801040098814
-0.15018435279644743   -0.019527794219952294   -0.009244801040098814
-0.14236015994993012   0.003732496990221122   0.0085908035093522
-0.14236015994993012   0.003732496990221122   0.0085908035093522
-0.14236015994993012   0.003732496990221122   0.0085908035093522
-0.14236015994993012   0.003732496990221122   0.0085908035093522
-0.13515503062887843   -0.021279762997692755   -0.005534436305275135
-0.13515503062887843   -0.021279762997692755   -0.005534436305275135
-0.13515503062887843   -0.021279762997692755   -0.005534436305275135
-0.13515503062887843   -0.021279762997692755   -0.005534436305275135
-0.13822329994576693   -0.005760870121162873   -0.0016591919099369634
-0.13822329994576693   -0.005760870121162873   -0.0016591919099369634
-0.13822329994576693   -0.005760870121162873   -0.0016591919099369634
-0.13822329994576693   -0.005760870121162873   -0.0016591919099369634
-0.12679718237299947   0.006768283499183861   0.008206758477242938
-0.12679718237299947   0.006768283499183861   0.008206758477242938
-0.12679718237299947   0.006768283499183861   0.008206758477242938
-0.12679718237299947   0.006768283499183861   0.008206758477242938
-0.15166890638928593   -0.02526644769013365   -0.008953984007072098
-0.15166890638928593   -0.02526644769013365   -0.008953984007072098
-0.15166890638928593   -0.02526644769013365   -0.008953984007072098
-0.15166890638928593   -0.02526644769013365   -0.008953984007072098
-0.14510654116910895   -0.002672944860098456   0.009756326000758306
-0.14510654116910895   -0.002672944860098456   0.009756326000758306
-0.14510654116910895   -0.002672944860098456   0.009756326000758306
-0.14510654116910895   -0.002672944860098456   0.009756326000758306
-0.136610715792881   -0.026063663628695187   -0.004391647813925009
-0.136610715792881   -0.026063663628695187   -0.004391647813925009
-0.136610715792881   -0.026063663628695187   -0.004391647813925009
-0.136610715792881   -0.026063663628695187   -0.004391647813925009
-0.13966950335991113   -0.011155163585039872   -0.004738908015798765
-0.13966950335991113   -0.011155163585039872   -0.004738908015798765
-0.13966950335991113   -0.011155163585039872   -0.004738908015798765
-0.13966950335991113   -0.011155163585039872   -0.004738908015798765
-0.12835476010398847   0.0007425329609507519   0.010081934040891569
-0.12835476010398847   0.0007425329609507519   0.010081934040891569
-0.12835476010398847   0.0007425329609507519   0.010081934040891569
-0.12835476010398847   0.0007425329609507519   0.010081934040891569
-0.1541854471223896   -0.030302091714133818   -0.008009056911609573
-0.1541854471223896   -0.030302091714133818   -0.008009056911609573
-0.1541854471223896   -0.030302091714133818   -0.008009056911609573
-0.1541854471223896   -0.030302091714133818   -0.008009056911609573
-0.14696421918976751   -0.008838389030117197   0.011911714910048977
-0.14696421918976751   -0.008838389030117197   0.011911714910048977
-0.14696421918976751   -0.008838389030117197   0.011911714910048977
-0.14696421918976751   -0.008838389030117197   0.011911714910048977
-0.13788968527747006   -0.03087685109892158   -0.0033427976737404677
-0.13788968527747006   -0.03087685109892158   -0.0033427976737404677
-0.13788968527747006   -0.03087685109892158   -0.0033427976737404677
-0.13788968527747006   -0.03087685109892158   -0.0033427976737404677
-0.14212691338073982   -0.016271370995403413   -0.007734941977935044
-0.14212691338073982   -0.016271370995403413   -0.007734941977935044
-0.14212691338073982   -0.016271370995403413   -0.007734941977935044
-0.14212691338073982   -0.016271370995403413   -0.007734941977935044
-0.13803911231334054   0.019370911264047865   0.012582695891435465
-0.13803911231334054   0.019370911264047865   0.012582695891435465
-0.13803911231334054   0.019370911264047865   0.012582695891435465
-0.13803911231334054   0.019370911264047865   0.012582695891435465
-0.14994225474065168   -0.012019253006743717   -0.013319215453707942
-0.14994225474065168   -0.012019253006743717   -0.013319215453707942
-0.14994225474065168   -0.012019253006743717   -0.013319215453707942
-0.14994225474065168   -0.012019253006743717   -0.013319215453707942
-0.1468648903985969   0.013355073373226625   0.013997277503449139
-0.1468648903985969   0.013355073373226625   0.013997277503449139
-0.1468648903985969   0.013355073373226625   0.013997277503449139
-0.1468648903985969   0.013355073373226625   0.013997277503449139
-0.1494151143958337   -0.014805064344965702   -0.008146407384978741
-0.1494151143958337   -0.014805064344965702   -0.008146407384978741
-0.1494151143958337   -0.014805064344965702   -0.008146407384978741
-0.1494151143958337   -0.014805064344965702   -0.008146407384978741
-0.1410197452174696   0.003321727383703104   0.0007376665512617425
-0.1410197452174696   0.003321727383703104   0.0007376665512617425
-0.1410197452174696   0.003321727383703104   0.0007376665512617425
-0.1410197452174696   0.003321727383703104   0.0007376665512617425
-0.13890512806681202   0.01505605193493877   0.014542407980224985
-0.13890512806681202   0.01505605193493877   0.014542407980224985
-0.13890512806681202   0.01505605193493877   0.014542407980224985
-0.13890512806681202   0.01505605193493877   0.014542407980224985
-0.15816131311402962   -0.017292479293088255   -0.01183728340739558
-0.15816131311402962   -0.017292479293088255   -0.01183728340739558
-0.15816131311402962   -0.017292479293088255   -0.01183728340739558
-0.15816131311402962   -0.017292479293088255   -0.01183728340739558
-0.15332586780424287   0.009729273947213544   0.017989453374005197
-0.15332586780424287   0.009729273947213544   0.017989453374005197
-0.15332586780424287   0.009729273947213544   0.017989453374005197
-0.15332586780424287   0.009729273947213544   0.017989453374005197
-0.15153085880010722   -0.0176376017192715   -0.007400605295063929
-0.15153085880010722   -0.0176376017192715   -0.007400605295063929
-0.15153085880010722   -0.0176376017192715   -0.007400605295063929
-0.15153085880010722   -0.0176376017192715   -0.007400605295063929
-0.14800712664177182   -0.001053984932054555   -0.0029505376922885317
-0.14800712664177182   -0.001053984932054555   -0.0029505376922885317
-0.14800712664177182   -0.001053984932054555   -0.0029505376922885317
-0.14800712664177182   -0.001053984932054555   -0.0029505376922885317
-0.14061779894490975   0.012148679580506647   0.0173784126811453
-0.14061779894490975   0.012148679580506647   0.0173784126811453
-0.14061779894490975   0.012148679580506647   0.0173784126811453
-0.14061779894490975   0.012148679580506647   0.0173784126811453
-0.16524944579995304   -0.021067525493077967   -0.010831637164250448
-0.16524944579995304   -0.021067525493077967   -0.010831637164250448
-0.16524944579995304   -0.021067525493077967   -0.010831637164250448
-0.16524944579995304   -0.021067525493077967   -0.010831637164250448
-0.16452062490197056   0.0004500239524904692   0.019204062904357867
-0.16452062490197056   0.0004500239524904692   0.019204062904357867
-0.16452062490197056   0.0004500239524904692   0.019204062904357867
-0.16452062490197056   0.0004500239524904692   0.019204062904357867
-0.1534783819840475   -0.023075218791964523   -0.006422269299507344
-0.1534783819840475   -0.023075218791964523   -0.006422269299507344
-0.1534783819840475   -0.023075218791964523   -0.006422269299507344
-0.1534783819840475   -0.023075218791964523   -0.006422269299507344
-0.15130717486316547   -0.005112393549124423   -0.006241161712901955
-0.15130717486316547   -0.005112393549124423   -0.006241161712901955
-0.15130717486316547   -0.005112393549124423   -0.006241161712901955
-0.15130717486316547   -0.005112393549124423   -0.006241161712901955
-0.2831499964273463   -0.02602279609043264   -0.02757292946086467
-0.2831499964273463   -0.02602279609043264   -0.02757292946086467
-0.2831499964273463   -0.02602279609043264   -0.02757292946086467
-0.2831499964273463   -0.02602279609043264   -0.02757292946086467
-0.18147831182678079   0.01478876553005612   0.006441659637965912
-0.18147831182678079   0.01478876553005612   0.006441659637965912
-0.18147831182678079   0.01478876553005612   0.006441659637965912
-0.18147831182678079   0.01478876553005612   0.006441659637965912
-0.19077003618908295   -0.01257152380014234   -0.012475548894421512
-0.19077003618908295   -0.01257152380014234   -0.012475548894421512
-0.19077003618908295   -0.01257152380014234   -0.012475548894421512
-0.19077003618908295   -0.01257152380014234   -0.012475548894421512
-0.3019970298475006   -0.0350215513949211   0.030480182261778538
-0.3019970298475006   -0.0350215513949211   0.030480182261778538
-0.3019970298475006   -0.0350215513949211   0.030480182261778538
-0.3019970298475006   -0.0350215513949211   0.030480182261778538
-0.21980785736107172   -0.008704620368047963   0.029777020651096296
-0.21980785736107172   -0.008704620368047963   0.029777020651096296
-0.21980785736107172   -0.008704620368047963   0.029777020651096296
-0.21980785736107172   -0.008704620368047963   0.029777020651096296
-0.31286559485096743   -0.03856030381977471   -0.020323890330698896
-0.31286559485096743   -0.03856030381977471   -0.020323890330698896
-0.31286559485096743   -0.03856030381977471   -0.020323890330698896
-0.31286559485096743   -0.03856030381977471   -0.020323890330698896
-0.18757232425608977   -0.01670362444576206   0.007645111416162857
-0.18757232425608977   -0.01670362444576206   0.007645111416162857
-0.18757232425608977   -0.01670362444576206   0.007645111416162857
-0.18757232425608977   -0.01670362444576206   0.007645111416162857
-0.194038458217455   -0.018050865432467297   -0.009081921135382344
-0.194038458217455   -0.018050865432467297   -0.009081921135382344
-0.194038458217455   -0.018050865432467297   -0.009081921135382344
-0.194038458217455   -0.018050865432467297   -0.009081921135382344
-0.3120992729990458   -0.048802534539631015   0.0004867160605476345
-0.3120992729990458   -0.048802534539631015   0.0004867160605476345
-0.3120992729990458   -0.048802534539631015   0.0004867160605476345
-0.3120992729990458   -0.048802534539631015   0.0004867160605476345
-0.24405137816570563   -0.029437286756050722   0.006974247685717097
-0.24405137816570563   -0.029437286756050722   0.006974247685717097
-0.24405137816570563   -0.029437286756050722   0.006974247685717097
-0.24405137816570563   -0.029437286756050722   0.006974247685717097
-0.31446252755156806   -0.04362142776712653   -0.016510663474565493
-0.31446252755156806   -0.04362142776712653   -0.016510663474565493
-0.31446252755156806   -0.04362142776712653   -0.016510663474565493
-0.31446252755156806   -0.04362142776712653   -0.016510663474565493
-0.19396516955674856   -0.025521938096787322   -0.0012444051675311665
-0.19396516955674856   -0.025521938096787322   -0.0012444051675311665
-0.19396516955674856   -0.025521938096787322   -0.0012444051675311665
-0.19396516955674856   -0.025521938096787322   -0.0012444051675311665
-0.19448396739196552   -0.03116975911024775   -0.006694648712799324
-0.19448396739196552   -0.03116975911024775   -0.006694648712799324
-0.19448396739196552   -0.03116975911024775   -0.006694648712799324
-0.19448396739196552   -0.03116975911024775   -0.006694648712799324
-0.3201685425460784   -0.0743055317660522   0.004490210831939165
-0.3201685425460784   -0.0743055317660522   0.004490210831939165
-0.3201685425460784   -0.0743055317660522   0.004490210831939165
-0.3201685425460784   -0.0743055317660522   0.004490210831939165
-0.244173612353177   -0.04038471617225006   0.0006383763597150871
-0.244173612353177   -0.04038471617225006   0.0006383763597150871
-0.244173612353177   -0.04038471617225006   0.0006383763597150871
-0.244173612353177   -0.04038471617225006   0.0006383763597150871
-0.19592180596627218   -0.03332953953300224   -0.01765750599643131
-0.19592180596627218   -0.03332953953300224   -0.01765750599643131
-0.19592180596627218   -0.03332953953300224   -0.01765750599643131
-0.19592180596627218   -0.03332953953300224   -0.01765750599643131
-0.13610303311734737   -0.08966204263313061   -0.016728660888357554
-0.13610303311734737   -0.08966204263313061   -0.016728660888357554
-0.13610303311734737   -0.08966204263313061   -0.016728660888357554
-0.13610303311734737   -0.08966204263313061   -0.016728660888357554
-0.1194502386193041   -0.01974130043158133   -0.0012044734521836978
-0.1194502386193041   -0.01974130043158133   -0.0012044734521836978
-0.1194502386193041   -0.01974130043158133   -0.0012044734521836978
-0.1194502386193041   -0.01974130043158133   -0.0012044734521836978
-0.20887315579970514   -0.09463967373753834   -0.02092299701013786
-0.20887315579970514   -0.09463967373753834   -0.02092299701013786
-0.20887315579970514   -0.09463967373753834   -0.02092299701013786
-0.20887315579970514   -0.09463967373753834   -0.02092299701013786
-0.16320839676777346   -0.06288448984675238   -0.0048022635847017325
-0.16320839676777346   -0.06288448984675238   -0.0048022635847017325
-0.16320839676777346   -0.06288448984675238   -0.0048022635847017325
-0.16320839676777346   -0.06288448984675238   -0.0048022635847017325
-0.19592136139537822   -0.037462808367973034   -0.013340890358068111
-0.19592136139537822   -0.037462808367973034   -0.013340890358068111
-0.19592136139537822   -0.037462808367973034   -0.013340890358068111
-0.19592136139537822   -0.037462808367973034   -0.013340890358068111
-0.1331882595301497   -0.07770439230766554   -0.011931486130329343
-0.1331882595301497   -0.07770439230766554   -0.011931486130329343
-0.1331882595301497   -0.07770439230766554   -0.011931486130329343
-0.1331882595301497   -0.07770439230766554   -0.011931486130329343
-0.12110190582802491   -0.025518339037710308   2.9015727314375683e-05
-0.12110190582802491   -0.025518339037710308   2.9015727314375683e-05
-0.12110190582802491   -0.025518339037710308   2.9015727314375683e-05
-0.12110190582802491   -0.025518339037710308   2.9015727314375683e-05
-0.20989832797243582   -0.09412730908733409   -0.012304826255420766
-0.20989832797243582   -0.09412730908733409   -0.012304826255420766
-0.20989832797243582   -0.09412730908733409   -0.012304826255420766
-0.20989832797243582   -0.09412730908733409   -0.012304826255420766
-0.16159508410262347   -0.058938012551118954   -0.0051055133042792605
-0.16159508410262347   -0.058938012551118954   -0.0051055133042792605
-0.16159508410262347   -0.058938012551118954   -0.0051055133042792605
-0.16159508410262347   -0.058938012551118954   -0.0051055133042792605
-0.1992542411237403   -0.04316412455180958   -0.010047576547466623
-0.1992542411237403   -0.04316412455180958   -0.010047576547466623
-0.1992542411237403   -0.04316412455180958   -0.010047576547466623
-0.1992542411237403   -0.04316412455180958   -0.010047576547466623
-0.13340190698067475   -0.0781374378771894   -0.008851891196458468
-0.13340190698067475   -0.0781374378771894   -0.008851891196458468
-0.13340190698067475   -0.0781374378771894   -0.008851891196458468
-0.13340190698067475   -0.0781374378771894   -0.008851891196458468
-0.12139022558878344   -0.03264322753418905   0.0017914447846997458
-0.12139022558878344   -0.03264322753418905   0.0017914447846997458
-0.12139022558878344   -0.03264322753418905   0.0017914447846997458
-0.12139022558878344   -0.03264322753418905   0.0017914447846997458
-0.20968216655757954   -0.09547665558564976   -0.018378748065469845
-0.20968216655757954   -0.09547665558564976   -0.018378748065469845
-0.20968216655757954   -0.09547665558564976   -0.018378748065469845
-0.20968216655757954   -0.09547665558564976   -0.018378748065469845
-0.1643562492107452   -0.06332933754891351   -0.00951665707258103
-0.1643562492107452   -0.06332933754891351   -0.00951665707258103
-0.1643562492107452   -0.06332933754891351   -0.00951665707258103
-0.1643562492107452   -0.06332933754891351   -0.00951665707258103
-0.11944503844135787   -0.021537964009385454   -0.0015627661321552765
-0.11944503844135787   -0.021537964009385454   -0.0015627661321552765
-0.11944503844135787   -0.021537964009385454   -0.0015627661321552765
-0.11944503844135787   -0.021537964009385454   -0.0015627661321552765
-0.10169395717768762   -0.06891461893125439   -0.011892686288237277
-0.10169395717768762   -0.06891461893125439   -0.011892686288237277
-0.10169395717768762   -0.06891461893125439   -0.011892686288237277
-0.10169395717768762   -0.06891461893125439   -0.011892686288237277
-0.08770902303656118   -0.01811927028863696   0.004586863754999424
-0.08770902303656118   -0.01811927028863696   0.004586863754999424
-0.08770902303656118   -0.01811927028863696   0.004586863754999424
-0.08770902303656118   -0.01811927028863696   0.004586863754999424
-0.13277568442273613   -0.07453518356509813   -0.013037819335828892
-0.13277568442273613   -0.07453518356509813   -0.013037819335828892
-0.13277568442273613   -0.07453518356509813   -0.013037819335828892
-0.13277568442273613   -0.07453518356509813   -0.013037819335828892
-0.10993988347104801   -0.04636362831313858   -0.0054594090663718335
-0.10993988347104801   -0.04636362831313858   -0.0054594090663718335
-0.10993988347104801   -0.04636362831313858   -0.0054594090663718335
-0.10993988347104801   -0.04636362831313858   -0.0054594090663718335
-0.12032947475057436   -0.025524270242053858   0.00018231570193575491
-0.12032947475057436   -0.025524270242053858   0.00018231570193575491
-0.12032947475057436   -0.025524270242053858   0.00018231570193575491
-0.12032947475057436   -0.025524270242053858   0.00018231570193575491
-0.10086329923294539   -0.06783825013590492   -0.011465537379653633
-0.10086329923294539   -0.06783825013590492   -0.011465537379653633
-0.10086329923294539   -0.06783825013590492   -0.011465537379653633
-0.10086329923294539   -0.06783825013590492   -0.011465537379653633
-0.0880094779023358   -0.02287849934361029   0.00596563262120103
-0.0880094779023358   -0.02287849934361029   0.00596563262120103
-0.0880094779023358   -0.02287849934361029   0.00596563262120103
-0.0880094779023358   -0.02287849934361029   0.00596563262120103
-0.13346404780732934   -0.07571188990224068   -0.011588143304680332
-0.13346404780732934   -0.07571188990224068   -0.011588143304680332
-0.13346404780732934   -0.07571188990224068   -0.011588143304680332
-0.13346404780732934   -0.07571188990224068   -0.011588143304680332
-0.10997375764384791   -0.04811696161916897   -0.007091370305737532
-0.10997375764384791   -0.04811696161916897   -0.007091370305737532
-0.10997375764384791   -0.04811696161916897   -0.007091370305737532
-0.10997375764384791   -0.04811696161916897   -0.007091370305737532
-0.1216354887616305   -0.03035689636282897   0.0021996583844023157
-0.1216354887616305   -0.03035689636282897   0.0021996583844023157
-0.1216354887616305   -0.03035689636282897   0.0021996583844023157
-0.1216354887616305   -0.03035689636282897   0.0021996583844023157
-0.100231532891784   -0.06862698882677133   -0.009396152842878893
-0.100231532891784   -0.06862698882677133   -0.009396152842878893
-0.100231532891784   -0.06862698882677133   -0.009396152842878893
-0.100231532891784   -0.06862698882677133   -0.009396152842878893
-0.08727820788098216   -0.027386342371381597   0.007477599551065112
-0.08727820788098216   -0.027386342371381597   0.007477599551065112
-0.08727820788098216   -0.027386342371381597   0.007477599551065112
-0.08727820788098216   -0.027386342371381597   0.007477599551065112
-0.13219870820200877   -0.07659202662527541   -0.00830216919034251
-0.13219870820200877   -0.07659202662527541   -0.00830216919034251
-0.13219870820200877   -0.07659202662527541   -0.00830216919034251
-0.13219870820200877   -0.07659202662527541   -0.00830216919034251
-0.1099454578017934   -0.05047258948394033   -0.008265128609029677
-0.1099454578017934   -0.05047258948394033   -0.008265128609029677
-0.1099454578017934   -0.05047258948394033   -0.008265128609029677
-0.1099454578017934   -0.05047258948394033   -0.008265128609029677
-0.08444984043548875   -0.002874396534532286   0.008287675026034894
-0.08444984043548875   -0.002874396534532286   0.008287675026034894
-0.08444984043548875   -0.002874396534532286   0.008287675026034894
-0.08444984043548875   -0.002874396534532286   0.008287675026034894
-0.08136361243259574   -0.036787286108780994   -0.007258278419540687
-0.08136361243259574   -0.036787286108780994   -0.007258278419540687
-0.08136361243259574   -0.036787286108780994   -0.007258278419540687
-0.08136361243259574   -0.036787286108780994   -0.007258278419540687
-0.07041871262953957   -0.005315453093038378   0.009550795218665548
-0.07041871262953957   -0.005315453093038378   0.009550795218665548
-0.07041871262953957   -0.005315453093038378   0.009550795218665548
-0.07041871262953957   -0.005315453093038378   0.009550795218665548
-0.09444341898772413   -0.04212060952121538   -0.005083776768236858
-0.09444341898772413   -0.04212060952121538   -0.005083776768236858
-0.09444341898772413   -0.04212060952121538   -0.005083776768236858
-0.09444341898772413   -0.04212060952121538   -0.005083776768236858
-0.0829326490802613   -0.021548364500575182   -0.0029778115136667588
-0.0829326490802613   -0.021548364500575182   -0.0029778115136667588
-0.0829326490802613   -0.021548364500575182   -0.0029778115136667588
-0.0829326490802613   -0.021548364500575182   -0.0029778115136667588
-0.08472466901661292   -0.00817410891746989   0.009563472483573688
-0.08472466901661292   -0.00817410891746989   0.009563472483573688
-0.08472466901661292   -0.00817410891746989   0.009563472483573688
-0.08472466901661292   -0.00817410891746989   0.009563472483573688
-0.08090690514219027   -0.04003139623832339   -0.008174224199306895
-0.08090690514219027   -0.04003139623832339   -0.008174224199306895
-0.08090690514219027   -0.04003139623832339   -0.008174224199306895
-0.08090690514219027   -0.04003139623832339   -0.008174224199306895
-0.07077705008323816   -0.009961526630779968   0.010285371466008244
-0.07077705008323816   -0.009961526630779968   0.010285371466008244
-0.07077705008323816   -0.009961526630779968   0.010285371466008244
-0.07077705008323816   -0.009961526630779968   0.010285371466008244
-0.09468910614079233   -0.04470663265054151   -0.005604375264150349
-0.09468910614079233   -0.04470663265054151   -0.005604375264150349
-0.09468910614079233   -0.04470663265054151   -0.005604375264150349
-0.09468910614079233   -0.04470663265054151   -0.005604375264150349
-0.08280746345893092   -0.025255046639242818   -0.0050791073919073185
-0.08280746345893092   -0.025255046639242818   -0.0050791073919073185
-0.08280746345893092   -0.025255046639242818   -0.0050791073919073185
-0.08280746345893092   -0.025255046639242818   -0.0050791073919073185
-0.08498897209367039   -0.01268587738490343   0.010875539705823174
-0.08498897209367039   -0.01268587738490343   0.010875539705823174
-0.08498897209367039   -0.01268587738490343   0.010875539705823174
-0.08498897209367039   -0.01268587738490343   0.010875539705823174
-0.08094437855235874   -0.04244947631841701   -0.008063321191957604
-0.08094437855235874   -0.04244947631841701   -0.008063321191957604
-0.08094437855235874   -0.04244947631841701   -0.008063321191957604
-0.08094437855235874   -0.04244947631841701   -0.008063321191957604
-0.07045089699901651   -0.014334249601360377   0.011931421535619685
-0.07045089699901651   -0.014334249601360377   0.011931421535619685
-0.07045089699901651   -0.014334249601360377   0.011931421535619685
-0.07045089699901651   -0.014334249601360377   0.011931421535619685
-0.09350660883370197   -0.04727081443167277   -0.003779933152242801
-0.09350660883370197   -0.04727081443167277   -0.003779933152242801
-0.09350660883370197   -0.04727081443167277   -0.003779933152242801
-0.09350660883370197   -0.04727081443167277   -0.003779933152242801
-0.08285324138980783   -0.02849090987499278   -0.006576385584829144
-0.08285324138980783   -0.02849090987499278   -0.006576385584829144
-0.08285324138980783   -0.02849090987499278   -0.006576385584829144
-0.08285324138980783   -0.02849090987499278   -0.006576385584829144
-0.06802425797567034   0.009632025823545366   0.01301918193275614
-0.06802425797567034   0.009632025823545366   0.01301918193275614
-0.06802425797567034   0.009632025823545366   0.01301918193275614
-0.06802425797567034   0.009632025823545366   0.01301918193275614
-0.04726189936455612   -0.012326214453219096   -0.004565675134814574
-0.04726189936455612   -0.012326214453219096   -0.004565675134814574
-0.04726189936455612   -0.012326214453219096   -0.004565675134814574
-0.04726189936455612   -0.012326214453219096   -0.004565675134814574
-0.04182524767086835   0.010920622697231869   0.012892161101043792
-0.04182524767086835   0.010920622697231869   0.012892161101043792
-0.04182524767086835   0.010920622697231869   0.012892161101043792
-0.04182524767086835   0.010920622697231869   0.012892161101043792
-0.07541587197595559   -0.018365984583330434   -0.002384470023122566
-0.07541587197595559   -0.018365984583330434   -0.002384470023122566
-0.07541587197595559   -0.018365984583330434   -0.002384470023122566
-0.07541587197595559   -0.018365984583330434   -0.002384470023122566
-0.05724911298312002   -0.0012468094405257723   -0.002233328305137717
-0.05724911298312002   -0.0012468094405257723   -0.002233328305137717
-0.05724911298312002   -0.0012468094405257723   -0.002233328305137717
-0.05724911298312002   -0.0012468094405257723   -0.002233328305137717
-0.06720077705518093   0.006110073833037222   0.014214946164383128
-0.06720077705518093   0.006110073833037222   0.014214946164383128
-0.06720077705518093   0.006110073833037222   0.014214946164383128
-0.06720077705518093   0.006110073833037222   0.014214946164383128
-0.05013853539394025   -0.013653628521433023   -0.004100026295650858
-0.05013853539394025   -0.013653628521433023   -0.004100026295650858
-0.05013853539394025   -0.013653628521433023   -0.004100026295650858
-0.05013853539394025   -0.013653628521433023   -0.004100026295650858
-0.04387970900411705   0.00861276661831274   0.01620008659686708
-0.04387970900411705   0.00861276661831274   0.01620008659686708
-0.04387970900411705   0.00861276661831274   0.01620008659686708
-0.04387970900411705   0.00861276661831274   0.01620008659686708
-0.07535554713500962   -0.019592472561188998   -0.0029761678624439375
-0.07535554713500962   -0.019592472561188998   -0.0029761678624439375
-0.07535554713500962   -0.019592472561188998   -0.0029761678624439375
-0.07535554713500962   -0.019592472561188998   -0.0029761678624439375
-0.05924520594419091   -0.003759400213709891   -0.0033118120961237833
-0.05924520594419091   -0.003759400213709891   -0.0033118120961237833
-0.05924520594419091   -0.003759400213709891   -0.0033118120961237833
-0.05924520594419091   -0.003759400213709891   -0.0033118120961237833
-0.06675837062379887   0.004067054501238005   0.01635018763118289
-0.06675837062379887   0.004067054501238005   0.01635018763118289
-0.06675837062379887   0.004067054501238005   0.01635018763118289
-0.06675837062379887   0.004067054501238005   0.01635018763118289
-0.053065798042583816   -0.015635672971372177   -0.005481919005785665
-0.053065798042583816   -0.015635672971372177   -0.005481919005785665
-0.053065798042583816   -0.015635672971372177   -0.005481919005785665
-0.053065798042583816   -0.015635672971372177   -0.005481919005785665
-0.05010396094889001   0.0022565752665474215   0.016862279957887197
-0.05010396094889001   0.0022565752665474215   0.016862279957887197
-0.05010396094889001   0.0022565752665474215   0.016862279957887197
-0.05010396094889001   0.0022565752665474215   0.016862279957887197
-0.07462020912613532   -0.020783997215257435   -0.0024653914860810547
-0.07462020912613532   -0.020783997215257435   -0.0024653914860810547
-0.07462020912613532   -0.020783997215257435   -0.0024653914860810547
-0.07462020912613532   -0.020783997215257435   -0.0024653914860810547
-0.060314952087156336   -0.005629903355326501   -0.0049599045021018005
-0.060314952087156336   -0.005629903355326501   -0.0049599045021018005
-0.060314952087156336   -0.005629903355326501   -0.0049599045021018005
-0.060314952087156336   -0.005629903355326501   -0.0049599045021018005
-0.6791836071307776   -0.097532489626578   -0.0574593208412079
-0.6791836071307776   -0.097532489626578   -0.0574593208412079
-0.6791836071307776   -0.097532489626578   -0.0574593208412079
-0.6791836071307776   -0.097532489626578   -0.0574593208412079
-0.23747617036924926   -0.38749997743160647   -0.044704693757330285
-0.23747617036924926   -0.38749997743160647   -0.044704693757330285
-0.23747617036924926   -0.38749997743160647   -0.044704693757330285
-0.23747617036924926   -0.38749997743160647   -0.044704693757330285
-0.18159162453572364   -0.01702526873634105   5.6190242897928566e-05
-0.18159162453572364   -0.01702526873634105   5.6190242897928566e-05
-0.18159162453572364   -0.01702526873634105   5.6190242897928566e-05
-0.18159162453572364   -0.01702526873634105   5.6190242897928566e-05
-0.7289376289679607   -0.45252914308753667   -0.23629335441109947
-0.7289376289679607   -0.45252914308753667   -0.23629335441109947
-0.7289376289679607   -0.45252914308753667   -0.23629335441109947
-0.7289376289679607   -0.45252914308753667   -0.23629335441109947
-0.4453083174635734   -0.2247084187278766   -0.03279672901909346
-0.4453083174635734   -0.2247084187278766   -0.03279672901909346
-0.4453083174635734   -0.2247084187278766   -0.03279672901909346
-0.4453083174635734   -0.2247084187278766   -0.03279672901909346
-0.6313176728284507   -0.12260521650307028   -0.0781175002980211
-0.6313176728284507   -0.12260521650307028   -0.0781175002980211
-0.6313176728284507   -0.12260521650307028   -0.0781175002980211
-0.6313176728284507   -0.12260521650307028   -0.0781175002980211
-0.2570190827838407   -0.3247566974294152   -0.06934967230461206
-0.2570190827838407   -0.3247566974294152   -0.06934967230461206
-0.2570190827838407   -0.3247566974294152   -0.06934967230461206
-0.2570190827838407   -0.3247566974294152   -0.06934967230461206
-0.18575834236361122   -0.022252046966553564   0.006898223290500306
-0.18575834236361122   -0.022252046966553564   0.006898223290500306
-0.18575834236361122   -0.022252046966553564   0.006898223290500306
-0.18575834236361122   -0.022252046966553564   0.006898223290500306
-0.6824552189244208   -0.4052804474274442   -0.217547133270373
-0.6824552189244208   -0.4052804474274442   -0.217547133270373
-0.6824552189244208   -0.4052804474274442   -0.217547133270373
-0.6824552189244208   -0.4052804474274442   -0.217547133270373
-0.4197045561508292   -0.20315099319283728   0.016582004554968888
-0.4197045561508292   -0.20315099319283728   0.016582004554968888
-0.4197045561508292   -0.20315099319283728   0.016582004554968888
-0.4197045561508292   -0.20315099319283728   0.016582004554968888
-0.5929593912769421   -0.11678465824950457   -0.05856378421092388
-0.5929593912769421   -0.11678465824950457   -0.05856378421092388
-0.5929593912769421   -0.11678465824950457   -0.05856378421092388
-0.5929593912769421   -0.11678465824950457   -0.05856378421092388
-0.2505416162350522   -0.286035282368456   -0.05323491066480066
-0.2505416162350522   -0.286035282368456   -0.05323491066480066
-0.2505416162350522   -0.286035282368456   -0.05323491066480066
-0.2505416162350522   -0.286035282368456   -0.05323491066480066
-0.21464727998724029   -0.05641105140367374   -0.0115586499150067
-0.21464727998724029   -0.05641105140367374   -0.0115586499150067
-0.21464727998724029   -0.05641105140367374   -0.0115586499150067
-0.21464727998724029   -0.05641105140367374   -0.0115586499150067
-0.6222111346307108   -0.3427127228939287   -0.19298477150492788
-0.6222111346307108   -0.3427127228939287   -0.19298477150492788
-0.6222111346307108   -0.3427127228939287   -0.19298477150492788
-0.6222111346307108   -0.3427127228939287   -0.19298477150492788
-0.38908835831340294   -0.17651995921542105   0.07251404771480385
-0.38908835831340294   -0.17651995921542105   0.07251404771480385
-0.38908835831340294   -0.17651995921542105   0.07251404771480385
-0.38908835831340294   -0.17651995921542105   0.07251404771480385
-0.1731825220723681   -0.09656624515614146   -0.014170184548391043
-0.1731825220723681   -0.09656624515614146   -0.014170184548391043
-0.1731825220723681   -0.09656624515614146   -0.014170184548391043
-0.1731825220723681   -0.09656624515614146   -0.014170184548391043
-0.0816624995161889   -0.12696968111397733   -0.020252830998430317
-0.0816624995161889   -0.12696968111397733   -0.020252830998430317
-0.0816624995161889   -0.12696968111397733   -0.020252830998430317
-0.0816624995161889   -0.12696968111397733   -0.020252830998430317
-0.07104261106021703   -0.06254770726841066   0.00170629059601244
-0.07104261106021703   -0.06254770726841066   0.00170629059601244
-0.07104261106021703   -0.06254770726841066   0.00170629059601244
-0.07104261106021703   -0.06254770726841066   0.00170629059601244
-0.21448955760899893   -0.18237614011738257   0.0009173962575645539
-0.21448955760899893   -0.18237614011738257   0.0009173962575645539
-0.21448955760899893   -0.18237614011738257   0.0009173962575645539
-0.21448955760899893   -0.18237614011738257   0.0009173962575645539
-0.11448861496350773   -0.08802365750549179   0.037245937580313304
-0.11448861496350773   -0.08802365750549179   0.037245937580313304
-0.11448861496350773   -0.08802365750549179   0.037245937580313304
-0.11448861496350773   -0.08802365750549179   0.037245937580313304
-0.1980476048242155   -0.09011646677299459   -0.009132513162908758
-0.1980476048242155   -0.09011646677299459   -0.009132513162908758
-0.1980476048242155   -0.09011646677299459   -0.009132513162908758
-0.1980476048242155   -0.09011646677299459   -0.009132513162908758
-0.09371401344076752   -0.16103683020856577   -0.013161598366582886
-0.09371401344076752   -0.16103683020856577   -0.013161598366582886
-0.09371401344076752   -0.16103683020856577   -0.013161598366582886
-0.09371401344076752   -0.16103683020856577   -0.013161598366582886
-0.07719848178933159   -0.06475510939974541   0.0018563259994183665
-0.07719848178933159   -0.06475510939974541   0.0018563259994183665
-0.07719848178933159   -0.06475510939974541   0.0018563259994183665
-0.07719848178933159   -0.06475510939974541   0.0018563259994183665
-0.22566455091698417   -0.1806311999979657   -0.03425366644495084
-0.22566455091698417   -0.1806311999979657   -0.03425366644495084
-0.22566455091698417   -0.1806311999979657   -0.03425366644495084
-0.22566455091698417   -0.1806311999979657   -0.03425366644495084
-0.13741839701849584   -0.1123774340276087   0.01657621659251149
-0.13741839701849584   -0.1123774340276087   0.01657621659251149
-0.13741839701849584   -0.1123774340276087   0.01657621659251149
-0.13741839701849584   -0.1123774340276087   0.01657621659251149
-0.2049399923311636   -0.09410590950896545   -0.017156164004849782
-0.2049399923311636   -0.09410590950896545   -0.017156164004849782
-0.2049399923311636   -0.09410590950896545   -0.017156164004849782
-0.2049399923311636   -0.09410590950896545   -0.017156164004849782
-0.09736603830381649   -0.15072339781741026   -0.013013168155341356
-0.09736603830381649   -0.15072339781741026   -0.013013168155341356
-0.09736603830381649   -0.15072339781741026   -0.013013168155341356
-0.09736603830381649   -0.15072339781741026   -0.013013168155341356
-0.08683963626118422   -0.0666820727173971   0.002751635979398148
-0.08683963626118422   -0.0666820727173971   0.002751635979398148
-0.08683963626118422   -0.0666820727173971   0.002751635979398148
-0.08683963626118422   -0.0666820727173971   0.002751635979398148
-0.24214893281438402   -0.17594053995618686   -0.029537425498213206
-0.24214893281438402   -0.17594053995618686   -0.029537425498213206
-0.24214893281438402   -0.17594053995618686   -0.029537425498213206
-0.24214893281438402   -0.17594053995618686   -0.029537425498213206
-0.14441315635293805   -0.10601740560024894   0.017451874139498613
-0.14441315635293805   -0.10601740560024894   0.017451874139498613
-0.14441315635293805   -0.10601740560024894   0.017451874139498613
-0.14441315635293805   -0.10601740560024894   0.017451874139498613
-0.062956923430878   -0.05793966771784639   0.004245036031993159
-0.062956923430878   -0.05793966771784639   0.004245036031993159
-0.062956923430878   -0.05793966771784639   0.004245036031993159
-0.062956923430878   -0.05793966771784639   0.004245036031993159
-0.039773197904253633   -0.04197232547247155   -0.010006738192373542
-0.039773197904253633   -0.04197232547247155   -0.010006738192373542
-0.039773197904253633   -0.04197232547247155   -0.010006738192373542
-0.039773197904253633   -0.04197232547247155   -0.010006738192373542
-0.03811661251641393   -0.05216110836522316   0.004173484757223702
-0.03811661251641393   -0.05216110836522316   0.004173484757223702
-0.03811661251641393   -0.05216110836522316   0.004173484757223702
-0.03811661251641393   -0.05216110836522316   0.004173484757223702
-0.07088800015672782   -0.05613697270933959   -0.003931389445610493
-0.07088800015672782   -0.05613697270933959   -0.003931389445610493
-0.07088800015672782   -0.05613697270933959   -0.003931389445610493
-0.07088800015672782   -0.05613697270933959   -0.003931389445610493
-0.04454659897539902   -0.043779729806879136   0.01878187718606424
-0.04454659897539902   -0.043779729806879136   0.01878187718606424
-0.04454659897539902   -0.043779729806879136   0.01878187718606424
-0.04454659897539902   -0.043779729806879136   0.01878187718606424
-0.06961743041086182   -0.05836589298390126   0.004650379558281091
-0.06961743041086182   -0.05836589298390126   0.004650379558281091
-0.06961743041086182   -0.05836589298390126   0.004650379558281091
-0.06961743041086182   -0.05836589298390126   0.004650379558281091
-0.04009580909664306   -0.050640814925024945   -0.0072427915841220495
-0.04009580909664306   -0.050640814925024945   -0.0072427915841220495
-0.04009580909664306   -0.050640814925024945   -0.0072427915841220495
-0.04009580909664306   -0.050640814925024945   -0.0072427915841220495
-0.03885147022394365   -0.053719635452877015   0.0037605513587523377
-0.03885147022394365   -0.053719635452877015   0.0037605513587523377
-0.03885147022394365   -0.053719635452877015   0.0037605513587523377
-0.03885147022394365   -0.053719635452877015   0.0037605513587523377
-0.07574316399577671   -0.06521844333056767   0.009596248898014928
-0.07574316399577671   -0.06521844333056767   0.009596248898014928
-0.07574316399577671   -0.06521844333056767   0.009596248898014928
-0.07574316399577671   -0.06521844333056767   0.009596248898014928
-0.048951978701426355   -0.04888513377124172   0.01560419214613188
-0.048951978701426355   -0.04888513377124172   0.01560419214613188
-0.048951978701426355   -0.04888513377124172   0.01560419214613188
-0.048951978701426355   -0.04888513377124172   0.01560419214613188
-0.07547788176160805   -0.06054682057041855   0.006251037308709087
-0.07547788176160805   -0.06054682057041855   0.006251037308709087
-0.07547788176160805   -0.06054682057041855   0.006251037308709087
-0.07547788176160805   -0.06054682057041855   0.006251037308709087
-0.04249910642519861   -0.06177361218011244   -0.006423652920287019
-0.04249910642519861   -0.06177361218011244   -0.006423652920287019
-0.04249910642519861   -0.06177361218011244   -0.006423652920287019
-0.04249910642519861   -0.06177361218011244   -0.006423652920287019
-0.03983945490130485   -0.0553939687739082   0.0053288667657895965
-0.03983945490130485   -0.0553939687739082   0.0053288667657895965
-0.03983945490130485   -0.0553939687739082   0.0053288667657895965
-0.03983945490130485   -0.0553939687739082   0.0053288667657895965
-0.08939822191127687   -0.07954036639592568   0.002817001407463507
-0.08939822191127687   -0.07954036639592568   0.002817001407463507
-0.08939822191127687   -0.07954036639592568   0.002817001407463507
-0.08939822191127687   -0.07954036639592568   0.002817001407463507
-0.05520471466918161   -0.05548372663789026   0.006945689238495808
-0.05520471466918161   -0.05548372663789026   0.006945689238495808
-0.05520471466918161   -0.05548372663789026   0.006945689238495808
-0.05520471466918161   -0.05548372663789026   0.006945689238495808
-0.03176206102498362   -0.023166663330874537   0.011243284062379488
-0.03176206102498362   -0.023166663330874537   0.011243284062379488
-0.03176206102498362   -0.023166663330874537   0.011243284062379488
-0.03176206102498362   -0.023166663330874537   0.011243284062379488
-0.023265126067900686   -0.0021613252309603094   -0.0023103546181602415
-0.023265126067900686   -0.0021613252309603094   -0.0023103546181602415
-0.023265126067900686   -0.0021613252309603094   -0.0023103546181602415
-0.023265126067900686   -0.0021613252309603094   -0.0023103546181602415
-0.022007971201282645   -0.025231982500609228   0.006923910548356288
-0.022007971201282645   -0.025231982500609228   0.006923910548356288
-0.022007971201282645   -0.025231982500609228   0.006923910548356288
-0.022007971201282645   -0.025231982500609228   0.006923910548356288
-0.03007268930293231   -0.006746530135813673   -0.0010214774047777016
-0.03007268930293231   -0.006746530135813673   -0.0010214774047777016
-0.03007268930293231   -0.006746530135813673   -0.0010214774047777016
-0.03007268930293231   -0.006746530135813673   -0.0010214774047777016
-0.024707399006055925   -0.013554826541031592   0.005571652711193519
-0.024707399006055925   -0.013554826541031592   0.005571652711193519
-0.024707399006055925   -0.013554826541031592   0.005571652711193519
-0.024707399006055925   -0.013554826541031592   0.005571652711193519
-0.03167131918198969   -0.026418054661330646   0.010656897725452402
-0.03167131918198969   -0.026418054661330646   0.010656897725452402
-0.03167131918198969   -0.026418054661330646   0.010656897725452402
-0.03167131918198969   -0.026418054661330646   0.010656897725452402
-0.01990280775349935   -0.005053924406365694   -0.0027283303069707723
-0.01990280775349935   -0.005053924406365694   -0.0027283303069707723
-0.01990280775349935   -0.005053924406365694   -0.0027283303069707723
-0.01990280775349935   -0.005053924406365694   -0.0027283303069707723
-0.020446709598531745   -0.02745047860191896   0.006433998436705675
-0.020446709598531745   -0.02745047860191896   0.006433998436705675
-0.020446709598531745   -0.02745047860191896   0.006433998436705675
-0.020446709598531745   -0.02745047860191896   0.006433998436705675
-0.030651653752495442   -0.011445170172163423   0.002485168435279784
-0.030651653752495442   -0.011445170172163423   0.002485168435279784
-0.030651653752495442   -0.011445170172163423   0.002485168435279784
-0.030651653752495442   -0.011445170172163423   0.002485168435279784
-0.02301614689646074   -0.015613050595298503   0.006410018745965435
-0.02301614689646074   -0.015613050595298503   0.006410018745965435
-0.02301614689646074   -0.015613050595298503   0.006410018745965435
-0.02301614689646074   -0.015613050595298503   0.006410018745965435
-0.032141944024776554   -0.02863217982847178   0.012220726730182537
-0.032141944024776554   -0.02863217982847178   0.012220726730182537
-0.032141944024776554   -0.02863217982847178   0.012220726730182537
-0.032141944024776554   -0.02863217982847178   0.012220726730182537
-0.019203838905880583   -0.010510888525239282   -0.004291238176714358
-0.019203838905880583   -0.010510888525239282   -0.004291238176714358
-0.019203838905880583   -0.010510888525239282   -0.004291238176714358
-0.019203838905880583   -0.010510888525239282   -0.004291238176714358
-0.017591626975798115   -0.02990875682524568   0.007115373021988759
-0.017591626975798115   -0.02990875682524568   0.007115373021988759
-0.017591626975798115   -0.02990875682524568   0.007115373021988759
-0.017591626975798115   -0.02990875682524568   0.007115373021988759
-0.03367936056811068   -0.022466374191084014   0.003201743848936246
-0.03367936056811068   -0.022466374191084014   0.003201743848936246
-0.03367936056811068   -0.022466374191084014   0.003201743848936246
-0.03367936056811068   -0.022466374191084014   0.003201743848936246
-0.022577260035487746   -0.01956385545787946   0.005262279902311063
-0.022577260035487746   -0.01956385545787946   0.005262279902311063
-0.022577260035487746   -0.01956385545787946   0.005262279902311063
-0.022577260035487746   -0.01956385545787946   0.005262279902311063
-0.020853321849143285   -0.0038449130618662987   0.011432254306532745
-0.020853321849143285   -0.0038449130618662987   0.011432254306532745
-0.020853321849143285   -0.0038449130618662987   0.011432254306532745
-0.020853321849143285   -0.0038449130618662987   0.011432254306532745
-0.0043855641686712694   0.002043831975959035   -0.00023151095569812018
-0.0043855641686712694   0.002043831975959035   -0.00023151095569812018
-0.0043855641686712694   0.002043831975959035   -0.00023151095569812018
-0.0043855641686712694   0.002043831975959035   -0.00023151095569812018
0.00035417989389953234   -0.0013026286283654457   0.0071622578818472385
0.00035417989389953234   -0.0013026286283654457   0.0071622578818472385
0.00035417989389953234   -0.0013026286283654457   0.0071622578818472385
0.00035417989389953234   -0.0013026286283654457   0.0071622578818472385
-0.018213971987980207   0.001274819058536098   -0.0006128949442768651
-0.018213971987980207   0.001274819058536098   -0.0006128949442768651
-0.018213971987980207   0.001274819058536098   -0.0006128949442768651
-0.018213971987980207   0.001274819058536098   -0.0006128949442768651
-0.010914283926013029   -0.0009013913374593866   -0.0008065172395254243
-0.010914283926013029   -0.0009013913374593866   -0.0008065172395254243
-0.010914283926013029   -0.0009013913374593866   -0.0008065172395254243
-0.010914283926013029   -0.0009013913374593866   -0.0008065172395254243
-0.01671608537501332   -0.0037657181855829122   0.011917075364676594
-0.01671608537501332   -0.0037657181855829122   0.011917075364676594
-0.01671608537501332   -0.0037657181855829122   0.011917075364676594
-0.01671608537501332   -0.0037657181855829122   0.011917075364676594
-0.0005386670589030277   0.0043429482759172544   -0.0029475537864482623
-0.0005386670589030277   0.0043429482759172544   -0.0029475537864482623
-0.0005386670589030277   0.0043429482759172544   -0.0029475537864482623
-0.0005386670589030277   0.0043429482759172544   -0.0029475537864482623
0.002570799981498415   -0.0016431836131811485   0.008843929761087253
0.002570799981498415   -0.0016431836131811485   0.008843929761087253
0.002570799981498415   -0.0016431836131811485   0.008843929761087253
0.002570799981498415   -0.0016431836131811485   0.008843929761087253
-0.016292906074494205   0.0006234187873957118   -0.0008708813324174616
-0.016292906074494205   0.0006234187873957118   -0.0008708813324174616
-0.016292906074494205   0.0006234187873957118   -0.0008708813324174616
-0.016292906074494205   0.0006234187873957118   -0.0008708813324174616
-0.0075914467289737   -0.00038717470345443804   0.0010499649149795834
-0.0075914467289737   -0.00038717470345443804   0.0010499649149795834
-0.0075914467289737   -0.00038717470345443804   0.0010499649149795834
-0.0075914467289737   -0.00038717470345443804   0.0010499649149795834
-0.01452342612262782   -0.004259022786134843   0.012858960000445011
-0.01452342612262782   -0.004259022786134843   0.012858960000445011
-0.01452342612262782   -0.004259022786134843   0.012858960000445011
-0.01452342612262782   -0.004259022786134843   0.012858960000445011
0.0013136390360394435   0.0037515769667568182   -0.0028366355461455733
0.0013136390360394435   0.0037515769667568182   -0.0028366355461455733
0.0013136390360394435   0.0037515769667568182   -0.0028366355461455733
0.0013136390360394435   0.0037515769667568182   -0.0028366355461455733
0.004672556071111621   -0.0027018631211940284   0.008652513786989051
0.004672556071111621   -0.0027018631211940284   0.008652513786989051
0.004672556071111621   -0.0027018631211940284   0.008652513786989051
0.004672556071111621   -0.0027018631211940284   0.008652513786989051
-0.013193848775019005   0.00015214137177735722   -0.0009566341711387148
-0.013193848775019005   0.00015214137177735722   -0.0009566341711387148
-0.013193848775019005   0.00015214137177735722   -0.0009566341711387148
-0.013193848775019005   0.00015214137177735722   -0.0009566341711387148
-0.004688046527417449   -0.00017882723329936388   0.0025944886608551773
-0.004688046527417449   -0.00017882723329936388   0.0025944886608551773
-0.004688046527417449   -0.00017882723329936388   0.0025944886608551773
-0.004688046527417449   -0.00017882723329936388   0.0025944886608551773
              </DataArray>   
             <DataArray type="Float64" NumberOfComponents="3" Name="Displacements" format="ascii">   
0.0   0.0   0.0
-0.0019022974232711445   -0.001256307022992402   -0.0006377611466564352
0.0   0.0   0.0
0.0   0.0   0.0
-0.0019022974232711445   -0.001256307022992402   -0.0006377611466564352
-0.0012096945796596496   -0.0011304872240839399   -0.0004686622499326328
0.0   0.0   0.0
-0.0011852386401799957   -0.0011867366777908392   -0.00039281051594792246
0.0   0.0   0.0
0.0   0.0   0.0
-0.0011852386401799957   -0.0011867366777908392   -0.00039281051594792246
0.0   0.0   0.0
0.0   0.0   0.0
-0.0011852386401799957   -0.0011867366777908392   -0.00039281051594792246
-0.001990186290830205   -0.0013380241105900058   -0.000512291707012044
-0.0019022974232711445   -0.001256307022992402   -0.0006377611466564352
0.0   0.0   0.0
-0.0011852386401799957   -0.0011867366777908392   -0.00039281051594792246
-0.0019022974232711445   -0.001256307022992402   -0.0006377611466564352
0.0   0.0   0.0
0.0   0.0   0.0
-0.001990186290830205   -0.0013380241105900058   -0.000512291707012044
0.0   0.0   0.0
0.0   0.0   0.0
-0.001990186290830205   -0.0013380241105900058   -0.000512291707012044
-0.0011852386401799957   -0.0011867366777908392   -0.00039281051594792246
0.0   0.0   0.0
-0.0011880058530794458   -0.0012156289544590034   -0.00031713364311298446
0.0   0.0   0.0
0.0   0.0   0.0
-0.0011880058530794458   -0.0012156289544590034   -0.00031713364311298446
0.0   0.0   0.0
0.0   0.0   0.0
-0.0011880058530794458   -0.0012156289544590034   -0.00031713364311298446
-0.0020516456405147844   -0.001377791600892367   -0.00039219698028852975
-0.001990186290830205   -0.0013380241105900058   -0.000512291707012044
0.0   0.0   0.0
-0.0011880058530794458   -0.0012156289544590034   -0.00031713364311298446
-0.001990186290830205   -0.0013380241105900058   -0.000512291707012044
0.0   0.0   0.0
0.0   0.0   0.0
-0.0020516456405147844   -0.001377791600892367   -0.00039219698028852975
0.0   0.0   0.0
0.0   0.0   0.0
-0.0020516456405147844   -0.001377791600892367   -0.00039219698028852975
-0.0011880058530794458   -0.0012156289544590034   -0.00031713364311298446
0.0   0.0   0.0
-0.0011867328085003184   -0.0012231438470450642   -0.0002389645526020728
0.0   0.0   0.0
0.0   0.0   0.0
-0.0011867328085003184   -0.0012231438470450642   -0.0002389645526020728
0.0   0.0   0.0
0.0   0.0   0.0
-0.0011867328085003184   -0.0012231438470450642   -0.0002389645526020728
-0.002184617003003275   -0.0014081331631704062   -0.0002529510186801081
-0.0020516456405147844   -0.001377791600892367   -0.00039219698028852975
0.0   0.0   0.0
-0.0011867328085003184   -0.0012231438470450642   -0.0002389645526020728
-0.0020516456405147844   -0.001377791600892367   -0.00039219698028852975
0.0   0.0   0.0
0.0   0.0   0.0
-0.0012096945796596496   -0.0011304872240839399   -0.0004686622499326328
0.0   0.0   0.0
0.0   0.0   0.0
-0.0012096945796596496   -0.0011304872240839399   -0.0004686622499326328
-0.0005515668263307901   -0.001084461681768612   -0.00035672095788136964
0.0   0.0   0.0
-0.0005299283929431973   -0.0011210053147438814   -0.0003208428072940101
0.0   0.0   0.0
0.0   0.0   0.0
-0.0005299283929431973   -0.0011210053147438814   -0.0003208428072940101
0.0   0.0   0.0
0.0   0.0   0.0
-0.0005299283929431973   -0.0011210053147438814   -0.0003208428072940101
-0.0011852386401799957   -0.0011867366777908392   -0.00039281051594792246
-0.0012096945796596496   -0.0011304872240839399   -0.0004686622499326328
0.0   0.0   0.0
-0.0005299283929431973   -0.0011210053147438814   -0.0003208428072940101
-0.0012096945796596496   -0.0011304872240839399   -0.0004686622499326328
0.0   0.0   0.0
0.0   0.0   0.0
-0.0011852386401799957   -0.0011867366777908392   -0.00039281051594792246
0.0   0.0   0.0
0.0   0.0   0.0
-0.0011852386401799957   -0.0011867366777908392   -0.00039281051594792246
-0.0005299283929431973   -0.0011210053147438814   -0.0003208428072940101
0.0   0.0   0.0
-0.0005175403858094649   -0.0011349579683848415   -0.000285966215938689
0.0   0.0   0.0
0.0   0.0   0.0
-0.0005175403858094649   -0.0011349579683848415   -0.000285966215938689
0.0   0.0   0.0
0.0   0.0   0.0
-0.0005175403858094649   -0.0011349579683848415   -0.000285966215938689
-0.0011880058530794458   -0.0012156289544590034   -0.00031713364311298446
-0.0011852386401799957   -0.0011867366777908392   -0.00039281051594792246
0.0   0.0   0.0
-0.0005175403858094649   -0.0011349579683848415   -0.000285966215938689
-0.0011852386401799957   -0.0011867366777908392   -0.00039281051594792246
0.0   0.0   0.0
0.0   0.0   0.0
-0.0011880058530794458   -0.0012156289544590034   -0.00031713364311298446
0.0   0.0   0.0
0.0   0.0   0.0
-0.0011880058530794458   -0.0012156289544590034   -0.00031713364311298446
-0.0005175403858094649   -0.0011349579683848415   -0.000285966215938689
0.0   0.0   0.0
-0.0005061650871285598   -0.0011291918533922257   -0.00024997754788983953
0.0   0.0   0.0
0.0   0.0   0.0
-0.0005061650871285598   -0.0011291918533922257   -0.00024997754788983953
0.0   0.0   0.0
0.0   0.0   0.0
-0.0005061650871285598   -0.0011291918533922257   -0.00024997754788983953
-0.0011867328085003184   -0.0012231438470450642   -0.0002389645526020728
-0.0011880058530794458   -0.0012156289544590034   -0.00031713364311298446
0.0   0.0   0.0
-0.0005061650871285598   -0.0011291918533922257   -0.00024997754788983953
-0.0011880058530794458   -0.0012156289544590034   -0.00031713364311298446
0.0   0.0   0.0
0.0   0.0   0.0
-0.0005515668263307901   -0.001084461681768612   -0.00035672095788136964
0.0   0.0   0.0
0.0   0.0   0.0
-0.0005515668263307901   -0.001084461681768612   -0.00035672095788136964
6.974853738963312e-05   -0.0010904487079500195   -0.0002855587980128573
0.0   0.0   0.0
8.382702981743617e-05   -0.0011093123666597274   -0.00029035725482744564
0.0   0.0   0.0
0.0   0.0   0.0
8.382702981743617e-05   -0.0011093123666597274   -0.00029035725482744564
0.0   0.0   0.0
0.0   0.0   0.0
8.382702981743617e-05   -0.0011093123666597274   -0.00029035725482744564
-0.0005299283929431973   -0.0011210053147438814   -0.0003208428072940101
-0.0005515668263307901   -0.001084461681768612   -0.00035672095788136964
0.0   0.0   0.0
8.382702981743617e-05   -0.0011093123666597274   -0.00029035725482744564
-0.0005515668263307901   -0.001084461681768612   -0.00035672095788136964
0.0   0.0   0.0
0.0   0.0   0.0
-0.0005299283929431973   -0.0011210053147438814   -0.0003208428072940101
0.0   0.0   0.0
0.0   0.0   0.0
-0.0005299283929431973   -0.0011210053147438814   -0.0003208428072940101
8.382702981743617e-05   -0.0011093123666597274   -0.00029035725482744564
0.0   0.0   0.0
9.501471758188636e-05   -0.0011076811434491223   -0.00029474739030487164
0.0   0.0   0.0
0.0   0.0   0.0
9.501471758188636e-05   -0.0011076811434491223   -0.00029474739030487164
0.0   0.0   0.0
0.0   0.0   0.0
9.501471758188636e-05   -0.0011076811434491223   -0.00029474739030487164
-0.0005175403858094649   -0.0011349579683848415   -0.000285966215938689
-0.0005299283929431973   -0.0011210053147438814   -0.0003208428072940101
0.0   0.0   0.0
9.501471758188636e-05   -0.0011076811434491223   -0.00029474739030487164
-0.0005299283929431973   -0.0011210053147438814   -0.0003208428072940101
0.0   0.0   0.0
0.0   0.0   0.0
-0.0005175403858094649   -0.0011349579683848415   -0.000285966215938689
0.0   0.0   0.0
0.0   0.0   0.0
-0.0005175403858094649   -0.0011349579683848415   -0.000285966215938689
9.501471758188636e-05   -0.0011076811434491223   -0.00029474739030487164
0.0   0.0   0.0
0.00010987680740283948   -0.001083885453002505   -0.0002993268336104605
0.0   0.0   0.0
0.0   0.0   0.0
0.00010987680740283948   -0.001083885453002505   -0.0002993268336104605
0.0   0.0   0.0
0.0   0.0   0.0
0.00010987680740283948   -0.001083885453002505   -0.0002993268336104605
-0.0005061650871285598   -0.0011291918533922257   -0.00024997754788983953
-0.0005175403858094649   -0.0011349579683848415   -0.000285966215938689
0.0   0.0   0.0
0.00010987680740283948   -0.001083885453002505   -0.0002993268336104605
-0.0005175403858094649   -0.0011349579683848415   -0.000285966215938689
0.0   0.0   0.0
0.0   0.0   0.0
6.974853738963312e-05   -0.0010904487079500195   -0.0002855587980128573
0.0   0.0   0.0
0.0   0.0   0.0
6.974853738963312e-05   -0.0010904487079500195   -0.0002855587980128573
0.000744666474096138   -0.0011428555897184522   -0.0002505898161959498
0.0   0.0   0.0
0.0007467020103062141   -0.0011487229123625046   -0.00029819441021511925
0.0   0.0   0.0
0.0   0.0   0.0
0.0007467020103062141   -0.0011487229123625046   -0.00029819441021511925
0.0   0.0   0.0
0.0   0.0   0.0
0.0007467020103062141   -0.0011487229123625046   -0.00029819441021511925
8.382702981743617e-05   -0.0011093123666597274   -0.00029035725482744564
6.974853738963312e-05   -0.0010904487079500195   -0.0002855587980128573
0.0   0.0   0.0
0.0007467020103062141   -0.0011487229123625046   -0.00029819441021511925
6.974853738963312e-05   -0.0010904487079500195   -0.0002855587980128573
0.0   0.0   0.0
0.0   0.0   0.0
8.382702981743617e-05   -0.0011093123666597274   -0.00029035725482744564
0.0   0.0   0.0
0.0   0.0   0.0
8.382702981743617e-05   -0.0011093123666597274   -0.00029035725482744564
0.0007467020103062141   -0.0011487229123625046   -0.00029819441021511925
0.0   0.0   0.0
0.0007441170596651198   -0.0011323246794175369   -0.0003439440503770084
0.0   0.0   0.0
0.0   0.0   0.0
0.0007441170596651198   -0.0011323246794175369   -0.0003439440503770084
0.0   0.0   0.0
0.0   0.0   0.0
0.0007441170596651198   -0.0011323246794175369   -0.0003439440503770084
9.501471758188636e-05   -0.0011076811434491223   -0.00029474739030487164
8.382702981743617e-05   -0.0011093123666597274   -0.00029035725482744564
0.0   0.0   0.0
0.0007441170596651198   -0.0011323246794175369   -0.0003439440503770084
8.382702981743617e-05   -0.0011093123666597274   -0.00029035725482744564
0.0   0.0   0.0
0.0   0.0   0.0
9.501471758188636e-05   -0.0011076811434491223   -0.00029474739030487164
0.0   0.0   0.0
0.0   0.0   0.0
9.501471758188636e-05   -0.0011076811434491223   -0.00029474739030487164
0.0007441170596651198   -0.0011323246794175369   -0.0003439440503770084
0.0   0.0   0.0
0.0007591174428375265   -0.0010887078406398329   -0.0003888871772043263
0.0   0.0   0.0
0.0   0.0   0.0
0.0007591174428375265   -0.0010887078406398329   -0.0003888871772043263
0.0   0.0   0.0
0.0   0.0   0.0
0.0007591174428375265   -0.0010887078406398329   -0.0003888871772043263
0.00010987680740283948   -0.001083885453002505   -0.0002993268336104605
9.501471758188636e-05   -0.0011076811434491223   -0.00029474739030487164
0.0   0.0   0.0
0.0007591174428375265   -0.0010887078406398329   -0.0003888871772043263
9.501471758188636e-05   -0.0011076811434491223   -0.00029474739030487164
0.0   0.0   0.0
0.0   0.0   0.0
0.000744666474096138   -0.0011428555897184522   -0.0002505898161959498
0.0   0.0   0.0
0.0   0.0   0.0
0.000744666474096138   -0.0011428555897184522   -0.0002505898161959498
0.0016849523177904844   -0.0012759939422863794   -0.00023701167533658082
0.0   0.0   0.0
0.0015833661906233558   -0.0012617770206527522   -0.00034517073855398956
0.0   0.0   0.0
0.0   0.0   0.0
0.0015833661906233558   -0.0012617770206527522   -0.00034517073855398956
0.0   0.0   0.0
0.0   0.0   0.0
0.0015833661906233558   -0.0012617770206527522   -0.00034517073855398956
0.0007467020103062141   -0.0011487229123625046   -0.00029819441021511925
0.000744666474096138   -0.0011428555897184522   -0.0002505898161959498
0.0   0.0   0.0
0.0015833661906233558   -0.0012617770206527522   -0.00034517073855398956
0.000744666474096138   -0.0011428555897184522   -0.0002505898161959498
0.0   0.0   0.0
0.0   0.0   0.0
0.0007467020103062141   -0.0011487229123625046   -0.00029819441021511925
0.0   0.0   0.0
0.0   0.0   0.0
0.0007467020103062141   -0.0011487229123625046   -0.00029819441021511925
0.0015833661906233558   -0.0012617770206527522   -0.00034517073855398956
0.0   0.0   0.0
0.0015367976811275492   -0.0012355507063029725   -0.0004366977314827233
0.0   0.0   0.0
0.0   0.0   0.0
0.0015367976811275492   -0.0012355507063029725   -0.0004366977314827233
0.0   0.0   0.0
0.0   0.0   0.0
0.0015367976811275492   -0.0012355507063029725   -0.0004366977314827233
0.0007441170596651198   -0.0011323246794175369   -0.0003439440503770084
0.0007467020103062141   -0.0011487229123625046   -0.00029819441021511925
0.0   0.0   0.0
0.0015367976811275492   -0.0012355507063029725   -0.0004366977314827233
0.0007467020103062141   -0.0011487229123625046   -0.00029819441021511925
0.0   0.0   0.0
0.0   0.0   0.0
0.0007441170596651198   -0.0011323246794175369   -0.0003439440503770084
0.0   0.0   0.0
0.0   0.0   0.0
0.0007441170596651198   -0.0011323246794175369   -0.0003439440503770084
0.0015367976811275492   -0.0012355507063029725   -0.0004366977314827233
0.0   0.0   0.0
0.0014670417709341126   -0.0011686726098593943   -0.0005336960225101722
0.0   0.0   0.0
0.0   0.0   0.0
0.0014670417709341126   -0.0011686726098593943   -0.0005336960225101722
0.0   0.0   0.0
0.0   0.0   0.0
0.0014670417709341126   -0.0011686726098593943   -0.0005336960225101722
0.0007591174428375265   -0.0010887078406398329   -0.0003888871772043263
0.0007441170596651198   -0.0011323246794175369   -0.0003439440503770084
0.0   0.0   0.0
0.0014670417709341126   -0.0011686726098593943   -0.0005336960225101722
0.0007441170596651198   -0.0011323246794175369   -0.0003439440503770084
0.0   0.0   0.0
-0.0019022974232711445   -0.001256307022992402   -0.0006377611466564352
-0.0035470172693591586   -0.0034949983156659183   -0.0008595277100722119
-0.0012096945796596496   -0.0011304872240839399   -0.0004686622499326328
-0.001990186290830205   -0.0013380241105900058   -0.000512291707012044
-0.0035470172693591586   -0.0034949983156659183   -0.0008595277100722119
-0.002263645166144894   -0.0033820611882670383   -0.000708115357285496
-0.0012096945796596496   -0.0011304872240839399   -0.0004686622499326328
-0.002265400018230241   -0.003439492587996391   -0.0006381212682902395
-0.001990186290830205   -0.0013380241105900058   -0.000512291707012044
-0.0011852386401799957   -0.0011867366777908392   -0.00039281051594792246
-0.002265400018230241   -0.003439492587996391   -0.0006381212682902395
-0.0012096945796596496   -0.0011304872240839399   -0.0004686622499326328
-0.001990186290830205   -0.0013380241105900058   -0.000512291707012044
-0.002265400018230241   -0.003439492587996391   -0.0006381212682902395
-0.0036520673472445657   -0.0035752343185310232   -0.0007460068835435614
-0.0035470172693591586   -0.0034949983156659183   -0.0008595277100722119
-0.001990186290830205   -0.0013380241105900058   -0.000512291707012044
-0.002265400018230241   -0.003439492587996391   -0.0006381212682902395
-0.0035470172693591586   -0.0034949983156659183   -0.0008595277100722119
-0.0012096945796596496   -0.0011304872240839399   -0.0004686622499326328
-0.001990186290830205   -0.0013380241105900058   -0.000512291707012044
-0.0036520673472445657   -0.0035752343185310232   -0.0007460068835435614
-0.0011852386401799957   -0.0011867366777908392   -0.00039281051594792246
-0.0020516456405147844   -0.001377791600892367   -0.00039219698028852975
-0.0036520673472445657   -0.0035752343185310232   -0.0007460068835435614
-0.002265400018230241   -0.003439492587996391   -0.0006381212682902395
-0.0011852386401799957   -0.0011867366777908392   -0.00039281051594792246
-0.0022733339291004973   -0.0034745877414852837   -0.0005709197395833029
-0.0020516456405147844   -0.001377791600892367   -0.00039219698028852975
-0.0011880058530794458   -0.0012156289544590034   -0.00031713364311298446
-0.0022733339291004973   -0.0034745877414852837   -0.0005709197395833029
-0.0011852386401799957   -0.0011867366777908392   -0.00039281051594792246
-0.0020516456405147844   -0.001377791600892367   -0.00039219698028852975
-0.0022733339291004973   -0.0034745877414852837   -0.0005709197395833029
-0.0037246673383935654   -0.003620629223449137   -0.0006349333719100725
-0.0036520673472445657   -0.0035752343185310232   -0.0007460068835435614
-0.0020516456405147844   -0.001377791600892367   -0.00039219698028852975
-0.0022733339291004973   -0.0034745877414852837   -0.0005709197395833029
-0.0036520673472445657   -0.0035752343185310232   -0.0007460068835435614
-0.0011852386401799957   -0.0011867366777908392   -0.00039281051594792246
-0.0020516456405147844   -0.001377791600892367   -0.00039219698028852975
-0.0037246673383935654   -0.003620629223449137   -0.0006349333719100725
-0.0011880058530794458   -0.0012156289544590034   -0.00031713364311298446
-0.002184617003003275   -0.0014081331631704062   -0.0002529510186801081
-0.0037246673383935654   -0.003620629223449137   -0.0006349333719100725
-0.0022733339291004973   -0.0034745877414852837   -0.0005709197395833029
-0.0011880058530794458   -0.0012156289544590034   -0.00031713364311298446
-0.002265536004263052   -0.0034929402023561084   -0.0005080766639195431
-0.002184617003003275   -0.0014081331631704062   -0.0002529510186801081
-0.0011867328085003184   -0.0012231438470450642   -0.0002389645526020728
-0.002265536004263052   -0.0034929402023561084   -0.0005080766639195431
-0.0011880058530794458   -0.0012156289544590034   -0.00031713364311298446
-0.002184617003003275   -0.0014081331631704062   -0.0002529510186801081
-0.002265536004263052   -0.0034929402023561084   -0.0005080766639195431
-0.0038104355074657916   -0.0036472745204431307   -0.0005340100416477635
-0.0037246673383935654   -0.003620629223449137   -0.0006349333719100725
-0.002184617003003275   -0.0014081331631704062   -0.0002529510186801081
-0.002265536004263052   -0.0034929402023561084   -0.0005080766639195431
-0.0037246673383935654   -0.003620629223449137   -0.0006349333719100725
-0.0011880058530794458   -0.0012156289544590034   -0.00031713364311298446
-0.0012096945796596496   -0.0011304872240839399   -0.0004686622499326328
-0.002263645166144894   -0.0033820611882670383   -0.000708115357285496
-0.0005515668263307901   -0.001084461681768612   -0.00035672095788136964
-0.0011852386401799957   -0.0011867366777908392   -0.00039281051594792246
-0.002263645166144894   -0.0033820611882670383   -0.000708115357285496
-0.001051918039080255   -0.0033295031987401924   -0.0006048439628681329
-0.0005515668263307901   -0.001084461681768612   -0.00035672095788136964
-0.0010419068757627377   -0.003365968789868956   -0.0005688892446648053
-0.0011852386401799957   -0.0011867366777908392   -0.00039281051594792246
-0.0005299283929431973   -0.0011210053147438814   -0.0003208428072940101
-0.0010419068757627377   -0.003365968789868956   -0.0005688892446648053
-0.0005515668263307901   -0.001084461681768612   -0.00035672095788136964
-0.0011852386401799957   -0.0011867366777908392   -0.00039281051594792246
-0.0010419068757627377   -0.003365968789868956   -0.0005688892446648053
-0.002265400018230241   -0.003439492587996391   -0.0006381212682902395
-0.002263645166144894   -0.0033820611882670383   -0.000708115357285496
-0.0011852386401799957   -0.0011867366777908392   -0.00039281051594792246
-0.0010419068757627377   -0.003365968789868956   -0.0005688892446648053
-0.002263645166144894   -0.0033820611882670383   -0.000708115357285496
-0.0005515668263307901   -0.001084461681768612   -0.00035672095788136964
-0.0011852386401799957   -0.0011867366777908392   -0.00039281051594792246
-0.002265400018230241   -0.003439492587996391   -0.0006381212682902395
-0.0005299283929431973   -0.0011210053147438814   -0.0003208428072940101
-0.0011880058530794458   -0.0012156289544590034   -0.00031713364311298446
-0.002265400018230241   -0.003439492587996391   -0.0006381212682902395
-0.0010419068757627377   -0.003365968789868956   -0.0005688892446648053
-0.0005299283929431973   -0.0011210053147438814   -0.0003208428072940101
-0.0010329299477664223   -0.0033836865518073896   -0.0005363357140876665
-0.0011880058530794458   -0.0012156289544590034   -0.00031713364311298446
-0.0005175403858094649   -0.0011349579683848415   -0.000285966215938689
-0.0010329299477664223   -0.0033836865518073896   -0.0005363357140876665
-0.0005299283929431973   -0.0011210053147438814   -0.0003208428072940101
-0.0011880058530794458   -0.0012156289544590034   -0.00031713364311298446
-0.0010329299477664223   -0.0033836865518073896   -0.0005363357140876665
-0.0022733339291004973   -0.0034745877414852837   -0.0005709197395833029
-0.002265400018230241   -0.003439492587996391   -0.0006381212682902395
-0.0011880058530794458   -0.0012156289544590034   -0.00031713364311298446
-0.0010329299477664223   -0.0033836865518073896   -0.0005363357140876665
-0.002265400018230241   -0.003439492587996391   -0.0006381212682902395
-0.0005299283929431973   -0.0011210053147438814   -0.0003208428072940101
-0.0011880058530794458   -0.0012156289544590034   -0.00031713364311298446
-0.0022733339291004973   -0.0034745877414852837   -0.0005709197395833029
-0.0005175403858094649   -0.0011349579683848415   -0.000285966215938689
-0.0011867328085003184   -0.0012231438470450642   -0.0002389645526020728
-0.0022733339291004973   -0.0034745877414852837   -0.0005709197395833029
-0.0010329299477664223   -0.0033836865518073896   -0.0005363357140876665
-0.0005175403858094649   -0.0011349579683848415   -0.000285966215938689
-0.0010199703062340245   -0.0033833219712069307   -0.0005080415876748529
-0.0011867328085003184   -0.0012231438470450642   -0.0002389645526020728
-0.0005061650871285598   -0.0011291918533922257   -0.00024997754788983953
-0.0010199703062340245   -0.0033833219712069307   -0.0005080415876748529
-0.0005175403858094649   -0.0011349579683848415   -0.000285966215938689
-0.0011867328085003184   -0.0012231438470450642   -0.0002389645526020728
-0.0010199703062340245   -0.0033833219712069307   -0.0005080415876748529
-0.002265536004263052   -0.0034929402023561084   -0.0005080766639195431
-0.0022733339291004973   -0.0034745877414852837   -0.0005709197395833029
-0.0011867328085003184   -0.0012231438470450642   -0.0002389645526020728
-0.0010199703062340245   -0.0033833219712069307   -0.0005080415876748529
-0.0022733339291004973   -0.0034745877414852837   -0.0005709197395833029
-0.0005175403858094649   -0.0011349579683848415   -0.000285966215938689
-0.0005515668263307901   -0.001084461681768612   -0.00035672095788136964
-0.001051918039080255   -0.0033295031987401924   -0.0006048439628681329
6.974853738963312e-05   -0.0010904487079500195   -0.0002855587980128573
-0.0005299283929431973   -0.0011210053147438814   -0.0003208428072940101
-0.001051918039080255   -0.0033295031987401924   -0.0006048439628681329
0.00011595739628417056   -0.003331124196117892   -0.00053976645524006
6.974853738963312e-05   -0.0010904487079500195   -0.0002855587980128573
0.00012809975523974833   -0.0033482621307380543   -0.0005372125998741324
-0.0005299283929431973   -0.0011210053147438814   -0.0003208428072940101
8.382702981743617e-05   -0.0011093123666597274   -0.00029035725482744564
0.00012809975523974833   -0.0033482621307380543   -0.0005372125998741324
6.974853738963312e-05   -0.0010904487079500195   -0.0002855587980128573
-0.0005299283929431973   -0.0011210053147438814   -0.0003208428072940101
0.00012809975523974833   -0.0033482621307380543   -0.0005372125998741324
-0.0010419068757627377   -0.003365968789868956   -0.0005688892446648053
-0.001051918039080255   -0.0033295031987401924   -0.0006048439628681329
-0.0005299283929431973   -0.0011210053147438814   -0.0003208428072940101
0.00012809975523974833   -0.0033482621307380543   -0.0005372125998741324
-0.001051918039080255   -0.0033295031987401924   -0.0006048439628681329
6.974853738963312e-05   -0.0010904487079500195   -0.0002855587980128573
-0.0005299283929431973   -0.0011210053147438814   -0.0003208428072940101
-0.0010419068757627377   -0.003365968789868956   -0.0005688892446648053
8.382702981743617e-05   -0.0011093123666597274   -0.00029035725482744564
-0.0005175403858094649   -0.0011349579683848415   -0.000285966215938689
-0.0010419068757627377   -0.003365968789868956   -0.0005688892446648053
0.00012809975523974833   -0.0033482621307380543   -0.0005372125998741324
8.382702981743617e-05   -0.0011093123666597274   -0.00029035725482744564
0.00013656695094155875   -0.003347088465500443   -0.0005385154738847034
-0.0005175403858094649   -0.0011349579683848415   -0.000285966215938689
9.501471758188636e-05   -0.0011076811434491223   -0.00029474739030487164
0.00013656695094155875   -0.003347088465500443   -0.0005385154738847034
8.382702981743617e-05   -0.0011093123666597274   -0.00029035725482744564
-0.0005175403858094649   -0.0011349579683848415   -0.000285966215938689
0.00013656695094155875   -0.003347088465500443   -0.0005385154738847034
-0.0010329299477664223   -0.0033836865518073896   -0.0005363357140876665
-0.0010419068757627377   -0.003365968789868956   -0.0005688892446648053
-0.0005175403858094649   -0.0011349579683848415   -0.000285966215938689
0.00013656695094155875   -0.003347088465500443   -0.0005385154738847034
-0.0010419068757627377   -0.003365968789868956   -0.0005688892446648053
8.382702981743617e-05   -0.0011093123666597274   -0.00029035725482744564
-0.0005175403858094649   -0.0011349579683848415   -0.000285966215938689
-0.0010329299477664223   -0.0033836865518073896   -0.0005363357140876665
9.501471758188636e-05   -0.0011076811434491223   -0.00029474739030487164
-0.0005061650871285598   -0.0011291918533922257   -0.00024997754788983953
-0.0010329299477664223   -0.0033836865518073896   -0.0005363357140876665
0.00013656695094155875   -0.003347088465500443   -0.0005385154738847034
9.501471758188636e-05   -0.0011076811434491223   -0.00029474739030487164
0.00014558124670112802   -0.003327048983161922   -0.000543734881160061
-0.0005061650871285598   -0.0011291918533922257   -0.00024997754788983953
0.00010987680740283948   -0.001083885453002505   -0.0002993268336104605
0.00014558124670112802   -0.003327048983161922   -0.000543734881160061
9.501471758188636e-05   -0.0011076811434491223   -0.00029474739030487164
-0.0005061650871285598   -0.0011291918533922257   -0.00024997754788983953
0.00014558124670112802   -0.003327048983161922   -0.000543734881160061
-0.0010199703062340245   -0.0033833219712069307   -0.0005080415876748529
-0.0010329299477664223   -0.0033836865518073896   -0.0005363357140876665
-0.0005061650871285598   -0.0011291918533922257   -0.00024997754788983953
0.00014558124670112802   -0.003327048983161922   -0.000543734881160061
-0.0010329299477664223   -0.0033836865518073896   -0.0005363357140876665
9.501471758188636e-05   -0.0011076811434491223   -0.00029474739030487164
6.974853738963312e-05   -0.0010904487079500195   -0.0002855587980128573
0.00011595739628417056   -0.003331124196117892   -0.00053976645524006
0.000744666474096138   -0.0011428555897184522   -0.0002505898161959498
8.382702981743617e-05   -0.0011093123666597274   -0.00029035725482744564
0.00011595739628417056   -0.003331124196117892   -0.00053976645524006
0.0013540982101966075   -0.0033849868255688255   -0.0005097493982574902
0.000744666474096138   -0.0011428555897184522   -0.0002505898161959498
0.0013615070290642285   -0.0033845247921407444   -0.0005416730265172846
8.382702981743617e-05   -0.0011093123666597274   -0.00029035725482744564
0.0007467020103062141   -0.0011487229123625046   -0.00029819441021511925
0.0013615070290642285   -0.0033845247921407444   -0.0005416730265172846
0.000744666474096138   -0.0011428555897184522   -0.0002505898161959498
8.382702981743617e-05   -0.0011093123666597274   -0.00029035725482744564
0.0013615070290642285   -0.0033845247921407444   -0.0005416730265172846
0.00012809975523974833   -0.0033482621307380543   -0.0005372125998741324
0.00011595739628417056   -0.003331124196117892   -0.00053976645524006
8.382702981743617e-05   -0.0011093123666597274   -0.00029035725482744564
0.0013615070290642285   -0.0033845247921407444   -0.0005416730265172846
0.00011595739628417056   -0.003331124196117892   -0.00053976645524006
0.000744666474096138   -0.0011428555897184522   -0.0002505898161959498
8.382702981743617e-05   -0.0011093123666597274   -0.00029035725482744564
0.00012809975523974833   -0.0033482621307380543   -0.0005372125998741324
0.0007467020103062141   -0.0011487229123625046   -0.00029819441021511925
9.501471758188636e-05   -0.0011076811434491223   -0.00029474739030487164
0.00012809975523974833   -0.0033482621307380543   -0.0005372125998741324
0.0013615070290642285   -0.0033845247921407444   -0.0005416730265172846
0.0007467020103062141   -0.0011487229123625046   -0.00029819441021511925
0.0013562795448304448   -0.003366135396791007   -0.0005779593264357603
9.501471758188636e-05   -0.0011076811434491223   -0.00029474739030487164
0.0007441170596651198   -0.0011323246794175369   -0.0003439440503770084
0.0013562795448304448   -0.003366135396791007   -0.0005779593264357603
0.0007467020103062141   -0.0011487229123625046   -0.00029819441021511925
9.501471758188636e-05   -0.0011076811434491223   -0.00029474739030487164
0.0013562795448304448   -0.003366135396791007   -0.0005779593264357603
0.00013656695094155875   -0.003347088465500443   -0.0005385154738847034
0.00012809975523974833   -0.0033482621307380543   -0.0005372125998741324
9.501471758188636e-05   -0.0011076811434491223   -0.00029474739030487164
0.0013562795448304448   -0.003366135396791007   -0.0005779593264357603
0.00012809975523974833   -0.0033482621307380543   -0.0005372125998741324
0.0007467020103062141   -0.0011487229123625046   -0.00029819441021511925
9.501471758188636e-05   -0.0011076811434491223   -0.00029474739030487164
0.00013656695094155875   -0.003347088465500443   -0.0005385154738847034
0.0007441170596651198   -0.0011323246794175369   -0.0003439440503770084
0.00010987680740283948   -0.001083885453002505   -0.0002993268336104605
0.00013656695094155875   -0.003347088465500443   -0.0005385154738847034
0.0013562795448304448   -0.003366135396791007   -0.0005779593264357603
0.0007441170596651198   -0.0011323246794175369   -0.0003439440503770084
0.0013536698079905578   -0.0033248325287608895   -0.0006172621234717215
0.00010987680740283948   -0.001083885453002505   -0.0002993268336104605
0.0007591174428375265   -0.0010887078406398329   -0.0003888871772043263
0.0013536698079905578   -0.0033248325287608895   -0.0006172621234717215
0.0007441170596651198   -0.0011323246794175369   -0.0003439440503770084
0.00010987680740283948   -0.001083885453002505   -0.0002993268336104605
0.0013536698079905578   -0.0033248325287608895   -0.0006172621234717215
0.00014558124670112802   -0.003327048983161922   -0.000543734881160061
0.00013656695094155875   -0.003347088465500443   -0.0005385154738847034
0.00010987680740283948   -0.001083885453002505   -0.0002993268336104605
0.0013536698079905578   -0.0033248325287608895   -0.0006172621234717215
0.00013656695094155875   -0.003347088465500443   -0.0005385154738847034
0.0007441170596651198   -0.0011323246794175369   -0.0003439440503770084
0.000744666474096138   -0.0011428555897184522   -0.0002505898161959498
0.0013540982101966075   -0.0033849868255688255   -0.0005097493982574902
0.0016849523177904844   -0.0012759939422863794   -0.00023701167533658082
0.0007467020103062141   -0.0011487229123625046   -0.00029819441021511925
0.0013540982101966075   -0.0033849868255688255   -0.0005097493982574902
0.0028495618426504395   -0.003484915798368125   -0.0005023608792253418
0.0016849523177904844   -0.0012759939422863794   -0.00023701167533658082
0.002793164388136779   -0.003474997943911426   -0.0005743244906923852
0.0007467020103062141   -0.0011487229123625046   -0.00029819441021511925
0.0015833661906233558   -0.0012617770206527522   -0.00034517073855398956
0.002793164388136779   -0.003474997943911426   -0.0005743244906923852
0.0016849523177904844   -0.0012759939422863794   -0.00023701167533658082
0.0007467020103062141   -0.0011487229123625046   -0.00029819441021511925
0.002793164388136779   -0.003474997943911426   -0.0005743244906923852
0.0013615070290642285   -0.0033845247921407444   -0.0005416730265172846
0.0013540982101966075   -0.0033849868255688255   -0.0005097493982574902
0.0007467020103062141   -0.0011487229123625046   -0.00029819441021511925
0.002793164388136779   -0.003474997943911426   -0.0005743244906923852
0.0013540982101966075   -0.0033849868255688255   -0.0005097493982574902
0.0016849523177904844   -0.0012759939422863794   -0.00023701167533658082
0.0007467020103062141   -0.0011487229123625046   -0.00029819441021511925
0.0013615070290642285   -0.0033845247921407444   -0.0005416730265172846
0.0015833661906233558   -0.0012617770206527522   -0.00034517073855398956
0.0007441170596651198   -0.0011323246794175369   -0.0003439440503770084
0.0013615070290642285   -0.0033845247921407444   -0.0005416730265172846
0.002793164388136779   -0.003474997943911426   -0.0005743244906923852
0.0015833661906233558   -0.0012617770206527522   -0.00034517073855398956
0.0027426284918668125   -0.0034467063339691587   -0.0006554547873102226
0.0007441170596651198   -0.0011323246794175369   -0.0003439440503770084
0.0015367976811275492   -0.0012355507063029725   -0.0004366977314827233
0.0027426284918668125   -0.0034467063339691587   -0.0006554547873102226
0.0015833661906233558   -0.0012617770206527522   -0.00034517073855398956
0.0007441170596651198   -0.0011323246794175369   -0.0003439440503770084
0.0027426284918668125   -0.0034467063339691587   -0.0006554547873102226
0.0013562795448304448   -0.003366135396791007   -0.0005779593264357603
0.0013615070290642285   -0.0033845247921407444   -0.0005416730265172846
0.0007441170596651198   -0.0011323246794175369   -0.0003439440503770084
0.0027426284918668125   -0.0034467063339691587   -0.0006554547873102226
0.0013615070290642285   -0.0033845247921407444   -0.0005416730265172846
0.0015833661906233558   -0.0012617770206527522   -0.00034517073855398956
0.0007441170596651198   -0.0011323246794175369   -0.0003439440503770084
0.0013562795448304448   -0.003366135396791007   -0.0005779593264357603
0.0015367976811275492   -0.0012355507063029725   -0.0004366977314827233
0.0007591174428375265   -0.0010887078406398329   -0.0003888871772043263
0.0013562795448304448   -0.003366135396791007   -0.0005779593264357603
0.0027426284918668125   -0.0034467063339691587   -0.0006554547873102226
0.0015367976811275492   -0.0012355507063029725   -0.0004366977314827233
0.002666231857520298   -0.003384110871095637   -0.0007400135647266078
0.0007591174428375265   -0.0010887078406398329   -0.0003888871772043263
0.0014670417709341126   -0.0011686726098593943   -0.0005336960225101722
0.002666231857520298   -0.003384110871095637   -0.0007400135647266078
0.0015367976811275492   -0.0012355507063029725   -0.0004366977314827233
0.0007591174428375265   -0.0010887078406398329   -0.0003888871772043263
0.002666231857520298   -0.003384110871095637   -0.0007400135647266078
0.0013536698079905578   -0.0033248325287608895   -0.0006172621234717215
0.0013562795448304448   -0.003366135396791007   -0.0005779593264357603
0.0007591174428375265   -0.0010887078406398329   -0.0003888871772043263
0.002666231857520298   -0.003384110871095637   -0.0007400135647266078
0.0013562795448304448   -0.003366135396791007   -0.0005779593264357603
0.0015367976811275492   -0.0012355507063029725   -0.0004366977314827233
-0.0035470172693591586   -0.0034949983156659183   -0.0008595277100722119
-0.004852419979828801   -0.006538555260790873   -0.0009798935083486992
-0.002263645166144894   -0.0033820611882670383   -0.000708115357285496
-0.0036520673472445657   -0.0035752343185310232   -0.0007460068835435614
-0.004852419979828801   -0.006538555260790873   -0.0009798935083486992
-0.0031206068341659925   -0.006452508046149428   -0.0008575579044450962
-0.002263645166144894   -0.0033820611882670383   -0.000708115357285496
-0.0031263236902561386   -0.006501913046982969   -0.0008034094096462122
-0.0036520673472445657   -0.0035752343185310232   -0.0007460068835435614
-0.002265400018230241   -0.003439492587996391   -0.0006381212682902395
-0.0031263236902561386   -0.006501913046982969   -0.0008034094096462122
-0.002263645166144894   -0.0033820611882670383   -0.000708115357285496
-0.0036520673472445657   -0.0035752343185310232   -0.0007460068835435614
-0.0031263236902561386   -0.006501913046982969   -0.0008034094096462122
-0.004937160355235274   -0.006606139909924009   -0.0008955869684412965
-0.004852419979828801   -0.006538555260790873   -0.0009798935083486992
-0.0036520673472445657   -0.0035752343185310232   -0.0007460068835435614
-0.0031263236902561386   -0.006501913046982969   -0.0008034094096462122
-0.004852419979828801   -0.006538555260790873   -0.0009798935083486992
-0.002263645166144894   -0.0033820611882670383   -0.000708115357285496
-0.0036520673472445657   -0.0035752343185310232   -0.0007460068835435614
-0.004937160355235274   -0.006606139909924009   -0.0008955869684412965
-0.002265400018230241   -0.003439492587996391   -0.0006381212682902395
-0.0037246673383935654   -0.003620629223449137   -0.0006349333719100725
-0.004937160355235274   -0.006606139909924009   -0.0008955869684412965
-0.0031263236902561386   -0.006501913046982969   -0.0008034094096462122
-0.002265400018230241   -0.003439492587996391   -0.0006381212682902395
-0.0031331929788679276   -0.006536387591315967   -0.0007532205824539631
-0.0037246673383935654   -0.003620629223449137   -0.0006349333719100725
-0.0022733339291004973   -0.0034745877414852837   -0.0005709197395833029
-0.0031331929788679276   -0.006536387591315967   -0.0007532205824539631
-0.002265400018230241   -0.003439492587996391   -0.0006381212682902395
-0.0037246673383935654   -0.003620629223449137   -0.0006349333719100725
-0.0031331929788679276   -0.006536387591315967   -0.0007532205824539631
-0.004990065417828314   -0.006648625281028368   -0.0008170807576927789
-0.004937160355235274   -0.006606139909924009   -0.0008955869684412965
-0.0037246673383935654   -0.003620629223449137   -0.0006349333719100725
-0.0031331929788679276   -0.006536387591315967   -0.0007532205824539631
-0.004937160355235274   -0.006606139909924009   -0.0008955869684412965
-0.002265400018230241   -0.003439492587996391   -0.0006381212682902395
-0.0037246673383935654   -0.003620629223449137   -0.0006349333719100725
-0.004990065417828314   -0.006648625281028368   -0.0008170807576927789
-0.0022733339291004973   -0.0034745877414852837   -0.0005709197395833029
-0.0038104355074657916   -0.0036472745204431307   -0.0005340100416477635
-0.004990065417828314   -0.006648625281028368   -0.0008170807576927789
-0.0031331929788679276   -0.006536387591315967   -0.0007532205824539631
-0.0022733339291004973   -0.0034745877414852837   -0.0005709197395833029
-0.003126129368950508   -0.006559211215597355   -0.0007061450546145585
-0.0038104355074657916   -0.0036472745204431307   -0.0005340100416477635
-0.002265536004263052   -0.0034929402023561084   -0.0005080766639195431
-0.003126129368950508   -0.006559211215597355   -0.0007061450546145585
-0.0022733339291004973   -0.0034745877414852837   -0.0005709197395833029
-0.0038104355074657916   -0.0036472745204431307   -0.0005340100416477635
-0.003126129368950508   -0.006559211215597355   -0.0007061450546145585
-0.005050259760908367   -0.006679411081708509   -0.0007449183221919712
-0.004990065417828314   -0.006648625281028368   -0.0008170807576927789
-0.0038104355074657916   -0.0036472745204431307   -0.0005340100416477635
-0.003126129368950508   -0.006559211215597355   -0.0007061450546145585
-0.004990065417828314   -0.006648625281028368   -0.0008170807576927789
-0.0022733339291004973   -0.0034745877414852837   -0.0005709197395833029
-0.002263645166144894   -0.0033820611882670383   -0.000708115357285496
-0.0031206068341659925   -0.006452508046149428   -0.0008575579044450962
-0.001051918039080255   -0.0033295031987401924   -0.0006048439628681329
-0.002265400018230241   -0.003439492587996391   -0.0006381212682902395
-0.0031206068341659925   -0.006452508046149428   -0.0008575579044450962
-0.001489331696471137   -0.006409508420496657   -0.0007726147056171659
-0.001051918039080255   -0.0033295031987401924   -0.0006048439628681329
-0.0014844850430313842   -0.006441013888092209   -0.0007419027507736689
-0.002265400018230241   -0.003439492587996391   -0.0006381212682902395
-0.0010419068757627377   -0.003365968789868956   -0.0005688892446648053
-0.0014844850430313842   -0.006441013888092209   -0.0007419027507736689
-0.001051918039080255   -0.0033295031987401924   -0.0006048439628681329
-0.002265400018230241   -0.003439492587996391   -0.0006381212682902395
-0.0014844850430313842   -0.006441013888092209   -0.0007419027507736689
-0.0031263236902561386   -0.006501913046982969   -0.0008034094096462122
-0.0031206068341659925   -0.006452508046149428   -0.0008575579044450962
-0.002265400018230241   -0.003439492587996391   -0.0006381212682902395
-0.0014844850430313842   -0.006441013888092209   -0.0007419027507736689
-0.0031206068341659925   -0.006452508046149428   -0.0008575579044450962
-0.001051918039080255   -0.0033295031987401924   -0.0006048439628681329
-0.002265400018230241   -0.003439492587996391   -0.0006381212682902395
-0.0031263236902561386   -0.006501913046982969   -0.0008034094096462122
-0.0010419068757627377   -0.003365968789868956   -0.0005688892446648053
-0.0022733339291004973   -0.0034745877414852837   -0.0005709197395833029
-0.0031263236902561386   -0.006501913046982969   -0.0008034094096462122
-0.0014844850430313842   -0.006441013888092209   -0.0007419027507736689
-0.0010419068757627377   -0.003365968789868956   -0.0005688892446648053
-0.0014788060845681147   -0.0064595564502131905   -0.000714954326789045
-0.0022733339291004973   -0.0034745877414852837   -0.0005709197395833029
-0.0010329299477664223   -0.0033836865518073896   -0.0005363357140876665
-0.0014788060845681147   -0.0064595564502131905   -0.000714954326789045
-0.0010419068757627377   -0.003365968789868956   -0.0005688892446648053
-0.0022733339291004973   -0.0034745877414852837   -0.0005709197395833029
-0.0014788060845681147   -0.0064595564502131905   -0.000714954326789045
-0.0031331929788679276   -0.006536387591315967   -0.0007532205824539631
-0.0031263236902561386   -0.006501913046982969   -0.0008034094096462122
-0.0022733339291004973   -0.0034745877414852837   -0.0005709197395833029
-0.0014788060845681147   -0.0064595564502131905   -0.000714954326789045
-0.0031263236902561386   -0.006501913046982969   -0.0008034094096462122
-0.0010419068757627377   -0.003365968789868956   -0.0005688892446648053
-0.0022733339291004973   -0.0034745877414852837   -0.0005709197395833029
-0.0031331929788679276   -0.006536387591315967   -0.0007532205824539631
-0.0010329299477664223   -0.0033836865518073896   -0.0005363357140876665
-0.002265536004263052   -0.0034929402023561084   -0.0005080766639195431
-0.0031331929788679276   -0.006536387591315967   -0.0007532205824539631
-0.0014788060845681147   -0.0064595564502131905   -0.000714954326789045
-0.0010329299477664223   -0.0033836865518073896   -0.0005363357140876665
-0.0014701689596036277   -0.006465400950127793   -0.0006917614768338205
-0.002265536004263052   -0.0034929402023561084   -0.0005080766639195431
-0.0010199703062340245   -0.0033833219712069307   -0.0005080415876748529
-0.0014701689596036277   -0.006465400950127793   -0.0006917614768338205
-0.0010329299477664223   -0.0033836865518073896   -0.0005363357140876665
-0.002265536004263052   -0.0034929402023561084   -0.0005080766639195431
-0.0014701689596036277   -0.006465400950127793   -0.0006917614768338205
-0.003126129368950508   -0.006559211215597355   -0.0007061450546145585
-0.0031331929788679276   -0.006536387591315967   -0.0007532205824539631
-0.002265536004263052   -0.0034929402023561084   -0.0005080766639195431
-0.0014701689596036277   -0.006465400950127793   -0.0006917614768338205
-0.0031331929788679276   -0.006536387591315967   -0.0007532205824539631
-0.0010329299477664223   -0.0033836865518073896   -0.0005363357140876665
-0.001051918039080255   -0.0033295031987401924   -0.0006048439628681329
-0.001489331696471137   -0.006409508420496657   -0.0007726147056171659
0.00011595739628417056   -0.003331124196117892   -0.00053976645524006
-0.0010419068757627377   -0.003365968789868956   -0.0005688892446648053
-0.001489331696471137   -0.006409508420496657   -0.0007726147056171659
9.355720315889343e-05   -0.00640720071033531   -0.0007201771884873851
0.00011595739628417056   -0.003331124196117892   -0.00053976645524006
0.00010157445990447122   -0.0064210594172519325   -0.0007127834302090703
-0.0010419068757627377   -0.003365968789868956   -0.0005688892446648053
0.00012809975523974833   -0.0033482621307380543   -0.0005372125998741324
0.00010157445990447122   -0.0064210594172519325   -0.0007127834302090703
0.00011595739628417056   -0.003331124196117892   -0.00053976645524006
-0.0010419068757627377   -0.003365968789868956   -0.0005688892446648053
0.00010157445990447122   -0.0064210594172519325   -0.0007127834302090703
-0.0014844850430313842   -0.006441013888092209   -0.0007419027507736689
-0.001489331696471137   -0.006409508420496657   -0.0007726147056171659
-0.0010419068757627377   -0.003365968789868956   -0.0005688892446648053
0.00010157445990447122   -0.0064210594172519325   -0.0007127834302090703
-0.001489331696471137   -0.006409508420496657   -0.0007726147056171659
0.00011595739628417056   -0.003331124196117892   -0.00053976645524006
-0.0010419068757627377   -0.003365968789868956   -0.0005688892446648053
-0.0014844850430313842   -0.006441013888092209   -0.0007419027507736689
0.00012809975523974833   -0.0033482621307380543   -0.0005372125998741324
-0.0010329299477664223   -0.0033836865518073896   -0.0005363357140876665
-0.0014844850430313842   -0.006441013888092209   -0.0007419027507736689
0.00010157445990447122   -0.0064210594172519325   -0.0007127834302090703
0.00012809975523974833   -0.0033482621307380543   -0.0005372125998741324
0.00010711248819841595   -0.006422005013696043   -0.0007090586976874432
-0.0010329299477664223   -0.0033836865518073896   -0.0005363357140876665
0.00013656695094155875   -0.003347088465500443   -0.0005385154738847034
0.00010711248819841595   -0.006422005013696043   -0.0007090586976874432
0.00012809975523974833   -0.0033482621307380543   -0.0005372125998741324
-0.0010329299477664223   -0.0033836865518073896   -0.0005363357140876665
0.00010711248819841595   -0.006422005013696043   -0.0007090586976874432
-0.0014788060845681147   -0.0064595564502131905   -0.000714954326789045
-0.0014844850430313842   -0.006441013888092209   -0.0007419027507736689
-0.0010329299477664223   -0.0033836865518073896   -0.0005363357140876665
0.00010711248819841595   -0.006422005013696043   -0.0007090586976874432
-0.0014844850430313842   -0.006441013888092209   -0.0007419027507736689
0.00012809975523974833   -0.0033482621307380543   -0.0005372125998741324
-0.0010329299477664223   -0.0033836865518073896   -0.0005363357140876665
-0.0014788060845681147   -0.0064595564502131905   -0.000714954326789045
0.00013656695094155875   -0.003347088465500443   -0.0005385154738847034
-0.0010199703062340245   -0.0033833219712069307   -0.0005080415876748529
-0.0014788060845681147   -0.0064595564502131905   -0.000714954326789045
0.00010711248819841595   -0.006422005013696043   -0.0007090586976874432
0.00013656695094155875   -0.003347088465500443   -0.0005385154738847034
0.00011144000801763796   -0.006409846496068485   -0.0007092217012277763
-0.0010199703062340245   -0.0033833219712069307   -0.0005080415876748529
0.00014558124670112802   -0.003327048983161922   -0.000543734881160061
0.00011144000801763796   -0.006409846496068485   -0.0007092217012277763
0.00013656695094155875   -0.003347088465500443   -0.0005385154738847034
-0.0010199703062340245   -0.0033833219712069307   -0.0005080415876748529
0.00011144000801763796   -0.006409846496068485   -0.0007092217012277763
-0.0014701689596036277   -0.006465400950127793   -0.0006917614768338205
-0.0014788060845681147   -0.0064595564502131905   -0.000714954326789045
-0.0010199703062340245   -0.0033833219712069307   -0.0005080415876748529
0.00011144000801763796   -0.006409846496068485   -0.0007092217012277763
-0.0014788060845681147   -0.0064595564502131905   -0.000714954326789045
0.00013656695094155875   -0.003347088465500443   -0.0005385154738847034
0.00011595739628417056   -0.003331124196117892   -0.00053976645524006
9.355720315889343e-05   -0.00640720071033531   -0.0007201771884873851
0.0013540982101966075   -0.0033849868255688255   -0.0005097493982574902
0.00012809975523974833   -0.0033482621307380543   -0.0005372125998741324
9.355720315889343e-05   -0.00640720071033531   -0.0007201771884873851
0.0017443212626118687   -0.006443156026562623   -0.0006993822402810817
0.0013540982101966075   -0.0033849868255688255   -0.0005097493982574902
0.0017515780489369525   -0.00644080041844243   -0.0007157818451754534
0.00012809975523974833   -0.0033482621307380543   -0.0005372125998741324
0.0013615070290642285   -0.0033845247921407444   -0.0005416730265172846
0.0017515780489369525   -0.00644080041844243   -0.0007157818451754534
0.0013540982101966075   -0.0033849868255688255   -0.0005097493982574902
0.00012809975523974833   -0.0033482621307380543   -0.0005372125998741324
0.0017515780489369525   -0.00644080041844243   -0.0007157818451754534
0.00010157445990447122   -0.0064210594172519325   -0.0007127834302090703
9.355720315889343e-05   -0.00640720071033531   -0.0007201771884873851
0.00012809975523974833   -0.0033482621307380543   -0.0005372125998741324
0.0017515780489369525   -0.00644080041844243   -0.0007157818451754534
9.355720315889343e-05   -0.00640720071033531   -0.0007201771884873851
0.0013540982101966075   -0.0033849868255688255   -0.0005097493982574902
0.00012809975523974833   -0.0033482621307380543   -0.0005372125998741324
0.00010157445990447122   -0.0064210594172519325   -0.0007127834302090703
0.0013615070290642285   -0.0033845247921407444   -0.0005416730265172846
0.00013656695094155875   -0.003347088465500443   -0.0005385154738847034
0.00010157445990447122   -0.0064210594172519325   -0.0007127834302090703
0.0017515780489369525   -0.00644080041844243   -0.0007157818451754534
0.0013615070290642285   -0.0033845247921407444   -0.0005416730265172846
0.0017484157734017692   -0.0064258465718343505   -0.0007355808941777254
0.00013656695094155875   -0.003347088465500443   -0.0005385154738847034
0.0013562795448304448   -0.003366135396791007   -0.0005779593264357603
0.0017484157734017692   -0.0064258465718343505   -0.0007355808941777254
0.0013615070290642285   -0.0033845247921407444   -0.0005416730265172846
0.00013656695094155875   -0.003347088465500443   -0.0005385154738847034
0.0017484157734017692   -0.0064258465718343505   -0.0007355808941777254
0.00010711248819841595   -0.006422005013696043   -0.0007090586976874432
0.00010157445990447122   -0.0064210594172519325   -0.0007127834302090703
0.00013656695094155875   -0.003347088465500443   -0.0005385154738847034
0.0017484157734017692   -0.0064258465718343505   -0.0007355808941777254
0.00010157445990447122   -0.0064210594172519325   -0.0007127834302090703
0.0013615070290642285   -0.0033845247921407444   -0.0005416730265172846
0.00013656695094155875   -0.003347088465500443   -0.0005385154738847034
0.00010711248819841595   -0.006422005013696043   -0.0007090586976874432
0.0013562795448304448   -0.003366135396791007   -0.0005779593264357603
0.00014558124670112802   -0.003327048983161922   -0.000543734881160061
0.00010711248819841595   -0.006422005013696043   -0.0007090586976874432
0.0017484157734017692   -0.0064258465718343505   -0.0007355808941777254
0.0013562795448304448   -0.003366135396791007   -0.0005779593264357603
0.0017429641294939653   -0.006395132787823294   -0.000759185571974719
0.00014558124670112802   -0.003327048983161922   -0.000543734881160061
0.0013536698079905578   -0.0033248325287608895   -0.0006172621234717215
0.0017429641294939653   -0.006395132787823294   -0.000759185571974719
0.0013562795448304448   -0.003366135396791007   -0.0005779593264357603
0.00014558124670112802   -0.003327048983161922   -0.000543734881160061
0.0017429641294939653   -0.006395132787823294   -0.000759185571974719
0.00011144000801763796   -0.006409846496068485   -0.0007092217012277763
0.00010711248819841595   -0.006422005013696043   -0.0007090586976874432
0.00014558124670112802   -0.003327048983161922   -0.000543734881160061
0.0017429641294939653   -0.006395132787823294   -0.000759185571974719
0.00010711248819841595   -0.006422005013696043   -0.0007090586976874432
0.0013562795448304448   -0.003366135396791007   -0.0005779593264357603
0.0013540982101966075   -0.0033849868255688255   -0.0005097493982574902
0.0017443212626118687   -0.006443156026562623   -0.0006993822402810817
0.0028495618426504395   -0.003484915798368125   -0.0005023608792253418
0.0013615070290642285   -0.0033845247921407444   -0.0005416730265172846
0.0017443212626118687   -0.006443156026562623   -0.0006993822402810817
0.0036249553152054807   -0.006508119132769349   -0.0007007138963405984
0.0028495618426504395   -0.003484915798368125   -0.0005023608792253418
0.0035952907727887706   -0.006496358641486699   -0.0007438455232980233
0.0013615070290642285   -0.0033845247921407444   -0.0005416730265172846
0.002793164388136779   -0.003474997943911426   -0.0005743244906923852
0.0035952907727887706   -0.006496358641486699   -0.0007438455232980233
0.0028495618426504395   -0.003484915798368125   -0.0005023608792253418
0.0013615070290642285   -0.0033845247921407444   -0.0005416730265172846
0.0035952907727887706   -0.006496358641486699   -0.0007438455232980233
0.0017515780489369525   -0.00644080041844243   -0.0007157818451754534
0.0017443212626118687   -0.006443156026562623   -0.0006993822402810817
0.0013615070290642285   -0.0033845247921407444   -0.0005416730265172846
0.0035952907727887706   -0.006496358641486699   -0.0007438455232980233
0.0017443212626118687   -0.006443156026562623   -0.0006993822402810817
0.0028495618426504395   -0.003484915798368125   -0.0005023608792253418
0.0013615070290642285   -0.0033845247921407444   -0.0005416730265172846
0.0017515780489369525   -0.00644080041844243   -0.0007157818451754534
0.002793164388136779   -0.003474997943911426   -0.0005743244906923852
0.0013562795448304448   -0.003366135396791007   -0.0005779593264357603
0.0017515780489369525   -0.00644080041844243   -0.0007157818451754534
0.0035952907727887706   -0.006496358641486699   -0.0007438455232980233
0.002793164388136779   -0.003474997943911426   -0.0005743244906923852
0.003565416479517539   -0.006473409226008942   -0.0007931081783700223
0.0013562795448304448   -0.003366135396791007   -0.0005779593264357603
0.0027426284918668125   -0.0034467063339691587   -0.0006554547873102226
0.003565416479517539   -0.006473409226008942   -0.0007931081783700223
0.002793164388136779   -0.003474997943911426   -0.0005743244906923852
0.0013562795448304448   -0.003366135396791007   -0.0005779593264357603
0.003565416479517539   -0.006473409226008942   -0.0007931081783700223
0.0017484157734017692   -0.0064258465718343505   -0.0007355808941777254
0.0017515780489369525   -0.00644080041844243   -0.0007157818451754534
0.0013562795448304448   -0.003366135396791007   -0.0005779593264357603
0.003565416479517539   -0.006473409226008942   -0.0007931081783700223
0.0017515780489369525   -0.00644080041844243   -0.0007157818451754534
0.002793164388136779   -0.003474997943911426   -0.0005743244906923852
0.0013562795448304448   -0.003366135396791007   -0.0005779593264357603
0.0017484157734017692   -0.0064258465718343505   -0.0007355808941777254
0.0027426284918668125   -0.0034467063339691587   -0.0006554547873102226
0.0013536698079905578   -0.0033248325287608895   -0.0006172621234717215
0.0017484157734017692   -0.0064258465718343505   -0.0007355808941777254
0.003565416479517539   -0.006473409226008942   -0.0007931081783700223
0.0027426284918668125   -0.0034467063339691587   -0.0006554547873102226
0.0035111350062739214   -0.006425672621765203   -0.0008485088362787204
0.0013536698079905578   -0.0033248325287608895   -0.0006172621234717215
0.002666231857520298   -0.003384110871095637   -0.0007400135647266078
0.0035111350062739214   -0.006425672621765203   -0.0008485088362787204
0.0027426284918668125   -0.0034467063339691587   -0.0006554547873102226
0.0013536698079905578   -0.0033248325287608895   -0.0006172621234717215
0.0035111350062739214   -0.006425672621765203   -0.0008485088362787204
0.0017429641294939653   -0.006395132787823294   -0.000759185571974719
0.0017484157734017692   -0.0064258465718343505   -0.0007355808941777254
0.0013536698079905578   -0.0033248325287608895   -0.0006172621234717215
0.0035111350062739214   -0.006425672621765203   -0.0008485088362787204
0.0017484157734017692   -0.0064258465718343505   -0.0007355808941777254
0.0027426284918668125   -0.0034467063339691587   -0.0006554547873102226
-0.004852419979828801   -0.006538555260790873   -0.0009798935083486992
-0.00578641694503308   -0.010138143930755215   -0.0010462643969580882
-0.0031206068341659925   -0.006452508046149428   -0.0008575579044450962
-0.004937160355235274   -0.006606139909924009   -0.0008955869684412965
-0.00578641694503308   -0.010138143930755215   -0.0010462643969580882
-0.003758156192700285   -0.010083640551733894   -0.0009469407446270028
-0.0031206068341659925   -0.006452508046149428   -0.0008575579044450962
-0.0037615209620515708   -0.010125972254762661   -0.0009083056514077831
-0.004937160355235274   -0.006606139909924009   -0.0008955869684412965
-0.0031263236902561386   -0.006501913046982969   -0.0008034094096462122
-0.0037615209620515708   -0.010125972254762661   -0.0009083056514077831
-0.0031206068341659925   -0.006452508046149428   -0.0008575579044450962
-0.004937160355235274   -0.006606139909924009   -0.0008955869684412965
-0.0037615209620515708   -0.010125972254762661   -0.0009083056514077831
-0.005842841243625245   -0.010195470387866116   -0.000990579173806621
-0.00578641694503308   -0.010138143930755215   -0.0010462643969580882
-0.004937160355235274   -0.006606139909924009   -0.0008955869684412965
-0.0037615209620515708   -0.010125972254762661   -0.0009083056514077831
-0.00578641694503308   -0.010138143930755215   -0.0010462643969580882
-0.0031206068341659925   -0.006452508046149428   -0.0008575579044450962
-0.004937160355235274   -0.006606139909924009   -0.0008955869684412965
-0.005842841243625245   -0.010195470387866116   -0.000990579173806621
-0.0031263236902561386   -0.006501913046982969   -0.0008034094096462122
-0.004990065417828314   -0.006648625281028368   -0.0008170807576927789
-0.005842841243625245   -0.010195470387866116   -0.000990579173806621
-0.0037615209620515708   -0.010125972254762661   -0.0009083056514077831
-0.0031263236902561386   -0.006501913046982969   -0.0008034094096462122
-0.0037635518700571465   -0.010159631386559358   -0.0008735408754797842
-0.004990065417828314   -0.006648625281028368   -0.0008170807576927789
-0.0031331929788679276   -0.006536387591315967   -0.0007532205824539631
-0.0037635518700571465   -0.010159631386559358   -0.0008735408754797842
-0.0031263236902561386   -0.006501913046982969   -0.0008034094096462122
-0.004990065417828314   -0.006648625281028368   -0.0008170807576927789
-0.0037635518700571465   -0.010159631386559358   -0.0008735408754797842
-0.005874646434653494   -0.010236149150690889   -0.000940286748498158
-0.005842841243625245   -0.010195470387866116   -0.000990579173806621
-0.004990065417828314   -0.006648625281028368   -0.0008170807576927789
-0.0037635518700571465   -0.010159631386559358   -0.0008735408754797842
-0.005842841243625245   -0.010195470387866116   -0.000990579173806621
-0.0031263236902561386   -0.006501913046982969   -0.0008034094096462122
-0.004990065417828314   -0.006648625281028368   -0.0008170807576927789
-0.005874646434653494   -0.010236149150690889   -0.000940286748498158
-0.0031331929788679276   -0.006536387591315967   -0.0007532205824539631
-0.005050259760908367   -0.006679411081708509   -0.0007449183221919712
-0.005874646434653494   -0.010236149150690889   -0.000940286748498158
-0.0037635518700571465   -0.010159631386559358   -0.0008735408754797842
-0.0031331929788679276   -0.006536387591315967   -0.0007532205824539631
-0.003754595297165955   -0.01018742010730872   -0.0008421246313302383
-0.005050259760908367   -0.006679411081708509   -0.0007449183221919712
-0.003126129368950508   -0.006559211215597355   -0.0007061450546145585
-0.003754595297165955   -0.01018742010730872   -0.0008421246313302383
-0.0031331929788679276   -0.006536387591315967   -0.0007532205824539631
-0.005050259760908367   -0.006679411081708509   -0.0007449183221919712
-0.003754595297165955   -0.01018742010730872   -0.0008421246313302383
-0.005907311409189559   -0.01027281593960011   -0.0008960348508690801
-0.005874646434653494   -0.010236149150690889   -0.000940286748498158
-0.005050259760908367   -0.006679411081708509   -0.0007449183221919712
-0.003754595297165955   -0.01018742010730872   -0.0008421246313302383
-0.005874646434653494   -0.010236149150690889   -0.000940286748498158
-0.0031331929788679276   -0.006536387591315967   -0.0007532205824539631
-0.0031206068341659925   -0.006452508046149428   -0.0008575579044450962
-0.003758156192700285   -0.010083640551733894   -0.0009469407446270028
-0.001489331696471137   -0.006409508420496657   -0.0007726147056171659
-0.0031263236902561386   -0.006501913046982969   -0.0008034094096462122
-0.003758156192700285   -0.010083640551733894   -0.0009469407446270028
-0.001857682894184861   -0.010055304994086196   -0.0008782013477393458
-0.001489331696471137   -0.006409508420496657   -0.0007726147056171659
-0.0018530305555642626   -0.010081783517876346   -0.0008525606229817006
-0.0031263236902561386   -0.006501913046982969   -0.0008034094096462122
-0.0014844850430313842   -0.006441013888092209   -0.0007419027507736689
-0.0018530305555642626   -0.010081783517876346   -0.0008525606229817006
-0.001489331696471137   -0.006409508420496657   -0.0007726147056171659
-0.0031263236902561386   -0.006501913046982969   -0.0008034094096462122
-0.0018530305555642626   -0.010081783517876346   -0.0008525606229817006
-0.0037615209620515708   -0.010125972254762661   -0.0009083056514077831
-0.003758156192700285   -0.010083640551733894   -0.0009469407446270028
-0.0031263236902561386   -0.006501913046982969   -0.0008034094096462122
-0.0018530305555642626   -0.010081783517876346   -0.0008525606229817006
-0.003758156192700285   -0.010083640551733894   -0.0009469407446270028
-0.001489331696471137   -0.006409508420496657   -0.0007726147056171659
-0.0031263236902561386   -0.006501913046982969   -0.0008034094096462122
-0.0037615209620515708   -0.010125972254762661   -0.0009083056514077831
-0.0014844850430313842   -0.006441013888092209   -0.0007419027507736689
-0.0031331929788679276   -0.006536387591315967   -0.0007532205824539631
-0.0037615209620515708   -0.010125972254762661   -0.0009083056514077831
-0.0018530305555642626   -0.010081783517876346   -0.0008525606229817006
-0.0014844850430313842   -0.006441013888092209   -0.0007419027507736689
-0.001847101564402449   -0.010100984154354974   -0.0008307262031544088
-0.0031331929788679276   -0.006536387591315967   -0.0007532205824539631
-0.0014788060845681147   -0.0064595564502131905   -0.000714954326789045
-0.001847101564402449   -0.010100984154354974   -0.0008307262031544088
-0.0014844850430313842   -0.006441013888092209   -0.0007419027507736689
-0.0031331929788679276   -0.006536387591315967   -0.0007532205824539631
-0.001847101564402449   -0.010100984154354974   -0.0008307262031544088
-0.0037635518700571465   -0.010159631386559358   -0.0008735408754797842
-0.0037615209620515708   -0.010125972254762661   -0.0009083056514077831
-0.0031331929788679276   -0.006536387591315967   -0.0007532205824539631
-0.001847101564402449   -0.010100984154354974   -0.0008307262031544088
-0.0037615209620515708   -0.010125972254762661   -0.0009083056514077831
-0.0014844850430313842   -0.006441013888092209   -0.0007419027507736689
-0.0031331929788679276   -0.006536387591315967   -0.0007532205824539631
-0.0037635518700571465   -0.010159631386559358   -0.0008735408754797842
-0.0014788060845681147   -0.0064595564502131905   -0.000714954326789045
-0.003126129368950508   -0.006559211215597355   -0.0007061450546145585
-0.0037635518700571465   -0.010159631386559358   -0.0008735408754797842
-0.001847101564402449   -0.010100984154354974   -0.0008307262031544088
-0.0014788060845681147   -0.0064595564502131905   -0.000714954326789045
-0.001838792335065465   -0.010113033990688764   -0.00081276539869529
-0.003126129368950508   -0.006559211215597355   -0.0007061450546145585
-0.0014701689596036277   -0.006465400950127793   -0.0006917614768338205
-0.001838792335065465   -0.010113033990688764   -0.00081276539869529
-0.0014788060845681147   -0.0064595564502131905   -0.000714954326789045
-0.003126129368950508   -0.006559211215597355   -0.0007061450546145585
-0.001838792335065465   -0.010113033990688764   -0.00081276539869529
-0.003754595297165955   -0.01018742010730872   -0.0008421246313302383
-0.0037635518700571465   -0.010159631386559358   -0.0008735408754797842
-0.003126129368950508   -0.006559211215597355   -0.0007061450546145585
-0.001838792335065465   -0.010113033990688764   -0.00081276539869529
-0.0037635518700571465   -0.010159631386559358   -0.0008735408754797842
-0.0014788060845681147   -0.0064595564502131905   -0.000714954326789045
-0.001489331696471137   -0.006409508420496657   -0.0007726147056171659
-0.001857682894184861   -0.010055304994086196   -0.0008782013477393458
9.355720315889343e-05   -0.00640720071033531   -0.0007201771884873851
-0.0014844850430313842   -0.006441013888092209   -0.0007419027507736689
-0.001857682894184861   -0.010055304994086196   -0.0008782013477393458
-9.095454877817989e-06   -0.010050328676857834   -0.0008384099303041507
9.355720315889343e-05   -0.00640720071033531   -0.0007201771884873851
-1.2990575321095257e-06   -0.010060833324922351   -0.0008258783841539468
-0.0014844850430313842   -0.006441013888092209   -0.0007419027507736689
0.00010157445990447122   -0.0064210594172519325   -0.0007127834302090703
-1.2990575321095257e-06   -0.010060833324922351   -0.0008258783841539468
9.355720315889343e-05   -0.00640720071033531   -0.0007201771884873851
-0.0014844850430313842   -0.006441013888092209   -0.0007419027507736689
-1.2990575321095257e-06   -0.010060833324922351   -0.0008258783841539468
-0.0018530305555642626   -0.010081783517876346   -0.0008525606229817006
-0.001857682894184861   -0.010055304994086196   -0.0008782013477393458
-0.0014844850430313842   -0.006441013888092209   -0.0007419027507736689
-1.2990575321095257e-06   -0.010060833324922351   -0.0008258783841539468
-0.001857682894184861   -0.010055304994086196   -0.0008782013477393458
9.355720315889343e-05   -0.00640720071033531   -0.0007201771884873851
-0.0014844850430313842   -0.006441013888092209   -0.0007419027507736689
-0.0018530305555642626   -0.010081783517876346   -0.0008525606229817006
0.00010157445990447122   -0.0064210594172519325   -0.0007127834302090703
-0.0014788060845681147   -0.0064595564502131905   -0.000714954326789045
-0.0018530305555642626   -0.010081783517876346   -0.0008525606229817006
-1.2990575321095257e-06   -0.010060833324922351   -0.0008258783841539468
0.00010157445990447122   -0.0064210594172519325   -0.0007127834302090703
4.572354848575491e-06   -0.010064008473451517   -0.0008171089645280095
-0.0014788060845681147   -0.0064595564502131905   -0.000714954326789045
0.00010711248819841595   -0.006422005013696043   -0.0007090586976874432
4.572354848575491e-06   -0.010064008473451517   -0.0008171089645280095
0.00010157445990447122   -0.0064210594172519325   -0.0007127834302090703
-0.0014788060845681147   -0.0064595564502131905   -0.000714954326789045
4.572354848575491e-06   -0.010064008473451517   -0.0008171089645280095
-0.001847101564402449   -0.010100984154354974   -0.0008307262031544088
-0.0018530305555642626   -0.010081783517876346   -0.0008525606229817006
-0.0014788060845681147   -0.0064595564502131905   -0.000714954326789045
4.572354848575491e-06   -0.010064008473451517   -0.0008171089645280095
-0.0018530305555642626   -0.010081783517876346   -0.0008525606229817006
0.00010157445990447122   -0.0064210594172519325   -0.0007127834302090703
-0.0014788060845681147   -0.0064595564502131905   -0.000714954326789045
-0.001847101564402449   -0.010100984154354974   -0.0008307262031544088
0.00010711248819841595   -0.006422005013696043   -0.0007090586976874432
-0.0014701689596036277   -0.006465400950127793   -0.0006917614768338205
-0.001847101564402449   -0.010100984154354974   -0.0008307262031544088
4.572354848575491e-06   -0.010064008473451517   -0.0008171089645280095
0.00010711248819841595   -0.006422005013696043   -0.0007090586976874432
8.730051932766902e-06   -0.010059752651837936   -0.0008122647217687355
-0.0014701689596036277   -0.006465400950127793   -0.0006917614768338205
0.00011144000801763796   -0.006409846496068485   -0.0007092217012277763
8.730051932766902e-06   -0.010059752651837936   -0.0008122647217687355
0.00010711248819841595   -0.006422005013696043   -0.0007090586976874432
-0.0014701689596036277   -0.006465400950127793   -0.0006917614768338205
8.730051932766902e-06   -0.010059752651837936   -0.0008122647217687355
-0.001838792335065465   -0.010113033990688764   -0.00081276539869529
-0.001847101564402449   -0.010100984154354974   -0.0008307262031544088
-0.0014701689596036277   -0.006465400950127793   -0.0006917614768338205
8.730051932766902e-06   -0.010059752651837936   -0.0008122647217687355
-0.001847101564402449   -0.010100984154354974   -0.0008307262031544088
0.00010711248819841595   -0.006422005013696043   -0.0007090586976874432
9.355720315889343e-05   -0.00640720071033531   -0.0007201771884873851
-9.095454877817989e-06   -0.010050328676857834   -0.0008384099303041507
0.0017443212626118687   -0.006443156026562623   -0.0006993822402810817
0.00010157445990447122   -0.0064210594172519325   -0.0007127834302090703
-9.095454877817989e-06   -0.010050328676857834   -0.0008384099303041507
0.0019031270569100662   -0.010066687960046962   -0.0008274483358844528
0.0017443212626118687   -0.006443156026562623   -0.0006993822402810817
0.001912505233456834   -0.010062111785091178   -0.0008282932814797105
0.00010157445990447122   -0.0064210594172519325   -0.0007127834302090703
0.0017515780489369525   -0.00644080041844243   -0.0007157818451754534
0.001912505233456834   -0.010062111785091178   -0.0008282932814797105
0.0017443212626118687   -0.006443156026562623   -0.0006993822402810817
0.00010157445990447122   -0.0064210594172519325   -0.0007127834302090703
0.001912505233456834   -0.010062111785091178   -0.0008282932814797105
-1.2990575321095257e-06   -0.010060833324922351   -0.0008258783841539468
-9.095454877817989e-06   -0.010050328676857834   -0.0008384099303041507
0.00010157445990447122   -0.0064210594172519325   -0.0007127834302090703
0.001912505233456834   -0.010062111785091178   -0.0008282932814797105
-9.095454877817989e-06   -0.010050328676857834   -0.0008384099303041507
0.0017443212626118687   -0.006443156026562623   -0.0006993822402810817
0.00010157445990447122   -0.0064210594172519325   -0.0007127834302090703
-1.2990575321095257e-06   -0.010060833324922351   -0.0008258783841539468
0.0017515780489369525   -0.00644080041844243   -0.0007157818451754534
0.00010711248819841595   -0.006422005013696043   -0.0007090586976874432
-1.2990575321095257e-06   -0.010060833324922351   -0.0008258783841539468
0.001912505233456834   -0.010062111785091178   -0.0008282932814797105
0.0017515780489369525   -0.00644080041844243   -0.0007157818451754534
0.0019144367392763808   -0.010050811066663317   -0.0008326947934023804
0.00010711248819841595   -0.006422005013696043   -0.0007090586976874432
0.0017484157734017692   -0.0064258465718343505   -0.0007355808941777254
0.0019144367392763808   -0.010050811066663317   -0.0008326947934023804
0.0017515780489369525   -0.00644080041844243   -0.0007157818451754534
0.00010711248819841595   -0.006422005013696043   -0.0007090586976874432
0.0019144367392763808   -0.010050811066663317   -0.0008326947934023804
4.572354848575491e-06   -0.010064008473451517   -0.0008171089645280095
-1.2990575321095257e-06   -0.010060833324922351   -0.0008258783841539468
0.00010711248819841595   -0.006422005013696043   -0.0007090586976874432
0.0019144367392763808   -0.010050811066663317   -0.0008326947934023804
-1.2990575321095257e-06   -0.010060833324922351   -0.0008258783841539468
0.0017515780489369525   -0.00644080041844243   -0.0007157818451754534
0.00010711248819841595   -0.006422005013696043   -0.0007090586976874432
4.572354848575491e-06   -0.010064008473451517   -0.0008171089645280095
0.0017484157734017692   -0.0064258465718343505   -0.0007355808941777254
0.00011144000801763796   -0.006409846496068485   -0.0007092217012277763
4.572354848575491e-06   -0.010064008473451517   -0.0008171089645280095
0.0019144367392763808   -0.010050811066663317   -0.0008326947934023804
0.0017484157734017692   -0.0064258465718343505   -0.0007355808941777254
0.0019115020006722754   -0.0100300001424965   -0.0008407923314274459
0.00011144000801763796   -0.006409846496068485   -0.0007092217012277763
0.0017429641294939653   -0.006395132787823294   -0.000759185571974719
0.0019115020006722754   -0.0100300001424965   -0.0008407923314274459
0.0017484157734017692   -0.0064258465718343505   -0.0007355808941777254
0.00011144000801763796   -0.006409846496068485   -0.0007092217012277763
0.0019115020006722754   -0.0100300001424965   -0.0008407923314274459
8.730051932766902e-06   -0.010059752651837936   -0.0008122647217687355
4.572354848575491e-06   -0.010064008473451517   -0.0008171089645280095
0.00011144000801763796   -0.006409846496068485   -0.0007092217012277763
0.0019115020006722754   -0.0100300001424965   -0.0008407923314274459
4.572354848575491e-06   -0.010064008473451517   -0.0008171089645280095
0.0017484157734017692   -0.0064258465718343505   -0.0007355808941777254
0.0017443212626118687   -0.006443156026562623   -0.0006993822402810817
0.0019031270569100662   -0.010066687960046962   -0.0008274483358844528
0.0036249553152054807   -0.006508119132769349   -0.0007007138963405984
0.0017515780489369525   -0.00644080041844243   -0.0007157818451754534
0.0019031270569100662   -0.010066687960046962   -0.0008274483358844528
0.004014571740911743   -0.010096548839074135   -0.0008392275962937243
0.0036249553152054807   -0.006508119132769349   -0.0007007138963405984
0.004012821274035779   -0.010081712794710632   -0.00085437310607435
0.0017515780489369525   -0.00644080041844243   -0.0007157818451754534
0.0035952907727887706   -0.006496358641486699   -0.0007438455232980233
0.004012821274035779   -0.010081712794710632   -0.00085437310607435
0.0036249553152054807   -0.006508119132769349   -0.0007007138963405984
0.0017515780489369525   -0.00644080041844243   -0.0007157818451754534
0.004012821274035779   -0.010081712794710632   -0.00085437310607435
0.001912505233456834   -0.010062111785091178   -0.0008282932814797105
0.0019031270569100662   -0.010066687960046962   -0.0008274483358844528
0.0017515780489369525   -0.00644080041844243   -0.0007157818451754534
0.004012821274035779   -0.010081712794710632   -0.00085437310607435
0.0019031270569100662   -0.010066687960046962   -0.0008274483358844528
0.0036249553152054807   -0.006508119132769349   -0.0007007138963405984
0.0017515780489369525   -0.00644080041844243   -0.0007157818451754534
0.001912505233456834   -0.010062111785091178   -0.0008282932814797105
0.0035952907727887706   -0.006496358641486699   -0.0007438455232980233
0.0017484157734017692   -0.0064258465718343505   -0.0007355808941777254
0.001912505233456834   -0.010062111785091178   -0.0008282932814797105
0.004012821274035779   -0.010081712794710632   -0.00085437310607435
0.0035952907727887706   -0.006496358641486699   -0.0007438455232980233
0.004004493952258251   -0.010063369363200469   -0.0008752971297918912
0.0017484157734017692   -0.0064258465718343505   -0.0007355808941777254
0.003565416479517539   -0.006473409226008942   -0.0007931081783700223
0.004004493952258251   -0.010063369363200469   -0.0008752971297918912
0.0035952907727887706   -0.006496358641486699   -0.0007438455232980233
0.0017484157734017692   -0.0064258465718343505   -0.0007355808941777254
0.004004493952258251   -0.010063369363200469   -0.0008752971297918912
0.0019144367392763808   -0.010050811066663317   -0.0008326947934023804
0.001912505233456834   -0.010062111785091178   -0.0008282932814797105
0.0017484157734017692   -0.0064258465718343505   -0.0007355808941777254
0.004004493952258251   -0.010063369363200469   -0.0008752971297918912
0.001912505233456834   -0.010062111785091178   -0.0008282932814797105
0.0035952907727887706   -0.006496358641486699   -0.0007438455232980233
0.0017484157734017692   -0.0064258465718343505   -0.0007355808941777254
0.0019144367392763808   -0.010050811066663317   -0.0008326947934023804
0.003565416479517539   -0.006473409226008942   -0.0007931081783700223
0.0017429641294939653   -0.006395132787823294   -0.000759185571974719
0.0019144367392763808   -0.010050811066663317   -0.0008326947934023804
0.004004493952258251   -0.010063369363200469   -0.0008752971297918912
0.003565416479517539   -0.006473409226008942   -0.0007931081783700223
0.003978933769633324   -0.010028790020008883   -0.0009019575916136943
0.0017429641294939653   -0.006395132787823294   -0.000759185571974719
0.0035111350062739214   -0.006425672621765203   -0.0008485088362787204
0.003978933769633324   -0.010028790020008883   -0.0009019575916136943
0.003565416479517539   -0.006473409226008942   -0.0007931081783700223
0.0017429641294939653   -0.006395132787823294   -0.000759185571974719
0.003978933769633324   -0.010028790020008883   -0.0009019575916136943
0.0019115020006722754   -0.0100300001424965   -0.0008407923314274459
0.0019144367392763808   -0.010050811066663317   -0.0008326947934023804
0.0017429641294939653   -0.006395132787823294   -0.000759185571974719
0.003978933769633324   -0.010028790020008883   -0.0009019575916136943
0.0019144367392763808   -0.010050811066663317   -0.0008326947934023804
0.003565416479517539   -0.006473409226008942   -0.0007931081783700223
-0.00578641694503308   -0.010138143930755215   -0.0010462643969580882
-0.006348155646207336   -0.014047446871323518   -0.0010667813222958007
-0.003758156192700285   -0.010083640551733894   -0.0009469407446270028
-0.005842841243625245   -0.010195470387866116   -0.000990579173806621
-0.006348155646207336   -0.014047446871323518   -0.0010667813222958007
-0.004175086793118988   -0.01402545638852609   -0.0009880379584005687
-0.003758156192700285   -0.010083640551733894   -0.0009469407446270028
-0.004172438919705628   -0.014061410768026276   -0.0009644270102006044
-0.005842841243625245   -0.010195470387866116   -0.000990579173806621
-0.0037615209620515708   -0.010125972254762661   -0.0009083056514077831
-0.004172438919705628   -0.014061410768026276   -0.0009644270102006044
-0.003758156192700285   -0.010083640551733894   -0.0009469407446270028
-0.005842841243625245   -0.010195470387866116   -0.000990579173806621
-0.004172438919705628   -0.014061410768026276   -0.0009644270102006044
-0.006373790876701229   -0.014095832192206219   -0.001038335373658077
-0.006348155646207336   -0.014047446871323518   -0.0010667813222958007
-0.005842841243625245   -0.010195470387866116   -0.000990579173806621
-0.004172438919705628   -0.014061410768026276   -0.0009644270102006044
-0.006348155646207336   -0.014047446871323518   -0.0010667813222958007
-0.003758156192700285   -0.010083640551733894   -0.0009469407446270028
-0.005842841243625245   -0.010195470387866116   -0.000990579173806621
-0.006373790876701229   -0.014095832192206219   -0.001038335373658077
-0.0037615209620515708   -0.010125972254762661   -0.0009083056514077831
-0.005874646434653494   -0.010236149150690889   -0.000940286748498158
-0.006373790876701229   -0.014095832192206219   -0.001038335373658077
-0.004172438919705628   -0.014061410768026276   -0.0009644270102006044
-0.0037615209620515708   -0.010125972254762661   -0.0009083056514077831
-0.004165851644141948   -0.014094694842308847   -0.0009447402249894953
-0.005874646434653494   -0.010236149150690889   -0.000940286748498158
-0.0037635518700571465   -0.010159631386559358   -0.0008735408754797842
-0.004165851644141948   -0.014094694842308847   -0.0009447402249894953
-0.0037615209620515708   -0.010125972254762661   -0.0009083056514077831
-0.005874646434653494   -0.010236149150690889   -0.000940286748498158
-0.004165851644141948   -0.014094694842308847   -0.0009447402249894953
-0.006381143947904162   -0.014135437459042272   -0.00101553406979401
-0.006373790876701229   -0.014095832192206219   -0.001038335373658077
-0.005874646434653494   -0.010236149150690889   -0.000940286748498158
-0.004165851644141948   -0.014094694842308847   -0.0009447402249894953
-0.006373790876701229   -0.014095832192206219   -0.001038335373658077
-0.0037615209620515708   -0.010125972254762661   -0.0009083056514077831
-0.005874646434653494   -0.010236149150690889   -0.000940286748498158
-0.006381143947904162   -0.014135437459042272   -0.00101553406979401
-0.0037635518700571465   -0.010159631386559358   -0.0008735408754797842
-0.005907311409189559   -0.01027281593960011   -0.0008960348508690801
-0.006381143947904162   -0.014135437459042272   -0.00101553406979401
-0.004165851644141948   -0.014094694842308847   -0.0009447402249894953
-0.0037635518700571465   -0.010159631386559358   -0.0008735408754797842
-0.004151119951247761   -0.014127856640530501   -0.0009286927022862664
-0.005907311409189559   -0.01027281593960011   -0.0008960348508690801
-0.003754595297165955   -0.01018742010730872   -0.0008421246313302383
-0.004151119951247761   -0.014127856640530501   -0.0009286927022862664
-0.0037635518700571465   -0.010159631386559358   -0.0008735408754797842
-0.005907311409189559   -0.01027281593960011   -0.0008960348508690801
-0.004151119951247761   -0.014127856640530501   -0.0009286927022862664
-0.006382698821109218   -0.014178632210649024   -0.0009988733689382011
-0.006381143947904162   -0.014135437459042272   -0.00101553406979401
-0.005907311409189559   -0.01027281593960011   -0.0008960348508690801
-0.004151119951247761   -0.014127856640530501   -0.0009286927022862664
-0.006381143947904162   -0.014135437459042272   -0.00101553406979401
-0.0037635518700571465   -0.010159631386559358   -0.0008735408754797842
-0.003758156192700285   -0.010083640551733894   -0.0009469407446270028
-0.004175086793118988   -0.01402545638852609   -0.0009880379584005687
-0.001857682894184861   -0.010055304994086196   -0.0008782013477393458
-0.0037615209620515708   -0.010125972254762661   -0.0009083056514077831
-0.004175086793118988   -0.01402545638852609   -0.0009880379584005687
-0.00215669048441266   -0.014012612997044118   -0.0009344644783530265
-0.001857682894184861   -0.010055304994086196   -0.0008782013477393458
-0.002148183720827518   -0.014034291264904386   -0.0009137188450094989
-0.0037615209620515708   -0.010125972254762661   -0.0009083056514077831
-0.0018530305555642626   -0.010081783517876346   -0.0008525606229817006
-0.002148183720827518   -0.014034291264904386   -0.0009137188450094989
-0.001857682894184861   -0.010055304994086196   -0.0008782013477393458
-0.0037615209620515708   -0.010125972254762661   -0.0009083056514077831
-0.002148183720827518   -0.014034291264904386   -0.0009137188450094989
-0.004172438919705628   -0.014061410768026276   -0.0009644270102006044
-0.004175086793118988   -0.01402545638852609   -0.0009880379584005687
-0.0037615209620515708   -0.010125972254762661   -0.0009083056514077831
-0.002148183720827518   -0.014034291264904386   -0.0009137188450094989
-0.004175086793118988   -0.01402545638852609   -0.0009880379584005687
-0.001857682894184861   -0.010055304994086196   -0.0008782013477393458
-0.0037615209620515708   -0.010125972254762661   -0.0009083056514077831
-0.004172438919705628   -0.014061410768026276   -0.0009644270102006044
-0.0018530305555642626   -0.010081783517876346   -0.0008525606229817006
-0.0037635518700571465   -0.010159631386559358   -0.0008735408754797842
-0.004172438919705628   -0.014061410768026276   -0.0009644270102006044
-0.002148183720827518   -0.014034291264904386   -0.0009137188450094989
-0.0018530305555642626   -0.010081783517876346   -0.0008525606229817006
-0.0021379865991805677   -0.0140542668213053   -0.0008968953203836401
-0.0037635518700571465   -0.010159631386559358   -0.0008735408754797842
-0.001847101564402449   -0.010100984154354974   -0.0008307262031544088
-0.0021379865991805677   -0.0140542668213053   -0.0008968953203836401
-0.0018530305555642626   -0.010081783517876346   -0.0008525606229817006
-0.0037635518700571465   -0.010159631386559358   -0.0008735408754797842
-0.0021379865991805677   -0.0140542668213053   -0.0008968953203836401
-0.004165851644141948   -0.014094694842308847   -0.0009447402249894953
-0.004172438919705628   -0.014061410768026276   -0.0009644270102006044
-0.0037635518700571465   -0.010159631386559358   -0.0008735408754797842
-0.0021379865991805677   -0.0140542668213053   -0.0008968953203836401
-0.004172438919705628   -0.014061410768026276   -0.0009644270102006044
-0.0018530305555642626   -0.010081783517876346   -0.0008525606229817006
-0.0037635518700571465   -0.010159631386559358   -0.0008735408754797842
-0.004165851644141948   -0.014094694842308847   -0.0009447402249894953
-0.001847101564402449   -0.010100984154354974   -0.0008307262031544088
-0.003754595297165955   -0.01018742010730872   -0.0008421246313302383
-0.004165851644141948   -0.014094694842308847   -0.0009447402249894953
-0.0021379865991805677   -0.0140542668213053   -0.0008968953203836401
-0.001847101564402449   -0.010100984154354974   -0.0008307262031544088
-0.0021259137676221795   -0.014072607311152528   -0.0008840932488381066
-0.003754595297165955   -0.01018742010730872   -0.0008421246313302383
-0.001838792335065465   -0.010113033990688764   -0.00081276539869529
-0.0021259137676221795   -0.014072607311152528   -0.0008840932488381066
-0.001847101564402449   -0.010100984154354974   -0.0008307262031544088
-0.003754595297165955   -0.01018742010730872   -0.0008421246313302383
-0.0021259137676221795   -0.014072607311152528   -0.0008840932488381066
-0.004151119951247761   -0.014127856640530501   -0.0009286927022862664
-0.004165851644141948   -0.014094694842308847   -0.0009447402249894953
-0.003754595297165955   -0.01018742010730872   -0.0008421246313302383
-0.0021259137676221795   -0.014072607311152528   -0.0008840932488381066
-0.004165851644141948   -0.014094694842308847   -0.0009447402249894953
-0.001847101564402449   -0.010100984154354974   -0.0008307262031544088
-0.001857682894184861   -0.010055304994086196   -0.0008782013477393458
-0.00215669048441266   -0.014012612997044118   -0.0009344644783530265
-9.095454877817989e-06   -0.010050328676857834   -0.0008384099303041507
-0.0018530305555642626   -0.010081783517876346   -0.0008525606229817006
-0.00215669048441266   -0.014012612997044118   -0.0009344644783530265
-0.00019296764500647748   -0.01400510745936271   -0.0009070197674942899
-9.095454877817989e-06   -0.010050328676857834   -0.0008384099303041507
-0.00018143456308927506   -0.014012207110418336   -0.000889358662798982
-0.0018530305555642626   -0.010081783517876346   -0.0008525606229817006
-1.2990575321095257e-06   -0.010060833324922351   -0.0008258783841539468
-0.00018143456308927506   -0.014012207110418336   -0.000889358662798982
-9.095454877817989e-06   -0.010050328676857834   -0.0008384099303041507
-0.0018530305555642626   -0.010081783517876346   -0.0008525606229817006
-0.00018143456308927506   -0.014012207110418336   -0.000889358662798982
-0.002148183720827518   -0.014034291264904386   -0.0009137188450094989
-0.00215669048441266   -0.014012612997044118   -0.0009344644783530265
-0.0018530305555642626   -0.010081783517876346   -0.0008525606229817006
-0.00018143456308927506   -0.014012207110418336   -0.000889358662798982
-0.00215669048441266   -0.014012612997044118   -0.0009344644783530265
-9.095454877817989e-06   -0.010050328676857834   -0.0008384099303041507
-0.0018530305555642626   -0.010081783517876346   -0.0008525606229817006
-0.002148183720827518   -0.014034291264904386   -0.0009137188450094989
-1.2990575321095257e-06   -0.010060833324922351   -0.0008258783841539468
-0.001847101564402449   -0.010100984154354974   -0.0008307262031544088
-0.002148183720827518   -0.014034291264904386   -0.0009137188450094989
-0.00018143456308927506   -0.014012207110418336   -0.000889358662798982
-1.2990575321095257e-06   -0.010060833324922351   -0.0008258783841539468
-0.00017132320514619666   -0.014017478080060068   -0.0008755901700232868
-0.001847101564402449   -0.010100984154354974   -0.0008307262031544088
4.572354848575491e-06   -0.010064008473451517   -0.0008171089645280095
-0.00017132320514619666   -0.014017478080060068   -0.0008755901700232868
-1.2990575321095257e-06   -0.010060833324922351   -0.0008258783841539468
-0.001847101564402449   -0.010100984154354974   -0.0008307262031544088
-0.00017132320514619666   -0.014017478080060068   -0.0008755901700232868
-0.0021379865991805677   -0.0140542668213053   -0.0008968953203836401
-0.002148183720827518   -0.014034291264904386   -0.0009137188450094989
-0.001847101564402449   -0.010100984154354974   -0.0008307262031544088
-0.00017132320514619666   -0.014017478080060068   -0.0008755901700232868
-0.002148183720827518   -0.014034291264904386   -0.0009137188450094989
-1.2990575321095257e-06   -0.010060833324922351   -0.0008258783841539468
-0.001847101564402449   -0.010100984154354974   -0.0008307262031544088
-0.0021379865991805677   -0.0140542668213053   -0.0008968953203836401
4.572354848575491e-06   -0.010064008473451517   -0.0008171089645280095
-0.001838792335065465   -0.010113033990688764   -0.00081276539869529
-0.0021379865991805677   -0.0140542668213053   -0.0008968953203836401
-0.00017132320514619666   -0.014017478080060068   -0.0008755901700232868
4.572354848575491e-06   -0.010064008473451517   -0.0008171089645280095
-0.0001633665864188682   -0.014020890043106391   -0.000865853454986759
-0.001838792335065465   -0.010113033990688764   -0.00081276539869529
8.730051932766902e-06   -0.010059752651837936   -0.0008122647217687355
-0.0001633665864188682   -0.014020890043106391   -0.000865853454986759
4.572354848575491e-06   -0.010064008473451517   -0.0008171089645280095
-0.001838792335065465   -0.010113033990688764   -0.00081276539869529
-0.0001633665864188682   -0.014020890043106391   -0.000865853454986759
-0.0021259137676221795   -0.014072607311152528   -0.0008840932488381066
-0.0021379865991805677   -0.0140542668213053   -0.0008968953203836401
-0.001838792335065465   -0.010113033990688764   -0.00081276539869529
-0.0001633665864188682   -0.014020890043106391   -0.000865853454986759
-0.0021379865991805677   -0.0140542668213053   -0.0008968953203836401
4.572354848575491e-06   -0.010064008473451517   -0.0008171089645280095
-9.095454877817989e-06   -0.010050328676857834   -0.0008384099303041507
-0.00019296764500647748   -0.01400510745936271   -0.0009070197674942899
0.0019031270569100662   -0.010066687960046962   -0.0008274483358844528
-1.2990575321095257e-06   -0.010060833324922351   -0.0008258783841539468
-0.00019296764500647748   -0.01400510745936271   -0.0009070197674942899
0.001830474284882399   -0.014001638974173787   -0.0009059885599394488
0.0019031270569100662   -0.010066687960046962   -0.0008274483358844528
0.0018455216885031914   -0.013994587364046586   -0.0008915616197200877
-1.2990575321095257e-06   -0.010060833324922351   -0.0008258783841539468
0.001912505233456834   -0.010062111785091178   -0.0008282932814797105
0.0018455216885031914   -0.013994587364046586   -0.0008915616197200877
0.0019031270569100662   -0.010066687960046962   -0.0008274483358844528
-1.2990575321095257e-06   -0.010060833324922351   -0.0008258783841539468
0.0018455216885031914   -0.013994587364046586   -0.0008915616197200877
-0.00018143456308927506   -0.014012207110418336   -0.000889358662798982
-0.00019296764500647748   -0.01400510745936271   -0.0009070197674942899
-1.2990575321095257e-06   -0.010060833324922351   -0.0008258783841539468
0.0018455216885031914   -0.013994587364046586   -0.0008915616197200877
-0.00019296764500647748   -0.01400510745936271   -0.0009070197674942899
0.0019031270569100662   -0.010066687960046962   -0.0008274483358844528
-1.2990575321095257e-06   -0.010060833324922351   -0.0008258783841539468
-0.00018143456308927506   -0.014012207110418336   -0.000889358662798982
0.001912505233456834   -0.010062111785091178   -0.0008282932814797105
4.572354848575491e-06   -0.010064008473451517   -0.0008171089645280095
-0.00018143456308927506   -0.014012207110418336   -0.000889358662798982
0.0018455216885031914   -0.013994587364046586   -0.0008915616197200877
0.001912505233456834   -0.010062111785091178   -0.0008282932814797105
0.0018560101981629998   -0.013986552100739217   -0.0008809123188088739
4.572354848575491e-06   -0.010064008473451517   -0.0008171089645280095
0.0019144367392763808   -0.010050811066663317   -0.0008326947934023804
0.0018560101981629998   -0.013986552100739217   -0.0008809123188088739
0.001912505233456834   -0.010062111785091178   -0.0008282932814797105
4.572354848575491e-06   -0.010064008473451517   -0.0008171089645280095
0.0018560101981629998   -0.013986552100739217   -0.0008809123188088739
-0.00017132320514619666   -0.014017478080060068   -0.0008755901700232868
-0.00018143456308927506   -0.014012207110418336   -0.000889358662798982
4.572354848575491e-06   -0.010064008473451517   -0.0008171089645280095
0.0018560101981629998   -0.013986552100739217   -0.0008809123188088739
-0.00018143456308927506   -0.014012207110418336   -0.000889358662798982
0.001912505233456834   -0.010062111785091178   -0.0008282932814797105
4.572354848575491e-06   -0.010064008473451517   -0.0008171089645280095
-0.00017132320514619666   -0.014017478080060068   -0.0008755901700232868
0.0019144367392763808   -0.010050811066663317   -0.0008326947934023804
8.730051932766902e-06   -0.010059752651837936   -0.0008122647217687355
-0.00017132320514619666   -0.014017478080060068   -0.0008755901700232868
0.0018560101981629998   -0.013986552100739217   -0.0008809123188088739
0.0019144367392763808   -0.010050811066663317   -0.0008326947934023804
0.0018590262138664564   -0.013974955465060553   -0.0008739657151743147
8.730051932766902e-06   -0.010059752651837936   -0.0008122647217687355
0.0019115020006722754   -0.0100300001424965   -0.0008407923314274459
0.0018590262138664564   -0.013974955465060553   -0.0008739657151743147
0.0019144367392763808   -0.010050811066663317   -0.0008326947934023804
8.730051932766902e-06   -0.010059752651837936   -0.0008122647217687355
0.0018590262138664564   -0.013974955465060553   -0.0008739657151743147
-0.0001633665864188682   -0.014020890043106391   -0.000865853454986759
-0.00017132320514619666   -0.014017478080060068   -0.0008755901700232868
8.730051932766902e-06   -0.010059752651837936   -0.0008122647217687355
0.0018590262138664564   -0.013974955465060553   -0.0008739657151743147
-0.00017132320514619666   -0.014017478080060068   -0.0008755901700232868
0.0019144367392763808   -0.010050811066663317   -0.0008326947934023804
0.0019031270569100662   -0.010066687960046962   -0.0008274483358844528
0.001830474284882399   -0.014001638974173787   -0.0009059885599394488
0.004014571740911743   -0.010096548839074135   -0.0008392275962937243
0.001912505233456834   -0.010062111785091178   -0.0008282932814797105
0.001830474284882399   -0.014001638974173787   -0.0009059885599394488
0.0040223951168331966   -0.013996538453955062   -0.0009288938775526047
0.004014571740911743   -0.010096548839074135   -0.0008392275962937243
0.004051465161823825   -0.013978265110508984   -0.0009166809807482872
0.001912505233456834   -0.010062111785091178   -0.0008282932814797105
0.004012821274035779   -0.010081712794710632   -0.00085437310607435
0.004051465161823825   -0.013978265110508984   -0.0009166809807482872
0.004014571740911743   -0.010096548839074135   -0.0008392275962937243
0.001912505233456834   -0.010062111785091178   -0.0008282932814797105
0.004051465161823825   -0.013978265110508984   -0.0009166809807482872
0.0018455216885031914   -0.013994587364046586   -0.0008915616197200877
0.001830474284882399   -0.014001638974173787   -0.0009059885599394488
0.001912505233456834   -0.010062111785091178   -0.0008282932814797105
0.004051465161823825   -0.013978265110508984   -0.0009166809807482872
0.001830474284882399   -0.014001638974173787   -0.0009059885599394488
0.004014571740911743   -0.010096548839074135   -0.0008392275962937243
0.001912505233456834   -0.010062111785091178   -0.0008282932814797105
0.0018455216885031914   -0.013994587364046586   -0.0008915616197200877
0.004012821274035779   -0.010081712794710632   -0.00085437310607435
0.0019144367392763808   -0.010050811066663317   -0.0008326947934023804
0.0018455216885031914   -0.013994587364046586   -0.0008915616197200877
0.004051465161823825   -0.013978265110508984   -0.0009166809807482872
0.004012821274035779   -0.010081712794710632   -0.00085437310607435
0.004067494591713836   -0.013963937740152562   -0.000910219942596922
0.0019144367392763808   -0.010050811066663317   -0.0008326947934023804
0.004004493952258251   -0.010063369363200469   -0.0008752971297918912
0.004067494591713836   -0.013963937740152562   -0.000910219942596922
0.004012821274035779   -0.010081712794710632   -0.00085437310607435
0.0019144367392763808   -0.010050811066663317   -0.0008326947934023804
0.004067494591713836   -0.013963937740152562   -0.000910219942596922
0.0018560101981629998   -0.013986552100739217   -0.0008809123188088739
0.0018455216885031914   -0.013994587364046586   -0.0008915616197200877
0.0019144367392763808   -0.010050811066663317   -0.0008326947934023804
0.004067494591713836   -0.013963937740152562   -0.000910219942596922
0.0018455216885031914   -0.013994587364046586   -0.0008915616197200877
0.004012821274035779   -0.010081712794710632   -0.00085437310607435
0.0019144367392763808   -0.010050811066663317   -0.0008326947934023804
0.0018560101981629998   -0.013986552100739217   -0.0008809123188088739
0.004004493952258251   -0.010063369363200469   -0.0008752971297918912
0.0019115020006722754   -0.0100300001424965   -0.0008407923314274459
0.0018560101981629998   -0.013986552100739217   -0.0008809123188088739
0.004067494591713836   -0.013963937740152562   -0.000910219942596922
0.004004493952258251   -0.010063369363200469   -0.0008752971297918912
0.004072795811945772   -0.013941271433493158   -0.0009096093016878928
0.0019115020006722754   -0.0100300001424965   -0.0008407923314274459
0.003978933769633324   -0.010028790020008883   -0.0009019575916136943
0.004072795811945772   -0.013941271433493158   -0.0009096093016878928
0.004004493952258251   -0.010063369363200469   -0.0008752971297918912
0.0019115020006722754   -0.0100300001424965   -0.0008407923314274459
0.004072795811945772   -0.013941271433493158   -0.0009096093016878928
0.0018590262138664564   -0.013974955465060553   -0.0008739657151743147
0.0018560101981629998   -0.013986552100739217   -0.0008809123188088739
0.0019115020006722754   -0.0100300001424965   -0.0008407923314274459
0.004072795811945772   -0.013941271433493158   -0.0009096093016878928
0.0018560101981629998   -0.013986552100739217   -0.0008809123188088739
0.004004493952258251   -0.010063369363200469   -0.0008752971297918912
-0.006348155646207336   -0.014047446871323518   -0.0010667813222958007
-0.006539956631340608   -0.01801876668385982   -0.0010500574931243142
-0.004175086793118988   -0.01402545638852609   -0.0009880379584005687
-0.006373790876701229   -0.014095832192206219   -0.001038335373658077
-0.006539956631340608   -0.01801876668385982   -0.0010500574931243142
-0.004373220212300415   -0.018029337148449755   -0.0009921522577885666
-0.004175086793118988   -0.01402545638852609   -0.0009880379584005687
-0.0043608667059893795   -0.018058839764557254   -0.0009832537505763122
-0.006373790876701229   -0.014095832192206219   -0.001038335373658077
-0.004172438919705628   -0.014061410768026276   -0.0009644270102006044
-0.0043608667059893795   -0.018058839764557254   -0.0009832537505763122
-0.004175086793118988   -0.01402545638852609   -0.0009880379584005687
-0.006373790876701229   -0.014095832192206219   -0.001038335373658077
-0.0043608667059893795   -0.018058839764557254   -0.0009832537505763122
-0.006531423986265987   -0.018058281153156722   -0.0010485750990426586
-0.006539956631340608   -0.01801876668385982   -0.0010500574931243142
-0.006373790876701229   -0.014095832192206219   -0.001038335373658077
-0.0043608667059893795   -0.018058839764557254   -0.0009832537505763122
-0.006539956631340608   -0.01801876668385982   -0.0010500574931243142
-0.004175086793118988   -0.01402545638852609   -0.0009880379584005687
-0.006373790876701229   -0.014095832192206219   -0.001038335373658077
-0.006531423986265987   -0.018058281153156722   -0.0010485750990426586
-0.004172438919705628   -0.014061410768026276   -0.0009644270102006044
-0.006381143947904162   -0.014135437459042272   -0.00101553406979401
-0.006531423986265987   -0.018058281153156722   -0.0010485750990426586
-0.0043608667059893795   -0.018058839764557254   -0.0009832537505763122
-0.004172438919705628   -0.014061410768026276   -0.0009644270102006044
-0.004341990976108813   -0.018091673121253194   -0.0009783699133001104
-0.006381143947904162   -0.014135437459042272   -0.00101553406979401
-0.004165851644141948   -0.014094694842308847   -0.0009447402249894953
-0.004341990976108813   -0.018091673121253194   -0.0009783699133001104
-0.004172438919705628   -0.014061410768026276   -0.0009644270102006044
-0.006381143947904162   -0.014135437459042272   -0.00101553406979401
-0.004341990976108813   -0.018091673121253194   -0.0009783699133001104
-0.006510649103420649   -0.01809682471457583   -0.0010530886173388777
-0.006531423986265987   -0.018058281153156722   -0.0010485750990426586
-0.006381143947904162   -0.014135437459042272   -0.00101553406979401
-0.004341990976108813   -0.018091673121253194   -0.0009783699133001104
-0.006531423986265987   -0.018058281153156722   -0.0010485750990426586
-0.004172438919705628   -0.014061410768026276   -0.0009644270102006044
-0.006381143947904162   -0.014135437459042272   -0.00101553406979401
-0.006510649103420649   -0.01809682471457583   -0.0010530886173388777
-0.004165851644141948   -0.014094694842308847   -0.0009447402249894953
-0.006382698821109218   -0.014178632210649024   -0.0009988733689382011
-0.006510649103420649   -0.01809682471457583   -0.0010530886173388777
-0.004341990976108813   -0.018091673121253194   -0.0009783699133001104
-0.004165851644141948   -0.014094694842308847   -0.0009447402249894953
-0.004317780043193461   -0.018130108220619928   -0.0009774250653270522
-0.006382698821109218   -0.014178632210649024   -0.0009988733689382011
-0.004151119951247761   -0.014127856640530501   -0.0009286927022862664
-0.004317780043193461   -0.018130108220619928   -0.0009774250653270522
-0.004165851644141948   -0.014094694842308847   -0.0009447402249894953
-0.006382698821109218   -0.014178632210649024   -0.0009988733689382011
-0.004317780043193461   -0.018130108220619928   -0.0009774250653270522
-0.006477474816271552   -0.018146632270810887   -0.001063914546564956
-0.006510649103420649   -0.01809682471457583   -0.0010530886173388777
-0.006382698821109218   -0.014178632210649024   -0.0009988733689382011
-0.004317780043193461   -0.018130108220619928   -0.0009774250653270522
-0.006510649103420649   -0.01809682471457583   -0.0010530886173388777
-0.004165851644141948   -0.014094694842308847   -0.0009447402249894953
-0.004175086793118988   -0.01402545638852609   -0.0009880379584005687
-0.004373220212300415   -0.018029337148449755   -0.0009921522577885666
-0.00215669048441266   -0.014012612997044118   -0.0009344644783530265
-0.004172438919705628   -0.014061410768026276   -0.0009644270102006044
-0.004373220212300415   -0.018029337148449755   -0.0009921522577885666
-0.002387888494562059   -0.018031474687838465   -0.0009537047841086703
-0.00215669048441266   -0.014012612997044118   -0.0009344644783530265
-0.0023716237396393274   -0.018048314527300793   -0.0009376872679452546
-0.004172438919705628   -0.014061410768026276   -0.0009644270102006044
-0.002148183720827518   -0.014034291264904386   -0.0009137188450094989
-0.0023716237396393274   -0.018048314527300793   -0.0009376872679452546
-0.00215669048441266   -0.014012612997044118   -0.0009344644783530265
-0.004172438919705628   -0.014061410768026276   -0.0009644270102006044
-0.0023716237396393274   -0.018048314527300793   -0.0009376872679452546
-0.0043608667059893795   -0.018058839764557254   -0.0009832537505763122
-0.004373220212300415   -0.018029337148449755   -0.0009921522577885666
-0.004172438919705628   -0.014061410768026276   -0.0009644270102006044
-0.0023716237396393274   -0.018048314527300793   -0.0009376872679452546
-0.004373220212300415   -0.018029337148449755   -0.0009921522577885666
-0.00215669048441266   -0.014012612997044118   -0.0009344644783530265
-0.004172438919705628   -0.014061410768026276   -0.0009644270102006044
-0.0043608667059893795   -0.018058839764557254   -0.0009832537505763122
-0.002148183720827518   -0.014034291264904386   -0.0009137188450094989
-0.004165851644141948   -0.014094694842308847   -0.0009447402249894953
-0.0043608667059893795   -0.018058839764557254   -0.0009832537505763122
-0.0023716237396393274   -0.018048314527300793   -0.0009376872679452546
-0.002148183720827518   -0.014034291264904386   -0.0009137188450094989
-0.002353350546637952   -0.01806892570333826   -0.0009256955725825628
-0.004165851644141948   -0.014094694842308847   -0.0009447402249894953
-0.0021379865991805677   -0.0140542668213053   -0.0008968953203836401
-0.002353350546637952   -0.01806892570333826   -0.0009256955725825628
-0.002148183720827518   -0.014034291264904386   -0.0009137188450094989
-0.004165851644141948   -0.014094694842308847   -0.0009447402249894953
-0.002353350546637952   -0.01806892570333826   -0.0009256955725825628
-0.004341990976108813   -0.018091673121253194   -0.0009783699133001104
-0.0043608667059893795   -0.018058839764557254   -0.0009832537505763122
-0.004165851644141948   -0.014094694842308847   -0.0009447402249894953
-0.002353350546637952   -0.01806892570333826   -0.0009256955725825628
-0.0043608667059893795   -0.018058839764557254   -0.0009832537505763122
-0.002148183720827518   -0.014034291264904386   -0.0009137188450094989
-0.004165851644141948   -0.014094694842308847   -0.0009447402249894953
-0.004341990976108813   -0.018091673121253194   -0.0009783699133001104
-0.0021379865991805677   -0.0140542668213053   -0.0008968953203836401
-0.004151119951247761   -0.014127856640530501   -0.0009286927022862664
-0.004341990976108813   -0.018091673121253194   -0.0009783699133001104
-0.002353350546637952   -0.01806892570333826   -0.0009256955725825628
-0.0021379865991805677   -0.0140542668213053   -0.0008968953203836401
-0.002333700857065008   -0.018093372784015453   -0.0009178658119513983
-0.004151119951247761   -0.014127856640530501   -0.0009286927022862664
-0.0021259137676221795   -0.014072607311152528   -0.0008840932488381066
-0.002333700857065008   -0.018093372784015453   -0.0009178658119513983
-0.0021379865991805677   -0.0140542668213053   -0.0008968953203836401
-0.004151119951247761   -0.014127856640530501   -0.0009286927022862664
-0.002333700857065008   -0.018093372784015453   -0.0009178658119513983
-0.004317780043193461   -0.018130108220619928   -0.0009774250653270522
-0.004341990976108813   -0.018091673121253194   -0.0009783699133001104
-0.004151119951247761   -0.014127856640530501   -0.0009286927022862664
-0.002333700857065008   -0.018093372784015453   -0.0009178658119513983
-0.004341990976108813   -0.018091673121253194   -0.0009783699133001104
-0.0021379865991805677   -0.0140542668213053   -0.0008968953203836401
-0.00215669048441266   -0.014012612997044118   -0.0009344644783530265
-0.002387888494562059   -0.018031474687838465   -0.0009537047841086703
-0.00019296764500647748   -0.01400510745936271   -0.0009070197674942899
-0.002148183720827518   -0.014034291264904386   -0.0009137188450094989
-0.002387888494562059   -0.018031474687838465   -0.0009537047841086703
-0.00045858657812705277   -0.01802076214739049   -0.0009382970622706836
-0.00019296764500647748   -0.01400510745936271   -0.0009070197674942899
-0.00043944907733172995   -0.018024474274211437   -0.0009155168310100362
-0.002148183720827518   -0.014034291264904386   -0.0009137188450094989
-0.00018143456308927506   -0.014012207110418336   -0.000889358662798982
-0.00043944907733172995   -0.018024474274211437   -0.0009155168310100362
-0.00019296764500647748   -0.01400510745936271   -0.0009070197674942899
-0.002148183720827518   -0.014034291264904386   -0.0009137188450094989
-0.00043944907733172995   -0.018024474274211437   -0.0009155168310100362
-0.0023716237396393274   -0.018048314527300793   -0.0009376872679452546
-0.002387888494562059   -0.018031474687838465   -0.0009537047841086703
-0.002148183720827518   -0.014034291264904386   -0.0009137188450094989
-0.00043944907733172995   -0.018024474274211437   -0.0009155168310100362
-0.002387888494562059   -0.018031474687838465   -0.0009537047841086703
-0.00019296764500647748   -0.01400510745936271   -0.0009070197674942899
-0.002148183720827518   -0.014034291264904386   -0.0009137188450094989
-0.0023716237396393274   -0.018048314527300793   -0.0009376872679452546
-0.00018143456308927506   -0.014012207110418336   -0.000889358662798982
-0.0021379865991805677   -0.0140542668213053   -0.0008968953203836401
-0.0023716237396393274   -0.018048314527300793   -0.0009376872679452546
-0.00043944907733172995   -0.018024474274211437   -0.0009155168310100362
-0.00018143456308927506   -0.014012207110418336   -0.000889358662798982
-0.0004213096104896863   -0.01803167544135664   -0.000896738542742755
-0.0021379865991805677   -0.0140542668213053   -0.0008968953203836401
-0.00017132320514619666   -0.014017478080060068   -0.0008755901700232868
-0.0004213096104896863   -0.01803167544135664   -0.000896738542742755
-0.00018143456308927506   -0.014012207110418336   -0.000889358662798982
-0.0021379865991805677   -0.0140542668213053   -0.0008968953203836401
-0.0004213096104896863   -0.01803167544135664   -0.000896738542742755
-0.002353350546637952   -0.01806892570333826   -0.0009256955725825628
-0.0023716237396393274   -0.018048314527300793   -0.0009376872679452546
-0.0021379865991805677   -0.0140542668213053   -0.0008968953203836401
-0.0004213096104896863   -0.01803167544135664   -0.000896738542742755
-0.0023716237396393274   -0.018048314527300793   -0.0009376872679452546
-0.00018143456308927506   -0.014012207110418336   -0.000889358662798982
-0.0021379865991805677   -0.0140542668213053   -0.0008968953203836401
-0.002353350546637952   -0.01806892570333826   -0.0009256955725825628
-0.00017132320514619666   -0.014017478080060068   -0.0008755901700232868
-0.0021259137676221795   -0.014072607311152528   -0.0008840932488381066
-0.002353350546637952   -0.01806892570333826   -0.0009256955725825628
-0.0004213096104896863   -0.01803167544135664   -0.000896738542742755
-0.00017132320514619666   -0.014017478080060068   -0.0008755901700232868
-0.0004057892203940145   -0.01804252387277339   -0.0008820994703911478
-0.0021259137676221795   -0.014072607311152528   -0.0008840932488381066
-0.0001633665864188682   -0.014020890043106391   -0.000865853454986759
-0.0004057892203940145   -0.01804252387277339   -0.0008820994703911478
-0.00017132320514619666   -0.014017478080060068   -0.0008755901700232868
-0.0021259137676221795   -0.014072607311152528   -0.0008840932488381066
-0.0004057892203940145   -0.01804252387277339   -0.0008820994703911478
-0.002333700857065008   -0.018093372784015453   -0.0009178658119513983
-0.002353350546637952   -0.01806892570333826   -0.0009256955725825628
-0.0021259137676221795   -0.014072607311152528   -0.0008840932488381066
-0.0004057892203940145   -0.01804252387277339   -0.0008820994703911478
-0.002353350546637952   -0.01806892570333826   -0.0009256955725825628
-0.00017132320514619666   -0.014017478080060068   -0.0008755901700232868
-0.00019296764500647748   -0.01400510745936271   -0.0009070197674942899
-0.00045858657812705277   -0.01802076214739049   -0.0009382970622706836
0.001830474284882399   -0.014001638974173787   -0.0009059885599394488
-0.00018143456308927506   -0.014012207110418336   -0.000889358662798982
-0.00045858657812705277   -0.01802076214739049   -0.0009382970622706836
0.0015282290159840623   -0.01799703705886369   -0.0009467133433632684
0.001830474284882399   -0.014001638974173787   -0.0009059885599394488
0.0015525363516895277   -0.017987556165509688   -0.0009172720460931793
-0.00018143456308927506   -0.014012207110418336   -0.000889358662798982
0.0018455216885031914   -0.013994587364046586   -0.0008915616197200877
0.0015525363516895277   -0.017987556165509688   -0.0009172720460931793
0.001830474284882399   -0.014001638974173787   -0.0009059885599394488
-0.00018143456308927506   -0.014012207110418336   -0.000889358662798982
0.0015525363516895277   -0.017987556165509688   -0.0009172720460931793
-0.00043944907733172995   -0.018024474274211437   -0.0009155168310100362
-0.00045858657812705277   -0.01802076214739049   -0.0009382970622706836
-0.00018143456308927506   -0.014012207110418336   -0.000889358662798982
0.0015525363516895277   -0.017987556165509688   -0.0009172720460931793
-0.00045858657812705277   -0.01802076214739049   -0.0009382970622706836
0.001830474284882399   -0.014001638974173787   -0.0009059885599394488
-0.00018143456308927506   -0.014012207110418336   -0.000889358662798982
-0.00043944907733172995   -0.018024474274211437   -0.0009155168310100362
0.0018455216885031914   -0.013994587364046586   -0.0008915616197200877
-0.00017132320514619666   -0.014017478080060068   -0.0008755901700232868
-0.00043944907733172995   -0.018024474274211437   -0.0009155168310100362
0.0015525363516895277   -0.017987556165509688   -0.0009172720460931793
0.0018455216885031914   -0.013994587364046586   -0.0008915616197200877
0.0015751264806795006   -0.017982611984205997   -0.0008918177886004663
-0.00017132320514619666   -0.014017478080060068   -0.0008755901700232868
0.0018560101981629998   -0.013986552100739217   -0.0008809123188088739
0.0015751264806795006   -0.017982611984205997   -0.0008918177886004663
0.0018455216885031914   -0.013994587364046586   -0.0008915616197200877
-0.00017132320514619666   -0.014017478080060068   -0.0008755901700232868
0.0015751264806795006   -0.017982611984205997   -0.0008918177886004663
-0.0004213096104896863   -0.01803167544135664   -0.000896738542742755
-0.00043944907733172995   -0.018024474274211437   -0.0009155168310100362
-0.00017132320514619666   -0.014017478080060068   -0.0008755901700232868
0.0015751264806795006   -0.017982611984205997   -0.0008918177886004663
-0.00043944907733172995   -0.018024474274211437   -0.0009155168310100362
0.0018455216885031914   -0.013994587364046586   -0.0008915616197200877
-0.00017132320514619666   -0.014017478080060068   -0.0008755901700232868
-0.0004213096104896863   -0.01803167544135664   -0.000896738542742755
0.0018560101981629998   -0.013986552100739217   -0.0008809123188088739
-0.0001633665864188682   -0.014020890043106391   -0.000865853454986759
-0.0004213096104896863   -0.01803167544135664   -0.000896738542742755
0.0015751264806795006   -0.017982611984205997   -0.0008918177886004663
0.0018560101981629998   -0.013986552100739217   -0.0008809123188088739
0.0015876152475092953   -0.017979889184830573   -0.0008700902169720226
-0.0001633665864188682   -0.014020890043106391   -0.000865853454986759
0.0018590262138664564   -0.013974955465060553   -0.0008739657151743147
0.0015876152475092953   -0.017979889184830573   -0.0008700902169720226
0.0018560101981629998   -0.013986552100739217   -0.0008809123188088739
-0.0001633665864188682   -0.014020890043106391   -0.000865853454986759
0.0015876152475092953   -0.017979889184830573   -0.0008700902169720226
-0.0004057892203940145   -0.01804252387277339   -0.0008820994703911478
-0.0004213096104896863   -0.01803167544135664   -0.000896738542742755
-0.0001633665864188682   -0.014020890043106391   -0.000865853454986759
0.0015876152475092953   -0.017979889184830573   -0.0008700902169720226
-0.0004213096104896863   -0.01803167544135664   -0.000896738542742755
0.0018560101981629998   -0.013986552100739217   -0.0008809123188088739
0.001830474284882399   -0.014001638974173787   -0.0009059885599394488
0.0015282290159840623   -0.01799703705886369   -0.0009467133433632684
0.0040223951168331966   -0.013996538453955062   -0.0009288938775526047
0.0018455216885031914   -0.013994587364046586   -0.0008915616197200877
0.0015282290159840623   -0.01799703705886369   -0.0009467133433632684
0.0036538279857353364   -0.017957011879247545   -0.0009803225866949112
0.0040223951168331966   -0.013996538453955062   -0.0009288938775526047
0.0037166539671411704   -0.01793553507305278   -0.0009414977674229214
0.0018455216885031914   -0.013994587364046586   -0.0008915616197200877
0.004051465161823825   -0.013978265110508984   -0.0009166809807482872
0.0037166539671411704   -0.01793553507305278   -0.0009414977674229214
0.0040223951168331966   -0.013996538453955062   -0.0009288938775526047
0.0018455216885031914   -0.013994587364046586   -0.0008915616197200877
0.0037166539671411704   -0.01793553507305278   -0.0009414977674229214
0.0015525363516895277   -0.017987556165509688   -0.0009172720460931793
0.0015282290159840623   -0.01799703705886369   -0.0009467133433632684
0.0018455216885031914   -0.013994587364046586   -0.0008915616197200877
0.0037166539671411704   -0.01793553507305278   -0.0009414977674229214
0.0015282290159840623   -0.01799703705886369   -0.0009467133433632684
0.0040223951168331966   -0.013996538453955062   -0.0009288938775526047
0.0018455216885031914   -0.013994587364046586   -0.0008915616197200877
0.0015525363516895277   -0.017987556165509688   -0.0009172720460931793
0.004051465161823825   -0.013978265110508984   -0.0009166809807482872
0.0018560101981629998   -0.013986552100739217   -0.0008809123188088739
0.0015525363516895277   -0.017987556165509688   -0.0009172720460931793
0.0037166539671411704   -0.01793553507305278   -0.0009414977674229214
0.004051465161823825   -0.013978265110508984   -0.0009166809807482872
0.003760139034512298   -0.017925101519932134   -0.0009083640939179067
0.0018560101981629998   -0.013986552100739217   -0.0008809123188088739
0.004067494591713836   -0.013963937740152562   -0.000910219942596922
0.003760139034512298   -0.017925101519932134   -0.0009083640939179067
0.004051465161823825   -0.013978265110508984   -0.0009166809807482872
0.0018560101981629998   -0.013986552100739217   -0.0008809123188088739
0.003760139034512298   -0.017925101519932134   -0.0009083640939179067
0.0015751264806795006   -0.017982611984205997   -0.0008918177886004663
0.0015525363516895277   -0.017987556165509688   -0.0009172720460931793
0.0018560101981629998   -0.013986552100739217   -0.0008809123188088739
0.003760139034512298   -0.017925101519932134   -0.0009083640939179067
0.0015525363516895277   -0.017987556165509688   -0.0009172720460931793
0.004051465161823825   -0.013978265110508984   -0.0009166809807482872
0.0018560101981629998   -0.013986552100739217   -0.0008809123188088739
0.0015751264806795006   -0.017982611984205997   -0.0008918177886004663
0.004067494591713836   -0.013963937740152562   -0.000910219942596922
0.0018590262138664564   -0.013974955465060553   -0.0008739657151743147
0.0015751264806795006   -0.017982611984205997   -0.0008918177886004663
0.003760139034512298   -0.017925101519932134   -0.0009083640939179067
0.004067494591713836   -0.013963937740152562   -0.000910219942596922
0.0037991662579706167   -0.017913970471869132   -0.0008811610562319506
0.0018590262138664564   -0.013974955465060553   -0.0008739657151743147
0.004072795811945772   -0.013941271433493158   -0.0009096093016878928
0.0037991662579706167   -0.017913970471869132   -0.0008811610562319506
0.004067494591713836   -0.013963937740152562   -0.000910219942596922
0.0018590262138664564   -0.013974955465060553   -0.0008739657151743147
0.0037991662579706167   -0.017913970471869132   -0.0008811610562319506
0.0015876152475092953   -0.017979889184830573   -0.0008700902169720226
0.0015751264806795006   -0.017982611984205997   -0.0008918177886004663
0.0018590262138664564   -0.013974955465060553   -0.0008739657151743147
0.0037991662579706167   -0.017913970471869132   -0.0008811610562319506
0.0015751264806795006   -0.017982611984205997   -0.0008918177886004663
0.004067494591713836   -0.013963937740152562   -0.000910219942596922
-0.006539956631340608   -0.01801876668385982   -0.0010500574931243142
-0.0063610820692331935   -0.02180347750801706   -0.0010050317939944505
-0.004373220212300415   -0.018029337148449755   -0.0009921522577885666
-0.006531423986265987   -0.018058281153156722   -0.0010485750990426586
-0.0063610820692331935   -0.02180347750801706   -0.0010050317939944505
-0.004354174795987353   -0.021846981206310546   -0.0009703985341179454
-0.004373220212300415   -0.018029337148449755   -0.0009921522577885666
-0.004328567183366194   -0.02186892092334327   -0.0009757463925540294
-0.006531423986265987   -0.018058281153156722   -0.0010485750990426586
-0.0043608667059893795   -0.018058839764557254   -0.0009832537505763122
-0.004328567183366194   -0.02186892092334327   -0.0009757463925540294
-0.004373220212300415   -0.018029337148449755   -0.0009921522577885666
-0.006531423986265987   -0.018058281153156722   -0.0010485750990426586
-0.004328567183366194   -0.02186892092334327   -0.0009757463925540294
-0.006314808070404825   -0.02183311473179694   -0.001030406570295807
-0.0063610820692331935   -0.02180347750801706   -0.0010050317939944505
-0.006531423986265987   -0.018058281153156722   -0.0010485750990426586
-0.004328567183366194   -0.02186892092334327   -0.0009757463925540294
-0.0063610820692331935   -0.02180347750801706   -0.0010050317939944505
-0.004373220212300415   -0.018029337148449755   -0.0009921522577885666
-0.006531423986265987   -0.018058281153156722   -0.0010485750990426586
-0.006314808070404825   -0.02183311473179694   -0.001030406570295807
-0.0043608667059893795   -0.018058839764557254   -0.0009832537505763122
-0.006510649103420649   -0.01809682471457583   -0.0010530886173388777
-0.006314808070404825   -0.02183311473179694   -0.001030406570295807
-0.004328567183366194   -0.02186892092334327   -0.0009757463925540294
-0.0043608667059893795   -0.018058839764557254   -0.0009832537505763122
-0.004294026870010059   -0.021900338309200382   -0.0009851829084606353
-0.006510649103420649   -0.01809682471457583   -0.0010530886173388777
-0.004341990976108813   -0.018091673121253194   -0.0009783699133001104
-0.004294026870010059   -0.021900338309200382   -0.0009851829084606353
-0.0043608667059893795   -0.018058839764557254   -0.0009832537505763122
-0.006510649103420649   -0.01809682471457583   -0.0010530886173388777
-0.004294026870010059   -0.021900338309200382   -0.0009851829084606353
-0.006262265976543746   -0.021869717982075883   -0.0010622068205586898
-0.006314808070404825   -0.02183311473179694   -0.001030406570295807
-0.006510649103420649   -0.01809682471457583   -0.0010530886173388777
-0.004294026870010059   -0.021900338309200382   -0.0009851829084606353
-0.006314808070404825   -0.02183311473179694   -0.001030406570295807
-0.0043608667059893795   -0.018058839764557254   -0.0009832537505763122
-0.006510649103420649   -0.01809682471457583   -0.0010530886173388777
-0.006262265976543746   -0.021869717982075883   -0.0010622068205586898
-0.004341990976108813   -0.018091673121253194   -0.0009783699133001104
-0.006477474816271552   -0.018146632270810887   -0.001063914546564956
-0.006262265976543746   -0.021869717982075883   -0.0010622068205586898
-0.004294026870010059   -0.021900338309200382   -0.0009851829084606353
-0.004341990976108813   -0.018091673121253194   -0.0009783699133001104
-0.004257024223577842   -0.021943158710290688   -0.00099881954582644
-0.006477474816271552   -0.018146632270810887   -0.001063914546564956
-0.004317780043193461   -0.018130108220619928   -0.0009774250653270522
-0.004257024223577842   -0.021943158710290688   -0.00099881954582644
-0.004341990976108813   -0.018091673121253194   -0.0009783699133001104
-0.006477474816271552   -0.018146632270810887   -0.001063914546564956
-0.004257024223577842   -0.021943158710290688   -0.00099881954582644
-0.006190919695920649   -0.021925552687762907   -0.0011005651739296562
-0.006262265976543746   -0.021869717982075883   -0.0010622068205586898
-0.006477474816271552   -0.018146632270810887   -0.001063914546564956
-0.004257024223577842   -0.021943158710290688   -0.00099881954582644
-0.006262265976543746   -0.021869717982075883   -0.0010622068205586898
-0.004341990976108813   -0.018091673121253194   -0.0009783699133001104
-0.004373220212300415   -0.018029337148449755   -0.0009921522577885666
-0.004354174795987353   -0.021846981206310546   -0.0009703985341179454
-0.002387888494562059   -0.018031474687838465   -0.0009537047841086703
-0.0043608667059893795   -0.018058839764557254   -0.0009832537505763122
-0.004354174795987353   -0.021846981206310546   -0.0009703985341179454
-0.0025536944295836595   -0.021863966727142845   -0.0009482881198960567
-0.002387888494562059   -0.018031474687838465   -0.0009537047841086703
-0.002525881183358658   -0.02187529397165994   -0.0009366143082415177
-0.0043608667059893795   -0.018058839764557254   -0.0009832537505763122
-0.0023716237396393274   -0.018048314527300793   -0.0009376872679452546
-0.002525881183358658   -0.02187529397165994   -0.0009366143082415177
-0.002387888494562059   -0.018031474687838465   -0.0009537047841086703
-0.0043608667059893795   -0.018058839764557254   -0.0009832537505763122
-0.002525881183358658   -0.02187529397165994   -0.0009366143082415177
-0.004328567183366194   -0.02186892092334327   -0.0009757463925540294
-0.004354174795987353   -0.021846981206310546   -0.0009703985341179454
-0.0043608667059893795   -0.018058839764557254   -0.0009832537505763122
-0.002525881183358658   -0.02187529397165994   -0.0009366143082415177
-0.004354174795987353   -0.021846981206310546   -0.0009703985341179454
-0.002387888494562059   -0.018031474687838465   -0.0009537047841086703
-0.0043608667059893795   -0.018058839764557254   -0.0009832537505763122
-0.004328567183366194   -0.02186892092334327   -0.0009757463925540294
-0.0023716237396393274   -0.018048314527300793   -0.0009376872679452546
-0.004341990976108813   -0.018091673121253194   -0.0009783699133001104
-0.004328567183366194   -0.02186892092334327   -0.0009757463925540294
-0.002525881183358658   -0.02187529397165994   -0.0009366143082415177
-0.0023716237396393274   -0.018048314527300793   -0.0009376872679452546
-0.002495990366674453   -0.021895718822779405   -0.0009289776169517974
-0.004341990976108813   -0.018091673121253194   -0.0009783699133001104
-0.002353350546637952   -0.01806892570333826   -0.0009256955725825628
-0.002495990366674453   -0.021895718822779405   -0.0009289776169517974
-0.0023716237396393274   -0.018048314527300793   -0.0009376872679452546
-0.004341990976108813   -0.018091673121253194   -0.0009783699133001104
-0.002495990366674453   -0.021895718822779405   -0.0009289776169517974
-0.004294026870010059   -0.021900338309200382   -0.0009851829084606353
-0.004328567183366194   -0.02186892092334327   -0.0009757463925540294
-0.004341990976108813   -0.018091673121253194   -0.0009783699133001104
-0.002495990366674453   -0.021895718822779405   -0.0009289776169517974
-0.004328567183366194   -0.02186892092334327   -0.0009757463925540294
-0.0023716237396393274   -0.018048314527300793   -0.0009376872679452546
-0.004341990976108813   -0.018091673121253194   -0.0009783699133001104
-0.004294026870010059   -0.021900338309200382   -0.0009851829084606353
-0.002353350546637952   -0.01806892570333826   -0.0009256955725825628
-0.004317780043193461   -0.018130108220619928   -0.0009774250653270522
-0.004294026870010059   -0.021900338309200382   -0.0009851829084606353
-0.002495990366674453   -0.021895718822779405   -0.0009289776169517974
-0.002353350546637952   -0.01806892570333826   -0.0009256955725825628
-0.0024652676444540268   -0.021925492052651638   -0.0009255812947024908
-0.004317780043193461   -0.018130108220619928   -0.0009774250653270522
-0.002333700857065008   -0.018093372784015453   -0.0009178658119513983
-0.0024652676444540268   -0.021925492052651638   -0.0009255812947024908
-0.002353350546637952   -0.01806892570333826   -0.0009256955725825628
-0.004317780043193461   -0.018130108220619928   -0.0009774250653270522
-0.0024652676444540268   -0.021925492052651638   -0.0009255812947024908
-0.004257024223577842   -0.021943158710290688   -0.00099881954582644
-0.004294026870010059   -0.021900338309200382   -0.0009851829084606353
-0.004317780043193461   -0.018130108220619928   -0.0009774250653270522
-0.0024652676444540268   -0.021925492052651638   -0.0009255812947024908
-0.004294026870010059   -0.021900338309200382   -0.0009851829084606353
-0.002353350546637952   -0.01806892570333826   -0.0009256955725825628
-0.002387888494562059   -0.018031474687838465   -0.0009537047841086703
-0.0025536944295836595   -0.021863966727142845   -0.0009482881198960567
-0.00045858657812705277   -0.01802076214739049   -0.0009382970622706836
-0.0023716237396393274   -0.018048314527300793   -0.0009376872679452546
-0.0025536944295836595   -0.021863966727142845   -0.0009482881198960567
-0.0008074955203261218   -0.021850476405460083   -0.0009450239852067707
-0.00045858657812705277   -0.01802076214739049   -0.0009382970622706836
-0.0007767449287325379   -0.021850537427380468   -0.0009169123357804051
-0.0023716237396393274   -0.018048314527300793   -0.0009376872679452546
-0.00043944907733172995   -0.018024474274211437   -0.0009155168310100362
-0.0007767449287325379   -0.021850537427380468   -0.0009169123357804051
-0.00045858657812705277   -0.01802076214739049   -0.0009382970622706836
-0.0023716237396393274   -0.018048314527300793   -0.0009376872679452546
-0.0007767449287325379   -0.021850537427380468   -0.0009169123357804051
-0.002525881183358658   -0.02187529397165994   -0.0009366143082415177
-0.0025536944295836595   -0.021863966727142845   -0.0009482881198960567
-0.0023716237396393274   -0.018048314527300793   -0.0009376872679452546
-0.0007767449287325379   -0.021850537427380468   -0.0009169123357804051
-0.0025536944295836595   -0.021863966727142845   -0.0009482881198960567
-0.00045858657812705277   -0.01802076214739049   -0.0009382970622706836
-0.0023716237396393274   -0.018048314527300793   -0.0009376872679452546
-0.002525881183358658   -0.02187529397165994   -0.0009366143082415177
-0.00043944907733172995   -0.018024474274211437   -0.0009155168310100362
-0.002353350546637952   -0.01806892570333826   -0.0009256955725825628
-0.002525881183358658   -0.02187529397165994   -0.0009366143082415177
-0.0007767449287325379   -0.021850537427380468   -0.0009169123357804051
-0.00043944907733172995   -0.018024474274211437   -0.0009155168310100362
-0.0007467809535047383   -0.021859051778256745   -0.0008928517186548478
-0.002353350546637952   -0.01806892570333826   -0.0009256955725825628
-0.0004213096104896863   -0.01803167544135664   -0.000896738542742755
-0.0007467809535047383   -0.021859051778256745   -0.0008928517186548478
-0.00043944907733172995   -0.018024474274211437   -0.0009155168310100362
-0.002353350546637952   -0.01806892570333826   -0.0009256955725825628
-0.0007467809535047383   -0.021859051778256745   -0.0008928517186548478
-0.002495990366674453   -0.021895718822779405   -0.0009289776169517974
-0.002525881183358658   -0.02187529397165994   -0.0009366143082415177
-0.002353350546637952   -0.01806892570333826   -0.0009256955725825628
-0.0007467809535047383   -0.021859051778256745   -0.0008928517186548478
-0.002525881183358658   -0.02187529397165994   -0.0009366143082415177
-0.00043944907733172995   -0.018024474274211437   -0.0009155168310100362
-0.002353350546637952   -0.01806892570333826   -0.0009256955725825628
-0.002495990366674453   -0.021895718822779405   -0.0009289776169517974
-0.0004213096104896863   -0.01803167544135664   -0.000896738542742755
-0.002333700857065008   -0.018093372784015453   -0.0009178658119513983
-0.002495990366674453   -0.021895718822779405   -0.0009289776169517974
-0.0007467809535047383   -0.021859051778256745   -0.0008928517186548478
-0.0004213096104896863   -0.01803167544135664   -0.000896738542742755
-0.0007199899212980239   -0.021876706698035788   -0.0008729811852225435
-0.002333700857065008   -0.018093372784015453   -0.0009178658119513983
-0.0004057892203940145   -0.01804252387277339   -0.0008820994703911478
-0.0007199899212980239   -0.021876706698035788   -0.0008729811852225435
-0.0004213096104896863   -0.01803167544135664   -0.000896738542742755
-0.002333700857065008   -0.018093372784015453   -0.0009178658119513983
-0.0007199899212980239   -0.021876706698035788   -0.0008729811852225435
-0.0024652676444540268   -0.021925492052651638   -0.0009255812947024908
-0.002495990366674453   -0.021895718822779405   -0.0009289776169517974
-0.002333700857065008   -0.018093372784015453   -0.0009178658119513983
-0.0007199899212980239   -0.021876706698035788   -0.0008729811852225435
-0.002495990366674453   -0.021895718822779405   -0.0009289776169517974
-0.0004213096104896863   -0.01803167544135664   -0.000896738542742755
-0.00045858657812705277   -0.01802076214739049   -0.0009382970622706836
-0.0008074955203261218   -0.021850476405460083   -0.0009450239852067707
0.0015282290159840623   -0.01799703705886369   -0.0009467133433632684
-0.00043944907733172995   -0.018024474274211437   -0.0009155168310100362
-0.0008074955203261218   -0.021850476405460083   -0.0009450239852067707
0.0009978411043237647   -0.02180731004228186   -0.00096207808108138
0.0015282290159840623   -0.01799703705886369   -0.0009467133433632684
0.0010354611937523751   -0.02179534243032607   -0.0009176631337924305
-0.00043944907733172995   -0.018024474274211437   -0.0009155168310100362
0.0015525363516895277   -0.017987556165509688   -0.0009172720460931793
0.0010354611937523751   -0.02179534243032607   -0.0009176631337924305
0.0015282290159840623   -0.01799703705886369   -0.0009467133433632684
-0.00043944907733172995   -0.018024474274211437   -0.0009155168310100362
0.0010354611937523751   -0.02179534243032607   -0.0009176631337924305
-0.0007767449287325379   -0.021850537427380468   -0.0009169123357804051
-0.0008074955203261218   -0.021850476405460083   -0.0009450239852067707
-0.00043944907733172995   -0.018024474274211437   -0.0009155168310100362
0.0010354611937523751   -0.02179534243032607   -0.0009176631337924305
-0.0008074955203261218   -0.021850476405460083   -0.0009450239852067707
0.0015282290159840623   -0.01799703705886369   -0.0009467133433632684
-0.00043944907733172995   -0.018024474274211437   -0.0009155168310100362
-0.0007767449287325379   -0.021850537427380468   -0.0009169123357804051
0.0015525363516895277   -0.017987556165509688   -0.0009172720460931793
-0.0004213096104896863   -0.01803167544135664   -0.000896738542742755
-0.0007767449287325379   -0.021850537427380468   -0.0009169123357804051
0.0010354611937523751   -0.02179534243032607   -0.0009176631337924305
0.0015525363516895277   -0.017987556165509688   -0.0009172720460931793
0.0010741130470409129   -0.021793042373577313   -0.0008775532959817452
-0.0004213096104896863   -0.01803167544135664   -0.000896738542742755
0.0015751264806795006   -0.017982611984205997   -0.0008918177886004663
0.0010741130470409129   -0.021793042373577313   -0.0008775532959817452
0.0015525363516895277   -0.017987556165509688   -0.0009172720460931793
-0.0004213096104896863   -0.01803167544135664   -0.000896738542742755
0.0010741130470409129   -0.021793042373577313   -0.0008775532959817452
-0.0007467809535047383   -0.021859051778256745   -0.0008928517186548478
-0.0007767449287325379   -0.021850537427380468   -0.0009169123357804051
-0.0004213096104896863   -0.01803167544135664   -0.000896738542742755
0.0010741130470409129   -0.021793042373577313   -0.0008775532959817452
-0.0007767449287325379   -0.021850537427380468   -0.0009169123357804051
0.0015525363516895277   -0.017987556165509688   -0.0009172720460931793
-0.0004213096104896863   -0.01803167544135664   -0.000896738542742755
-0.0007467809535047383   -0.021859051778256745   -0.0008928517186548478
0.0015751264806795006   -0.017982611984205997   -0.0008918177886004663
-0.0004057892203940145   -0.01804252387277339   -0.0008820994703911478
-0.0007467809535047383   -0.021859051778256745   -0.0008928517186548478
0.0010741130470409129   -0.021793042373577313   -0.0008775532959817452
0.0015751264806795006   -0.017982611984205997   -0.0008918177886004663
0.0010999517929158572   -0.021798642191744308   -0.0008411791529044909
-0.0004057892203940145   -0.01804252387277339   -0.0008820994703911478
0.0015876152475092953   -0.017979889184830573   -0.0008700902169720226
0.0010999517929158572   -0.021798642191744308   -0.0008411791529044909
0.0015751264806795006   -0.017982611984205997   -0.0008918177886004663
-0.0004057892203940145   -0.01804252387277339   -0.0008820994703911478
0.0010999517929158572   -0.021798642191744308   -0.0008411791529044909
-0.0007199899212980239   -0.021876706698035788   -0.0008729811852225435
-0.0007467809535047383   -0.021859051778256745   -0.0008928517186548478
-0.0004057892203940145   -0.01804252387277339   -0.0008820994703911478
0.0010999517929158572   -0.021798642191744308   -0.0008411791529044909
-0.0007467809535047383   -0.021859051778256745   -0.0008928517186548478
0.0015751264806795006   -0.017982611984205997   -0.0008918177886004663
0.0015282290159840623   -0.01799703705886369   -0.0009467133433632684
0.0009978411043237647   -0.02180731004228186   -0.00096207808108138
0.0036538279857353364   -0.017957011879247545   -0.0009803225866949112
0.0015525363516895277   -0.017987556165509688   -0.0009172720460931793
0.0009978411043237647   -0.02180731004228186   -0.00096207808108138
0.002916003639443487   -0.021733032994562692   -0.001005379850733547
0.0036538279857353364   -0.017957011879247545   -0.0009803225866949112
0.0030161786643941113   -0.021708540763549597   -0.0009406361054277944
0.0015525363516895277   -0.017987556165509688   -0.0009172720460931793
0.0037166539671411704   -0.01793553507305278   -0.0009414977674229214
0.0030161786643941113   -0.021708540763549597   -0.0009406361054277944
0.0036538279857353364   -0.017957011879247545   -0.0009803225866949112
0.0015525363516895277   -0.017987556165509688   -0.0009172720460931793
0.0030161786643941113   -0.021708540763549597   -0.0009406361054277944
0.0010354611937523751   -0.02179534243032607   -0.0009176631337924305
0.0009978411043237647   -0.02180731004228186   -0.00096207808108138
0.0015525363516895277   -0.017987556165509688   -0.0009172720460931793
0.0030161786643941113   -0.021708540763549597   -0.0009406361054277944
0.0009978411043237647   -0.02180731004228186   -0.00096207808108138
0.0036538279857353364   -0.017957011879247545   -0.0009803225866949112
0.0015525363516895277   -0.017987556165509688   -0.0009172720460931793
0.0010354611937523751   -0.02179534243032607   -0.0009176631337924305
0.0037166539671411704   -0.01793553507305278   -0.0009414977674229214
0.0015751264806795006   -0.017982611984205997   -0.0008918177886004663
0.0010354611937523751   -0.02179534243032607   -0.0009176631337924305
0.0030161786643941113   -0.021708540763549597   -0.0009406361054277944
0.0037166539671411704   -0.01793553507305278   -0.0009414977674229214
0.003090527984625142   -0.02170174104680669   -0.0008816291130425899
0.0015751264806795006   -0.017982611984205997   -0.0008918177886004663
0.003760139034512298   -0.017925101519932134   -0.0009083640939179067
0.003090527984625142   -0.02170174104680669   -0.0008816291130425899
0.0037166539671411704   -0.01793553507305278   -0.0009414977674229214
0.0015751264806795006   -0.017982611984205997   -0.0008918177886004663
0.003090527984625142   -0.02170174104680669   -0.0008816291130425899
0.0010741130470409129   -0.021793042373577313   -0.0008775532959817452
0.0010354611937523751   -0.02179534243032607   -0.0009176631337924305
0.0015751264806795006   -0.017982611984205997   -0.0008918177886004663
0.003090527984625142   -0.02170174104680669   -0.0008816291130425899
0.0010354611937523751   -0.02179534243032607   -0.0009176631337924305
0.0037166539671411704   -0.01793553507305278   -0.0009414977674229214
0.0015751264806795006   -0.017982611984205997   -0.0008918177886004663
0.0010741130470409129   -0.021793042373577313   -0.0008775532959817452
0.003760139034512298   -0.017925101519932134   -0.0009083640939179067
0.0015876152475092953   -0.017979889184830573   -0.0008700902169720226
0.0010741130470409129   -0.021793042373577313   -0.0008775532959817452
0.003090527984625142   -0.02170174104680669   -0.0008816291130425899
0.003760139034512298   -0.017925101519932134   -0.0009083640939179067
0.003166213987626297   -0.02170174009688847   -0.0008286287574851044
0.0015876152475092953   -0.017979889184830573   -0.0008700902169720226
0.0037991662579706167   -0.017913970471869132   -0.0008811610562319506
0.003166213987626297   -0.02170174009688847   -0.0008286287574851044
0.003760139034512298   -0.017925101519932134   -0.0009083640939179067
0.0015876152475092953   -0.017979889184830573   -0.0008700902169720226
0.003166213987626297   -0.02170174009688847   -0.0008286287574851044
0.0010999517929158572   -0.021798642191744308   -0.0008411791529044909
0.0010741130470409129   -0.021793042373577313   -0.0008775532959817452
0.0015876152475092953   -0.017979889184830573   -0.0008700902169720226
0.003166213987626297   -0.02170174009688847   -0.0008286287574851044
0.0010741130470409129   -0.021793042373577313   -0.0008775532959817452
0.003760139034512298   -0.017925101519932134   -0.0009083640939179067
-0.0063610820692331935   -0.02180347750801706   -0.0010050317939944505
-0.00580644541969344   -0.025146521524694123   -0.0009380447603064633
-0.004354174795987353   -0.021846981206310546   -0.0009703985341179454
-0.006314808070404825   -0.02183311473179694   -0.001030406570295807
-0.00580644541969344   -0.025146521524694123   -0.0009380447603064633
-0.004118842803501964   -0.02522451952132294   -0.0009326321345756129
-0.004354174795987353   -0.021846981206310546   -0.0009703985341179454
-0.004077107657605061   -0.02523576889021631   -0.0009511454652395115
-0.006314808070404825   -0.02183311473179694   -0.001030406570295807
-0.004328567183366194   -0.02186892092334327   -0.0009757463925540294
-0.004077107657605061   -0.02523576889021631   -0.0009511454652395115
-0.004354174795987353   -0.021846981206310546   -0.0009703985341179454
-0.006314808070404825   -0.02183311473179694   -0.001030406570295807
-0.004077107657605061   -0.02523576889021631   -0.0009511454652395115
-0.005719154537690761   -0.0251631756337454   -0.0009900406127162622
-0.00580644541969344   -0.025146521524694123   -0.0009380447603064633
-0.006314808070404825   -0.02183311473179694   -0.001030406570295807
-0.004077107657605061   -0.02523576889021631   -0.0009511454652395115
-0.00580644541969344   -0.025146521524694123   -0.0009380447603064633
-0.004354174795987353   -0.021846981206310546   -0.0009703985341179454
-0.006314808070404825   -0.02183311473179694   -0.001030406570295807
-0.005719154537690761   -0.0251631756337454   -0.0009900406127162622
-0.004328567183366194   -0.02186892092334327   -0.0009757463925540294
-0.006262265976543746   -0.021869717982075883   -0.0010622068205586898
-0.005719154537690761   -0.0251631756337454   -0.0009900406127162622
-0.004077107657605061   -0.02523576889021631   -0.0009511454652395115
-0.004328567183366194   -0.02186892092334327   -0.0009757463925540294
-0.0040246719467779265   -0.02526288177825609   -0.0009737818660368941
-0.006262265976543746   -0.021869717982075883   -0.0010622068205586898
-0.004294026870010059   -0.021900338309200382   -0.0009851829084606353
-0.0040246719467779265   -0.02526288177825609   -0.0009737818660368941
-0.004328567183366194   -0.02186892092334327   -0.0009757463925540294
-0.006262265976543746   -0.021869717982075883   -0.0010622068205586898
-0.0040246719467779265   -0.02526288177825609   -0.0009737818660368941
-0.005632275442657142   -0.025195001636682285   -0.0010487476530365364
-0.005719154537690761   -0.0251631756337454   -0.0009900406127162622
-0.006262265976543746   -0.021869717982075883   -0.0010622068205586898
-0.0040246719467779265   -0.02526288177825609   -0.0009737818660368941
-0.005719154537690761   -0.0251631756337454   -0.0009900406127162622
-0.004328567183366194   -0.02186892092334327   -0.0009757463925540294
-0.006262265976543746   -0.021869717982075883   -0.0010622068205586898
-0.005632275442657142   -0.025195001636682285   -0.0010487476530365364
-0.004294026870010059   -0.021900338309200382   -0.0009851829084606353
-0.006190919695920649   -0.021925552687762907   -0.0011005651739296562
-0.005632275442657142   -0.025195001636682285   -0.0010487476530365364
-0.0040246719467779265   -0.02526288177825609   -0.0009737818660368941
-0.004294026870010059   -0.021900338309200382   -0.0009851829084606353
-0.003972970808377566   -0.02530740144388177   -0.0010005020538561666
-0.006190919695920649   -0.021925552687762907   -0.0011005651739296562
-0.004257024223577842   -0.021943158710290688   -0.00099881954582644
-0.003972970808377566   -0.02530740144388177   -0.0010005020538561666
-0.004294026870010059   -0.021900338309200382   -0.0009851829084606353
-0.006190919695920649   -0.021925552687762907   -0.0011005651739296562
-0.003972970808377566   -0.02530740144388177   -0.0010005020538561666
-0.005521043078105402   -0.025254349435570377   -0.001114057248145796
-0.005632275442657142   -0.025195001636682285   -0.0010487476530365364
-0.006190919695920649   -0.021925552687762907   -0.0011005651739296562
-0.003972970808377566   -0.02530740144388177   -0.0010005020538561666
-0.005632275442657142   -0.025195001636682285   -0.0010487476530365364
-0.004294026870010059   -0.021900338309200382   -0.0009851829084606353
-0.004354174795987353   -0.021846981206310546   -0.0009703985341179454
-0.004118842803501964   -0.02522451952132294   -0.0009326321345756129
-0.0025536944295836595   -0.021863966727142845   -0.0009482881198960567
-0.004328567183366194   -0.02186892092334327   -0.0009757463925540294
-0.004118842803501964   -0.02522451952132294   -0.0009326321345756129
-0.002655245979533738   -0.02526069204528846   -0.0009305953635953484
-0.0025536944295836595   -0.021863966727142845   -0.0009482881198960567
-0.002612494292658012   -0.02526432476701505   -0.0009222215223692482
-0.004328567183366194   -0.02186892092334327   -0.0009757463925540294
-0.002525881183358658   -0.02187529397165994   -0.0009366143082415177
-0.002612494292658012   -0.02526432476701505   -0.0009222215223692482
-0.0025536944295836595   -0.021863966727142845   -0.0009482881198960567
-0.004328567183366194   -0.02186892092334327   -0.0009757463925540294
-0.002612494292658012   -0.02526432476701505   -0.0009222215223692482
-0.004077107657605061   -0.02523576889021631   -0.0009511454652395115
-0.004118842803501964   -0.02522451952132294   -0.0009326321345756129
-0.004328567183366194   -0.02186892092334327   -0.0009757463925540294
-0.002612494292658012   -0.02526432476701505   -0.0009222215223692482
-0.004118842803501964   -0.02522451952132294   -0.0009326321345756129
-0.0025536944295836595   -0.021863966727142845   -0.0009482881198960567
-0.004328567183366194   -0.02186892092334327   -0.0009757463925540294
-0.004077107657605061   -0.02523576889021631   -0.0009511454652395115
-0.002525881183358658   -0.02187529397165994   -0.0009366143082415177
-0.004294026870010059   -0.021900338309200382   -0.0009851829084606353
-0.004077107657605061   -0.02523576889021631   -0.0009511454652395115
-0.002612494292658012   -0.02526432476701505   -0.0009222215223692482
-0.002525881183358658   -0.02187529397165994   -0.0009366143082415177
-0.0025683427760339866   -0.025282137570884586   -0.0009178482965212897
-0.004294026870010059   -0.021900338309200382   -0.0009851829084606353
-0.002495990366674453   -0.021895718822779405   -0.0009289776169517974
-0.0025683427760339866   -0.025282137570884586   -0.0009178482965212897
-0.002525881183358658   -0.02187529397165994   -0.0009366143082415177
-0.004294026870010059   -0.021900338309200382   -0.0009851829084606353
-0.0025683427760339866   -0.025282137570884586   -0.0009178482965212897
-0.0040246719467779265   -0.02526288177825609   -0.0009737818660368941
-0.004077107657605061   -0.02523576889021631   -0.0009511454652395115
-0.004294026870010059   -0.021900338309200382   -0.0009851829084606353
-0.0025683427760339866   -0.025282137570884586   -0.0009178482965212897
-0.004077107657605061   -0.02523576889021631   -0.0009511454652395115
-0.002525881183358658   -0.02187529397165994   -0.0009366143082415177
-0.004294026870010059   -0.021900338309200382   -0.0009851829084606353
-0.0040246719467779265   -0.02526288177825609   -0.0009737818660368941
-0.002495990366674453   -0.021895718822779405   -0.0009289776169517974
-0.004257024223577842   -0.021943158710290688   -0.00099881954582644
-0.0040246719467779265   -0.02526288177825609   -0.0009737818660368941
-0.0025683427760339866   -0.025282137570884586   -0.0009178482965212897
-0.002495990366674453   -0.021895718822779405   -0.0009289776169517974
-0.002524249228306438   -0.02531493202615383   -0.0009174353488807193
-0.004257024223577842   -0.021943158710290688   -0.00099881954582644
-0.0024652676444540268   -0.021925492052651638   -0.0009255812947024908
-0.002524249228306438   -0.02531493202615383   -0.0009174353488807193
-0.002495990366674453   -0.021895718822779405   -0.0009289776169517974
-0.004257024223577842   -0.021943158710290688   -0.00099881954582644
-0.002524249228306438   -0.02531493202615383   -0.0009174353488807193
-0.003972970808377566   -0.02530740144388177   -0.0010005020538561666
-0.0040246719467779265   -0.02526288177825609   -0.0009737818660368941
-0.004257024223577842   -0.021943158710290688   -0.00099881954582644
-0.002524249228306438   -0.02531493202615383   -0.0009174353488807193
-0.0040246719467779265   -0.02526288177825609   -0.0009737818660368941
-0.002495990366674453   -0.021895718822779405   -0.0009289776169517974
-0.0025536944295836595   -0.021863966727142845   -0.0009482881198960567
-0.002655245979533738   -0.02526069204528846   -0.0009305953635953484
-0.0008074955203261218   -0.021850476405460083   -0.0009450239852067707
-0.002525881183358658   -0.02187529397165994   -0.0009366143082415177
-0.002655245979533738   -0.02526069204528846   -0.0009305953635953484
-0.0012399922606332893   -0.025253407911653307   -0.0009413809884887353
-0.0008074955203261218   -0.021850476405460083   -0.0009450239852067707
-0.0011931714133769917   -0.02524845930797884   -0.0009070559811249125
-0.002525881183358658   -0.02187529397165994   -0.0009366143082415177
-0.0007767449287325379   -0.021850537427380468   -0.0009169123357804051
-0.0011931714133769917   -0.02524845930797884   -0.0009070559811249125
-0.0008074955203261218   -0.021850476405460083   -0.0009450239852067707
-0.002525881183358658   -0.02187529397165994   -0.0009366143082415177
-0.0011931714133769917   -0.02524845930797884   -0.0009070559811249125
-0.002612494292658012   -0.02526432476701505   -0.0009222215223692482
-0.002655245979533738   -0.02526069204528846   -0.0009305953635953484
-0.002525881183358658   -0.02187529397165994   -0.0009366143082415177
-0.0011931714133769917   -0.02524845930797884   -0.0009070559811249125
-0.002655245979533738   -0.02526069204528846   -0.0009305953635953484
-0.0008074955203261218   -0.021850476405460083   -0.0009450239852067707
-0.002525881183358658   -0.02187529397165994   -0.0009366143082415177
-0.002612494292658012   -0.02526432476701505   -0.0009222215223692482
-0.0007767449287325379   -0.021850537427380468   -0.0009169123357804051
-0.002495990366674453   -0.021895718822779405   -0.0009289776169517974
-0.002612494292658012   -0.02526432476701505   -0.0009222215223692482
-0.0011931714133769917   -0.02524845930797884   -0.0009070559811249125
-0.0007767449287325379   -0.021850537427380468   -0.0009169123357804051
-0.0011476918857133982   -0.025256373752138676   -0.0008769970058791233
-0.002495990366674453   -0.021895718822779405   -0.0009289776169517974
-0.0007467809535047383   -0.021859051778256745   -0.0008928517186548478
-0.0011476918857133982   -0.025256373752138676   -0.0008769970058791233
-0.0007767449287325379   -0.021850537427380468   -0.0009169123357804051
-0.002495990366674453   -0.021895718822779405   -0.0009289776169517974
-0.0011476918857133982   -0.025256373752138676   -0.0008769970058791233
-0.0025683427760339866   -0.025282137570884586   -0.0009178482965212897
-0.002612494292658012   -0.02526432476701505   -0.0009222215223692482
-0.002495990366674453   -0.021895718822779405   -0.0009289776169517974
-0.0011476918857133982   -0.025256373752138676   -0.0008769970058791233
-0.002612494292658012   -0.02526432476701505   -0.0009222215223692482
-0.0007767449287325379   -0.021850537427380468   -0.0009169123357804051
-0.002495990366674453   -0.021895718822779405   -0.0009289776169517974
-0.0025683427760339866   -0.025282137570884586   -0.0009178482965212897
-0.0007467809535047383   -0.021859051778256745   -0.0008928517186548478
-0.0024652676444540268   -0.021925492052651638   -0.0009255812947024908
-0.0025683427760339866   -0.025282137570884586   -0.0009178482965212897
-0.0011476918857133982   -0.025256373752138676   -0.0008769970058791233
-0.0007467809535047383   -0.021859051778256745   -0.0008928517186548478
-0.0011065663059820427   -0.025278945963100614   -0.0008508403967010373
-0.0024652676444540268   -0.021925492052651638   -0.0009255812947024908
-0.0007199899212980239   -0.021876706698035788   -0.0008729811852225435
-0.0011065663059820427   -0.025278945963100614   -0.0008508403967010373
-0.0007467809535047383   -0.021859051778256745   -0.0008928517186548478
-0.0024652676444540268   -0.021925492052651638   -0.0009255812947024908
-0.0011065663059820427   -0.025278945963100614   -0.0008508403967010373
-0.002524249228306438   -0.02531493202615383   -0.0009174353488807193
-0.0025683427760339866   -0.025282137570884586   -0.0009178482965212897
-0.0024652676444540268   -0.021925492052651638   -0.0009255812947024908
-0.0011065663059820427   -0.025278945963100614   -0.0008508403967010373
-0.0025683427760339866   -0.025282137570884586   -0.0009178482965212897
-0.0007467809535047383   -0.021859051778256745   -0.0008928517186548478
-0.0008074955203261218   -0.021850476405460083   -0.0009450239852067707
-0.0012399922606332893   -0.025253407911653307   -0.0009413809884887353
0.0009978411043237647   -0.02180731004228186   -0.00096207808108138
-0.0007767449287325379   -0.021850537427380468   -0.0009169123357804051
-0.0012399922606332893   -0.025253407911653307   -0.0009413809884887353
0.00023985575955356276   -0.02520109814279255   -0.0009672448575018378
0.0009978411043237647   -0.02180731004228186   -0.00096207808108138
0.0002968881221836997   -0.025185301062941562   -0.000907036446557495
-0.0007767449287325379   -0.021850537427380468   -0.0009169123357804051
0.0010354611937523751   -0.02179534243032607   -0.0009176631337924305
0.0002968881221836997   -0.025185301062941562   -0.000907036446557495
0.0009978411043237647   -0.02180731004228186   -0.00096207808108138
-0.0007767449287325379   -0.021850537427380468   -0.0009169123357804051
0.0002968881221836997   -0.025185301062941562   -0.000907036446557495
-0.0011931714133769917   -0.02524845930797884   -0.0009070559811249125
-0.0012399922606332893   -0.025253407911653307   -0.0009413809884887353
-0.0007767449287325379   -0.021850537427380468   -0.0009169123357804051
0.0002968881221836997   -0.025185301062941562   -0.000907036446557495
-0.0012399922606332893   -0.025253407911653307   -0.0009413809884887353
0.0009978411043237647   -0.02180731004228186   -0.00096207808108138
-0.0007767449287325379   -0.021850537427380468   -0.0009169123357804051
-0.0011931714133769917   -0.02524845930797884   -0.0009070559811249125
0.0010354611937523751   -0.02179534243032607   -0.0009176631337924305
-0.0007467809535047383   -0.021859051778256745   -0.0008928517186548478
-0.0011931714133769917   -0.02524845930797884   -0.0009070559811249125
0.0002968881221836997   -0.025185301062941562   -0.000907036446557495
0.0010354611937523751   -0.02179534243032607   -0.0009176631337924305
0.0003571144981067437   -0.02518388022576361   -0.0008522256556201143
-0.0007467809535047383   -0.021859051778256745   -0.0008928517186548478
0.0010741130470409129   -0.021793042373577313   -0.0008775532959817452
0.0003571144981067437   -0.02518388022576361   -0.0008522256556201143
0.0010354611937523751   -0.02179534243032607   -0.0009176631337924305
-0.0007467809535047383   -0.021859051778256745   -0.0008928517186548478
0.0003571144981067437   -0.02518388022576361   -0.0008522256556201143
-0.0011476918857133982   -0.025256373752138676   -0.0008769970058791233
-0.0011931714133769917   -0.02524845930797884   -0.0009070559811249125
-0.0007467809535047383   -0.021859051778256745   -0.0008928517186548478
0.0003571144981067437   -0.02518388022576361   -0.0008522256556201143
-0.0011931714133769917   -0.02524845930797884   -0.0009070559811249125
0.0010354611937523751   -0.02179534243032607   -0.0009176631337924305
-0.0007467809535047383   -0.021859051778256745   -0.0008928517186548478
-0.0011476918857133982   -0.025256373752138676   -0.0008769970058791233
0.0010741130470409129   -0.021793042373577313   -0.0008775532959817452
-0.0007199899212980239   -0.021876706698035788   -0.0008729811852225435
-0.0011476918857133982   -0.025256373752138676   -0.0008769970058791233
0.0003571144981067437   -0.02518388022576361   -0.0008522256556201143
0.0010741130470409129   -0.021793042373577313   -0.0008775532959817452
0.0004011589799764564   -0.025196163607017416   -0.0008011266813573417
-0.0007199899212980239   -0.021876706698035788   -0.0008729811852225435
0.0010999517929158572   -0.021798642191744308   -0.0008411791529044909
0.0004011589799764564   -0.025196163607017416   -0.0008011266813573417
0.0010741130470409129   -0.021793042373577313   -0.0008775532959817452
-0.0007199899212980239   -0.021876706698035788   -0.0008729811852225435
0.0004011589799764564   -0.025196163607017416   -0.0008011266813573417
-0.0011065663059820427   -0.025278945963100614   -0.0008508403967010373
-0.0011476918857133982   -0.025256373752138676   -0.0008769970058791233
-0.0007199899212980239   -0.021876706698035788   -0.0008729811852225435
0.0004011589799764564   -0.025196163607017416   -0.0008011266813573417
-0.0011476918857133982   -0.025256373752138676   -0.0008769970058791233
0.0010741130470409129   -0.021793042373577313   -0.0008775532959817452
0.0009978411043237647   -0.02180731004228186   -0.00096207808108138
0.00023985575955356276   -0.02520109814279255   -0.0009672448575018378
0.002916003639443487   -0.021733032994562692   -0.001005379850733547
0.0010354611937523751   -0.02179534243032607   -0.0009176631337924305
0.00023985575955356276   -0.02520109814279255   -0.0009672448575018378
0.0018142530947623894   -0.025098855283335823   -0.0010219509851129985
0.002916003639443487   -0.021733032994562692   -0.001005379850733547
0.0019596722477546917   -0.025068636789881887   -0.000929748195368897
0.0010354611937523751   -0.02179534243032607   -0.0009176631337924305
0.0030161786643941113   -0.021708540763549597   -0.0009406361054277944
0.0019596722477546917   -0.025068636789881887   -0.000929748195368897
0.002916003639443487   -0.021733032994562692   -0.001005379850733547
0.0010354611937523751   -0.02179534243032607   -0.0009176631337924305
0.0019596722477546917   -0.025068636789881887   -0.000929748195368897
0.0002968881221836997   -0.025185301062941562   -0.000907036446557495
0.00023985575955356276   -0.02520109814279255   -0.0009672448575018378
0.0010354611937523751   -0.02179534243032607   -0.0009176631337924305
0.0019596722477546917   -0.025068636789881887   -0.000929748195368897
0.00023985575955356276   -0.02520109814279255   -0.0009672448575018378
0.002916003639443487   -0.021733032994562692   -0.001005379850733547
0.0010354611937523751   -0.02179534243032607   -0.0009176631337924305
0.0002968881221836997   -0.025185301062941562   -0.000907036446557495
0.0030161786643941113   -0.021708540763549597   -0.0009406361054277944
0.0010741130470409129   -0.021793042373577313   -0.0008775532959817452
0.0002968881221836997   -0.025185301062941562   -0.000907036446557495
0.0019596722477546917   -0.025068636789881887   -0.000929748195368897
0.0030161786643941113   -0.021708540763549597   -0.0009406361054277944
0.0020712393853837357   -0.02506340048768031   -0.0008442429727684138
0.0010741130470409129   -0.021793042373577313   -0.0008775532959817452
0.003090527984625142   -0.02170174104680669   -0.0008816291130425899
0.0020712393853837357   -0.02506340048768031   -0.0008442429727684138
0.0030161786643941113   -0.021708540763549597   -0.0009406361054277944
0.0010741130470409129   -0.021793042373577313   -0.0008775532959817452
0.0020712393853837357   -0.02506340048768031   -0.0008442429727684138
0.0003571144981067437   -0.02518388022576361   -0.0008522256556201143
0.0002968881221836997   -0.025185301062941562   -0.000907036446557495
0.0010741130470409129   -0.021793042373577313   -0.0008775532959817452
0.0020712393853837357   -0.02506340048768031   -0.0008442429727684138
0.0002968881221836997   -0.025185301062941562   -0.000907036446557495
0.0030161786643941113   -0.021708540763549597   -0.0009406361054277944
0.0010741130470409129   -0.021793042373577313   -0.0008775532959817452
0.0003571144981067437   -0.02518388022576361   -0.0008522256556201143
0.003090527984625142   -0.02170174104680669   -0.0008816291130425899
0.0010999517929158572   -0.021798642191744308   -0.0008411791529044909
0.0003571144981067437   -0.02518388022576361   -0.0008522256556201143
0.0020712393853837357   -0.02506340048768031   -0.0008442429727684138
0.003090527984625142   -0.02170174104680669   -0.0008816291130425899
0.0021872432972583162   -0.02507251610094075   -0.0007661264466271472
0.0010999517929158572   -0.021798642191744308   -0.0008411791529044909
0.003166213987626297   -0.02170174009688847   -0.0008286287574851044
0.0021872432972583162   -0.02507251610094075   -0.0007661264466271472
0.003090527984625142   -0.02170174104680669   -0.0008816291130425899
0.0010999517929158572   -0.021798642191744308   -0.0008411791529044909
0.0021872432972583162   -0.02507251610094075   -0.0007661264466271472
0.0004011589799764564   -0.025196163607017416   -0.0008011266813573417
0.0003571144981067437   -0.02518388022576361   -0.0008522256556201143
0.0010999517929158572   -0.021798642191744308   -0.0008411791529044909
0.0021872432972583162   -0.02507251610094075   -0.0007661264466271472
0.0003571144981067437   -0.02518388022576361   -0.0008522256556201143
0.003090527984625142   -0.02170174104680669   -0.0008816291130425899
-0.00580644541969344   -0.025146521524694123   -0.0009380447603064633
-0.004871710927151219   -0.027767968106384294   -0.0008517665889587249
-0.004118842803501964   -0.02522451952132294   -0.0009326321345756129
-0.005719154537690761   -0.0251631756337454   -0.0009900406127162622
-0.004871710927151219   -0.027767968106384294   -0.0008517665889587249
-0.0036697026461417954   -0.02788292414408117   -0.0008861326245010883
-0.004118842803501964   -0.02522451952132294   -0.0009326321345756129
-0.0036101306567013123   -0.027877188007320943   -0.0009145944322208657
-0.005719154537690761   -0.0251631756337454   -0.0009900406127162622
-0.004077107657605061   -0.02523576889021631   -0.0009511454652395115
-0.0036101306567013123   -0.027877188007320943   -0.0009145944322208657
-0.004118842803501964   -0.02522451952132294   -0.0009326321345756129
-0.005719154537690761   -0.0251631756337454   -0.0009900406127162622
-0.0036101306567013123   -0.027877188007320943   -0.0009145944322208657
-0.0047424872485393454   -0.027764853433075543   -0.0009284716069147024
-0.004871710927151219   -0.027767968106384294   -0.0008517665889587249
-0.005719154537690761   -0.0251631756337454   -0.0009900406127162622
-0.0036101306567013123   -0.027877188007320943   -0.0009145944322208657
-0.004871710927151219   -0.027767968106384294   -0.0008517665889587249
-0.004118842803501964   -0.02522451952132294   -0.0009326321345756129
-0.005719154537690761   -0.0251631756337454   -0.0009900406127162622
-0.0047424872485393454   -0.027764853433075543   -0.0009284716069147024
-0.004077107657605061   -0.02523576889021631   -0.0009511454652395115
-0.005632275442657142   -0.025195001636682285   -0.0010487476530365364
-0.0047424872485393454   -0.027764853433075543   -0.0009284716069147024
-0.0036101306567013123   -0.027877188007320943   -0.0009145944322208657
-0.004077107657605061   -0.02523576889021631   -0.0009511454652395115
-0.003539936923415295   -0.027894059208903914   -0.0009472447764951267
-0.005632275442657142   -0.025195001636682285   -0.0010487476530365364
-0.0040246719467779265   -0.02526288177825609   -0.0009737818660368941
-0.003539936923415295   -0.027894059208903914   -0.0009472447764951267
-0.004077107657605061   -0.02523576889021631   -0.0009511454652395115
-0.005632275442657142   -0.025195001636682285   -0.0010487476530365364
-0.003539936923415295   -0.027894059208903914   -0.0009472447764951267
-0.0046235017045988015   -0.027785645839769096   -0.0010110850512873003
-0.0047424872485393454   -0.027764853433075543   -0.0009284716069147024
-0.005632275442657142   -0.025195001636682285   -0.0010487476530365364
-0.003539936923415295   -0.027894059208903914   -0.0009472447764951267
-0.0047424872485393454   -0.027764853433075543   -0.0009284716069147024
-0.004077107657605061   -0.02523576889021631   -0.0009511454652395115
-0.005632275442657142   -0.025195001636682285   -0.0010487476530365364
-0.0046235017045988015   -0.027785645839769096   -0.0010110850512873003
-0.0040246719467779265   -0.02526288177825609   -0.0009737818660368941
-0.005521043078105402   -0.025254349435570377   -0.001114057248145796
-0.0046235017045988015   -0.027785645839769096   -0.0010110850512873003
-0.003539936923415295   -0.027894059208903914   -0.0009472447764951267
-0.0040246719467779265   -0.02526288177825609   -0.0009737818660368941
-0.0034762644890529502   -0.02793394153181413   -0.0009838184142536546
-0.005521043078105402   -0.025254349435570377   -0.001114057248145796
-0.003972970808377566   -0.02530740144388177   -0.0010005020538561666
-0.0034762644890529502   -0.02793394153181413   -0.0009838184142536546
-0.0040246719467779265   -0.02526288177825609   -0.0009737818660368941
-0.005521043078105402   -0.025254349435570377   -0.001114057248145796
-0.0034762644890529502   -0.02793394153181413   -0.0009838184142536546
-0.004478289228718328   -0.027840745549009397   -0.0010992735376737922
-0.0046235017045988015   -0.027785645839769096   -0.0010110850512873003
-0.005521043078105402   -0.025254349435570377   -0.001114057248145796
-0.0034762644890529502   -0.02793394153181413   -0.0009838184142536546
-0.0046235017045988015   -0.027785645839769096   -0.0010110850512873003
-0.0040246719467779265   -0.02526288177825609   -0.0009737818660368941
-0.004118842803501964   -0.02522451952132294   -0.0009326321345756129
-0.0036697026461417954   -0.02788292414408117   -0.0008861326245010883
-0.002655245979533738   -0.02526069204528846   -0.0009305953635953484
-0.004077107657605061   -0.02523576889021631   -0.0009511454652395115
-0.0036697026461417954   -0.02788292414408117   -0.0008861326245010883
-0.0026847982220432713   -0.027956566645564087   -0.0009130573056670941
-0.002655245979533738   -0.02526069204528846   -0.0009305953635953484
-0.0026237888041494347   -0.02794718604419405   -0.0009043726329171529
-0.004077107657605061   -0.02523576889021631   -0.0009511454652395115
-0.002612494292658012   -0.02526432476701505   -0.0009222215223692482
-0.0026237888041494347   -0.02794718604419405   -0.0009043726329171529
-0.002655245979533738   -0.02526069204528846   -0.0009305953635953484
-0.004077107657605061   -0.02523576889021631   -0.0009511454652395115
-0.0026237888041494347   -0.02794718604419405   -0.0009043726329171529
-0.0036101306567013123   -0.027877188007320943   -0.0009145944322208657
-0.0036697026461417954   -0.02788292414408117   -0.0008861326245010883
-0.004077107657605061   -0.02523576889021631   -0.0009511454652395115
-0.0026237888041494347   -0.02794718604419405   -0.0009043726329171529
-0.0036697026461417954   -0.02788292414408117   -0.0008861326245010883
-0.002655245979533738   -0.02526069204528846   -0.0009305953635953484
-0.004077107657605061   -0.02523576889021631   -0.0009511454652395115
-0.0036101306567013123   -0.027877188007320943   -0.0009145944322208657
-0.002612494292658012   -0.02526432476701505   -0.0009222215223692482
-0.0040246719467779265   -0.02526288177825609   -0.0009737818660368941
-0.0036101306567013123   -0.027877188007320943   -0.0009145944322208657
-0.0026237888041494347   -0.02794718604419405   -0.0009043726329171529
-0.002612494292658012   -0.02526432476701505   -0.0009222215223692482
-0.0025635640393255965   -0.027957359308123427   -0.0008997649048119952
-0.0040246719467779265   -0.02526288177825609   -0.0009737818660368941
-0.0025683427760339866   -0.025282137570884586   -0.0009178482965212897
-0.0025635640393255965   -0.027957359308123427   -0.0008997649048119952
-0.002612494292658012   -0.02526432476701505   -0.0009222215223692482
-0.0040246719467779265   -0.02526288177825609   -0.0009737818660368941
-0.0025635640393255965   -0.027957359308123427   -0.0008997649048119952
-0.003539936923415295   -0.027894059208903914   -0.0009472447764951267
-0.0036101306567013123   -0.027877188007320943   -0.0009145944322208657
-0.0040246719467779265   -0.02526288177825609   -0.0009737818660368941
-0.0025635640393255965   -0.027957359308123427   -0.0008997649048119952
-0.0036101306567013123   -0.027877188007320943   -0.0009145944322208657
-0.002612494292658012   -0.02526432476701505   -0.0009222215223692482
-0.0040246719467779265   -0.02526288177825609   -0.0009737818660368941
-0.003539936923415295   -0.027894059208903914   -0.0009472447764951267
-0.0025683427760339866   -0.025282137570884586   -0.0009178482965212897
-0.003972970808377566   -0.02530740144388177   -0.0010005020538561666
-0.003539936923415295   -0.027894059208903914   -0.0009472447764951267
-0.0025635640393255965   -0.027957359308123427   -0.0008997649048119952
-0.0025683427760339866   -0.025282137570884586   -0.0009178482965212897
-0.0025080715238018137   -0.027987705201029087   -0.0009000752006321328
-0.003972970808377566   -0.02530740144388177   -0.0010005020538561666
-0.002524249228306438   -0.02531493202615383   -0.0009174353488807193
-0.0025080715238018137   -0.027987705201029087   -0.0009000752006321328
-0.0025683427760339866   -0.025282137570884586   -0.0009178482965212897
-0.003972970808377566   -0.02530740144388177   -0.0010005020538561666
-0.0025080715238018137   -0.027987705201029087   -0.0009000752006321328
-0.0034762644890529502   -0.02793394153181413   -0.0009838184142536546
-0.003539936923415295   -0.027894059208903914   -0.0009472447764951267
-0.003972970808377566   -0.02530740144388177   -0.0010005020538561666
-0.0025080715238018137   -0.027987705201029087   -0.0009000752006321328
-0.003539936923415295   -0.027894059208903914   -0.0009472447764951267
-0.0025683427760339866   -0.025282137570884586   -0.0009178482965212897
-0.002655245979533738   -0.02526069204528846   -0.0009305953635953484
-0.0026847982220432713   -0.027956566645564087   -0.0009130573056670941
-0.0012399922606332893   -0.025253407911653307   -0.0009413809884887353
-0.002612494292658012   -0.02526432476701505   -0.0009222215223692482
-0.0026847982220432713   -0.027956566645564087   -0.0009130573056670941
-0.0017411724071172915   -0.027993911818084537   -0.0009451692446573962
-0.0012399922606332893   -0.025253407911653307   -0.0009413809884887353
-0.0016724265069064058   -0.027980199884466796   -0.0009014008457775862
-0.002612494292658012   -0.02526432476701505   -0.0009222215223692482
-0.0011931714133769917   -0.02524845930797884   -0.0009070559811249125
-0.0016724265069064058   -0.027980199884466796   -0.0009014008457775862
-0.0012399922606332893   -0.025253407911653307   -0.0009413809884887353
-0.002612494292658012   -0.02526432476701505   -0.0009222215223692482
-0.0016724265069064058   -0.027980199884466796   -0.0009014008457775862
-0.0026237888041494347   -0.02794718604419405   -0.0009043726329171529
-0.0026847982220432713   -0.027956566645564087   -0.0009130573056670941
-0.002612494292658012   -0.02526432476701505   -0.0009222215223692482
-0.0016724265069064058   -0.027980199884466796   -0.0009014008457775862
-0.0026847982220432713   -0.027956566645564087   -0.0009130573056670941
-0.0012399922606332893   -0.025253407911653307   -0.0009413809884887353
-0.002612494292658012   -0.02526432476701505   -0.0009222215223692482
-0.0026237888041494347   -0.02794718604419405   -0.0009043726329171529
-0.0011931714133769917   -0.02524845930797884   -0.0009070559811249125
-0.0025683427760339866   -0.025282137570884586   -0.0009178482965212897
-0.0026237888041494347   -0.02794718604419405   -0.0009043726329171529
-0.0016724265069064058   -0.027980199884466796   -0.0009014008457775862
-0.0011931714133769917   -0.02524845930797884   -0.0009070559811249125
-0.0016068341905123896   -0.027983755924639742   -0.000861267806464135
-0.0025683427760339866   -0.025282137570884586   -0.0009178482965212897
-0.0011476918857133982   -0.025256373752138676   -0.0008769970058791233
-0.0016068341905123896   -0.027983755924639742   -0.000861267806464135
-0.0011931714133769917   -0.02524845930797884   -0.0009070559811249125
-0.0025683427760339866   -0.025282137570884586   -0.0009178482965212897
-0.0016068341905123896   -0.027983755924639742   -0.000861267806464135
-0.0025635640393255965   -0.027957359308123427   -0.0008997649048119952
-0.0026237888041494347   -0.02794718604419405   -0.0009043726329171529
-0.0025683427760339866   -0.025282137570884586   -0.0009178482965212897
-0.0016068341905123896   -0.027983755924639742   -0.000861267806464135
-0.0026237888041494347   -0.02794718604419405   -0.0009043726329171529
-0.0011931714133769917   -0.02524845930797884   -0.0009070559811249125
-0.0025683427760339866   -0.025282137570884586   -0.0009178482965212897
-0.0025635640393255965   -0.027957359308123427   -0.0008997649048119952
-0.0011476918857133982   -0.025256373752138676   -0.0008769970058791233
-0.002524249228306438   -0.02531493202615383   -0.0009174353488807193
-0.0025635640393255965   -0.027957359308123427   -0.0008997649048119952
-0.0016068341905123896   -0.027983755924639742   -0.000861267806464135
-0.0011476918857133982   -0.025256373752138676   -0.0008769970058791233
-0.0015521651903185277   -0.028007809025889376   -0.0008269687392803816
-0.002524249228306438   -0.02531493202615383   -0.0009174353488807193
-0.0011065663059820427   -0.025278945963100614   -0.0008508403967010373
-0.0015521651903185277   -0.028007809025889376   -0.0008269687392803816
-0.0011476918857133982   -0.025256373752138676   -0.0008769970058791233
-0.002524249228306438   -0.02531493202615383   -0.0009174353488807193
-0.0015521651903185277   -0.028007809025889376   -0.0008269687392803816
-0.0025080715238018137   -0.027987705201029087   -0.0009000752006321328
-0.0025635640393255965   -0.027957359308123427   -0.0008997649048119952
-0.002524249228306438   -0.02531493202615383   -0.0009174353488807193
-0.0015521651903185277   -0.028007809025889376   -0.0008269687392803816
-0.0025635640393255965   -0.027957359308123427   -0.0008997649048119952
-0.0011476918857133982   -0.025256373752138676   -0.0008769970058791233
-0.0012399922606332893   -0.025253407911653307   -0.0009413809884887353
-0.0017411724071172915   -0.027993911818084537   -0.0009451692446573962
0.00023985575955356276   -0.02520109814279255   -0.0009672448575018378
-0.0011931714133769917   -0.02524845930797884   -0.0009070559811249125
-0.0017411724071172915   -0.027993911818084537   -0.0009451692446573962
-0.0007398202600845782   -0.027981592380125465   -0.0009832461123775204
0.00023985575955356276   -0.02520109814279255   -0.0009672448575018378
-0.0006515516729575614   -0.027960047510904182   -0.0009058403801757667
-0.0011931714133769917   -0.02524845930797884   -0.0009070559811249125
0.0002968881221836997   -0.025185301062941562   -0.000907036446557495
-0.0006515516729575614   -0.027960047510904182   -0.0009058403801757667
0.00023985575955356276   -0.02520109814279255   -0.0009672448575018378
-0.0011931714133769917   -0.02524845930797884   -0.0009070559811249125
-0.0006515516729575614   -0.027960047510904182   -0.0009058403801757667
-0.0016724265069064058   -0.027980199884466796   -0.0009014008457775862
-0.0017411724071172915   -0.027993911818084537   -0.0009451692446573962
-0.0011931714133769917   -0.02524845930797884   -0.0009070559811249125
-0.0006515516729575614   -0.027960047510904182   -0.0009058403801757667
-0.0017411724071172915   -0.027993911818084537   -0.0009451692446573962
0.00023985575955356276   -0.02520109814279255   -0.0009672448575018378
-0.0011931714133769917   -0.02524845930797884   -0.0009070559811249125
-0.0016724265069064058   -0.027980199884466796   -0.0009014008457775862
0.0002968881221836997   -0.025185301062941562   -0.000907036446557495
-0.0011476918857133982   -0.025256373752138676   -0.0008769970058791233
-0.0016724265069064058   -0.027980199884466796   -0.0009014008457775862
-0.0006515516729575614   -0.027960047510904182   -0.0009058403801757667
0.0002968881221836997   -0.025185301062941562   -0.000907036446557495
-0.0005610306429092417   -0.027956411221299694   -0.0008323047792701678
-0.0011476918857133982   -0.025256373752138676   -0.0008769970058791233
0.0003571144981067437   -0.02518388022576361   -0.0008522256556201143
-0.0005610306429092417   -0.027956411221299694   -0.0008323047792701678
0.0002968881221836997   -0.025185301062941562   -0.000907036446557495
-0.0011476918857133982   -0.025256373752138676   -0.0008769970058791233
-0.0005610306429092417   -0.027956411221299694   -0.0008323047792701678
-0.0016068341905123896   -0.027983755924639742   -0.000861267806464135
-0.0016724265069064058   -0.027980199884466796   -0.0009014008457775862
-0.0011476918857133982   -0.025256373752138676   -0.0008769970058791233
-0.0005610306429092417   -0.027956411221299694   -0.0008323047792701678
-0.0016724265069064058   -0.027980199884466796   -0.0009014008457775862
0.0002968881221836997   -0.025185301062941562   -0.000907036446557495
-0.0011476918857133982   -0.025256373752138676   -0.0008769970058791233
-0.0016068341905123896   -0.027983755924639742   -0.000861267806464135
0.0003571144981067437   -0.02518388022576361   -0.0008522256556201143
-0.0011065663059820427   -0.025278945963100614   -0.0008508403967010373
-0.0016068341905123896   -0.027983755924639742   -0.000861267806464135
-0.0005610306429092417   -0.027956411221299694   -0.0008323047792701678
0.0003571144981067437   -0.02518388022576361   -0.0008522256556201143
-0.0004941491420499925   -0.027974419754758992   -0.0007653775890282752
-0.0011065663059820427   -0.025278945963100614   -0.0008508403967010373
0.0004011589799764564   -0.025196163607017416   -0.0008011266813573417
-0.0004941491420499925   -0.027974419754758992   -0.0007653775890282752
0.0003571144981067437   -0.02518388022576361   -0.0008522256556201143
-0.0011065663059820427   -0.025278945963100614   -0.0008508403967010373
-0.0004941491420499925   -0.027974419754758992   -0.0007653775890282752
-0.0015521651903185277   -0.028007809025889376   -0.0008269687392803816
-0.0016068341905123896   -0.027983755924639742   -0.000861267806464135
-0.0011065663059820427   -0.025278945963100614   -0.0008508403967010373
-0.0004941491420499925   -0.027974419754758992   -0.0007653775890282752
-0.0016068341905123896   -0.027983755924639742   -0.000861267806464135
0.0003571144981067437   -0.02518388022576361   -0.0008522256556201143
0.00023985575955356276   -0.02520109814279255   -0.0009672448575018378
-0.0007398202600845782   -0.027981592380125465   -0.0009832461123775204
0.0018142530947623894   -0.025098855283335823   -0.0010219509851129985
0.0002968881221836997   -0.025185301062941562   -0.000907036446557495
-0.0007398202600845782   -0.027981592380125465   -0.0009832461123775204
0.00033379921414085177   -0.027884515841738   -0.0010604074135596787
0.0018142530947623894   -0.025098855283335823   -0.0010219509851129985
0.0005416289122379337   -0.027837909972223535   -0.0009339353580860704
0.0002968881221836997   -0.025185301062941562   -0.000907036446557495
0.0019596722477546917   -0.025068636789881887   -0.000929748195368897
0.0005416289122379337   -0.027837909972223535   -0.0009339353580860704
0.0018142530947623894   -0.025098855283335823   -0.0010219509851129985
0.0002968881221836997   -0.025185301062941562   -0.000907036446557495
0.0005416289122379337   -0.027837909972223535   -0.0009339353580860704
-0.0006515516729575614   -0.027960047510904182   -0.0009058403801757667
-0.0007398202600845782   -0.027981592380125465   -0.0009832461123775204
0.0002968881221836997   -0.025185301062941562   -0.000907036446557495
0.0005416289122379337   -0.027837909972223535   -0.0009339353580860704
-0.0007398202600845782   -0.027981592380125465   -0.0009832461123775204
0.0018142530947623894   -0.025098855283335823   -0.0010219509851129985
0.0002968881221836997   -0.025185301062941562   -0.000907036446557495
-0.0006515516729575614   -0.027960047510904182   -0.0009058403801757667
0.0019596722477546917   -0.025068636789881887   -0.000929748195368897
0.0003571144981067437   -0.02518388022576361   -0.0008522256556201143
-0.0006515516729575614   -0.027960047510904182   -0.0009058403801757667
0.0005416289122379337   -0.027837909972223535   -0.0009339353580860704
0.0019596722477546917   -0.025068636789881887   -0.000929748195368897
0.0007048396630292938   -0.027828607285237707   -0.0008150090488484525
0.0003571144981067437   -0.02518388022576361   -0.0008522256556201143
0.0020712393853837357   -0.02506340048768031   -0.0008442429727684138
0.0007048396630292938   -0.027828607285237707   -0.0008150090488484525
0.0019596722477546917   -0.025068636789881887   -0.000929748195368897
0.0003571144981067437   -0.02518388022576361   -0.0008522256556201143
0.0007048396630292938   -0.027828607285237707   -0.0008150090488484525
-0.0005610306429092417   -0.027956411221299694   -0.0008323047792701678
-0.0006515516729575614   -0.027960047510904182   -0.0009058403801757667
0.0003571144981067437   -0.02518388022576361   -0.0008522256556201143
0.0007048396630292938   -0.027828607285237707   -0.0008150090488484525
-0.0006515516729575614   -0.027960047510904182   -0.0009058403801757667
0.0019596722477546917   -0.025068636789881887   -0.000929748195368897
0.0003571144981067437   -0.02518388022576361   -0.0008522256556201143
-0.0005610306429092417   -0.027956411221299694   -0.0008323047792701678
0.0020712393853837357   -0.02506340048768031   -0.0008442429727684138
0.0004011589799764564   -0.025196163607017416   -0.0008011266813573417
-0.0005610306429092417   -0.027956411221299694   -0.0008323047792701678
0.0007048396630292938   -0.027828607285237707   -0.0008150090488484525
0.0020712393853837357   -0.02506340048768031   -0.0008442429727684138
0.0008749819976283769   -0.027837110164277278   -0.0007061831413103155
0.0004011589799764564   -0.025196163607017416   -0.0008011266813573417
0.0021872432972583162   -0.02507251610094075   -0.0007661264466271472
0.0008749819976283769   -0.027837110164277278   -0.0007061831413103155
0.0020712393853837357   -0.02506340048768031   -0.0008442429727684138
0.0004011589799764564   -0.025196163607017416   -0.0008011266813573417
0.0008749819976283769   -0.027837110164277278   -0.0007061831413103155
-0.0004941491420499925   -0.027974419754758992   -0.0007653775890282752
-0.0005610306429092417   -0.027956411221299694   -0.0008323047792701678
0.0004011589799764564   -0.025196163607017416   -0.0008011266813573417
0.0008749819976283769   -0.027837110164277278   -0.0007061831413103155
-0.0005610306429092417   -0.027956411221299694   -0.0008323047792701678
0.0020712393853837357   -0.02506340048768031   -0.0008442429727684138
-0.004871710927151219   -0.027767968106384294   -0.0008517665889587249
-0.0035917444739469433   -0.02932999008762585   -0.000750181010589381
-0.0036697026461417954   -0.02788292414408117   -0.0008861326245010883
-0.0047424872485393454   -0.027764853433075543   -0.0009284716069147024
-0.0035917444739469433   -0.02932999008762585   -0.000750181010589381
-0.003027730954533119   -0.029474951788347532   -0.000836697274186806
-0.0036697026461417954   -0.02788292414408117   -0.0008861326245010883
-0.0029529445156355797   -0.02944673990758331   -0.0008671345112179241
-0.0047424872485393454   -0.027764853433075543   -0.0009284716069147024
-0.0036101306567013123   -0.027877188007320943   -0.0009145944322208657
-0.0029529445156355797   -0.02944673990758331   -0.0008671345112179241
-0.0036697026461417954   -0.02788292414408117   -0.0008861326245010883
-0.0047424872485393454   -0.027764853433075543   -0.0009284716069147024
-0.0029529445156355797   -0.02944673990758331   -0.0008671345112179241
-0.0034312360249100634   -0.02929814894725287   -0.0008420999353758768
-0.0035917444739469433   -0.02932999008762585   -0.000750181010589381
-0.0047424872485393454   -0.027764853433075543   -0.0009284716069147024
-0.0029529445156355797   -0.02944673990758331   -0.0008671345112179241
-0.0035917444739469433   -0.02932999008762585   -0.000750181010589381
-0.0036697026461417954   -0.02788292414408117   -0.0008861326245010883
-0.0047424872485393454   -0.027764853433075543   -0.0009284716069147024
-0.0034312360249100634   -0.02929814894725287   -0.0008420999353758768
-0.0036101306567013123   -0.027877188007320943   -0.0009145944322208657
-0.0046235017045988015   -0.027785645839769096   -0.0010110850512873003
-0.0034312360249100634   -0.02929814894725287   -0.0008420999353758768
-0.0029529445156355797   -0.02944673990758331   -0.0008671345112179241
-0.0036101306567013123   -0.027877188007320943   -0.0009145944322208657
-0.0028699018740099536   -0.029448708786570306   -0.0008978902130401484
-0.0046235017045988015   -0.027785645839769096   -0.0010110850512873003
-0.003539936923415295   -0.027894059208903914   -0.0009472447764951267
-0.0028699018740099536   -0.029448708786570306   -0.0008978902130401484
-0.0036101306567013123   -0.027877188007320943   -0.0009145944322208657
-0.0046235017045988015   -0.027785645839769096   -0.0010110850512873003
-0.0028699018740099536   -0.029448708786570306   -0.0008978902130401484
-0.0032928014204460596   -0.029301519097448207   -0.000933715512938524
-0.0034312360249100634   -0.02929814894725287   -0.0008420999353758768
-0.0046235017045988015   -0.027785645839769096   -0.0010110850512873003
-0.0028699018740099536   -0.029448708786570306   -0.0008978902130401484
-0.0034312360249100634   -0.02929814894725287   -0.0008420999353758768
-0.0036101306567013123   -0.027877188007320943   -0.0009145944322208657
-0.0046235017045988015   -0.027785645839769096   -0.0010110850512873003
-0.0032928014204460596   -0.029301519097448207   -0.000933715512938524
-0.003539936923415295   -0.027894059208903914   -0.0009472447764951267
-0.004478289228718328   -0.027840745549009397   -0.0010992735376737922
-0.0032928014204460596   -0.029301519097448207   -0.000933715512938524
-0.0028699018740099536   -0.029448708786570306   -0.0008978902130401484
-0.003539936923415295   -0.027894059208903914   -0.0009472447764951267
-0.0027928744922803123   -0.029481025478438477   -0.0009290918006019966
-0.004478289228718328   -0.027840745549009397   -0.0010992735376737922
-0.0034762644890529502   -0.02793394153181413   -0.0009838184142536546
-0.0027928744922803123   -0.029481025478438477   -0.0009290918006019966
-0.003539936923415295   -0.027894059208903914   -0.0009472447764951267
-0.004478289228718328   -0.027840745549009397   -0.0010992735376737922
-0.0027928744922803123   -0.029481025478438477   -0.0009290918006019966
-0.0031284326693421663   -0.029342184280488192   -0.0010272883569818383
-0.0032928014204460596   -0.029301519097448207   -0.000933715512938524
-0.004478289228718328   -0.027840745549009397   -0.0010992735376737922
-0.0027928744922803123   -0.029481025478438477   -0.0009290918006019966
-0.0032928014204460596   -0.029301519097448207   -0.000933715512938524
-0.003539936923415295   -0.027894059208903914   -0.0009472447764951267
-0.0036697026461417954   -0.02788292414408117   -0.0008861326245010883
-0.003027730954533119   -0.029474951788347532   -0.000836697274186806
-0.0026847982220432713   -0.027956566645564087   -0.0009130573056670941
-0.0036101306567013123   -0.027877188007320943   -0.0009145944322208657
-0.003027730954533119   -0.029474951788347532   -0.000836697274186806
-0.0026124180688888343   -0.029618336648175543   -0.0009130140434245966
-0.0026847982220432713   -0.027956566645564087   -0.0009130573056670941
-0.0025337212052968304   -0.029589278768209052   -0.0008922957439232773
-0.0036101306567013123   -0.027877188007320943   -0.0009145944322208657
-0.0026237888041494347   -0.02794718604419405   -0.0009043726329171529
-0.0025337212052968304   -0.029589278768209052   -0.0008922957439232773
-0.0026847982220432713   -0.027956566645564087   -0.0009130573056670941
-0.0036101306567013123   -0.027877188007320943   -0.0009145944322208657
-0.0025337212052968304   -0.029589278768209052   -0.0008922957439232773
-0.0029529445156355797   -0.02944673990758331   -0.0008671345112179241
-0.003027730954533119   -0.029474951788347532   -0.000836697274186806
-0.0036101306567013123   -0.027877188007320943   -0.0009145944322208657
-0.0025337212052968304   -0.029589278768209052   -0.0008922957439232773
-0.003027730954533119   -0.029474951788347532   -0.000836697274186806
-0.0026847982220432713   -0.027956566645564087   -0.0009130573056670941
-0.0036101306567013123   -0.027877188007320943   -0.0009145944322208657
-0.0029529445156355797   -0.02944673990758331   -0.0008671345112179241
-0.0026237888041494347   -0.02794718604419405   -0.0009043726329171529
-0.003539936923415295   -0.027894059208903914   -0.0009472447764951267
-0.0029529445156355797   -0.02944673990758331   -0.0008671345112179241
-0.0025337212052968304   -0.029589278768209052   -0.0008922957439232773
-0.0026237888041494347   -0.02794718604419405   -0.0009043726329171529
-0.00245753625544862   -0.029589185546917845   -0.0008713344747819647
-0.003539936923415295   -0.027894059208903914   -0.0009472447764951267
-0.0025635640393255965   -0.027957359308123427   -0.0008997649048119952
-0.00245753625544862   -0.029589185546917845   -0.0008713344747819647
-0.0026237888041494347   -0.02794718604419405   -0.0009043726329171529
-0.003539936923415295   -0.027894059208903914   -0.0009472447764951267
-0.00245753625544862   -0.029589185546917845   -0.0008713344747819647
-0.0028699018740099536   -0.029448708786570306   -0.0008978902130401484
-0.0029529445156355797   -0.02944673990758331   -0.0008671345112179241
-0.003539936923415295   -0.027894059208903914   -0.0009472447764951267
-0.00245753625544862   -0.029589185546917845   -0.0008713344747819647
-0.0029529445156355797   -0.02944673990758331   -0.0008671345112179241
-0.0026237888041494347   -0.02794718604419405   -0.0009043726329171529
-0.003539936923415295   -0.027894059208903914   -0.0009472447764951267
-0.0028699018740099536   -0.029448708786570306   -0.0008978902130401484
-0.0025635640393255965   -0.027957359308123427   -0.0008997649048119952
-0.0034762644890529502   -0.02793394153181413   -0.0009838184142536546
-0.0028699018740099536   -0.029448708786570306   -0.0008978902130401484
-0.00245753625544862   -0.029589185546917845   -0.0008713344747819647
-0.0025635640393255965   -0.027957359308123427   -0.0008997649048119952
-0.0023781856086007476   -0.029617478928284372   -0.0008512369315996944
-0.0034762644890529502   -0.02793394153181413   -0.0009838184142536546
-0.0025080715238018137   -0.027987705201029087   -0.0009000752006321328
-0.0023781856086007476   -0.029617478928284372   -0.0008512369315996944
-0.0025635640393255965   -0.027957359308123427   -0.0008997649048119952
-0.0034762644890529502   -0.02793394153181413   -0.0009838184142536546
-0.0023781856086007476   -0.029617478928284372   -0.0008512369315996944
-0.0027928744922803123   -0.029481025478438477   -0.0009290918006019966
-0.0028699018740099536   -0.029448708786570306   -0.0008978902130401484
-0.0034762644890529502   -0.02793394153181413   -0.0009838184142536546
-0.0023781856086007476   -0.029617478928284372   -0.0008512369315996944
-0.0028699018740099536   -0.029448708786570306   -0.0008978902130401484
-0.0025635640393255965   -0.027957359308123427   -0.0008997649048119952
-0.0026847982220432713   -0.027956566645564087   -0.0009130573056670941
-0.0026124180688888343   -0.029618336648175543   -0.0009130140434245966
-0.0017411724071172915   -0.027993911818084537   -0.0009451692446573962
-0.0026237888041494347   -0.02794718604419405   -0.0009043726329171529
-0.0026124180688888343   -0.029618336648175543   -0.0009130140434245966
-0.0022323362544516773   -0.02978914373437769   -0.000997357869225585
-0.0017411724071172915   -0.027993911818084537   -0.0009451692446573962
-0.0021359975226851536   -0.029763694691488252   -0.0009226595338502793
-0.0026237888041494347   -0.02794718604419405   -0.0009043726329171529
-0.0016724265069064058   -0.027980199884466796   -0.0009014008457775862
-0.0021359975226851536   -0.029763694691488252   -0.0009226595338502793
-0.0017411724071172915   -0.027993911818084537   -0.0009451692446573962
-0.0026237888041494347   -0.02794718604419405   -0.0009043726329171529
-0.0021359975226851536   -0.029763694691488252   -0.0009226595338502793
-0.0025337212052968304   -0.029589278768209052   -0.0008922957439232773
-0.0026124180688888343   -0.029618336648175543   -0.0009130140434245966
-0.0026237888041494347   -0.02794718604419405   -0.0009043726329171529
-0.0021359975226851536   -0.029763694691488252   -0.0009226595338502793
-0.0026124180688888343   -0.029618336648175543   -0.0009130140434245966
-0.0017411724071172915   -0.027993911818084537   -0.0009451692446573962
-0.0026237888041494347   -0.02794718604419405   -0.0009043726329171529
-0.0025337212052968304   -0.029589278768209052   -0.0008922957439232773
-0.0016724265069064058   -0.027980199884466796   -0.0009014008457775862
-0.0025635640393255965   -0.027957359308123427   -0.0008997649048119952
-0.0025337212052968304   -0.029589278768209052   -0.0008922957439232773
-0.0021359975226851536   -0.029763694691488252   -0.0009226595338502793
-0.0016724265069064058   -0.027980199884466796   -0.0009014008457775862
-0.0020465805292906565   -0.029762582102576703   -0.0008481236022291731
-0.0025635640393255965   -0.027957359308123427   -0.0008997649048119952
-0.0016068341905123896   -0.027983755924639742   -0.000861267806464135
-0.0020465805292906565   -0.029762582102576703   -0.0008481236022291731
-0.0016724265069064058   -0.027980199884466796   -0.0009014008457775862
-0.0025635640393255965   -0.027957359308123427   -0.0008997649048119952
-0.0020465805292906565   -0.029762582102576703   -0.0008481236022291731
-0.00245753625544862   -0.029589185546917845   -0.0008713344747819647
-0.0025337212052968304   -0.029589278768209052   -0.0008922957439232773
-0.0025635640393255965   -0.027957359308123427   -0.0008997649048119952
-0.0020465805292906565   -0.029762582102576703   -0.0008481236022291731
-0.0025337212052968304   -0.029589278768209052   -0.0008922957439232773
-0.0016724265069064058   -0.027980199884466796   -0.0009014008457775862
-0.0025635640393255965   -0.027957359308123427   -0.0008997649048119952
-0.00245753625544862   -0.029589185546917845   -0.0008713344747819647
-0.0016068341905123896   -0.027983755924639742   -0.000861267806464135
-0.0025080715238018137   -0.027987705201029087   -0.0009000752006321328
-0.00245753625544862   -0.029589185546917845   -0.0008713344747819647
-0.0020465805292906565   -0.029762582102576703   -0.0008481236022291731
-0.0016068341905123896   -0.027983755924639742   -0.000861267806464135
-0.0019507755907559213   -0.02978455701824219   -0.0007735744593918884
-0.0025080715238018137   -0.027987705201029087   -0.0009000752006321328
-0.0015521651903185277   -0.028007809025889376   -0.0008269687392803816
-0.0019507755907559213   -0.02978455701824219   -0.0007735744593918884
-0.0016068341905123896   -0.027983755924639742   -0.000861267806464135
-0.0025080715238018137   -0.027987705201029087   -0.0009000752006321328
-0.0019507755907559213   -0.02978455701824219   -0.0007735744593918884
-0.0023781856086007476   -0.029617478928284372   -0.0008512369315996944
-0.00245753625544862   -0.029589185546917845   -0.0008713344747819647
-0.0025080715238018137   -0.027987705201029087   -0.0009000752006321328
-0.0019507755907559213   -0.02978455701824219   -0.0007735744593918884
-0.00245753625544862   -0.029589185546917845   -0.0008713344747819647
-0.0016068341905123896   -0.027983755924639742   -0.000861267806464135
-0.0017411724071172915   -0.027993911818084537   -0.0009451692446573962
-0.0022323362544516773   -0.02978914373437769   -0.000997357869225585
-0.0007398202600845782   -0.027981592380125465   -0.0009832461123775204
-0.0016724265069064058   -0.027980199884466796   -0.0009014008457775862
-0.0022323362544516773   -0.02978914373437769   -0.000997357869225585
-0.0018582636036534059   -0.03   -0.0010633207408775015
-0.0007398202600845782   -0.027981592380125465   -0.0009832461123775204
-0.001736763921330595   -0.03   -0.0009489471790349045
-0.0016724265069064058   -0.027980199884466796   -0.0009014008457775862
-0.0006515516729575614   -0.027960047510904182   -0.0009058403801757667
-0.001736763921330595   -0.03   -0.0009489471790349045
-0.0007398202600845782   -0.027981592380125465   -0.0009832461123775204
-0.0016724265069064058   -0.027980199884466796   -0.0009014008457775862
-0.001736763921330595   -0.03   -0.0009489471790349045
-0.0021359975226851536   -0.029763694691488252   -0.0009226595338502793
-0.0022323362544516773   -0.02978914373437769   -0.000997357869225585
-0.0016724265069064058   -0.027980199884466796   -0.0009014008457775862
-0.001736763921330595   -0.03   -0.0009489471790349045
-0.0022323362544516773   -0.02978914373437769   -0.000997357869225585
-0.0007398202600845782   -0.027981592380125465   -0.0009832461123775204
-0.0016724265069064058   -0.027980199884466796   -0.0009014008457775862
-0.0021359975226851536   -0.029763694691488252   -0.0009226595338502793
-0.0006515516729575614   -0.027960047510904182   -0.0009058403801757667
-0.0016068341905123896   -0.027983755924639742   -0.000861267806464135
-0.0021359975226851536   -0.029763694691488252   -0.0009226595338502793
-0.001736763921330595   -0.03   -0.0009489471790349045
-0.0006515516729575614   -0.027960047510904182   -0.0009058403801757667
-0.0016144188701633585   -0.03   -0.0008332263441501201
-0.0016068341905123896   -0.027983755924639742   -0.000861267806464135
-0.0005610306429092417   -0.027956411221299694   -0.0008323047792701678
-0.0016144188701633585   -0.03   -0.0008332263441501201
-0.0006515516729575614   -0.027960047510904182   -0.0009058403801757667
-0.0016068341905123896   -0.027983755924639742   -0.000861267806464135
-0.0016144188701633585   -0.03   -0.0008332263441501201
-0.0020465805292906565   -0.029762582102576703   -0.0008481236022291731
-0.0021359975226851536   -0.029763694691488252   -0.0009226595338502793
-0.0016068341905123896   -0.027983755924639742   -0.000861267806464135
-0.0016144188701633585   -0.03   -0.0008332263441501201
-0.0021359975226851536   -0.029763694691488252   -0.0009226595338502793
-0.0006515516729575614   -0.027960047510904182   -0.0009058403801757667
-0.0016068341905123896   -0.027983755924639742   -0.000861267806464135
-0.0020465805292906565   -0.029762582102576703   -0.0008481236022291731
-0.0005610306429092417   -0.027956411221299694   -0.0008323047792701678
-0.0015521651903185277   -0.028007809025889376   -0.0008269687392803816
-0.0020465805292906565   -0.029762582102576703   -0.0008481236022291731
-0.0016144188701633585   -0.03   -0.0008332263441501201
-0.0005610306429092417   -0.027956411221299694   -0.0008323047792701678
-0.0014951596573021593   -0.03   -0.0007190584349282774
-0.0015521651903185277   -0.028007809025889376   -0.0008269687392803816
-0.0004941491420499925   -0.027974419754758992   -0.0007653775890282752
-0.0014951596573021593   -0.03   -0.0007190584349282774
-0.0005610306429092417   -0.027956411221299694   -0.0008323047792701678
-0.0015521651903185277   -0.028007809025889376   -0.0008269687392803816
-0.0014951596573021593   -0.03   -0.0007190584349282774
-0.0019507755907559213   -0.02978455701824219   -0.0007735744593918884
-0.0020465805292906565   -0.029762582102576703   -0.0008481236022291731
-0.0015521651903185277   -0.028007809025889376   -0.0008269687392803816
-0.0014951596573021593   -0.03   -0.0007190584349282774
-0.0020465805292906565   -0.029762582102576703   -0.0008481236022291731
-0.0005610306429092417   -0.027956411221299694   -0.0008323047792701678
-0.0007398202600845782   -0.027981592380125465   -0.0009832461123775204
-0.0018582636036534059   -0.03   -0.0010633207408775015
0.00033379921414085177   -0.027884515841738   -0.0010604074135596787
-0.0006515516729575614   -0.027960047510904182   -0.0009058403801757667
-0.0018582636036534059   -0.03   -0.0010633207408775015
-0.001583990863432341   -0.03   -0.0011431998637210434
0.00033379921414085177   -0.027884515841738   -0.0010604074135596787
-0.001327793810739714   -0.03   -0.0009772517584297638
-0.0006515516729575614   -0.027960047510904182   -0.0009058403801757667
0.0005416289122379337   -0.027837909972223535   -0.0009339353580860704
-0.001327793810739714   -0.03   -0.0009772517584297638
0.00033379921414085177   -0.027884515841738   -0.0010604074135596787
-0.0006515516729575614   -0.027960047510904182   -0.0009058403801757667
-0.001327793810739714   -0.03   -0.0009772517584297638
-0.001736763921330595   -0.03   -0.0009489471790349045
-0.0018582636036534059   -0.03   -0.0010633207408775015
-0.0006515516729575614   -0.027960047510904182   -0.0009058403801757667
-0.001327793810739714   -0.03   -0.0009772517584297638
-0.0018582636036534059   -0.03   -0.0010633207408775015
0.00033379921414085177   -0.027884515841738   -0.0010604074135596787
-0.0006515516729575614   -0.027960047510904182   -0.0009058403801757667
-0.001736763921330595   -0.03   -0.0009489471790349045
0.0005416289122379337   -0.027837909972223535   -0.0009339353580860704
-0.0005610306429092417   -0.027956411221299694   -0.0008323047792701678
-0.001736763921330595   -0.03   -0.0009489471790349045
-0.001327793810739714   -0.03   -0.0009772517584297638
0.0005416289122379337   -0.027837909972223535   -0.0009339353580860704
-0.001123502306179074   -0.03   -0.0008185290345387549
-0.0005610306429092417   -0.027956411221299694   -0.0008323047792701678
0.0007048396630292938   -0.027828607285237707   -0.0008150090488484525
-0.001123502306179074   -0.03   -0.0008185290345387549
0.0005416289122379337   -0.027837909972223535   -0.0009339353580860704
-0.0005610306429092417   -0.027956411221299694   -0.0008323047792701678
-0.001123502306179074   -0.03   -0.0008185290345387549
-0.0016144188701633585   -0.03   -0.0008332263441501201
-0.001736763921330595   -0.03   -0.0009489471790349045
-0.0005610306429092417   -0.027956411221299694   -0.0008323047792701678
-0.001123502306179074   -0.03   -0.0008185290345387549
-0.001736763921330595   -0.03   -0.0009489471790349045
0.0005416289122379337   -0.027837909972223535   -0.0009339353580860704
-0.0005610306429092417   -0.027956411221299694   -0.0008323047792701678
-0.0016144188701633585   -0.03   -0.0008332263441501201
0.0007048396630292938   -0.027828607285237707   -0.0008150090488484525
-0.0004941491420499925   -0.027974419754758992   -0.0007653775890282752
-0.0016144188701633585   -0.03   -0.0008332263441501201
-0.001123502306179074   -0.03   -0.0008185290345387549
0.0007048396630292938   -0.027828607285237707   -0.0008150090488484525
-0.0008712276998315954   -0.03   -0.0006537332768055197
-0.0004941491420499925   -0.027974419754758992   -0.0007653775890282752
0.0008749819976283769   -0.027837110164277278   -0.0007061831413103155
-0.0008712276998315954   -0.03   -0.0006537332768055197
0.0007048396630292938   -0.027828607285237707   -0.0008150090488484525
-0.0004941491420499925   -0.027974419754758992   -0.0007653775890282752
-0.0008712276998315954   -0.03   -0.0006537332768055197
-0.0014951596573021593   -0.03   -0.0007190584349282774
-0.0016144188701633585   -0.03   -0.0008332263441501201
-0.0004941491420499925   -0.027974419754758992   -0.0007653775890282752
-0.0008712276998315954   -0.03   -0.0006537332768055197
-0.0016144188701633585   -0.03   -0.0008332263441501201
0.0007048396630292938   -0.027828607285237707   -0.0008150090488484525
-0.0035917444739469433   -0.02932999008762585   -0.000750181010589381
-0.002175786567837044   -0.029427618571628438   -0.0006424970604938387
-0.003027730954533119   -0.029474951788347532   -0.000836697274186806
-0.0034312360249100634   -0.02929814894725287   -0.0008420999353758768
-0.002175786567837044   -0.029427618571628438   -0.0006424970604938387
-0.0022949046725459035   -0.02954016726109861   -0.0007539522975594705
-0.003027730954533119   -0.029474951788347532   -0.000836697274186806
-0.002238182862740882   -0.029501543671328935   -0.0007951899582631742
-0.0034312360249100634   -0.02929814894725287   -0.0008420999353758768
-0.0029529445156355797   -0.02944673990758331   -0.0008671345112179241
-0.002238182862740882   -0.029501543671328935   -0.0007951899582631742
-0.003027730954533119   -0.029474951788347532   -0.000836697274186806
-0.0034312360249100634   -0.02929814894725287   -0.0008420999353758768
-0.002238182862740882   -0.029501543671328935   -0.0007951899582631742
-0.0020299075393676157   -0.029377958373153164   -0.0007391342836921398
-0.002175786567837044   -0.029427618571628438   -0.0006424970604938387
-0.0034312360249100634   -0.02929814894725287   -0.0008420999353758768
-0.002238182862740882   -0.029501543671328935   -0.0007951899582631742
-0.002175786567837044   -0.029427618571628438   -0.0006424970604938387
-0.003027730954533119   -0.029474951788347532   -0.000836697274186806
-0.0034312360249100634   -0.02929814894725287   -0.0008420999353758768
-0.0020299075393676157   -0.029377958373153164   -0.0007391342836921398
-0.0029529445156355797   -0.02944673990758331   -0.0008671345112179241
-0.0032928014204460596   -0.029301519097448207   -0.000933715512938524
-0.0020299075393676157   -0.029377958373153164   -0.0007391342836921398
-0.002238182862740882   -0.029501543671328935   -0.0007951899582631742
-0.0029529445156355797   -0.02944673990758331   -0.0008671345112179241
-0.002171516765146529   -0.02948786724349323   -0.0008333285568344157
-0.0032928014204460596   -0.029301519097448207   -0.000933715512938524
-0.0028699018740099536   -0.029448708786570306   -0.0008978902130401484
-0.002171516765146529   -0.02948786724349323   -0.0008333285568344157
-0.0029529445156355797   -0.02944673990758331   -0.0008671345112179241
-0.0032928014204460596   -0.029301519097448207   -0.000933715512938524
-0.002171516765146529   -0.02948786724349323   -0.0008333285568344157
-0.0019085262082612071   -0.029363330499871863   -0.0008319309587531565
-0.0020299075393676157   -0.029377958373153164   -0.0007391342836921398
-0.0032928014204460596   -0.029301519097448207   -0.000933715512938524
-0.002171516765146529   -0.02948786724349323   -0.0008333285568344157
-0.0020299075393676157   -0.029377958373153164   -0.0007391342836921398
-0.0029529445156355797   -0.02944673990758331   -0.0008671345112179241
-0.0032928014204460596   -0.029301519097448207   -0.000933715512938524
-0.0019085262082612071   -0.029363330499871863   -0.0008319309587531565
-0.0028699018740099536   -0.029448708786570306   -0.0008978902130401484
-0.0031284326693421663   -0.029342184280488192   -0.0010272883569818383
-0.0019085262082612071   -0.029363330499871863   -0.0008319309587531565
-0.002171516765146529   -0.02948786724349323   -0.0008333285568344157
-0.0028699018740099536   -0.029448708786570306   -0.0008978902130401484
-0.002114488029364675   -0.029499362086533355   -0.0008681783865197328
-0.0031284326693421663   -0.029342184280488192   -0.0010272883569818383
-0.0027928744922803123   -0.029481025478438477   -0.0009290918006019966
-0.002114488029364675   -0.029499362086533355   -0.0008681783865197328
-0.0028699018740099536   -0.029448708786570306   -0.0008978902130401484
-0.0031284326693421663   -0.029342184280488192   -0.0010272883569818383
-0.002114488029364675   -0.029499362086533355   -0.0008681783865197328
-0.0017708892289924289   -0.02937764192966945   -0.0009204948620804436
-0.0019085262082612071   -0.029363330499871863   -0.0008319309587531565
-0.0031284326693421663   -0.029342184280488192   -0.0010272883569818383
-0.002114488029364675   -0.029499362086533355   -0.0008681783865197328
-0.0019085262082612071   -0.029363330499871863   -0.0008319309587531565
-0.0028699018740099536   -0.029448708786570306   -0.0008978902130401484
-0.003027730954533119   -0.029474951788347532   -0.000836697274186806
-0.0022949046725459035   -0.02954016726109861   -0.0007539522975594705
-0.0026124180688888343   -0.029618336648175543   -0.0009130140434245966
-0.0029529445156355797   -0.02944673990758331   -0.0008671345112179241
-0.0022949046725459035   -0.02954016726109861   -0.0007539522975594705
-0.002461473715910814   -0.029608790463340768   -0.000842921895653613
-0.0026124180688888343   -0.029618336648175543   -0.0009130140434245966
-0.0024113583100436463   -0.029574260689628786   -0.0008438661810115159
-0.0029529445156355797   -0.02944673990758331   -0.0008671345112179241
-0.0025337212052968304   -0.029589278768209052   -0.0008922957439232773
-0.0024113583100436463   -0.029574260689628786   -0.0008438661810115159
-0.0026124180688888343   -0.029618336648175543   -0.0009130140434245966
-0.0029529445156355797   -0.02944673990758331   -0.0008671345112179241
-0.0024113583100436463   -0.029574260689628786   -0.0008438661810115159
-0.002238182862740882   -0.029501543671328935   -0.0007951899582631742
-0.0022949046725459035   -0.02954016726109861   -0.0007539522975594705
-0.0029529445156355797   -0.02944673990758331   -0.0008671345112179241
-0.0024113583100436463   -0.029574260689628786   -0.0008438661810115159
-0.0022949046725459035   -0.02954016726109861   -0.0007539522975594705
-0.0026124180688888343   -0.029618336648175543   -0.0009130140434245966
-0.0029529445156355797   -0.02944673990758331   -0.0008671345112179241
-0.002238182862740882   -0.029501543671328935   -0.0007951899582631742
-0.0025337212052968304   -0.029589278768209052   -0.0008922957439232773
-0.0028699018740099536   -0.029448708786570306   -0.0008978902130401484
-0.002238182862740882   -0.029501543671328935   -0.0007951899582631742
-0.0024113583100436463   -0.029574260689628786   -0.0008438661810115159
-0.0025337212052968304   -0.029589278768209052   -0.0008922957439232773
-0.0023556118913282413   -0.029562319002311016   -0.0008407938612477417
-0.0028699018740099536   -0.029448708786570306   -0.0008978902130401484
-0.00245753625544862   -0.029589185546917845   -0.0008713344747819647
-0.0023556118913282413   -0.029562319002311016   -0.0008407938612477417
-0.0025337212052968304   -0.029589278768209052   -0.0008922957439232773
-0.0028699018740099536   -0.029448708786570306   -0.0008978902130401484
-0.0023556118913282413   -0.029562319002311016   -0.0008407938612477417
-0.002171516765146529   -0.02948786724349323   -0.0008333285568344157
-0.002238182862740882   -0.029501543671328935   -0.0007951899582631742
-0.0028699018740099536   -0.029448708786570306   -0.0008978902130401484
-0.0023556118913282413   -0.029562319002311016   -0.0008407938612477417
-0.002238182862740882   -0.029501543671328935   -0.0007951899582631742
-0.0025337212052968304   -0.029589278768209052   -0.0008922957439232773
-0.0028699018740099536   -0.029448708786570306   -0.0008978902130401484
-0.002171516765146529   -0.02948786724349323   -0.0008333285568344157
-0.00245753625544862   -0.029589185546917845   -0.0008713344747819647
-0.0027928744922803123   -0.029481025478438477   -0.0009290918006019966
-0.002171516765146529   -0.02948786724349323   -0.0008333285568344157
-0.0023556118913282413   -0.029562319002311016   -0.0008407938612477417
-0.00245753625544862   -0.029589185546917845   -0.0008713344747819647
-0.0022989737454985467   -0.02957198259092199   -0.0008345675599767627
-0.0027928744922803123   -0.029481025478438477   -0.0009290918006019966
-0.0023781856086007476   -0.029617478928284372   -0.0008512369315996944
-0.0022989737454985467   -0.02957198259092199   -0.0008345675599767627
-0.00245753625544862   -0.029589185546917845   -0.0008713344747819647
-0.0027928744922803123   -0.029481025478438477   -0.0009290918006019966
-0.0022989737454985467   -0.02957198259092199   -0.0008345675599767627
-0.002114488029364675   -0.029499362086533355   -0.0008681783865197328
-0.002171516765146529   -0.02948786724349323   -0.0008333285568344157
-0.0027928744922803123   -0.029481025478438477   -0.0009290918006019966
-0.0022989737454985467   -0.02957198259092199   -0.0008345675599767627
-0.002171516765146529   -0.02948786724349323   -0.0008333285568344157
-0.00245753625544862   -0.029589185546917845   -0.0008713344747819647
-0.0026124180688888343   -0.029618336648175543   -0.0009130140434245966
-0.002461473715910814   -0.029608790463340768   -0.000842921895653613
-0.0022323362544516773   -0.02978914373437769   -0.000997357869225585
-0.0025337212052968304   -0.029589278768209052   -0.0008922957439232773
-0.002461473715910814   -0.029608790463340768   -0.000842921895653613
-0.0026407318032678575   -0.02963615213785758   -0.0009306426438829436
-0.0022323362544516773   -0.02978914373437769   -0.000997357869225585
-0.0025888122155795315   -0.029603105642082742   -0.0008928292242861286
-0.0025337212052968304   -0.029589278768209052   -0.0008922957439232773
-0.0021359975226851536   -0.029763694691488252   -0.0009226595338502793
-0.0025888122155795315   -0.029603105642082742   -0.0008928292242861286
-0.0022323362544516773   -0.02978914373437769   -0.000997357869225585
-0.0025337212052968304   -0.029589278768209052   -0.0008922957439232773
-0.0025888122155795315   -0.029603105642082742   -0.0008928292242861286
-0.0024113583100436463   -0.029574260689628786   -0.0008438661810115159
-0.002461473715910814   -0.029608790463340768   -0.000842921895653613
-0.0025337212052968304   -0.029589278768209052   -0.0008922957439232773
-0.0025888122155795315   -0.029603105642082742   -0.0008928292242861286
-0.002461473715910814   -0.029608790463340768   -0.000842921895653613
-0.0022323362544516773   -0.02978914373437769   -0.000997357869225585
-0.0025337212052968304   -0.029589278768209052   -0.0008922957439232773
-0.0024113583100436463   -0.029574260689628786   -0.0008438661810115159
-0.0021359975226851536   -0.029763694691488252   -0.0009226595338502793
-0.00245753625544862   -0.029589185546917845   -0.0008713344747819647
-0.0024113583100436463   -0.029574260689628786   -0.0008438661810115159
-0.0025888122155795315   -0.029603105642082742   -0.0008928292242861286
-0.0021359975226851536   -0.029763694691488252   -0.0009226595338502793
-0.0025266387534323416   -0.029593003813142994   -0.00085012051219374
-0.00245753625544862   -0.029589185546917845   -0.0008713344747819647
-0.0020465805292906565   -0.029762582102576703   -0.0008481236022291731
-0.0025266387534323416   -0.029593003813142994   -0.00085012051219374
-0.0021359975226851536   -0.029763694691488252   -0.0009226595338502793
-0.00245753625544862   -0.029589185546917845   -0.0008713344747819647
-0.0025266387534323416   -0.029593003813142994   -0.00085012051219374
-0.0023556118913282413   -0.029562319002311016   -0.0008407938612477417
-0.0024113583100436463   -0.029574260689628786   -0.0008438661810115159
-0.00245753625544862   -0.029589185546917845   -0.0008713344747819647
-0.0025266387534323416   -0.029593003813142994   -0.00085012051219374
-0.0024113583100436463   -0.029574260689628786   -0.0008438661810115159
-0.0021359975226851536   -0.029763694691488252   -0.0009226595338502793
-0.00245753625544862   -0.029589185546917845   -0.0008713344747819647
-0.0023556118913282413   -0.029562319002311016   -0.0008407938612477417
-0.0020465805292906565   -0.029762582102576703   -0.0008481236022291731
-0.0023781856086007476   -0.029617478928284372   -0.0008512369315996944
-0.0023556118913282413   -0.029562319002311016   -0.0008407938612477417
-0.0025266387534323416   -0.029593003813142994   -0.00085012051219374
-0.0020465805292906565   -0.029762582102576703   -0.0008481236022291731
-0.0024627639705845452   -0.029602363644308002   -0.0008046921403257264
-0.0023781856086007476   -0.029617478928284372   -0.0008512369315996944
-0.0019507755907559213   -0.02978455701824219   -0.0007735744593918884
-0.0024627639705845452   -0.029602363644308002   -0.0008046921403257264
-0.0020465805292906565   -0.029762582102576703   -0.0008481236022291731
-0.0023781856086007476   -0.029617478928284372   -0.0008512369315996944
-0.0024627639705845452   -0.029602363644308002   -0.0008046921403257264
-0.0022989737454985467   -0.02957198259092199   -0.0008345675599767627
-0.0023556118913282413   -0.029562319002311016   -0.0008407938612477417
-0.0023781856086007476   -0.029617478928284372   -0.0008512369315996944
-0.0024627639705845452   -0.029602363644308002   -0.0008046921403257264
-0.0023556118913282413   -0.029562319002311016   -0.0008407938612477417
-0.0020465805292906565   -0.029762582102576703   -0.0008481236022291731
-0.0022323362544516773   -0.02978914373437769   -0.000997357869225585
-0.0026407318032678575   -0.02963615213785758   -0.0009306426438829436
-0.0018582636036534059   -0.03   -0.0010633207408775015
-0.0021359975226851536   -0.029763694691488252   -0.0009226595338502793
-0.0026407318032678575   -0.02963615213785758   -0.0009306426438829436
-0.0029008005787069103   -0.02960245749696709   -0.0010143886774746944
-0.0018582636036534059   -0.03   -0.0010633207408775015
-0.0028330298962820108   -0.029571034748240434   -0.0009395820235493903
-0.0021359975226851536   -0.029763694691488252   -0.0009226595338502793
-0.001736763921330595   -0.03   -0.0009489471790349045
-0.0028330298962820108   -0.029571034748240434   -0.0009395820235493903
-0.0018582636036534059   -0.03   -0.0010633207408775015
-0.0021359975226851536   -0.029763694691488252   -0.0009226595338502793
-0.0028330298962820108   -0.029571034748240434   -0.0009395820235493903
-0.0025888122155795315   -0.029603105642082742   -0.0008928292242861286
-0.0026407318032678575   -0.02963615213785758   -0.0009306426438829436
-0.0021359975226851536   -0.029763694691488252   -0.0009226595338502793
-0.0028330298962820108   -0.029571034748240434   -0.0009395820235493903
-0.0026407318032678575   -0.02963615213785758   -0.0009306426438829436
-0.0018582636036534059   -0.03   -0.0010633207408775015
-0.0021359975226851536   -0.029763694691488252   -0.0009226595338502793
-0.0025888122155795315   -0.029603105642082742   -0.0008928292242861286
-0.001736763921330595   -0.03   -0.0009489471790349045
-0.0020465805292906565   -0.029762582102576703   -0.0008481236022291731
-0.0025888122155795315   -0.029603105642082742   -0.0008928292242861286
-0.0028330298962820108   -0.029571034748240434   -0.0009395820235493903
-0.001736763921330595   -0.03   -0.0009489471790349045
-0.0027433633649844415   -0.02956419527407199   -0.0008592865427231155
-0.0020465805292906565   -0.029762582102576703   -0.0008481236022291731
-0.0016144188701633585   -0.03   -0.0008332263441501201
-0.0027433633649844415   -0.02956419527407199   -0.0008592865427231155
-0.001736763921330595   -0.03   -0.0009489471790349045
-0.0020465805292906565   -0.029762582102576703   -0.0008481236022291731
-0.0027433633649844415   -0.02956419527407199   -0.0008592865427231155
-0.0025266387534323416   -0.029593003813142994   -0.00085012051219374
-0.0025888122155795315   -0.029603105642082742   -0.0008928292242861286
-0.0020465805292906565   -0.029762582102576703   -0.0008481236022291731
-0.0027433633649844415   -0.02956419527407199   -0.0008592865427231155
-0.0025888122155795315   -0.029603105642082742   -0.0008928292242861286
-0.001736763921330595   -0.03   -0.0009489471790349045
-0.0020465805292906565   -0.029762582102576703   -0.0008481236022291731
-0.0025266387534323416   -0.029593003813142994   -0.00085012051219374
-0.0016144188701633585   -0.03   -0.0008332263441501201
-0.0019507755907559213   -0.02978455701824219   -0.0007735744593918884
-0.0025266387534323416   -0.029593003813142994   -0.00085012051219374
-0.0027433633649844415   -0.02956419527407199   -0.0008592865427231155
-0.0016144188701633585   -0.03   -0.0008332263441501201
-0.002659394446263714   -0.029577283779485136   -0.0007759742696553442
-0.0019507755907559213   -0.02978455701824219   -0.0007735744593918884
-0.0014951596573021593   -0.03   -0.0007190584349282774
-0.002659394446263714   -0.029577283779485136   -0.0007759742696553442
-0.0016144188701633585   -0.03   -0.0008332263441501201
-0.0019507755907559213   -0.02978455701824219   -0.0007735744593918884
-0.002659394446263714   -0.029577283779485136   -0.0007759742696553442
-0.0024627639705845452   -0.029602363644308002   -0.0008046921403257264
-0.0025266387534323416   -0.029593003813142994   -0.00085012051219374
-0.0019507755907559213   -0.02978455701824219   -0.0007735744593918884
-0.002659394446263714   -0.029577283779485136   -0.0007759742696553442
-0.0025266387534323416   -0.029593003813142994   -0.00085012051219374
-0.0016144188701633585   -0.03   -0.0008332263441501201
-0.0018582636036534059   -0.03   -0.0010633207408775015
-0.0029008005787069103   -0.02960245749696709   -0.0010143886774746944
-0.001583990863432341   -0.03   -0.0011431998637210434
-0.001736763921330595   -0.03   -0.0009489471790349045
-0.0029008005787069103   -0.02960245749696709   -0.0010143886774746944
-0.003411807619390453   -0.02945808576961334   -0.0011039564122661669
-0.001583990863432341   -0.03   -0.0011431998637210434
-0.0032290458761009195   -0.029431217580582026   -0.0009812795646339505
-0.001736763921330595   -0.03   -0.0009489471790349045
-0.001327793810739714   -0.03   -0.0009772517584297638
-0.0032290458761009195   -0.029431217580582026   -0.0009812795646339505
-0.001583990863432341   -0.03   -0.0011431998637210434
-0.001736763921330595   -0.03   -0.0009489471790349045
-0.0032290458761009195   -0.029431217580582026   -0.0009812795646339505
-0.0028330298962820108   -0.029571034748240434   -0.0009395820235493903
-0.0029008005787069103   -0.02960245749696709   -0.0010143886774746944
-0.001736763921330595   -0.03   -0.0009489471790349045
-0.0032290458761009195   -0.029431217580582026   -0.0009812795646339505
-0.0029008005787069103   -0.02960245749696709   -0.0010143886774746944
-0.001583990863432341   -0.03   -0.0011431998637210434
-0.001736763921330595   -0.03   -0.0009489471790349045
-0.0028330298962820108   -0.029571034748240434   -0.0009395820235493903
-0.001327793810739714   -0.03   -0.0009772517584297638
-0.0016144188701633585   -0.03   -0.0008332263441501201
-0.0028330298962820108   -0.029571034748240434   -0.0009395820235493903
-0.0032290458761009195   -0.029431217580582026   -0.0009812795646339505
-0.001327793810739714   -0.03   -0.0009772517584297638
-0.0030616572953987508   -0.029427787190786255   -0.0008505795380173346
-0.0016144188701633585   -0.03   -0.0008332263441501201
-0.001123502306179074   -0.03   -0.0008185290345387549
-0.0030616572953987508   -0.029427787190786255   -0.0008505795380173346
-0.001327793810739714   -0.03   -0.0009772517584297638
-0.0016144188701633585   -0.03   -0.0008332263441501201
-0.0030616572953987508   -0.029427787190786255   -0.0008505795380173346
-0.0027433633649844415   -0.02956419527407199   -0.0008592865427231155
-0.0028330298962820108   -0.029571034748240434   -0.0009395820235493903
-0.0016144188701633585   -0.03   -0.0008332263441501201
-0.0030616572953987508   -0.029427787190786255   -0.0008505795380173346
-0.0028330298962820108   -0.029571034748240434   -0.0009395820235493903
-0.001327793810739714   -0.03   -0.0009772517584297638
-0.0016144188701633585   -0.03   -0.0008332263441501201
-0.0027433633649844415   -0.02956419527407199   -0.0008592865427231155
-0.001123502306179074   -0.03   -0.0008185290345387549
-0.0014951596573021593   -0.03   -0.0007190584349282774
-0.0027433633649844415   -0.02956419527407199   -0.0008592865427231155
-0.0030616572953987508   -0.029427787190786255   -0.0008505795380173346
-0.001123502306179074   -0.03   -0.0008185290345387549
-0.0028501644800289147   -0.02946294477318059   -0.0007140965661770262
-0.0014951596573021593   -0.03   -0.0007190584349282774
-0.0008712276998315954   -0.03   -0.0006537332768055197
-0.0028501644800289147   -0.02946294477318059   -0.0007140965661770262
-0.001123502306179074   -0.03   -0.0008185290345387549
-0.0014951596573021593   -0.03   -0.0007190584349282774
-0.0028501644800289147   -0.02946294477318059   -0.0007140965661770262
-0.002659394446263714   -0.029577283779485136   -0.0007759742696553442
-0.0027433633649844415   -0.02956419527407199   -0.0008592865427231155
-0.0014951596573021593   -0.03   -0.0007190584349282774
-0.0028501644800289147   -0.02946294477318059   -0.0007140965661770262
-0.0027433633649844415   -0.02956419527407199   -0.0008592865427231155
-0.001123502306179074   -0.03   -0.0008185290345387549
-0.002175786567837044   -0.029427618571628438   -0.0006424970604938387
-0.0009242406978402225   -0.028345923346400646   -0.0005540892068665944
-0.0022949046725459035   -0.02954016726109861   -0.0007539522975594705
-0.0020299075393676157   -0.029377958373153164   -0.0007391342836921398
-0.0009242406978402225   -0.028345923346400646   -0.0005540892068665944
-0.0016632036127281087   -0.02843150103878119   -0.0006726511222091283
-0.0022949046725459035   -0.02954016726109861   -0.0007539522975594705
-0.0016227941783754749   -0.02838471965097951   -0.0007095756741463592
-0.0020299075393676157   -0.029377958373153164   -0.0007391342836921398
-0.002238182862740882   -0.029501543671328935   -0.0007951899582631742
-0.0016227941783754749   -0.02838471965097951   -0.0007095756741463592
-0.0022949046725459035   -0.02954016726109861   -0.0007539522975594705
-0.0020299075393676157   -0.029377958373153164   -0.0007391342836921398
-0.0016227941783754749   -0.02838471965097951   -0.0007095756741463592
-0.0008073283857326488   -0.028287912762132408   -0.0006380427479475017
-0.0009242406978402225   -0.028345923346400646   -0.0005540892068665944
-0.0020299075393676157   -0.029377958373153164   -0.0007391342836921398
-0.0016227941783754749   -0.02838471965097951   -0.0007095756741463592
-0.0009242406978402225   -0.028345923346400646   -0.0005540892068665944
-0.0022949046725459035   -0.02954016726109861   -0.0007539522975594705
-0.0020299075393676157   -0.029377958373153164   -0.0007391342836921398
-0.0008073283857326488   -0.028287912762132408   -0.0006380427479475017
-0.002238182862740882   -0.029501543671328935   -0.0007951899582631742
-0.0019085262082612071   -0.029363330499871863   -0.0008319309587531565
-0.0008073283857326488   -0.028287912762132408   -0.0006380427479475017
-0.0016227941783754749   -0.02838471965097951   -0.0007095756741463592
-0.002238182862740882   -0.029501543671328935   -0.0007951899582631742
-0.0015771405771346327   -0.02835939485811307   -0.0007432577193502395
-0.0019085262082612071   -0.029363330499871863   -0.0008319309587531565
-0.002171516765146529   -0.02948786724349323   -0.0008333285568344157
-0.0015771405771346327   -0.02835939485811307   -0.0007432577193502395
-0.002238182862740882   -0.029501543671328935   -0.0007951899582631742
-0.0019085262082612071   -0.029363330499871863   -0.0008319309587531565
-0.0015771405771346327   -0.02835939485811307   -0.0007432577193502395
-0.0007153163316564671   -0.02826096346126925   -0.0007171952267478295
-0.0008073283857326488   -0.028287912762132408   -0.0006380427479475017
-0.0019085262082612071   -0.029363330499871863   -0.0008319309587531565
-0.0015771405771346327   -0.02835939485811307   -0.0007432577193502395
-0.0008073283857326488   -0.028287912762132408   -0.0006380427479475017
-0.002238182862740882   -0.029501543671328935   -0.0007951899582631742
-0.0019085262082612071   -0.029363330499871863   -0.0008319309587531565
-0.0007153163316564671   -0.02826096346126925   -0.0007171952267478295
-0.002171516765146529   -0.02948786724349323   -0.0008333285568344157
-0.0017708892289924289   -0.02937764192966945   -0.0009204948620804436
-0.0007153163316564671   -0.02826096346126925   -0.0007171952267478295
-0.0015771405771346327   -0.02835939485811307   -0.0007432577193502395
-0.002171516765146529   -0.02948786724349323   -0.0008333285568344157
-0.0015421848123939352   -0.028354811635953114   -0.00077380628411794
-0.0017708892289924289   -0.02937764192966945   -0.0009204948620804436
-0.002114488029364675   -0.029499362086533355   -0.0008681783865197328
-0.0015421848123939352   -0.028354811635953114   -0.00077380628411794
-0.002171516765146529   -0.02948786724349323   -0.0008333285568344157
-0.0017708892289924289   -0.02937764192966945   -0.0009204948620804436
-0.0015421848123939352   -0.028354811635953114   -0.00077380628411794
-0.0006144659441558386   -0.028257201015071405   -0.0007913505863087957
-0.0007153163316564671   -0.02826096346126925   -0.0007171952267478295
-0.0017708892289924289   -0.02937764192966945   -0.0009204948620804436
-0.0015421848123939352   -0.028354811635953114   -0.00077380628411794
-0.0007153163316564671   -0.02826096346126925   -0.0007171952267478295
-0.002171516765146529   -0.02948786724349323   -0.0008333285568344157
-0.0022949046725459035   -0.02954016726109861   -0.0007539522975594705
-0.0016632036127281087   -0.02843150103878119   -0.0006726511222091283
-0.002461473715910814   -0.029608790463340768   -0.000842921895653613
-0.002238182862740882   -0.029501543671328935   -0.0007951899582631742
-0.0016632036127281087   -0.02843150103878119   -0.0006726511222091283
-0.0023953137620769554   -0.028461454688812095   -0.0007690991374411047
-0.002461473715910814   -0.029608790463340768   -0.000842921895653613
-0.002361439186458736   -0.028420664002695113   -0.0007709881712535737
-0.002238182862740882   -0.029501543671328935   -0.0007951899582631742
-0.0024113583100436463   -0.029574260689628786   -0.0008438661810115159
-0.002361439186458736   -0.028420664002695113   -0.0007709881712535737
-0.002461473715910814   -0.029608790463340768   -0.000842921895653613
-0.002238182862740882   -0.029501543671328935   -0.0007951899582631742
-0.002361439186458736   -0.028420664002695113   -0.0007709881712535737
-0.0016227941783754749   -0.02838471965097951   -0.0007095756741463592
-0.0016632036127281087   -0.02843150103878119   -0.0006726511222091283
-0.002238182862740882   -0.029501543671328935   -0.0007951899582631742
-0.002361439186458736   -0.028420664002695113   -0.0007709881712535737
-0.0016632036127281087   -0.02843150103878119   -0.0006726511222091283
-0.002461473715910814   -0.029608790463340768   -0.000842921895653613
-0.002238182862740882   -0.029501543671328935   -0.0007951899582631742
-0.0016227941783754749   -0.02838471965097951   -0.0007095756741463592
-0.0024113583100436463   -0.029574260689628786   -0.0008438661810115159
-0.002171516765146529   -0.02948786724349323   -0.0008333285568344157
-0.0016227941783754749   -0.02838471965097951   -0.0007095756741463592
-0.002361439186458736   -0.028420664002695113   -0.0007709881712535737
-0.0024113583100436463   -0.029574260689628786   -0.0008438661810115159
-0.0023263855837794035   -0.028399207589846966   -0.0007698719151898119
-0.002171516765146529   -0.02948786724349323   -0.0008333285568344157
-0.0023556118913282413   -0.029562319002311016   -0.0008407938612477417
-0.0023263855837794035   -0.028399207589846966   -0.0007698719151898119
-0.0024113583100436463   -0.029574260689628786   -0.0008438661810115159
-0.002171516765146529   -0.02948786724349323   -0.0008333285568344157
-0.0023263855837794035   -0.028399207589846966   -0.0007698719151898119
-0.0015771405771346327   -0.02835939485811307   -0.0007432577193502395
-0.0016227941783754749   -0.02838471965097951   -0.0007095756741463592
-0.002171516765146529   -0.02948786724349323   -0.0008333285568344157
-0.0023263855837794035   -0.028399207589846966   -0.0007698719151898119
-0.0016227941783754749   -0.02838471965097951   -0.0007095756741463592
-0.0024113583100436463   -0.029574260689628786   -0.0008438661810115159
-0.002171516765146529   -0.02948786724349323   -0.0008333285568344157
-0.0015771405771346327   -0.02835939485811307   -0.0007432577193502395
-0.0023556118913282413   -0.029562319002311016   -0.0008407938612477417
-0.002114488029364675   -0.029499362086533355   -0.0008681783865197328
-0.0015771405771346327   -0.02835939485811307   -0.0007432577193502395
-0.0023263855837794035   -0.028399207589846966   -0.0007698719151898119
-0.0023556118913282413   -0.029562319002311016   -0.0008407938612477417
-0.002292602078193069   -0.02839619427020202   -0.0007657329497108033
-0.002114488029364675   -0.029499362086533355   -0.0008681783865197328
-0.0022989737454985467   -0.02957198259092199   -0.0008345675599767627
-0.002292602078193069   -0.02839619427020202   -0.0007657329497108033
-0.0023556118913282413   -0.029562319002311016   -0.0008407938612477417
-0.002114488029364675   -0.029499362086533355   -0.0008681783865197328
-0.002292602078193069   -0.02839619427020202   -0.0007657329497108033
-0.0015421848123939352   -0.028354811635953114   -0.00077380628411794
-0.0015771405771346327   -0.02835939485811307   -0.0007432577193502395
-0.002114488029364675   -0.029499362086533355   -0.0008681783865197328
-0.002292602078193069   -0.02839619427020202   -0.0007657329497108033
-0.0015771405771346327   -0.02835939485811307   -0.0007432577193502395
-0.0023556118913282413   -0.029562319002311016   -0.0008407938612477417
-0.002461473715910814   -0.029608790463340768   -0.000842921895653613
-0.0023953137620769554   -0.028461454688812095   -0.0007690991374411047
-0.0026407318032678575   -0.02963615213785758   -0.0009306426438829436
-0.0024113583100436463   -0.029574260689628786   -0.0008438661810115159
-0.0023953137620769554   -0.028461454688812095   -0.0007690991374411047
-0.0031227563991593453   -0.028434308200199963   -0.0008594298042402488
-0.0026407318032678575   -0.02963615213785758   -0.0009306426438829436
-0.003089150469727255   -0.028398023160668237   -0.0008277009459591146
-0.0024113583100436463   -0.029574260689628786   -0.0008438661810115159
-0.0025888122155795315   -0.029603105642082742   -0.0008928292242861286
-0.003089150469727255   -0.028398023160668237   -0.0008277009459591146
-0.0026407318032678575   -0.02963615213785758   -0.0009306426438829436
-0.0024113583100436463   -0.029574260689628786   -0.0008438661810115159
-0.003089150469727255   -0.028398023160668237   -0.0008277009459591146
-0.002361439186458736   -0.028420664002695113   -0.0007709881712535737
-0.0023953137620769554   -0.028461454688812095   -0.0007690991374411047
-0.0024113583100436463   -0.029574260689628786   -0.0008438661810115159
-0.003089150469727255   -0.028398023160668237   -0.0008277009459591146
-0.0023953137620769554   -0.028461454688812095   -0.0007690991374411047
-0.0026407318032678575   -0.02963615213785758   -0.0009306426438829436
-0.0024113583100436463   -0.029574260689628786   -0.0008438661810115159
-0.002361439186458736   -0.028420664002695113   -0.0007709881712535737
-0.0025888122155795315   -0.029603105642082742   -0.0008928292242861286
-0.0023556118913282413   -0.029562319002311016   -0.0008407938612477417
-0.002361439186458736   -0.028420664002695113   -0.0007709881712535737
-0.003089150469727255   -0.028398023160668237   -0.0008277009459591146
-0.0025888122155795315   -0.029603105642082742   -0.0008928292242861286
-0.003051440639812857   -0.028380760340949118   -0.0007930161784862475
-0.0023556118913282413   -0.029562319002311016   -0.0008407938612477417
-0.0025266387534323416   -0.029593003813142994   -0.00085012051219374
-0.003051440639812857   -0.028380760340949118   -0.0007930161784862475
-0.0025888122155795315   -0.029603105642082742   -0.0008928292242861286
-0.0023556118913282413   -0.029562319002311016   -0.0008407938612477417
-0.003051440639812857   -0.028380760340949118   -0.0007930161784862475
-0.0023263855837794035   -0.028399207589846966   -0.0007698719151898119
-0.002361439186458736   -0.028420664002695113   -0.0007709881712535737
-0.0023556118913282413   -0.029562319002311016   -0.0008407938612477417
-0.003051440639812857   -0.028380760340949118   -0.0007930161784862475
-0.002361439186458736   -0.028420664002695113   -0.0007709881712535737
-0.0025888122155795315   -0.029603105642082742   -0.0008928292242861286
-0.0023556118913282413   -0.029562319002311016   -0.0008407938612477417
-0.0023263855837794035   -0.028399207589846966   -0.0007698719151898119
-0.0025266387534323416   -0.029593003813142994   -0.00085012051219374
-0.0022989737454985467   -0.02957198259092199   -0.0008345675599767627
-0.0023263855837794035   -0.028399207589846966   -0.0007698719151898119
-0.003051440639812857   -0.028380760340949118   -0.0007930161784862475
-0.0025266387534323416   -0.029593003813142994   -0.00085012051219374
-0.003013627845985669   -0.028380747889560593   -0.0007550162555327236
-0.0022989737454985467   -0.02957198259092199   -0.0008345675599767627
-0.0024627639705845452   -0.029602363644308002   -0.0008046921403257264
-0.003013627845985669   -0.028380747889560593   -0.0007550162555327236
-0.0025266387534323416   -0.029593003813142994   -0.00085012051219374
-0.0022989737454985467   -0.02957198259092199   -0.0008345675599767627
-0.003013627845985669   -0.028380747889560593   -0.0007550162555327236
-0.002292602078193069   -0.02839619427020202   -0.0007657329497108033
-0.0023263855837794035   -0.028399207589846966   -0.0007698719151898119
-0.0022989737454985467   -0.02957198259092199   -0.0008345675599767627
-0.003013627845985669   -0.028380747889560593   -0.0007550162555327236
-0.0023263855837794035   -0.028399207589846966   -0.0007698719151898119
-0.0025266387534323416   -0.029593003813142994   -0.00085012051219374
-0.0026407318032678575   -0.02963615213785758   -0.0009306426438829436
-0.0031227563991593453   -0.028434308200199963   -0.0008594298042402488
-0.0029008005787069103   -0.02960245749696709   -0.0010143886774746944
-0.0025888122155795315   -0.029603105642082742   -0.0008928292242861286
-0.0031227563991593453   -0.028434308200199963   -0.0008594298042402488
-0.003920888486853984   -0.028346559105419993   -0.000942609604827593
-0.0029008005787069103   -0.02960245749696709   -0.0010143886774746944
-0.0038796019394898127   -0.028314746812765555   -0.0008779549692838679
-0.0025888122155795315   -0.029603105642082742   -0.0008928292242861286
-0.0028330298962820108   -0.029571034748240434   -0.0009395820235493903
-0.0038796019394898127   -0.028314746812765555   -0.0008779549692838679
-0.0029008005787069103   -0.02960245749696709   -0.0010143886774746944
-0.0025888122155795315   -0.029603105642082742   -0.0008928292242861286
-0.0038796019394898127   -0.028314746812765555   -0.0008779549692838679
-0.003089150469727255   -0.028398023160668237   -0.0008277009459591146
-0.0031227563991593453   -0.028434308200199963   -0.0008594298042402488
-0.0025888122155795315   -0.029603105642082742   -0.0008928292242861286
-0.0038796019394898127   -0.028314746812765555   -0.0008779549692838679
-0.0031227563991593453   -0.028434308200199963   -0.0008594298042402488
-0.0029008005787069103   -0.02960245749696709   -0.0010143886774746944
-0.0025888122155795315   -0.029603105642082742   -0.0008928292242861286
-0.003089150469727255   -0.028398023160668237   -0.0008277009459591146
-0.0028330298962820108   -0.029571034748240434   -0.0009395820235493903
-0.0025266387534323416   -0.029593003813142994   -0.00085012051219374
-0.003089150469727255   -0.028398023160668237   -0.0008277009459591146
-0.0038796019394898127   -0.028314746812765555   -0.0008779549692838679
-0.0028330298962820108   -0.029571034748240434   -0.0009395820235493903
-0.003822456548997926   -0.0283016612464099   -0.0008105763355442655
-0.0025266387534323416   -0.029593003813142994   -0.00085012051219374
-0.0027433633649844415   -0.02956419527407199   -0.0008592865427231155
-0.003822456548997926   -0.0283016612464099   -0.0008105763355442655
-0.0028330298962820108   -0.029571034748240434   -0.0009395820235493903
-0.0025266387534323416   -0.029593003813142994   -0.00085012051219374
-0.003822456548997926   -0.0283016612464099   -0.0008105763355442655
-0.003051440639812857   -0.028380760340949118   -0.0007930161784862475
-0.003089150469727255   -0.028398023160668237   -0.0008277009459591146
-0.0025266387534323416   -0.029593003813142994   -0.00085012051219374
-0.003822456548997926   -0.0283016612464099   -0.0008105763355442655
-0.003089150469727255   -0.028398023160668237   -0.0008277009459591146
-0.0028330298962820108   -0.029571034748240434   -0.0009395820235493903
-0.0025266387534323416   -0.029593003813142994   -0.00085012051219374
-0.003051440639812857   -0.028380760340949118   -0.0007930161784862475
-0.0027433633649844415   -0.02956419527407199   -0.0008592865427231155
-0.0024627639705845452   -0.029602363644308002   -0.0008046921403257264
-0.003051440639812857   -0.028380760340949118   -0.0007930161784862475
-0.003822456548997926   -0.0283016612464099   -0.0008105763355442655
-0.0027433633649844415   -0.02956419527407199   -0.0008592865427231155
-0.0037728249462633356   -0.02830731068200766   -0.0007386358514328167
-0.0024627639705845452   -0.029602363644308002   -0.0008046921403257264
-0.002659394446263714   -0.029577283779485136   -0.0007759742696553442
-0.0037728249462633356   -0.02830731068200766   -0.0007386358514328167
-0.0027433633649844415   -0.02956419527407199   -0.0008592865427231155
-0.0024627639705845452   -0.029602363644308002   -0.0008046921403257264
-0.0037728249462633356   -0.02830731068200766   -0.0007386358514328167
-0.003013627845985669   -0.028380747889560593   -0.0007550162555327236
-0.003051440639812857   -0.028380760340949118   -0.0007930161784862475
-0.0024627639705845452   -0.029602363644308002   -0.0008046921403257264
-0.0037728249462633356   -0.02830731068200766   -0.0007386358514328167
-0.003051440639812857   -0.028380760340949118   -0.0007930161784862475
-0.0027433633649844415   -0.02956419527407199   -0.0008592865427231155
-0.0029008005787069103   -0.02960245749696709   -0.0010143886774746944
-0.003920888486853984   -0.028346559105419993   -0.000942609604827593
-0.003411807619390453   -0.02945808576961334   -0.0011039564122661669
-0.0028330298962820108   -0.029571034748240434   -0.0009395820235493903
-0.003920888486853984   -0.028346559105419993   -0.000942609604827593
-0.004948467425923267   -0.02820384873100194   -0.0010230745527239047
-0.003411807619390453   -0.02945808576961334   -0.0011039564122661669
-0.004813356067227658   -0.028169093442012842   -0.0009209288845422165
-0.0028330298962820108   -0.029571034748240434   -0.0009395820235493903
-0.0032290458761009195   -0.029431217580582026   -0.0009812795646339505
-0.004813356067227658   -0.028169093442012842   -0.0009209288845422165
-0.003411807619390453   -0.02945808576961334   -0.0011039564122661669
-0.0028330298962820108   -0.029571034748240434   -0.0009395820235493903
-0.004813356067227658   -0.028169093442012842   -0.0009209288845422165
-0.0038796019394898127   -0.028314746812765555   -0.0008779549692838679
-0.003920888486853984   -0.028346559105419993   -0.000942609604827593
-0.0028330298962820108   -0.029571034748240434   -0.0009395820235493903
-0.004813356067227658   -0.028169093442012842   -0.0009209288845422165
-0.003920888486853984   -0.028346559105419993   -0.000942609604827593
-0.003411807619390453   -0.02945808576961334   -0.0011039564122661669
-0.0028330298962820108   -0.029571034748240434   -0.0009395820235493903
-0.0038796019394898127   -0.028314746812765555   -0.0008779549692838679
-0.0032290458761009195   -0.029431217580582026   -0.0009812795646339505
-0.0027433633649844415   -0.02956419527407199   -0.0008592865427231155
-0.0038796019394898127   -0.028314746812765555   -0.0008779549692838679
-0.004813356067227658   -0.028169093442012842   -0.0009209288845422165
-0.0032290458761009195   -0.029431217580582026   -0.0009812795646339505
-0.004692688160972002   -0.028156989803591662   -0.0008130377432587091
-0.0027433633649844415   -0.02956419527407199   -0.0008592865427231155
-0.0030616572953987508   -0.029427787190786255   -0.0008505795380173346
-0.004692688160972002   -0.028156989803591662   -0.0008130377432587091
-0.0032290458761009195   -0.029431217580582026   -0.0009812795646339505
-0.0027433633649844415   -0.02956419527407199   -0.0008592865427231155
-0.004692688160972002   -0.028156989803591662   -0.0008130377432587091
-0.003822456548997926   -0.0283016612464099   -0.0008105763355442655
-0.0038796019394898127   -0.028314746812765555   -0.0008779549692838679
-0.0027433633649844415   -0.02956419527407199   -0.0008592865427231155
-0.004692688160972002   -0.028156989803591662   -0.0008130377432587091
-0.0038796019394898127   -0.028314746812765555   -0.0008779549692838679
-0.0032290458761009195   -0.029431217580582026   -0.0009812795646339505
-0.0027433633649844415   -0.02956419527407199   -0.0008592865427231155
-0.003822456548997926   -0.0283016612464099   -0.0008105763355442655
-0.0030616572953987508   -0.029427787190786255   -0.0008505795380173346
-0.002659394446263714   -0.029577283779485136   -0.0007759742696553442
-0.003822456548997926   -0.0283016612464099   -0.0008105763355442655
-0.004692688160972002   -0.028156989803591662   -0.0008130377432587091
-0.0030616572953987508   -0.029427787190786255   -0.0008505795380173346
-0.00453635303956186   -0.028173925593479855   -0.0007004089844726855
-0.002659394446263714   -0.029577283779485136   -0.0007759742696553442
-0.0028501644800289147   -0.02946294477318059   -0.0007140965661770262
-0.00453635303956186   -0.028173925593479855   -0.0007004089844726855
-0.0030616572953987508   -0.029427787190786255   -0.0008505795380173346
-0.002659394446263714   -0.029577283779485136   -0.0007759742696553442
-0.00453635303956186   -0.028173925593479855   -0.0007004089844726855
-0.0037728249462633356   -0.02830731068200766   -0.0007386358514328167
-0.003822456548997926   -0.0283016612464099   -0.0008105763355442655
-0.002659394446263714   -0.029577283779485136   -0.0007759742696553442
-0.00453635303956186   -0.028173925593479855   -0.0007004089844726855
-0.003822456548997926   -0.0283016612464099   -0.0008105763355442655
-0.0030616572953987508   -0.029427787190786255   -0.0008505795380173346
-0.0009242406978402225   -0.028345923346400646   -0.0005540892068665944
9.753768216567644e-05   -0.026331400549588064   -0.00045742861663168534
-0.0016632036127281087   -0.02843150103878119   -0.0006726511222091283
-0.0008073283857326488   -0.028287912762132408   -0.0006380427479475017
9.753768216567644e-05   -0.026331400549588064   -0.00045742861663168534
-0.0011583696495197093   -0.026394680493890224   -0.0005739886613522568
-0.0016632036127281087   -0.02843150103878119   -0.0006726511222091283
-0.0011367701332990205   -0.026345616478693056   -0.0006034739731073535
-0.0008073283857326488   -0.028287912762132408   -0.0006380427479475017
-0.0016227941783754749   -0.02838471965097951   -0.0007095756741463592
-0.0011367701332990205   -0.026345616478693056   -0.0006034739731073535
-0.0016632036127281087   -0.02843150103878119   -0.0006726511222091283
-0.0008073283857326488   -0.028287912762132408   -0.0006380427479475017
-0.0011367701332990205   -0.026345616478693056   -0.0006034739731073535
0.00017990621524606245   -0.02627236067197034   -0.0005247538853206331
9.753768216567644e-05   -0.026331400549588064   -0.00045742861663168534
-0.0008073283857326488   -0.028287912762132408   -0.0006380427479475017
-0.0011367701332990205   -0.026345616478693056   -0.0006034739731073535
9.753768216567644e-05   -0.026331400549588064   -0.00045742861663168534
-0.0016632036127281087   -0.02843150103878119   -0.0006726511222091283
-0.0008073283857326488   -0.028287912762132408   -0.0006380427479475017
0.00017990621524606245   -0.02627236067197034   -0.0005247538853206331
-0.0016227941783754749   -0.02838471965097951   -0.0007095756741463592
-0.0007153163316564671   -0.02826096346126925   -0.0007171952267478295
0.00017990621524606245   -0.02627236067197034   -0.0005247538853206331
-0.0011367701332990205   -0.026345616478693056   -0.0006034739731073535
-0.0016227941783754749   -0.02838471965097951   -0.0007095756741463592
-0.0011120481304499029   -0.026314168612528673   -0.0006296156073105362
-0.0007153163316564671   -0.02826096346126925   -0.0007171952267478295
-0.0015771405771346327   -0.02835939485811307   -0.0007432577193502395
-0.0011120481304499029   -0.026314168612528673   -0.0006296156073105362
-0.0016227941783754749   -0.02838471965097951   -0.0007095756741463592
-0.0007153163316564671   -0.02826096346126925   -0.0007171952267478295
-0.0011120481304499029   -0.026314168612528673   -0.0006296156073105362
0.00024057477424829465   -0.02623893895522564   -0.0005873984157179035
0.00017990621524606245   -0.02627236067197034   -0.0005247538853206331
-0.0007153163316564671   -0.02826096346126925   -0.0007171952267478295
-0.0011120481304499029   -0.026314168612528673   -0.0006296156073105362
0.00017990621524606245   -0.02627236067197034   -0.0005247538853206331
-0.0016227941783754749   -0.02838471965097951   -0.0007095756741463592
-0.0007153163316564671   -0.02826096346126925   -0.0007171952267478295
0.00024057477424829465   -0.02623893895522564   -0.0005873984157179035
-0.0015771405771346327   -0.02835939485811307   -0.0007432577193502395
-0.0006144659441558386   -0.028257201015071405   -0.0007913505863087957
0.00024057477424829465   -0.02623893895522564   -0.0005873984157179035
-0.0011120481304499029   -0.026314168612528673   -0.0006296156073105362
-0.0015771405771346327   -0.02835939485811307   -0.0007432577193502395
-0.0010972525716212353   -0.026299385486345767   -0.0006527445619428394
-0.0006144659441558386   -0.028257201015071405   -0.0007913505863087957
-0.0015421848123939352   -0.028354811635953114   -0.00077380628411794
-0.0010972525716212353   -0.026299385486345767   -0.0006527445619428394
-0.0015771405771346327   -0.02835939485811307   -0.0007432577193502395
-0.0006144659441558386   -0.028257201015071405   -0.0007913505863087957
-0.0010972525716212353   -0.026299385486345767   -0.0006527445619428394
0.0003058666337330294   -0.026223512149712698   -0.0006453449947963482
0.00024057477424829465   -0.02623893895522564   -0.0005873984157179035
-0.0006144659441558386   -0.028257201015071405   -0.0007913505863087957
-0.0010972525716212353   -0.026299385486345767   -0.0006527445619428394
0.00024057477424829465   -0.02623893895522564   -0.0005873984157179035
-0.0015771405771346327   -0.02835939485811307   -0.0007432577193502395
-0.0016632036127281087   -0.02843150103878119   -0.0006726511222091283
-0.0011583696495197093   -0.026394680493890224   -0.0005739886613522568
-0.0023953137620769554   -0.028461454688812095   -0.0007690991374411047
-0.0016227941783754749   -0.02838471965097951   -0.0007095756741463592
-0.0011583696495197093   -0.026394680493890224   -0.0005739886613522568
-0.0023757620429059436   -0.026406844854536544   -0.0006696569300431386
-0.0023953137620769554   -0.028461454688812095   -0.0007690991374411047
-0.002359976335755407   -0.0263648159131252   -0.0006703093531021045
-0.0016227941783754749   -0.02838471965097951   -0.0007095756741463592
-0.002361439186458736   -0.028420664002695113   -0.0007709881712535737
-0.002359976335755407   -0.0263648159131252   -0.0006703093531021045
-0.0023953137620769554   -0.028461454688812095   -0.0007690991374411047
-0.0016227941783754749   -0.02838471965097951   -0.0007095756741463592
-0.002359976335755407   -0.0263648159131252   -0.0006703093531021045
-0.0011367701332990205   -0.026345616478693056   -0.0006034739731073535
-0.0011583696495197093   -0.026394680493890224   -0.0005739886613522568
-0.0016227941783754749   -0.02838471965097951   -0.0007095756741463592
-0.002359976335755407   -0.0263648159131252   -0.0006703093531021045
-0.0011583696495197093   -0.026394680493890224   -0.0005739886613522568
-0.0023953137620769554   -0.028461454688812095   -0.0007690991374411047
-0.0016227941783754749   -0.02838471965097951   -0.0007095756741463592
-0.0011367701332990205   -0.026345616478693056   -0.0006034739731073535
-0.002361439186458736   -0.028420664002695113   -0.0007709881712535737
-0.0015771405771346327   -0.02835939485811307   -0.0007432577193502395
-0.0011367701332990205   -0.026345616478693056   -0.0006034739731073535
-0.002359976335755407   -0.0263648159131252   -0.0006703093531021045
-0.002361439186458736   -0.028420664002695113   -0.0007709881712535737
-0.0023437273243479403   -0.026338545148534002   -0.0006677531016903329
-0.0015771405771346327   -0.02835939485811307   -0.0007432577193502395
-0.0023263855837794035   -0.028399207589846966   -0.0007698719151898119
-0.0023437273243479403   -0.026338545148534002   -0.0006677531016903329
-0.002361439186458736   -0.028420664002695113   -0.0007709881712535737
-0.0015771405771346327   -0.02835939485811307   -0.0007432577193502395
-0.0023437273243479403   -0.026338545148534002   -0.0006677531016903329
-0.0011120481304499029   -0.026314168612528673   -0.0006296156073105362
-0.0011367701332990205   -0.026345616478693056   -0.0006034739731073535
-0.0015771405771346327   -0.02835939485811307   -0.0007432577193502395
-0.0023437273243479403   -0.026338545148534002   -0.0006677531016903329
-0.0011367701332990205   -0.026345616478693056   -0.0006034739731073535
-0.002361439186458736   -0.028420664002695113   -0.0007709881712535737
-0.0015771405771346327   -0.02835939485811307   -0.0007432577193502395
-0.0011120481304499029   -0.026314168612528673   -0.0006296156073105362
-0.0023263855837794035   -0.028399207589846966   -0.0007698719151898119
-0.0015421848123939352   -0.028354811635953114   -0.00077380628411794
-0.0011120481304499029   -0.026314168612528673   -0.0006296156073105362
-0.0023437273243479403   -0.026338545148534002   -0.0006677531016903329
-0.0023263855837794035   -0.028399207589846966   -0.0007698719151898119
-0.0023295216138777977   -0.026327787195566648   -0.0006622097591496777
-0.0015421848123939352   -0.028354811635953114   -0.00077380628411794
-0.002292602078193069   -0.02839619427020202   -0.0007657329497108033
-0.0023295216138777977   -0.026327787195566648   -0.0006622097591496777
-0.0023263855837794035   -0.028399207589846966   -0.0007698719151898119
-0.0015421848123939352   -0.028354811635953114   -0.00077380628411794
-0.0023295216138777977   -0.026327787195566648   -0.0006622097591496777
-0.0010972525716212353   -0.026299385486345767   -0.0006527445619428394
-0.0011120481304499029   -0.026314168612528673   -0.0006296156073105362
-0.0015421848123939352   -0.028354811635953114   -0.00077380628411794
-0.0023295216138777977   -0.026327787195566648   -0.0006622097591496777
-0.0011120481304499029   -0.026314168612528673   -0.0006296156073105362
-0.0023263855837794035   -0.028399207589846966   -0.0007698719151898119
-0.0023953137620769554   -0.028461454688812095   -0.0007690991374411047
-0.0023757620429059436   -0.026406844854536544   -0.0006696569300431386
-0.0031227563991593453   -0.028434308200199963   -0.0008594298042402488
-0.002361439186458736   -0.028420664002695113   -0.0007709881712535737
-0.0023757620429059436   -0.026406844854536544   -0.0006696569300431386
-0.00357453389471824   -0.026367834936222773   -0.0007559758971790342
-0.0031227563991593453   -0.028434308200199963   -0.0008594298042402488
-0.0035598467352408432   -0.02633160362534929   -0.0007284841822462497
-0.002361439186458736   -0.028420664002695113   -0.0007709881712535737
-0.003089150469727255   -0.028398023160668237   -0.0008277009459591146
-0.0035598467352408432   -0.02633160362534929   -0.0007284841822462497
-0.0031227563991593453   -0.028434308200199963   -0.0008594298042402488
-0.002361439186458736   -0.028420664002695113   -0.0007709881712535737
-0.0035598467352408432   -0.02633160362534929   -0.0007284841822462497
-0.002359976335755407   -0.0263648159131252   -0.0006703093531021045
-0.0023757620429059436   -0.026406844854536544   -0.0006696569300431386
-0.002361439186458736   -0.028420664002695113   -0.0007709881712535737
-0.0035598467352408432   -0.02633160362534929   -0.0007284841822462497
-0.0023757620429059436   -0.026406844854536544   -0.0006696569300431386
-0.0031227563991593453   -0.028434308200199963   -0.0008594298042402488
-0.002361439186458736   -0.028420664002695113   -0.0007709881712535737
-0.002359976335755407   -0.0263648159131252   -0.0006703093531021045
-0.003089150469727255   -0.028398023160668237   -0.0008277009459591146
-0.0023263855837794035   -0.028399207589846966   -0.0007698719151898119
-0.002359976335755407   -0.0263648159131252   -0.0006703093531021045
-0.0035598467352408432   -0.02633160362534929   -0.0007284841822462497
-0.003089150469727255   -0.028398023160668237   -0.0008277009459591146
-0.003542089679934875   -0.026310959802830783   -0.0006978578220330927
-0.0023263855837794035   -0.028399207589846966   -0.0007698719151898119
-0.003051440639812857   -0.028380760340949118   -0.0007930161784862475
-0.003542089679934875   -0.026310959802830783   -0.0006978578220330927
-0.003089150469727255   -0.028398023160668237   -0.0008277009459591146
-0.0023263855837794035   -0.028399207589846966   -0.0007698719151898119
-0.003542089679934875   -0.026310959802830783   -0.0006978578220330927
-0.0023437273243479403   -0.026338545148534002   -0.0006677531016903329
-0.002359976335755407   -0.0263648159131252   -0.0006703093531021045
-0.0023263855837794035   -0.028399207589846966   -0.0007698719151898119
-0.003542089679934875   -0.026310959802830783   -0.0006978578220330927
-0.002359976335755407   -0.0263648159131252   -0.0006703093531021045
-0.003089150469727255   -0.028398023160668237   -0.0008277009459591146
-0.0023263855837794035   -0.028399207589846966   -0.0007698719151898119
-0.0023437273243479403   -0.026338545148534002   -0.0006677531016903329
-0.003051440639812857   -0.028380760340949118   -0.0007930161784862475
-0.002292602078193069   -0.02839619427020202   -0.0007657329497108033
-0.0023437273243479403   -0.026338545148534002   -0.0006677531016903329
-0.003542089679934875   -0.026310959802830783   -0.0006978578220330927
-0.003051440639812857   -0.028380760340949118   -0.0007930161784862475
-0.0035248522450730857   -0.026305206953125677   -0.000664192271921913
-0.002292602078193069   -0.02839619427020202   -0.0007657329497108033
-0.003013627845985669   -0.028380747889560593   -0.0007550162555327236
-0.0035248522450730857   -0.026305206953125677   -0.000664192271921913
-0.003051440639812857   -0.028380760340949118   -0.0007930161784862475
-0.002292602078193069   -0.02839619427020202   -0.0007657329497108033
-0.0035248522450730857   -0.026305206953125677   -0.000664192271921913
-0.0023295216138777977   -0.026327787195566648   -0.0006622097591496777
-0.0023437273243479403   -0.026338545148534002   -0.0006677531016903329
-0.002292602078193069   -0.02839619427020202   -0.0007657329497108033
-0.0035248522450730857   -0.026305206953125677   -0.000664192271921913
-0.0023437273243479403   -0.026338545148534002   -0.0006677531016903329
-0.003051440639812857   -0.028380760340949118   -0.0007930161784862475
-0.0031227563991593453   -0.028434308200199963   -0.0008594298042402488
-0.00357453389471824   -0.026367834936222773   -0.0007559758971790342
-0.003920888486853984   -0.028346559105419993   -0.000942609604827593
-0.003089150469727255   -0.028398023160668237   -0.0008277009459591146
-0.00357453389471824   -0.026367834936222773   -0.0007559758971790342
-0.0048301107486354465   -0.02627896173131072   -0.0008327070983929672
-0.003920888486853984   -0.028346559105419993   -0.000942609604827593
-0.004810775351055032   -0.026248216529395844   -0.0007770116090558412
-0.003089150469727255   -0.028398023160668237   -0.0008277009459591146
-0.0038796019394898127   -0.028314746812765555   -0.0008779549692838679
-0.004810775351055032   -0.026248216529395844   -0.0007770116090558412
-0.003920888486853984   -0.028346559105419993   -0.000942609604827593
-0.003089150469727255   -0.028398023160668237   -0.0008277009459591146
-0.004810775351055032   -0.026248216529395844   -0.0007770116090558412
-0.0035598467352408432   -0.02633160362534929   -0.0007284841822462497
-0.00357453389471824   -0.026367834936222773   -0.0007559758971790342
-0.003089150469727255   -0.028398023160668237   -0.0008277009459591146
-0.004810775351055032   -0.026248216529395844   -0.0007770116090558412
-0.00357453389471824   -0.026367834936222773   -0.0007559758971790342
-0.003920888486853984   -0.028346559105419993   -0.000942609604827593
-0.003089150469727255   -0.028398023160668237   -0.0008277009459591146
-0.0035598467352408432   -0.02633160362534929   -0.0007284841822462497
-0.0038796019394898127   -0.028314746812765555   -0.0008779549692838679
-0.003051440639812857   -0.028380760340949118   -0.0007930161784862475
-0.0035598467352408432   -0.02633160362534929   -0.0007284841822462497
-0.004810775351055032   -0.026248216529395844   -0.0007770116090558412
-0.0038796019394898127   -0.028314746812765555   -0.0008779549692838679
-0.004777912319690649   -0.02623267345609094   -0.0007186702121924447
-0.003051440639812857   -0.028380760340949118   -0.0007930161784862475
-0.003822456548997926   -0.0283016612464099   -0.0008105763355442655
-0.004777912319690649   -0.02623267345609094   -0.0007186702121924447
-0.0038796019394898127   -0.028314746812765555   -0.0008779549692838679
-0.003051440639812857   -0.028380760340949118   -0.0007930161784862475
-0.004777912319690649   -0.02623267345609094   -0.0007186702121924447
-0.003542089679934875   -0.026310959802830783   -0.0006978578220330927
-0.0035598467352408432   -0.02633160362534929   -0.0007284841822462497
-0.003051440639812857   -0.028380760340949118   -0.0007930161784862475
-0.004777912319690649   -0.02623267345609094   -0.0007186702121924447
-0.0035598467352408432   -0.02633160362534929   -0.0007284841822462497
-0.0038796019394898127   -0.028314746812765555   -0.0008779549692838679
-0.003051440639812857   -0.028380760340949118   -0.0007930161784862475
-0.003542089679934875   -0.026310959802830783   -0.0006978578220330927
-0.003822456548997926   -0.0283016612464099   -0.0008105763355442655
-0.003013627845985669   -0.028380747889560593   -0.0007550162555327236
-0.003542089679934875   -0.026310959802830783   -0.0006978578220330927
-0.004777912319690649   -0.02623267345609094   -0.0007186702121924447
-0.003822456548997926   -0.0283016612464099   -0.0008105763355442655
-0.004751395109425519   -0.026233188985660832   -0.0006568431033088612
-0.003013627845985669   -0.028380747889560593   -0.0007550162555327236
-0.0037728249462633356   -0.02830731068200766   -0.0007386358514328167
-0.004751395109425519   -0.026233188985660832   -0.0006568431033088612
-0.003822456548997926   -0.0283016612464099   -0.0008105763355442655
-0.003013627845985669   -0.028380747889560593   -0.0007550162555327236
-0.004751395109425519   -0.026233188985660832   -0.0006568431033088612
-0.0035248522450730857   -0.026305206953125677   -0.000664192271921913
-0.003542089679934875   -0.026310959802830783   -0.0006978578220330927
-0.003013627845985669   -0.028380747889560593   -0.0007550162555327236
-0.004751395109425519   -0.026233188985660832   -0.0006568431033088612
-0.003542089679934875   -0.026310959802830783   -0.0006978578220330927
-0.003822456548997926   -0.0283016612464099   -0.0008105763355442655
-0.003920888486853984   -0.028346559105419993   -0.000942609604827593
-0.0048301107486354465   -0.02627896173131072   -0.0008327070983929672
-0.004948467425923267   -0.02820384873100194   -0.0010230745527239047
-0.0038796019394898127   -0.028314746812765555   -0.0008779549692838679
-0.0048301107486354465   -0.02627896173131072   -0.0008327070983929672
-0.006294052226229475   -0.026150514464196035   -0.0009046881154213103
-0.004948467425923267   -0.02820384873100194   -0.0010230745527239047
-0.006193528991997471   -0.026118248870301976   -0.0008174084452672208
-0.0038796019394898127   -0.028314746812765555   -0.0008779549692838679
-0.004813356067227658   -0.028169093442012842   -0.0009209288845422165
-0.006193528991997471   -0.026118248870301976   -0.0008174084452672208
-0.004948467425923267   -0.02820384873100194   -0.0010230745527239047
-0.0038796019394898127   -0.028314746812765555   -0.0008779549692838679
-0.006193528991997471   -0.026118248870301976   -0.0008174084452672208
-0.004810775351055032   -0.026248216529395844   -0.0007770116090558412
-0.0048301107486354465   -0.02627896173131072   -0.0008327070983929672
-0.0038796019394898127   -0.028314746812765555   -0.0008779549692838679
-0.006193528991997471   -0.026118248870301976   -0.0008174084452672208
-0.0048301107486354465   -0.02627896173131072   -0.0008327070983929672
-0.004948467425923267   -0.02820384873100194   -0.0010230745527239047
-0.0038796019394898127   -0.028314746812765555   -0.0008779549692838679
-0.004810775351055032   -0.026248216529395844   -0.0007770116090558412
-0.004813356067227658   -0.028169093442012842   -0.0009209288845422165
-0.003822456548997926   -0.0283016612464099   -0.0008105763355442655
-0.004810775351055032   -0.026248216529395844   -0.0007770116090558412
-0.006193528991997471   -0.026118248870301976   -0.0008174084452672208
-0.004813356067227658   -0.028169093442012842   -0.0009209288845422165
-0.006106565466528505   -0.026104091951922148   -0.0007257454802448091
-0.003822456548997926   -0.0283016612464099   -0.0008105763355442655
-0.004692688160972002   -0.028156989803591662   -0.0008130377432587091
-0.006106565466528505   -0.026104091951922148   -0.0007257454802448091
-0.004813356067227658   -0.028169093442012842   -0.0009209288845422165
-0.003822456548997926   -0.0283016612464099   -0.0008105763355442655
-0.006106565466528505   -0.026104091951922148   -0.0007257454802448091
-0.004777912319690649   -0.02623267345609094   -0.0007186702121924447
-0.004810775351055032   -0.026248216529395844   -0.0007770116090558412
-0.003822456548997926   -0.0283016612464099   -0.0008105763355442655
-0.006106565466528505   -0.026104091951922148   -0.0007257454802448091
-0.004810775351055032   -0.026248216529395844   -0.0007770116090558412
-0.004813356067227658   -0.028169093442012842   -0.0009209288845422165
-0.003822456548997926   -0.0283016612464099   -0.0008105763355442655
-0.004777912319690649   -0.02623267345609094   -0.0007186702121924447
-0.004692688160972002   -0.028156989803591662   -0.0008130377432587091
-0.0037728249462633356   -0.02830731068200766   -0.0007386358514328167
-0.004777912319690649   -0.02623267345609094   -0.0007186702121924447
-0.006106565466528505   -0.026104091951922148   -0.0007257454802448091
-0.004692688160972002   -0.028156989803591662   -0.0008130377432587091
-0.00598952342164214   -0.026114409575905124   -0.0006302793881412064
-0.0037728249462633356   -0.02830731068200766   -0.0007386358514328167
-0.00453635303956186   -0.028173925593479855   -0.0007004089844726855
-0.00598952342164214   -0.026114409575905124   -0.0006302793881412064
-0.004692688160972002   -0.028156989803591662   -0.0008130377432587091
-0.0037728249462633356   -0.02830731068200766   -0.0007386358514328167
-0.00598952342164214   -0.026114409575905124   -0.0006302793881412064
-0.004751395109425519   -0.026233188985660832   -0.0006568431033088612
-0.004777912319690649   -0.02623267345609094   -0.0007186702121924447
-0.0037728249462633356   -0.02830731068200766   -0.0007386358514328167
-0.00598952342164214   -0.026114409575905124   -0.0006302793881412064
-0.004777912319690649   -0.02623267345609094   -0.0007186702121924447
-0.004692688160972002   -0.028156989803591662   -0.0008130377432587091
9.753768216567644e-05   -0.026331400549588064   -0.00045742861663168534
0.0008795857559969702   -0.02357996748262702   -0.0003482585350205157
-0.0011583696495197093   -0.026394680493890224   -0.0005739886613522568
0.00017990621524606245   -0.02627236067197034   -0.0005247538853206331
0.0008795857559969702   -0.02357996748262702   -0.0003482585350205157
-0.0007907713150990948   -0.023622259244036554   -0.00045958944298513777
-0.0011583696495197093   -0.026394680493890224   -0.0005739886613522568
-0.0007860254317227424   -0.023573450203103054   -0.0004802385804085713
0.00017990621524606245   -0.02627236067197034   -0.0005247538853206331
-0.0011367701332990205   -0.026345616478693056   -0.0006034739731073535
-0.0007860254317227424   -0.023573450203103054   -0.0004802385804085713
-0.0011583696495197093   -0.026394680493890224   -0.0005739886613522568
0.00017990621524606245   -0.02627236067197034   -0.0005247538853206331
-0.0007860254317227424   -0.023573450203103054   -0.0004802385804085713
0.000929302035863029   -0.023522291578735584   -0.000398511113471432
0.0008795857559969702   -0.02357996748262702   -0.0003482585350205157
0.00017990621524606245   -0.02627236067197034   -0.0005247538853206331
-0.0007860254317227424   -0.023573450203103054   -0.0004802385804085713
0.0008795857559969702   -0.02357996748262702   -0.0003482585350205157
-0.0011583696495197093   -0.026394680493890224   -0.0005739886613522568
0.00017990621524606245   -0.02627236067197034   -0.0005247538853206331
0.000929302035863029   -0.023522291578735584   -0.000398511113471432
-0.0011367701332990205   -0.026345616478693056   -0.0006034739731073535
0.00024057477424829465   -0.02623893895522564   -0.0005873984157179035
0.000929302035863029   -0.023522291578735584   -0.000398511113471432
-0.0007860254317227424   -0.023573450203103054   -0.0004802385804085713
-0.0011367701332990205   -0.026345616478693056   -0.0006034739731073535
-0.0007799483360798329   -0.02353864024238744   -0.0004978097857377926
0.00024057477424829465   -0.02623893895522564   -0.0005873984157179035
-0.0011120481304499029   -0.026314168612528673   -0.0006296156073105362
-0.0007799483360798329   -0.02353864024238744   -0.0004978097857377926
-0.0011367701332990205   -0.026345616478693056   -0.0006034739731073535
0.00024057477424829465   -0.02623893895522564   -0.0005873984157179035
-0.0007799483360798329   -0.02353864024238744   -0.0004978097857377926
0.0009613002607821654   -0.023485138480229376   -0.0004444089393243478
0.000929302035863029   -0.023522291578735584   -0.000398511113471432
0.00024057477424829465   -0.02623893895522564   -0.0005873984157179035
-0.0007799483360798329   -0.02353864024238744   -0.0004978097857377926
0.000929302035863029   -0.023522291578735584   -0.000398511113471432
-0.0011367701332990205   -0.026345616478693056   -0.0006034739731073535
0.00024057477424829465   -0.02623893895522564   -0.0005873984157179035
0.0009613002607821654   -0.023485138480229376   -0.0004444089393243478
-0.0011120481304499029   -0.026314168612528673   -0.0006296156073105362
0.0003058666337330294   -0.026223512149712698   -0.0006453449947963482
0.0009613002607821654   -0.023485138480229376   -0.0004444089393243478
-0.0007799483360798329   -0.02353864024238744   -0.0004978097857377926
-0.0011120481304499029   -0.026314168612528673   -0.0006296156073105362
-0.0007823928658854155   -0.023516683303225507   -0.0005125267111779836
0.0003058666337330294   -0.026223512149712698   -0.0006453449947963482
-0.0010972525716212353   -0.026299385486345767   -0.0006527445619428394
-0.0007823928658854155   -0.023516683303225507   -0.0005125267111779836
-0.0011120481304499029   -0.026314168612528673   -0.0006296156073105362
0.0003058666337330294   -0.026223512149712698   -0.0006453449947963482
-0.0007823928658854155   -0.023516683303225507   -0.0005125267111779836
0.0009944798538499503   -0.023461110671022557   -0.00048604808633269614
0.0009613002607821654   -0.023485138480229376   -0.0004444089393243478
0.0003058666337330294   -0.026223512149712698   -0.0006453449947963482
-0.0007823928658854155   -0.023516683303225507   -0.0005125267111779836
0.0009613002607821654   -0.023485138480229376   -0.0004444089393243478
-0.0011120481304499029   -0.026314168612528673   -0.0006296156073105362
-0.0011583696495197093   -0.026394680493890224   -0.0005739886613522568
-0.0007907713150990948   -0.023622259244036554   -0.00045958944298513777
-0.0023757620429059436   -0.026406844854536544   -0.0006696569300431386
-0.0011367701332990205   -0.026345616478693056   -0.0006034739731073535
-0.0007907713150990948   -0.023622259244036554   -0.00045958944298513777
-0.0024001242402240607   -0.02362272393693322   -0.0005509345271221106
-0.0023757620429059436   -0.026406844854536544   -0.0006696569300431386
-0.0024002071218397767   -0.023581582606651885   -0.0005489722576877376
-0.0011367701332990205   -0.026345616478693056   -0.0006034739731073535
-0.002359976335755407   -0.0263648159131252   -0.0006703093531021045
-0.0024002071218397767   -0.023581582606651885   -0.0005489722576877376
-0.0023757620429059436   -0.026406844854536544   -0.0006696569300431386
-0.0011367701332990205   -0.026345616478693056   -0.0006034739731073535
-0.0024002071218397767   -0.023581582606651885   -0.0005489722576877376
-0.0007860254317227424   -0.023573450203103054   -0.0004802385804085713
-0.0007907713150990948   -0.023622259244036554   -0.00045958944298513777
-0.0011367701332990205   -0.026345616478693056   -0.0006034739731073535
-0.0024002071218397767   -0.023581582606651885   -0.0005489722576877376
-0.0007907713150990948   -0.023622259244036554   -0.00045958944298513777
-0.0023757620429059436   -0.026406844854536544   -0.0006696569300431386
-0.0011367701332990205   -0.026345616478693056   -0.0006034739731073535
-0.0007860254317227424   -0.023573450203103054   -0.0004802385804085713
-0.002359976335755407   -0.0263648159131252   -0.0006703093531021045
-0.0011120481304499029   -0.026314168612528673   -0.0006296156073105362
-0.0007860254317227424   -0.023573450203103054   -0.0004802385804085713
-0.0024002071218397767   -0.023581582606651885   -0.0005489722576877376
-0.002359976335755407   -0.0263648159131252   -0.0006703093531021045
-0.0024001740621413673   -0.02355277389827193   -0.0005439384558054339
-0.0011120481304499029   -0.026314168612528673   -0.0006296156073105362
-0.0023437273243479403   -0.026338545148534002   -0.0006677531016903329
-0.0024001740621413673   -0.02355277389827193   -0.0005439384558054339
-0.002359976335755407   -0.0263648159131252   -0.0006703093531021045
-0.0011120481304499029   -0.026314168612528673   -0.0006296156073105362
-0.0024001740621413673   -0.02355277389827193   -0.0005439384558054339
-0.0007799483360798329   -0.02353864024238744   -0.0004978097857377926
-0.0007860254317227424   -0.023573450203103054   -0.0004802385804085713
-0.0011120481304499029   -0.026314168612528673   -0.0006296156073105362
-0.0024001740621413673   -0.02355277389827193   -0.0005439384558054339
-0.0007860254317227424   -0.023573450203103054   -0.0004802385804085713
-0.002359976335755407   -0.0263648159131252   -0.0006703093531021045
-0.0011120481304499029   -0.026314168612528673   -0.0006296156073105362
-0.0007799483360798329   -0.02353864024238744   -0.0004978097857377926
-0.0023437273243479403   -0.026338545148534002   -0.0006677531016903329
-0.0010972525716212353   -0.026299385486345767   -0.0006527445619428394
-0.0007799483360798329   -0.02353864024238744   -0.0004978097857377926
-0.0024001740621413673   -0.02355277389827193   -0.0005439384558054339
-0.0023437273243479403   -0.026338545148534002   -0.0006677531016903329
-0.002402278241636411   -0.023536321959715143   -0.0005359997512684888
-0.0010972525716212353   -0.026299385486345767   -0.0006527445619428394
-0.0023295216138777977   -0.026327787195566648   -0.0006622097591496777
-0.002402278241636411   -0.023536321959715143   -0.0005359997512684888
-0.0023437273243479403   -0.026338545148534002   -0.0006677531016903329
-0.0010972525716212353   -0.026299385486345767   -0.0006527445619428394
-0.002402278241636411   -0.023536321959715143   -0.0005359997512684888
-0.0007823928658854155   -0.023516683303225507   -0.0005125267111779836
-0.0007799483360798329   -0.02353864024238744   -0.0004978097857377926
-0.0010972525716212353   -0.026299385486345767   -0.0006527445619428394
-0.002402278241636411   -0.023536321959715143   -0.0005359997512684888
-0.0007799483360798329   -0.02353864024238744   -0.0004978097857377926
-0.0023437273243479403   -0.026338545148534002   -0.0006677531016903329
-0.0023757620429059436   -0.026406844854536544   -0.0006696569300431386
-0.0024001242402240607   -0.02362272393693322   -0.0005509345271221106
-0.00357453389471824   -0.026367834936222773   -0.0007559758971790342
-0.002359976335755407   -0.0263648159131252   -0.0006703093531021045
-0.0024001242402240607   -0.02362272393693322   -0.0005509345271221106
-0.003982623493460578   -0.023582475082806614   -0.0006308016354642193
-0.00357453389471824   -0.026367834936222773   -0.0007559758971790342
-0.003983914368640566   -0.023548023316069644   -0.0006065070635914284
-0.002359976335755407   -0.0263648159131252   -0.0006703093531021045
-0.0035598467352408432   -0.02633160362534929   -0.0007284841822462497
-0.003983914368640566   -0.023548023316069644   -0.0006065070635914284
-0.00357453389471824   -0.026367834936222773   -0.0007559758971790342
-0.002359976335755407   -0.0263648159131252   -0.0006703093531021045
-0.003983914368640566   -0.023548023316069644   -0.0006065070635914284
-0.0024002071218397767   -0.023581582606651885   -0.0005489722576877376
-0.0024001242402240607   -0.02362272393693322   -0.0005509345271221106
-0.002359976335755407   -0.0263648159131252   -0.0006703093531021045
-0.003983914368640566   -0.023548023316069644   -0.0006065070635914284
-0.0024001242402240607   -0.02362272393693322   -0.0005509345271221106
-0.00357453389471824   -0.026367834936222773   -0.0007559758971790342
-0.002359976335755407   -0.0263648159131252   -0.0006703093531021045
-0.0024002071218397767   -0.023581582606651885   -0.0005489722576877376
-0.0035598467352408432   -0.02633160362534929   -0.0007284841822462497
-0.0023437273243479403   -0.026338545148534002   -0.0006677531016903329
-0.0024002071218397767   -0.023581582606651885   -0.0005489722576877376
-0.003983914368640566   -0.023548023316069644   -0.0006065070635914284
-0.0035598467352408432   -0.02633160362534929   -0.0007284841822462497
-0.003982521286228008   -0.02352579576136508   -0.0005792044191950143
-0.0023437273243479403   -0.026338545148534002   -0.0006677531016903329
-0.003542089679934875   -0.026310959802830783   -0.0006978578220330927
-0.003982521286228008   -0.02352579576136508   -0.0005792044191950143
-0.0035598467352408432   -0.02633160362534929   -0.0007284841822462497
-0.0023437273243479403   -0.026338545148534002   -0.0006677531016903329
-0.003982521286228008   -0.02352579576136508   -0.0005792044191950143
-0.0024001740621413673   -0.02355277389827193   -0.0005439384558054339
-0.0024002071218397767   -0.023581582606651885   -0.0005489722576877376
-0.0023437273243479403   -0.026338545148534002   -0.0006677531016903329
-0.003982521286228008   -0.02352579576136508   -0.0005792044191950143
-0.0024002071218397767   -0.023581582606651885   -0.0005489722576877376
-0.0035598467352408432   -0.02633160362534929   -0.0007284841822462497
-0.0023437273243479403   -0.026338545148534002   -0.0006677531016903329
-0.0024001740621413673   -0.02355277389827193   -0.0005439384558054339
-0.003542089679934875   -0.026310959802830783   -0.0006978578220330927
-0.0023295216138777977   -0.026327787195566648   -0.0006622097591496777
-0.0024001740621413673   -0.02355277389827193   -0.0005439384558054339
-0.003982521286228008   -0.02352579576136508   -0.0005792044191950143
-0.003542089679934875   -0.026310959802830783   -0.0006978578220330927
-0.0039816293679875115   -0.023515585086689817   -0.0005489795346369846
-0.0023295216138777977   -0.026327787195566648   -0.0006622097591496777
-0.0035248522450730857   -0.026305206953125677   -0.000664192271921913
-0.0039816293679875115   -0.023515585086689817   -0.0005489795346369846
-0.003542089679934875   -0.026310959802830783   -0.0006978578220330927
-0.0023295216138777977   -0.026327787195566648   -0.0006622097591496777
-0.0039816293679875115   -0.023515585086689817   -0.0005489795346369846
-0.002402278241636411   -0.023536321959715143   -0.0005359997512684888
-0.0024001740621413673   -0.02355277389827193   -0.0005439384558054339
-0.0023295216138777977   -0.026327787195566648   -0.0006622097591496777
-0.0039816293679875115   -0.023515585086689817   -0.0005489795346369846
-0.0024001740621413673   -0.02355277389827193   -0.0005439384558054339
-0.003542089679934875   -0.026310959802830783   -0.0006978578220330927
-0.00357453389471824   -0.026367834936222773   -0.0007559758971790342
-0.003982623493460578   -0.023582475082806614   -0.0006308016354642193
-0.0048301107486354465   -0.02627896173131072   -0.0008327070983929672
-0.0035598467352408432   -0.02633160362534929   -0.0007284841822462497
-0.003982623493460578   -0.023582475082806614   -0.0006308016354642193
-0.005614132327561249   -0.02350297814610294   -0.0006994110571417202
-0.0048301107486354465   -0.02627896173131072   -0.0008327070983929672
-0.005612009966486623   -0.023474891545034286   -0.0006525087754597297
-0.0035598467352408432   -0.02633160362534929   -0.0007284841822462497
-0.004810775351055032   -0.026248216529395844   -0.0007770116090558412
-0.005612009966486623   -0.023474891545034286   -0.0006525087754597297
-0.0048301107486354465   -0.02627896173131072   -0.0008327070983929672
-0.0035598467352408432   -0.02633160362534929   -0.0007284841822462497
-0.005612009966486623   -0.023474891545034286   -0.0006525087754597297
-0.003983914368640566   -0.023548023316069644   -0.0006065070635914284
-0.003982623493460578   -0.023582475082806614   -0.0006308016354642193
-0.0035598467352408432   -0.02633160362534929   -0.0007284841822462497
-0.005612009966486623   -0.023474891545034286   -0.0006525087754597297
-0.003982623493460578   -0.023582475082806614   -0.0006308016354642193
-0.0048301107486354465   -0.02627896173131072   -0.0008327070983929672
-0.0035598467352408432   -0.02633160362534929   -0.0007284841822462497
-0.003983914368640566   -0.023548023316069644   -0.0006065070635914284
-0.004810775351055032   -0.026248216529395844   -0.0007770116090558412
-0.003542089679934875   -0.026310959802830783   -0.0006978578220330927
-0.003983914368640566   -0.023548023316069644   -0.0006065070635914284
-0.005612009966486623   -0.023474891545034286   -0.0006525087754597297
-0.004810775351055032   -0.026248216529395844   -0.0007770116090558412
-0.005598063280107272   -0.023458633413757386   -0.0006030544188929648
-0.003542089679934875   -0.026310959802830783   -0.0006978578220330927
-0.004777912319690649   -0.02623267345609094   -0.0007186702121924447
-0.005598063280107272   -0.023458633413757386   -0.0006030544188929648
-0.004810775351055032   -0.026248216529395844   -0.0007770116090558412
-0.003542089679934875   -0.026310959802830783   -0.0006978578220330927
-0.005598063280107272   -0.023458633413757386   -0.0006030544188929648
-0.003982521286228008   -0.02352579576136508   -0.0005792044191950143
-0.003983914368640566   -0.023548023316069644   -0.0006065070635914284
-0.003542089679934875   -0.026310959802830783   -0.0006978578220330927
-0.005598063280107272   -0.023458633413757386   -0.0006030544188929648
-0.003983914368640566   -0.023548023316069644   -0.0006065070635914284
-0.004810775351055032   -0.026248216529395844   -0.0007770116090558412
-0.003542089679934875   -0.026310959802830783   -0.0006978578220330927
-0.003982521286228008   -0.02352579576136508   -0.0005792044191950143
-0.004777912319690649   -0.02623267345609094   -0.0007186702121924447
-0.0035248522450730857   -0.026305206953125677   -0.000664192271921913
-0.003982521286228008   -0.02352579576136508   -0.0005792044191950143
-0.005598063280107272   -0.023458633413757386   -0.0006030544188929648
-0.004777912319690649   -0.02623267345609094   -0.0007186702121924447
-0.005588803806128268   -0.023455409706647765   -0.0005504388919579145
-0.0035248522450730857   -0.026305206953125677   -0.000664192271921913
-0.004751395109425519   -0.026233188985660832   -0.0006568431033088612
-0.005588803806128268   -0.023455409706647765   -0.0005504388919579145
-0.004777912319690649   -0.02623267345609094   -0.0007186702121924447
-0.0035248522450730857   -0.026305206953125677   -0.000664192271921913
-0.005588803806128268   -0.023455409706647765   -0.0005504388919579145
-0.0039816293679875115   -0.023515585086689817   -0.0005489795346369846
-0.003982521286228008   -0.02352579576136508   -0.0005792044191950143
-0.0035248522450730857   -0.026305206953125677   -0.000664192271921913
-0.005588803806128268   -0.023455409706647765   -0.0005504388919579145
-0.003982521286228008   -0.02352579576136508   -0.0005792044191950143
-0.004777912319690649   -0.02623267345609094   -0.0007186702121924447
-0.0048301107486354465   -0.02627896173131072   -0.0008327070983929672
-0.005614132327561249   -0.02350297814610294   -0.0006994110571417202
-0.006294052226229475   -0.026150514464196035   -0.0009046881154213103
-0.004810775351055032   -0.026248216529395844   -0.0007770116090558412
-0.005614132327561249   -0.02350297814610294   -0.0006994110571417202
-0.007436622459516174   -0.023392911727278014   -0.0007615226162122662
-0.006294052226229475   -0.026150514464196035   -0.0009046881154213103
-0.007367110964175867   -0.023365226504600583   -0.0006896257193648924
-0.004810775351055032   -0.026248216529395844   -0.0007770116090558412
-0.006193528991997471   -0.026118248870301976   -0.0008174084452672208
-0.007367110964175867   -0.023365226504600583   -0.0006896257193648924
-0.006294052226229475   -0.026150514464196035   -0.0009046881154213103
-0.004810775351055032   -0.026248216529395844   -0.0007770116090558412
-0.007367110964175867   -0.023365226504600583   -0.0006896257193648924
-0.005612009966486623   -0.023474891545034286   -0.0006525087754597297
-0.005614132327561249   -0.02350297814610294   -0.0006994110571417202
-0.004810775351055032   -0.026248216529395844   -0.0007770116090558412
-0.007367110964175867   -0.023365226504600583   -0.0006896257193648924
-0.005614132327561249   -0.02350297814610294   -0.0006994110571417202
-0.006294052226229475   -0.026150514464196035   -0.0009046881154213103
-0.004810775351055032   -0.026248216529395844   -0.0007770116090558412
-0.005612009966486623   -0.023474891545034286   -0.0006525087754597297
-0.006193528991997471   -0.026118248870301976   -0.0008174084452672208
-0.004777912319690649   -0.02623267345609094   -0.0007186702121924447
-0.005612009966486623   -0.023474891545034286   -0.0006525087754597297
-0.007367110964175867   -0.023365226504600583   -0.0006896257193648924
-0.006193528991997471   -0.026118248870301976   -0.0008174084452672208
-0.007307842473302393   -0.02335115360974372   -0.0006134224892301072
-0.004777912319690649   -0.02623267345609094   -0.0007186702121924447
-0.006106565466528505   -0.026104091951922148   -0.0007257454802448091
-0.007307842473302393   -0.02335115360974372   -0.0006134224892301072
-0.006193528991997471   -0.026118248870301976   -0.0008174084452672208
-0.004777912319690649   -0.02623267345609094   -0.0007186702121924447
-0.007307842473302393   -0.02335115360974372   -0.0006134224892301072
-0.005598063280107272   -0.023458633413757386   -0.0006030544188929648
-0.005612009966486623   -0.023474891545034286   -0.0006525087754597297
-0.004777912319690649   -0.02623267345609094   -0.0007186702121924447
-0.007307842473302393   -0.02335115360974372   -0.0006134224892301072
-0.005612009966486623   -0.023474891545034286   -0.0006525087754597297
-0.006193528991997471   -0.026118248870301976   -0.0008174084452672208
-0.004777912319690649   -0.02623267345609094   -0.0007186702121924447
-0.005598063280107272   -0.023458633413757386   -0.0006030544188929648
-0.006106565466528505   -0.026104091951922148   -0.0007257454802448091
-0.004751395109425519   -0.026233188985660832   -0.0006568431033088612
-0.005598063280107272   -0.023458633413757386   -0.0006030544188929648
-0.007307842473302393   -0.02335115360974372   -0.0006134224892301072
-0.006106565466528505   -0.026104091951922148   -0.0007257454802448091
-0.007222554997791269   -0.023357688348925997   -0.0005335111332777011
-0.004751395109425519   -0.026233188985660832   -0.0006568431033088612
-0.00598952342164214   -0.026114409575905124   -0.0006302793881412064
-0.007222554997791269   -0.023357688348925997   -0.0005335111332777011
-0.006106565466528505   -0.026104091951922148   -0.0007257454802448091
-0.004751395109425519   -0.026233188985660832   -0.0006568431033088612
-0.007222554997791269   -0.023357688348925997   -0.0005335111332777011
-0.005588803806128268   -0.023455409706647765   -0.0005504388919579145
-0.005598063280107272   -0.023458633413757386   -0.0006030544188929648
-0.004751395109425519   -0.026233188985660832   -0.0006568431033088612
-0.007222554997791269   -0.023357688348925997   -0.0005335111332777011
-0.005598063280107272   -0.023458633413757386   -0.0006030544188929648
-0.006106565466528505   -0.026104091951922148   -0.0007257454802448091
0.0008795857559969702   -0.02357996748262702   -0.0003482585350205157
0.0014244354986119743   -0.02025604595778388   -0.0002322795079308287
-0.0007907713150990948   -0.023622259244036554   -0.00045958944298513777
0.000929302035863029   -0.023522291578735584   -0.000398511113471432
0.0014244354986119743   -0.02025604595778388   -0.0002322795079308287
-0.0005643126635146111   -0.020277355316751167   -0.00033697764109829036
-0.0007907713150990948   -0.023622259244036554   -0.00045958944298513777
-0.0005731984537298937   -0.020229769306787392   -0.0003483409307767089
0.000929302035863029   -0.023522291578735584   -0.000398511113471432
-0.0007860254317227424   -0.023573450203103054   -0.0004802385804085713
-0.0005731984537298937   -0.020229769306787392   -0.0003483409307767089
-0.0007907713150990948   -0.023622259244036554   -0.00045958944298513777
0.000929302035863029   -0.023522291578735584   -0.000398511113471432
-0.0005731984537298937   -0.020229769306787392   -0.0003483409307767089
0.001445036804832215   -0.020200472109558894   -0.00026565548598444984
0.0014244354986119743   -0.02025604595778388   -0.0002322795079308287
0.000929302035863029   -0.023522291578735584   -0.000398511113471432
-0.0005731984537298937   -0.020229769306787392   -0.0003483409307767089
0.0014244354986119743   -0.02025604595778388   -0.0002322795079308287
-0.0007907713150990948   -0.023622259244036554   -0.00045958944298513777
0.000929302035863029   -0.023522291578735584   -0.000398511113471432
0.001445036804832215   -0.020200472109558894   -0.00026565548598444984
-0.0007860254317227424   -0.023573450203103054   -0.0004802385804085713
0.0009613002607821654   -0.023485138480229376   -0.0004444089393243478
0.001445036804832215   -0.020200472109558894   -0.00026565548598444984
-0.0005731984537298937   -0.020229769306787392   -0.0003483409307767089
-0.0007860254317227424   -0.023573450203103054   -0.0004802385804085713
-0.0005824800755239559   -0.02019264925307927   -0.00035693341239879895
0.0009613002607821654   -0.023485138480229376   -0.0004444089393243478
-0.0007799483360798329   -0.02353864024238744   -0.0004978097857377926
-0.0005824800755239559   -0.02019264925307927   -0.00035693341239879895
-0.0007860254317227424   -0.023573450203103054   -0.0004802385804085713
0.0009613002607821654   -0.023485138480229376   -0.0004444089393243478
-0.0005824800755239559   -0.02019264925307927   -0.00035693341239879895
0.0014519922132008012   -0.02016063255751237   -0.0002949380259840923
0.001445036804832215   -0.020200472109558894   -0.00026565548598444984
0.0009613002607821654   -0.023485138480229376   -0.0004444089393243478
-0.0005824800755239559   -0.02019264925307927   -0.00035693341239879895
0.001445036804832215   -0.020200472109558894   -0.00026565548598444984
-0.0007860254317227424   -0.023573450203103054   -0.0004802385804085713
0.0009613002607821654   -0.023485138480229376   -0.0004444089393243478
0.0014519922132008012   -0.02016063255751237   -0.0002949380259840923
-0.0007799483360798329   -0.02353864024238744   -0.0004978097857377926
0.0009944798538499503   -0.023461110671022557   -0.00048604808633269614
0.0014519922132008012   -0.02016063255751237   -0.0002949380259840923
-0.0005824800755239559   -0.02019264925307927   -0.00035693341239879895
-0.0007799483360798329   -0.02353864024238744   -0.0004978097857377926
-0.0005987125594920375   -0.020164790643013585   -0.0003628474887829076
0.0009944798538499503   -0.023461110671022557   -0.00048604808633269614
-0.0007823928658854155   -0.023516683303225507   -0.0005125267111779836
-0.0005987125594920375   -0.020164790643013585   -0.0003628474887829076
-0.0007799483360798329   -0.02353864024238744   -0.0004978097857377926
0.0009944798538499503   -0.023461110671022557   -0.00048604808633269614
-0.0005987125594920375   -0.020164790643013585   -0.0003628474887829076
0.0014566836484555875   -0.02012927637629112   -0.00032032374755655265
0.0014519922132008012   -0.02016063255751237   -0.0002949380259840923
0.0009944798538499503   -0.023461110671022557   -0.00048604808633269614
-0.0005987125594920375   -0.020164790643013585   -0.0003628474887829076
0.0014519922132008012   -0.02016063255751237   -0.0002949380259840923
-0.0007799483360798329   -0.02353864024238744   -0.0004978097857377926
-0.0007907713150990948   -0.023622259244036554   -0.00045958944298513777
-0.0005643126635146111   -0.020277355316751167   -0.00033697764109829036
-0.0024001242402240607   -0.02362272393693322   -0.0005509345271221106
-0.0007860254317227424   -0.023573450203103054   -0.0004802385804085713
-0.0005643126635146111   -0.020277355316751167   -0.00033697764109829036
-0.0024719911524470734   -0.02026708443425671   -0.00042262967243587775
-0.0024001242402240607   -0.02362272393693322   -0.0005509345271221106
-0.0024846207706499986   -0.020227531327277712   -0.000417505498935595
-0.0007860254317227424   -0.023573450203103054   -0.0004802385804085713
-0.0024002071218397767   -0.023581582606651885   -0.0005489722576877376
-0.0024846207706499986   -0.020227531327277712   -0.000417505498935595
-0.0024001242402240607   -0.02362272393693322   -0.0005509345271221106
-0.0007860254317227424   -0.023573450203103054   -0.0004802385804085713
-0.0024846207706499986   -0.020227531327277712   -0.000417505498935595
-0.0005731984537298937   -0.020229769306787392   -0.0003483409307767089
-0.0005643126635146111   -0.020277355316751167   -0.00033697764109829036
-0.0007860254317227424   -0.023573450203103054   -0.0004802385804085713
-0.0024846207706499986   -0.020227531327277712   -0.000417505498935595
-0.0005643126635146111   -0.020277355316751167   -0.00033697764109829036
-0.0024001242402240607   -0.02362272393693322   -0.0005509345271221106
-0.0007860254317227424   -0.023573450203103054   -0.0004802385804085713
-0.0005731984537298937   -0.020229769306787392   -0.0003483409307767089
-0.0024002071218397767   -0.023581582606651885   -0.0005489722576877376
-0.0007799483360798329   -0.02353864024238744   -0.0004978097857377926
-0.0005731984537298937   -0.020229769306787392   -0.0003483409307767089
-0.0024846207706499986   -0.020227531327277712   -0.000417505498935595
-0.0024002071218397767   -0.023581582606651885   -0.0005489722576877376
-0.0024974267010696044   -0.020196943999542086   -0.0004095234764765672
-0.0007799483360798329   -0.02353864024238744   -0.0004978097857377926
-0.0024001740621413673   -0.02355277389827193   -0.0005439384558054339
-0.0024974267010696044   -0.020196943999542086   -0.0004095234764765672
-0.0024002071218397767   -0.023581582606651885   -0.0005489722576877376
-0.0007799483360798329   -0.02353864024238744   -0.0004978097857377926
-0.0024974267010696044   -0.020196943999542086   -0.0004095234764765672
-0.0005824800755239559   -0.02019264925307927   -0.00035693341239879895
-0.0005731984537298937   -0.020229769306787392   -0.0003483409307767089
-0.0007799483360798329   -0.02353864024238744   -0.0004978097857377926
-0.0024974267010696044   -0.020196943999542086   -0.0004095234764765672
-0.0005731984537298937   -0.020229769306787392   -0.0003483409307767089
-0.0024002071218397767   -0.023581582606651885   -0.0005489722576877376
-0.0007799483360798329   -0.02353864024238744   -0.0004978097857377926
-0.0005824800755239559   -0.02019264925307927   -0.00035693341239879895
-0.0024001740621413673   -0.02355277389827193   -0.0005439384558054339
-0.0007823928658854155   -0.023516683303225507   -0.0005125267111779836
-0.0005824800755239559   -0.02019264925307927   -0.00035693341239879895
-0.0024974267010696044   -0.020196943999542086   -0.0004095234764765672
-0.0024001740621413673   -0.02355277389827193   -0.0005439384558054339
-0.002512270264173107   -0.020175471919533717   -0.0003988281695989727
-0.0007823928658854155   -0.023516683303225507   -0.0005125267111779836
-0.002402278241636411   -0.023536321959715143   -0.0005359997512684888
-0.002512270264173107   -0.020175471919533717   -0.0003988281695989727
-0.0024001740621413673   -0.02355277389827193   -0.0005439384558054339
-0.0007823928658854155   -0.023516683303225507   -0.0005125267111779836
-0.002512270264173107   -0.020175471919533717   -0.0003988281695989727
-0.0005987125594920375   -0.020164790643013585   -0.0003628474887829076
-0.0005824800755239559   -0.02019264925307927   -0.00035693341239879895
-0.0007823928658854155   -0.023516683303225507   -0.0005125267111779836
-0.002512270264173107   -0.020175471919533717   -0.0003988281695989727
-0.0005824800755239559   -0.02019264925307927   -0.00035693341239879895
-0.0024001740621413673   -0.02355277389827193   -0.0005439384558054339
-0.0024001242402240607   -0.02362272393693322   -0.0005509345271221106
-0.0024719911524470734   -0.02026708443425671   -0.00042262967243587775
-0.003982623493460578   -0.023582475082806614   -0.0006308016354642193
-0.0024002071218397767   -0.023581582606651885   -0.0005489722576877376
-0.0024719911524470734   -0.02026708443425671   -0.00042262967243587775
-0.004347732161644317   -0.020227338635612557   -0.0004956575125901969
-0.003982623493460578   -0.023582475082806614   -0.0006308016354642193
-0.004361425101500251   -0.02019504005623886   -0.0004741391870092622
-0.0024002071218397767   -0.023581582606651885   -0.0005489722576877376
-0.003983914368640566   -0.023548023316069644   -0.0006065070635914284
-0.004361425101500251   -0.02019504005623886   -0.0004741391870092622
-0.003982623493460578   -0.023582475082806614   -0.0006308016354642193
-0.0024002071218397767   -0.023581582606651885   -0.0005489722576877376
-0.004361425101500251   -0.02019504005623886   -0.0004741391870092622
-0.0024846207706499986   -0.020227531327277712   -0.000417505498935595
-0.0024719911524470734   -0.02026708443425671   -0.00042262967243587775
-0.0024002071218397767   -0.023581582606651885   -0.0005489722576877376
-0.004361425101500251   -0.02019504005623886   -0.0004741391870092622
-0.0024719911524470734   -0.02026708443425671   -0.00042262967243587775
-0.003982623493460578   -0.023582475082806614   -0.0006308016354642193
-0.0024002071218397767   -0.023581582606651885   -0.0005489722576877376
-0.0024846207706499986   -0.020227531327277712   -0.000417505498935595
-0.003983914368640566   -0.023548023316069644   -0.0006065070635914284
-0.0024001740621413673   -0.02355277389827193   -0.0005439384558054339
-0.0024846207706499986   -0.020227531327277712   -0.000417505498935595
-0.004361425101500251   -0.02019504005623886   -0.0004741391870092622
-0.003983914368640566   -0.023548023316069644   -0.0006065070635914284
-0.00437272280632733   -0.020171622618676086   -0.0004498167898221602
-0.0024001740621413673   -0.02355277389827193   -0.0005439384558054339
-0.003982521286228008   -0.02352579576136508   -0.0005792044191950143
-0.00437272280632733   -0.020171622618676086   -0.0004498167898221602
-0.003983914368640566   -0.023548023316069644   -0.0006065070635914284
-0.0024001740621413673   -0.02355277389827193   -0.0005439384558054339
-0.00437272280632733   -0.020171622618676086   -0.0004498167898221602
-0.0024974267010696044   -0.020196943999542086   -0.0004095234764765672
-0.0024846207706499986   -0.020227531327277712   -0.000417505498935595
-0.0024001740621413673   -0.02355277389827193   -0.0005439384558054339
-0.00437272280632733   -0.020171622618676086   -0.0004498167898221602
-0.0024846207706499986   -0.020227531327277712   -0.000417505498935595
-0.003983914368640566   -0.023548023316069644   -0.0006065070635914284
-0.0024001740621413673   -0.02355277389827193   -0.0005439384558054339
-0.0024974267010696044   -0.020196943999542086   -0.0004095234764765672
-0.003982521286228008   -0.02352579576136508   -0.0005792044191950143
-0.002402278241636411   -0.023536321959715143   -0.0005359997512684888
-0.0024974267010696044   -0.020196943999542086   -0.0004095234764765672
-0.00437272280632733   -0.020171622618676086   -0.0004498167898221602
-0.003982521286228008   -0.02352579576136508   -0.0005792044191950143
-0.0043843643966769135   -0.020157046745614637   -0.0004227707250612028
-0.002402278241636411   -0.023536321959715143   -0.0005359997512684888
-0.0039816293679875115   -0.023515585086689817   -0.0005489795346369846
-0.0043843643966769135   -0.020157046745614637   -0.0004227707250612028
-0.003982521286228008   -0.02352579576136508   -0.0005792044191950143
-0.002402278241636411   -0.023536321959715143   -0.0005359997512684888
-0.0043843643966769135   -0.020157046745614637   -0.0004227707250612028
-0.002512270264173107   -0.020175471919533717   -0.0003988281695989727
-0.0024974267010696044   -0.020196943999542086   -0.0004095234764765672
-0.002402278241636411   -0.023536321959715143   -0.0005359997512684888
-0.0043843643966769135   -0.020157046745614637   -0.0004227707250612028
-0.0024974267010696044   -0.020196943999542086   -0.0004095234764765672
-0.003982521286228008   -0.02352579576136508   -0.0005792044191950143
-0.003982623493460578   -0.023582475082806614   -0.0006308016354642193
-0.004347732161644317   -0.020227338635612557   -0.0004956575125901969
-0.005614132327561249   -0.02350297814610294   -0.0006994110571417202
-0.003983914368640566   -0.023548023316069644   -0.0006065070635914284
-0.004347732161644317   -0.020227338635612557   -0.0004956575125901969
-0.006268050656413322   -0.020158884043985643   -0.0005563966373977811
-0.005614132327561249   -0.02350297814610294   -0.0006994110571417202
-0.006279259778402947   -0.020133641043465694   -0.0005182544626294871
-0.003983914368640566   -0.023548023316069644   -0.0006065070635914284
-0.005612009966486623   -0.023474891545034286   -0.0006525087754597297
-0.006279259778402947   -0.020133641043465694   -0.0005182544626294871
-0.005614132327561249   -0.02350297814610294   -0.0006994110571417202
-0.003983914368640566   -0.023548023316069644   -0.0006065070635914284
-0.006279259778402947   -0.020133641043465694   -0.0005182544626294871
-0.004361425101500251   -0.02019504005623886   -0.0004741391870092622
-0.004347732161644317   -0.020227338635612557   -0.0004956575125901969
-0.003983914368640566   -0.023548023316069644   -0.0006065070635914284
-0.006279259778402947   -0.020133641043465694   -0.0005182544626294871
-0.004347732161644317   -0.020227338635612557   -0.0004956575125901969
-0.005614132327561249   -0.02350297814610294   -0.0006994110571417202
-0.003983914368640566   -0.023548023316069644   -0.0006065070635914284
-0.004361425101500251   -0.02019504005623886   -0.0004741391870092622
-0.005612009966486623   -0.023474891545034286   -0.0006525087754597297
-0.003982521286228008   -0.02352579576136508   -0.0005792044191950143
-0.004361425101500251   -0.02019504005623886   -0.0004741391870092622
-0.006279259778402947   -0.020133641043465694   -0.0005182544626294871
-0.005612009966486623   -0.023474891545034286   -0.0006525087754597297
-0.006280290868993953   -0.020116785311237825   -0.00047769512116509595
-0.003982521286228008   -0.02352579576136508   -0.0005792044191950143
-0.005598063280107272   -0.023458633413757386   -0.0006030544188929648
-0.006280290868993953   -0.020116785311237825   -0.00047769512116509595
-0.005612009966486623   -0.023474891545034286   -0.0006525087754597297
-0.003982521286228008   -0.02352579576136508   -0.0005792044191950143
-0.006280290868993953   -0.020116785311237825   -0.00047769512116509595
-0.00437272280632733   -0.020171622618676086   -0.0004498167898221602
-0.004361425101500251   -0.02019504005623886   -0.0004741391870092622
-0.003982521286228008   -0.02352579576136508   -0.0005792044191950143
-0.006280290868993953   -0.020116785311237825   -0.00047769512116509595
-0.004361425101500251   -0.02019504005623886   -0.0004741391870092622
-0.005612009966486623   -0.023474891545034286   -0.0006525087754597297
-0.003982521286228008   -0.02352579576136508   -0.0005792044191950143
-0.00437272280632733   -0.020171622618676086   -0.0004498167898221602
-0.005598063280107272   -0.023458633413757386   -0.0006030544188929648
-0.0039816293679875115   -0.023515585086689817   -0.0005489795346369846
-0.00437272280632733   -0.020171622618676086   -0.0004498167898221602
-0.006280290868993953   -0.020116785311237825   -0.00047769512116509595
-0.005598063280107272   -0.023458633413757386   -0.0006030544188929648
-0.006284306769861079   -0.020109577317895432   -0.00043420322118374583
-0.0039816293679875115   -0.023515585086689817   -0.0005489795346369846
-0.005588803806128268   -0.023455409706647765   -0.0005504388919579145
-0.006284306769861079   -0.020109577317895432   -0.00043420322118374583
-0.005598063280107272   -0.023458633413757386   -0.0006030544188929648
-0.0039816293679875115   -0.023515585086689817   -0.0005489795346369846
-0.006284306769861079   -0.020109577317895432   -0.00043420322118374583
-0.0043843643966769135   -0.020157046745614637   -0.0004227707250612028
-0.00437272280632733   -0.020171622618676086   -0.0004498167898221602
-0.0039816293679875115   -0.023515585086689817   -0.0005489795346369846
-0.006284306769861079   -0.020109577317895432   -0.00043420322118374583
-0.00437272280632733   -0.020171622618676086   -0.0004498167898221602
-0.005598063280107272   -0.023458633413757386   -0.0006030544188929648
-0.005614132327561249   -0.02350297814610294   -0.0006994110571417202
-0.006268050656413322   -0.020158884043985643   -0.0005563966373977811
-0.007436622459516174   -0.023392911727278014   -0.0007615226162122662
-0.005612009966486623   -0.023474891545034286   -0.0006525087754597297
-0.006268050656413322   -0.020158884043985643   -0.0005563966373977811
-0.008362812394137987   -0.020068607341879787   -0.0006083090975696814
-0.007436622459516174   -0.023392911727278014   -0.0007615226162122662
-0.008321281272548284   -0.02004554326490114   -0.0005524383164512585
-0.005612009966486623   -0.023474891545034286   -0.0006525087754597297
-0.007367110964175867   -0.023365226504600583   -0.0006896257193648924
-0.008321281272548284   -0.02004554326490114   -0.0005524383164512585
-0.007436622459516174   -0.023392911727278014   -0.0007615226162122662
-0.005612009966486623   -0.023474891545034286   -0.0006525087754597297
-0.008321281272548284   -0.02004554326490114   -0.0005524383164512585
-0.006279259778402947   -0.020133641043465694   -0.0005182544626294871
-0.006268050656413322   -0.020158884043985643   -0.0005563966373977811
-0.005612009966486623   -0.023474891545034286   -0.0006525087754597297
-0.008321281272548284   -0.02004554326490114   -0.0005524383164512585
-0.006268050656413322   -0.020158884043985643   -0.0005563966373977811
-0.007436622459516174   -0.023392911727278014   -0.0007615226162122662
-0.005612009966486623   -0.023474891545034286   -0.0006525087754597297
-0.006279259778402947   -0.020133641043465694   -0.0005182544626294871
-0.007367110964175867   -0.023365226504600583   -0.0006896257193648924
-0.005598063280107272   -0.023458633413757386   -0.0006030544188929648
-0.006279259778402947   -0.020133641043465694   -0.0005182544626294871
-0.008321281272548284   -0.02004554326490114   -0.0005524383164512585
-0.007367110964175867   -0.023365226504600583   -0.0006896257193648924
-0.008286354561192803   -0.02003147664591902   -0.000492337387053526
-0.005598063280107272   -0.023458633413757386   -0.0006030544188929648
-0.007307842473302393   -0.02335115360974372   -0.0006134224892301072
-0.008286354561192803   -0.02003147664591902   -0.000492337387053526
-0.007367110964175867   -0.023365226504600583   -0.0006896257193648924
-0.005598063280107272   -0.023458633413757386   -0.0006030544188929648
-0.008286354561192803   -0.02003147664591902   -0.000492337387053526
-0.006280290868993953   -0.020116785311237825   -0.00047769512116509595
-0.006279259778402947   -0.020133641043465694   -0.0005182544626294871
-0.005598063280107272   -0.023458633413757386   -0.0006030544188929648
-0.008286354561192803   -0.02003147664591902   -0.000492337387053526
-0.006279259778402947   -0.020133641043465694   -0.0005182544626294871
-0.007367110964175867   -0.023365226504600583   -0.0006896257193648924
-0.005598063280107272   -0.023458633413757386   -0.0006030544188929648
-0.006280290868993953   -0.020116785311237825   -0.00047769512116509595
-0.007307842473302393   -0.02335115360974372   -0.0006134224892301072
-0.005588803806128268   -0.023455409706647765   -0.0005504388919579145
-0.006280290868993953   -0.020116785311237825   -0.00047769512116509595
-0.008286354561192803   -0.02003147664591902   -0.000492337387053526
-0.007307842473302393   -0.02335115360974372   -0.0006134224892301072
-0.008229241911955919   -0.020033726266398023   -0.0004285366608008236
-0.005588803806128268   -0.023455409706647765   -0.0005504388919579145
-0.007222554997791269   -0.023357688348925997   -0.0005335111332777011
-0.008229241911955919   -0.020033726266398023   -0.0004285366608008236
-0.007307842473302393   -0.02335115360974372   -0.0006134224892301072
-0.005588803806128268   -0.023455409706647765   -0.0005504388919579145
-0.008229241911955919   -0.020033726266398023   -0.0004285366608008236
-0.006284306769861079   -0.020109577317895432   -0.00043420322118374583
-0.006280290868993953   -0.020116785311237825   -0.00047769512116509595
-0.005588803806128268   -0.023455409706647765   -0.0005504388919579145
-0.008229241911955919   -0.020033726266398023   -0.0004285366608008236
-0.006280290868993953   -0.020116785311237825   -0.00047769512116509595
-0.007307842473302393   -0.02335115360974372   -0.0006134224892301072
0.0014244354986119743   -0.02025604595778388   -0.0002322795079308287
0.001733472216418683   -0.016512925358773373   -0.00011918110886208566
-0.0005643126635146111   -0.020277355316751167   -0.00033697764109829036
0.001445036804832215   -0.020200472109558894   -0.00026565548598444984
0.001733472216418683   -0.016512925358773373   -0.00011918110886208566
-0.0004809980721899569   -0.016513297811069735   -0.00021608054284490364
-0.0005643126635146111   -0.020277355316751167   -0.00033697764109829036
-0.000500183484564301   -0.0164673505771918   -0.00021795763578871157
0.001445036804832215   -0.020200472109558894   -0.00026565548598444984
-0.0005731984537298937   -0.020229769306787392   -0.0003483409307767089
-0.000500183484564301   -0.0164673505771918   -0.00021795763578871157
-0.0005643126635146111   -0.020277355316751167   -0.00033697764109829036
0.001445036804832215   -0.020200472109558894   -0.00026565548598444984
-0.000500183484564301   -0.0164673505771918   -0.00021795763578871157
0.0017285408428003087   -0.016459783067348535   -0.0001357247585934064
0.001733472216418683   -0.016512925358773373   -0.00011918110886208566
0.001445036804832215   -0.020200472109558894   -0.00026565548598444984
-0.000500183484564301   -0.0164673505771918   -0.00021795763578871157
0.001733472216418683   -0.016512925358773373   -0.00011918110886208566
-0.0005643126635146111   -0.020277355316751167   -0.00033697764109829036
0.001445036804832215   -0.020200472109558894   -0.00026565548598444984
0.0017285408428003087   -0.016459783067348535   -0.0001357247585934064
-0.0005731984537298937   -0.020229769306787392   -0.0003483409307767089
0.0014519922132008012   -0.02016063255751237   -0.0002949380259840923
0.0017285408428003087   -0.016459783067348535   -0.0001357247585934064
-0.000500183484564301   -0.0164673505771918   -0.00021795763578871157
-0.0005731984537298937   -0.020229769306787392   -0.0003483409307767089
-0.0005215135048170306   -0.016428244542311524   -0.00021735498407696944
0.0014519922132008012   -0.02016063255751237   -0.0002949380259840923
-0.0005824800755239559   -0.02019264925307927   -0.00035693341239879895
-0.0005215135048170306   -0.016428244542311524   -0.00021735498407696944
-0.0005731984537298937   -0.020229769306787392   -0.0003483409307767089
0.0014519922132008012   -0.02016063255751237   -0.0002949380259840923
-0.0005215135048170306   -0.016428244542311524   -0.00021735498407696944
0.001713826182502482   -0.016417617768359694   -0.00014829365189888885
0.0017285408428003087   -0.016459783067348535   -0.0001357247585934064
0.0014519922132008012   -0.02016063255751237   -0.0002949380259840923
-0.0005215135048170306   -0.016428244542311524   -0.00021735498407696944
0.0017285408428003087   -0.016459783067348535   -0.0001357247585934064
-0.0005731984537298937   -0.020229769306787392   -0.0003483409307767089
0.0014519922132008012   -0.02016063255751237   -0.0002949380259840923
0.001713826182502482   -0.016417617768359694   -0.00014829365189888885
-0.0005824800755239559   -0.02019264925307927   -0.00035693341239879895
0.0014566836484555875   -0.02012927637629112   -0.00032032374755655265
0.001713826182502482   -0.016417617768359694   -0.00014829365189888885
-0.0005215135048170306   -0.016428244542311524   -0.00021735498407696944
-0.0005824800755239559   -0.02019264925307927   -0.00035693341239879895
-0.0005482083510773713   -0.016394930904128472   -0.00021417482493960396
0.0014566836484555875   -0.02012927637629112   -0.00032032374755655265
-0.0005987125594920375   -0.020164790643013585   -0.0003628474887829076
-0.0005482083510773713   -0.016394930904128472   -0.00021417482493960396
-0.0005824800755239559   -0.02019264925307927   -0.00035693341239879895
0.0014566836484555875   -0.02012927637629112   -0.00032032374755655265
-0.0005482083510773713   -0.016394930904128472   -0.00021417482493960396
0.001693067607910535   -0.016379289513479795   -0.00015716559873062464
0.001713826182502482   -0.016417617768359694   -0.00014829365189888885
0.0014566836484555875   -0.02012927637629112   -0.00032032374755655265
-0.0005482083510773713   -0.016394930904128472   -0.00021417482493960396
0.001713826182502482   -0.016417617768359694   -0.00014829365189888885
-0.0005824800755239559   -0.02019264925307927   -0.00035693341239879895
-0.0005643126635146111   -0.020277355316751167   -0.00033697764109829036
-0.0004809980721899569   -0.016513297811069735   -0.00021608054284490364
-0.0024719911524470734   -0.02026708443425671   -0.00042262967243587775
-0.0005731984537298937   -0.020229769306787392   -0.0003483409307767089
-0.0004809980721899569   -0.016513297811069735   -0.00021608054284490364
-0.0025938968841803644   -0.0164934587068417   -0.00029541213801142845
-0.0024719911524470734   -0.02026708443425671   -0.00042262967243587775
-0.00261559903199877   -0.016455584760568152   -0.00028683042143003965
-0.0005731984537298937   -0.020229769306787392   -0.0003483409307767089
-0.0024846207706499986   -0.020227531327277712   -0.000417505498935595
-0.00261559903199877   -0.016455584760568152   -0.00028683042143003965
-0.0024719911524470734   -0.02026708443425671   -0.00042262967243587775
-0.0005731984537298937   -0.020229769306787392   -0.0003483409307767089
-0.00261559903199877   -0.016455584760568152   -0.00028683042143003965
-0.000500183484564301   -0.0164673505771918   -0.00021795763578871157
-0.0004809980721899569   -0.016513297811069735   -0.00021608054284490364
-0.0005731984537298937   -0.020229769306787392   -0.0003483409307767089
-0.00261559903199877   -0.016455584760568152   -0.00028683042143003965
-0.0004809980721899569   -0.016513297811069735   -0.00021608054284490364
-0.0024719911524470734   -0.02026708443425671   -0.00042262967243587775
-0.0005731984537298937   -0.020229769306787392   -0.0003483409307767089
-0.000500183484564301   -0.0164673505771918   -0.00021795763578871157
-0.0024846207706499986   -0.020227531327277712   -0.000417505498935595
-0.0005824800755239559   -0.02019264925307927   -0.00035693341239879895
-0.000500183484564301   -0.0164673505771918   -0.00021795763578871157
-0.00261559903199877   -0.016455584760568152   -0.00028683042143003965
-0.0024846207706499986   -0.020227531327277712   -0.000417505498935595
-0.002637752735343992   -0.01642327843712899   -0.0002756599135885811
-0.0005824800755239559   -0.02019264925307927   -0.00035693341239879895
-0.0024974267010696044   -0.020196943999542086   -0.0004095234764765672
-0.002637752735343992   -0.01642327843712899   -0.0002756599135885811
-0.0024846207706499986   -0.020227531327277712   -0.000417505498935595
-0.0005824800755239559   -0.02019264925307927   -0.00035693341239879895
-0.002637752735343992   -0.01642327843712899   -0.0002756599135885811
-0.0005215135048170306   -0.016428244542311524   -0.00021735498407696944
-0.000500183484564301   -0.0164673505771918   -0.00021795763578871157
-0.0005824800755239559   -0.02019264925307927   -0.00035693341239879895
-0.002637752735343992   -0.01642327843712899   -0.0002756599135885811
-0.000500183484564301   -0.0164673505771918   -0.00021795763578871157
-0.0024846207706499986   -0.020227531327277712   -0.000417505498935595
-0.0005824800755239559   -0.02019264925307927   -0.00035693341239879895
-0.0005215135048170306   -0.016428244542311524   -0.00021735498407696944
-0.0024974267010696044   -0.020196943999542086   -0.0004095234764765672
-0.0005987125594920375   -0.020164790643013585   -0.0003628474887829076
-0.0005215135048170306   -0.016428244542311524   -0.00021735498407696944
-0.002637752735343992   -0.01642327843712899   -0.0002756599135885811
-0.0024974267010696044   -0.020196943999542086   -0.0004095234764765672
-0.0026618163905867886   -0.01639686171597042   -0.00026202858486975764
-0.0005987125594920375   -0.020164790643013585   -0.0003628474887829076
-0.002512270264173107   -0.020175471919533717   -0.0003988281695989727
-0.0026618163905867886   -0.01639686171597042   -0.00026202858486975764
-0.0024974267010696044   -0.020196943999542086   -0.0004095234764765672
-0.0005987125594920375   -0.020164790643013585   -0.0003628474887829076
-0.0026618163905867886   -0.01639686171597042   -0.00026202858486975764
-0.0005482083510773713   -0.016394930904128472   -0.00021417482493960396
-0.0005215135048170306   -0.016428244542311524   -0.00021735498407696944
-0.0005987125594920375   -0.020164790643013585   -0.0003628474887829076
-0.0026618163905867886   -0.01639686171597042   -0.00026202858486975764
-0.0005215135048170306   -0.016428244542311524   -0.00021735498407696944
-0.0024974267010696044   -0.020196943999542086   -0.0004095234764765672
-0.0024719911524470734   -0.02026708443425671   -0.00042262967243587775
-0.0025938968841803644   -0.0164934587068417   -0.00029541213801142845
-0.004347732161644317   -0.020227338635612557   -0.0004956575125901969
-0.0024846207706499986   -0.020227531327277712   -0.000417505498935595
-0.0025938968841803644   -0.0164934587068417   -0.00029541213801142845
-0.004671104092491893   -0.016455856524176336   -0.0003619819371062657
-0.004347732161644317   -0.020227338635612557   -0.0004956575125901969
-0.004693523931883032   -0.016425382289010807   -0.0003429799730043155
-0.0024846207706499986   -0.020227531327277712   -0.000417505498935595
-0.004361425101500251   -0.02019504005623886   -0.0004741391870092622
-0.004693523931883032   -0.016425382289010807   -0.0003429799730043155
-0.004347732161644317   -0.020227338635612557   -0.0004956575125901969
-0.0024846207706499986   -0.020227531327277712   -0.000417505498935595
-0.004693523931883032   -0.016425382289010807   -0.0003429799730043155
-0.00261559903199877   -0.016455584760568152   -0.00028683042143003965
-0.0025938968841803644   -0.0164934587068417   -0.00029541213801142845
-0.0024846207706499986   -0.020227531327277712   -0.000417505498935595
-0.004693523931883032   -0.016425382289010807   -0.0003429799730043155
-0.0025938968841803644   -0.0164934587068417   -0.00029541213801142845
-0.004347732161644317   -0.020227338635612557   -0.0004956575125901969
-0.0024846207706499986   -0.020227531327277712   -0.000417505498935595
-0.00261559903199877   -0.016455584760568152   -0.00028683042143003965
-0.004361425101500251   -0.02019504005623886   -0.0004741391870092622
-0.0024974267010696044   -0.020196943999542086   -0.0004095234764765672
-0.00261559903199877   -0.016455584760568152   -0.00028683042143003965
-0.004693523931883032   -0.016425382289010807   -0.0003429799730043155
-0.004361425101500251   -0.02019504005623886   -0.0004741391870092622
-0.004713826203891873   -0.0164004365121997   -0.0003214516580097601
-0.0024974267010696044   -0.020196943999542086   -0.0004095234764765672
-0.00437272280632733   -0.020171622618676086   -0.0004498167898221602
-0.004713826203891873   -0.0164004365121997   -0.0003214516580097601
-0.004361425101500251   -0.02019504005623886   -0.0004741391870092622
-0.0024974267010696044   -0.020196943999542086   -0.0004095234764765672
-0.004713826203891873   -0.0164004365121997   -0.0003214516580097601
-0.002637752735343992   -0.01642327843712899   -0.0002756599135885811
-0.00261559903199877   -0.016455584760568152   -0.00028683042143003965
-0.0024974267010696044   -0.020196943999542086   -0.0004095234764765672
-0.004713826203891873   -0.0164004365121997   -0.0003214516580097601
-0.00261559903199877   -0.016455584760568152   -0.00028683042143003965
-0.004361425101500251   -0.02019504005623886   -0.0004741391870092622
-0.0024974267010696044   -0.020196943999542086   -0.0004095234764765672
-0.002637752735343992   -0.01642327843712899   -0.0002756599135885811
-0.00437272280632733   -0.020171622618676086   -0.0004498167898221602
-0.002512270264173107   -0.020175471919533717   -0.0003988281695989727
-0.002637752735343992   -0.01642327843712899   -0.0002756599135885811
-0.004713826203891873   -0.0164004365121997   -0.0003214516580097601
-0.00437272280632733   -0.020171622618676086   -0.0004498167898221602
-0.004734325956869705   -0.016381056433888354   -0.00029749081283162967
-0.002512270264173107   -0.020175471919533717   -0.0003988281695989727
-0.0043843643966769135   -0.020157046745614637   -0.0004227707250612028
-0.004734325956869705   -0.016381056433888354   -0.00029749081283162967
-0.00437272280632733   -0.020171622618676086   -0.0004498167898221602
-0.002512270264173107   -0.020175471919533717   -0.0003988281695989727
-0.004734325956869705   -0.016381056433888354   -0.00029749081283162967
-0.0026618163905867886   -0.01639686171597042   -0.00026202858486975764
-0.002637752735343992   -0.01642327843712899   -0.0002756599135885811
-0.002512270264173107   -0.020175471919533717   -0.0003988281695989727
-0.004734325956869705   -0.016381056433888354   -0.00029749081283162967
-0.002637752735343992   -0.01642327843712899   -0.0002756599135885811
-0.00437272280632733   -0.020171622618676086   -0.0004498167898221602
-0.004347732161644317   -0.020227338635612557   -0.0004956575125901969
-0.004671104092491893   -0.016455856524176336   -0.0003619819371062657
-0.006268050656413322   -0.020158884043985643   -0.0005563966373977811
-0.004361425101500251   -0.02019504005623886   -0.0004741391870092622
-0.004671104092491893   -0.016455856524176336   -0.0003619819371062657
-0.006789613453852239   -0.016399703257789274   -0.00041598127607384803
-0.006268050656413322   -0.020158884043985643   -0.0005563966373977811
-0.00681035881422816   -0.016376671784694218   -0.00038647583406455137
-0.004361425101500251   -0.02019504005623886   -0.0004741391870092622
-0.006279259778402947   -0.020133641043465694   -0.0005182544626294871
-0.00681035881422816   -0.016376671784694218   -0.00038647583406455137
-0.006268050656413322   -0.020158884043985643   -0.0005563966373977811
-0.004361425101500251   -0.02019504005623886   -0.0004741391870092622
-0.00681035881422816   -0.016376671784694218   -0.00038647583406455137
-0.004693523931883032   -0.016425382289010807   -0.0003429799730043155
-0.004671104092491893   -0.016455856524176336   -0.0003619819371062657
-0.004361425101500251   -0.02019504005623886   -0.0004741391870092622
-0.00681035881422816   -0.016376671784694218   -0.00038647583406455137
-0.004671104092491893   -0.016455856524176336   -0.0003619819371062657
-0.006268050656413322   -0.020158884043985643   -0.0005563966373977811
-0.004361425101500251   -0.02019504005623886   -0.0004741391870092622
-0.004693523931883032   -0.016425382289010807   -0.0003429799730043155
-0.006279259778402947   -0.020133641043465694   -0.0005182544626294871
-0.00437272280632733   -0.020171622618676086   -0.0004498167898221602
-0.004693523931883032   -0.016425382289010807   -0.0003429799730043155
-0.00681035881422816   -0.016376671784694218   -0.00038647583406455137
-0.006279259778402947   -0.020133641043465694   -0.0005182544626294871
-0.006822654625684106   -0.0163585206987469   -0.00035477933507264915
-0.00437272280632733   -0.020171622618676086   -0.0004498167898221602
-0.006280290868993953   -0.020116785311237825   -0.00047769512116509595
-0.006822654625684106   -0.0163585206987469   -0.00035477933507264915
-0.006279259778402947   -0.020133641043465694   -0.0005182544626294871
-0.00437272280632733   -0.020171622618676086   -0.0004498167898221602
-0.006822654625684106   -0.0163585206987469   -0.00035477933507264915
-0.004713826203891873   -0.0164004365121997   -0.0003214516580097601
-0.004693523931883032   -0.016425382289010807   -0.0003429799730043155
-0.00437272280632733   -0.020171622618676086   -0.0004498167898221602
-0.006822654625684106   -0.0163585206987469   -0.00035477933507264915
-0.004693523931883032   -0.016425382289010807   -0.0003429799730043155
-0.006279259778402947   -0.020133641043465694   -0.0005182544626294871
-0.00437272280632733   -0.020171622618676086   -0.0004498167898221602
-0.004713826203891873   -0.0164004365121997   -0.0003214516580097601
-0.006280290868993953   -0.020116785311237825   -0.00047769512116509595
-0.0043843643966769135   -0.020157046745614637   -0.0004227707250612028
-0.004713826203891873   -0.0164004365121997   -0.0003214516580097601
-0.006822654625684106   -0.0163585206987469   -0.00035477933507264915
-0.006280290868993953   -0.020116785311237825   -0.00047769512116509595
-0.006836300623782708   -0.016346431411325038   -0.00032044144551637523
-0.0043843643966769135   -0.020157046745614637   -0.0004227707250612028
-0.006284306769861079   -0.020109577317895432   -0.00043420322118374583
-0.006836300623782708   -0.016346431411325038   -0.00032044144551637523
-0.006280290868993953   -0.020116785311237825   -0.00047769512116509595
-0.0043843643966769135   -0.020157046745614637   -0.0004227707250612028
-0.006836300623782708   -0.016346431411325038   -0.00032044144551637523
-0.004734325956869705   -0.016381056433888354   -0.00029749081283162967
-0.004713826203891873   -0.0164004365121997   -0.0003214516580097601
-0.0043843643966769135   -0.020157046745614637   -0.0004227707250612028
-0.006836300623782708   -0.016346431411325038   -0.00032044144551637523
-0.004713826203891873   -0.0164004365121997   -0.0003214516580097601
-0.006280290868993953   -0.020116785311237825   -0.00047769512116509595
-0.006268050656413322   -0.020158884043985643   -0.0005563966373977811
-0.006789613453852239   -0.016399703257789274   -0.00041598127607384803
-0.008362812394137987   -0.020068607341879787   -0.0006083090975696814
-0.006279259778402947   -0.020133641043465694   -0.0005182544626294871
-0.006789613453852239   -0.016399703257789274   -0.00041598127607384803
-0.009064603293986373   -0.016330158524724445   -0.00045866938620432545
-0.008362812394137987   -0.020068607341879787   -0.0006083090975696814
-0.009047583802382332   -0.016310896248408948   -0.0004190773549616904
-0.006279259778402947   -0.020133641043465694   -0.0005182544626294871
-0.008321281272548284   -0.02004554326490114   -0.0005524383164512585
-0.009047583802382332   -0.016310896248408948   -0.0004190773549616904
-0.008362812394137987   -0.020068607341879787   -0.0006083090975696814
-0.006279259778402947   -0.020133641043465694   -0.0005182544626294871
-0.009047583802382332   -0.016310896248408948   -0.0004190773549616904
-0.00681035881422816   -0.016376671784694218   -0.00038647583406455137
-0.006789613453852239   -0.016399703257789274   -0.00041598127607384803
-0.006279259778402947   -0.020133641043465694   -0.0005182544626294871
-0.009047583802382332   -0.016310896248408948   -0.0004190773549616904
-0.006789613453852239   -0.016399703257789274   -0.00041598127607384803
-0.008362812394137987   -0.020068607341879787   -0.0006083090975696814
-0.006279259778402947   -0.020133641043465694   -0.0005182544626294871
-0.00681035881422816   -0.016376671784694218   -0.00038647583406455137
-0.008321281272548284   -0.02004554326490114   -0.0005524383164512585
-0.006280290868993953   -0.020116785311237825   -0.00047769512116509595
-0.00681035881422816   -0.016376671784694218   -0.00038647583406455137
-0.009047583802382332   -0.016310896248408948   -0.0004190773549616904
-0.008321281272548284   -0.02004554326490114   -0.0005524383164512585
-0.009033695163415205   -0.016295951529754826   -0.0003754638862714362
-0.006280290868993953   -0.020116785311237825   -0.00047769512116509595
-0.008286354561192803   -0.02003147664591902   -0.000492337387053526
-0.009033695163415205   -0.016295951529754826   -0.0003754638862714362
-0.008321281272548284   -0.02004554326490114   -0.0005524383164512585
-0.006280290868993953   -0.020116785311237825   -0.00047769512116509595
-0.009033695163415205   -0.016295951529754826   -0.0003754638862714362
-0.006822654625684106   -0.0163585206987469   -0.00035477933507264915
-0.00681035881422816   -0.016376671784694218   -0.00038647583406455137
-0.006280290868993953   -0.020116785311237825   -0.00047769512116509595
-0.009033695163415205   -0.016295951529754826   -0.0003754638862714362
-0.00681035881422816   -0.016376671784694218   -0.00038647583406455137
-0.008321281272548284   -0.02004554326490114   -0.0005524383164512585
-0.006280290868993953   -0.020116785311237825   -0.00047769512116509595
-0.006822654625684106   -0.0163585206987469   -0.00035477933507264915
-0.008286354561192803   -0.02003147664591902   -0.000492337387053526
-0.006284306769861079   -0.020109577317895432   -0.00043420322118374583
-0.006822654625684106   -0.0163585206987469   -0.00035477933507264915
-0.009033695163415205   -0.016295951529754826   -0.0003754638862714362
-0.008286354561192803   -0.02003147664591902   -0.000492337387053526
-0.009001688317956577   -0.016292676232075465   -0.000328285906011953
-0.006284306769861079   -0.020109577317895432   -0.00043420322118374583
-0.008229241911955919   -0.020033726266398023   -0.0004285366608008236
-0.009001688317956577   -0.016292676232075465   -0.000328285906011953
-0.008286354561192803   -0.02003147664591902   -0.000492337387053526
-0.006284306769861079   -0.020109577317895432   -0.00043420322118374583
-0.009001688317956577   -0.016292676232075465   -0.000328285906011953
-0.006836300623782708   -0.016346431411325038   -0.00032044144551637523
-0.006822654625684106   -0.0163585206987469   -0.00035477933507264915
-0.006284306769861079   -0.020109577317895432   -0.00043420322118374583
-0.009001688317956577   -0.016292676232075465   -0.000328285906011953
-0.006822654625684106   -0.0163585206987469   -0.00035477933507264915
-0.008286354561192803   -0.02003147664591902   -0.000492337387053526
0.001733472216418683   -0.016512925358773373   -0.00011918110886208566
0.0018048311691158845   -0.012498991191736992   -2.0306741364215482e-05
-0.0004809980721899569   -0.016513297811069735   -0.00021608054284490364
0.0017285408428003087   -0.016459783067348535   -0.0001357247585934064
0.0018048311691158845   -0.012498991191736992   -2.0306741364215482e-05
-0.0005416251333361381   -0.012479120960326735   -0.00010704424084658665
-0.0004809980721899569   -0.016513297811069735   -0.00021608054284490364
-0.0005682492369740382   -0.012435277450963966   -9.935078194434074e-05
0.0017285408428003087   -0.016459783067348535   -0.0001357247585934064
-0.000500183484564301   -0.0164673505771918   -0.00021795763578871157
-0.0005682492369740382   -0.012435277450963966   -9.935078194434074e-05
-0.0004809980721899569   -0.016513297811069735   -0.00021608054284490364
0.0017285408428003087   -0.016459783067348535   -0.0001357247585934064
-0.0005682492369740382   -0.012435277450963966   -9.935078194434074e-05
0.0017773792350235542   -0.012448429701181662   -1.9596863004075144e-05
0.0018048311691158845   -0.012498991191736992   -2.0306741364215482e-05
0.0017285408428003087   -0.016459783067348535   -0.0001357247585934064
-0.0005682492369740382   -0.012435277450963966   -9.935078194434074e-05
0.0018048311691158845   -0.012498991191736992   -2.0306741364215482e-05
-0.0004809980721899569   -0.016513297811069735   -0.00021608054284490364
0.0017285408428003087   -0.016459783067348535   -0.0001357247585934064
0.0017773792350235542   -0.012448429701181662   -1.9596863004075144e-05
-0.000500183484564301   -0.0164673505771918   -0.00021795763578871157
0.001713826182502482   -0.016417617768359694   -0.00014829365189888885
0.0017773792350235542   -0.012448429701181662   -1.9596863004075144e-05
-0.0005682492369740382   -0.012435277450963966   -9.935078194434074e-05
-0.000500183484564301   -0.0164673505771918   -0.00021795763578871157
-0.000598792607403217   -0.012394213726859274   -8.938866406660289e-05
0.001713826182502482   -0.016417617768359694   -0.00014829365189888885
-0.0005215135048170306   -0.016428244542311524   -0.00021735498407696944
-0.000598792607403217   -0.012394213726859274   -8.938866406660289e-05
-0.000500183484564301   -0.0164673505771918   -0.00021795763578871157
0.001713826182502482   -0.016417617768359694   -0.00014829365189888885
-0.000598792607403217   -0.012394213726859274   -8.938866406660289e-05
0.0017430592516093147   -0.012403728866174557   -1.426514117851014e-05
0.0017773792350235542   -0.012448429701181662   -1.9596863004075144e-05
0.001713826182502482   -0.016417617768359694   -0.00014829365189888885
-0.000598792607403217   -0.012394213726859274   -8.938866406660289e-05
0.0017773792350235542   -0.012448429701181662   -1.9596863004075144e-05
-0.000500183484564301   -0.0164673505771918   -0.00021795763578871157
0.001713826182502482   -0.016417617768359694   -0.00014829365189888885
0.0017430592516093147   -0.012403728866174557   -1.426514117851014e-05
-0.0005215135048170306   -0.016428244542311524   -0.00021735498407696944
0.001693067607910535   -0.016379289513479795   -0.00015716559873062464
0.0017430592516093147   -0.012403728866174557   -1.426514117851014e-05
-0.000598792607403217   -0.012394213726859274   -8.938866406660289e-05
-0.0005215135048170306   -0.016428244542311524   -0.00021735498407696944
-0.0006332285251093345   -0.012355351555827449   -7.659186187931304e-05
0.001693067607910535   -0.016379289513479795   -0.00015716559873062464
-0.0005482083510773713   -0.016394930904128472   -0.00021417482493960396
-0.0006332285251093345   -0.012355351555827449   -7.659186187931304e-05
-0.0005215135048170306   -0.016428244542311524   -0.00021735498407696944
0.001693067607910535   -0.016379289513479795   -0.00015716559873062464
-0.0006332285251093345   -0.012355351555827449   -7.659186187931304e-05
0.001697654645975353   -0.012357211487575952   -4.5164866028860864e-06
0.0017430592516093147   -0.012403728866174557   -1.426514117851014e-05
0.001693067607910535   -0.016379289513479795   -0.00015716559873062464
-0.0006332285251093345   -0.012355351555827449   -7.659186187931304e-05
0.0017430592516093147   -0.012403728866174557   -1.426514117851014e-05
-0.0005215135048170306   -0.016428244542311524   -0.00021735498407696944
-0.0004809980721899569   -0.016513297811069735   -0.00021608054284490364
-0.0005416251333361381   -0.012479120960326735   -0.00010704424084658665
-0.0025938968841803644   -0.0164934587068417   -0.00029541213801142845
-0.000500183484564301   -0.0164673505771918   -0.00021795763578871157
-0.0005416251333361381   -0.012479120960326735   -0.00010704424084658665
-0.002764797063203536   -0.012455171907929004   -0.00017978495860918655
-0.0025938968841803644   -0.0164934587068417   -0.00029541213801142845
-0.002792159906066019   -0.012418797803476378   -0.00016748504286427556
-0.000500183484564301   -0.0164673505771918   -0.00021795763578871157
-0.00261559903199877   -0.016455584760568152   -0.00028683042143003965
-0.002792159906066019   -0.012418797803476378   -0.00016748504286427556
-0.0025938968841803644   -0.0164934587068417   -0.00029541213801142845
-0.000500183484564301   -0.0164673505771918   -0.00021795763578871157
-0.002792159906066019   -0.012418797803476378   -0.00016748504286427556
-0.0005682492369740382   -0.012435277450963966   -9.935078194434074e-05
-0.0005416251333361381   -0.012479120960326735   -0.00010704424084658665
-0.000500183484564301   -0.0164673505771918   -0.00021795763578871157
-0.002792159906066019   -0.012418797803476378   -0.00016748504286427556
-0.0005416251333361381   -0.012479120960326735   -0.00010704424084658665
-0.0025938968841803644   -0.0164934587068417   -0.00029541213801142845
-0.000500183484564301   -0.0164673505771918   -0.00021795763578871157
-0.0005682492369740382   -0.012435277450963966   -9.935078194434074e-05
-0.00261559903199877   -0.016455584760568152   -0.00028683042143003965
-0.0005215135048170306   -0.016428244542311524   -0.00021735498407696944
-0.0005682492369740382   -0.012435277450963966   -9.935078194434074e-05
-0.002792159906066019   -0.012418797803476378   -0.00016748504286427556
-0.00261559903199877   -0.016455584760568152   -0.00028683042143003965
-0.002820159577262448   -0.012384574351774999   -0.00015301232607291347
-0.0005215135048170306   -0.016428244542311524   -0.00021735498407696944
-0.002637752735343992   -0.01642327843712899   -0.0002756599135885811
-0.002820159577262448   -0.012384574351774999   -0.00015301232607291347
-0.00261559903199877   -0.016455584760568152   -0.00028683042143003965
-0.0005215135048170306   -0.016428244542311524   -0.00021735498407696944
-0.002820159577262448   -0.012384574351774999   -0.00015301232607291347
-0.000598792607403217   -0.012394213726859274   -8.938866406660289e-05
-0.0005682492369740382   -0.012435277450963966   -9.935078194434074e-05
-0.0005215135048170306   -0.016428244542311524   -0.00021735498407696944
-0.002820159577262448   -0.012384574351774999   -0.00015301232607291347
-0.0005682492369740382   -0.012435277450963966   -9.935078194434074e-05
-0.00261559903199877   -0.016455584760568152   -0.00028683042143003965
-0.0005215135048170306   -0.016428244542311524   -0.00021735498407696944
-0.000598792607403217   -0.012394213726859274   -8.938866406660289e-05
-0.002637752735343992   -0.01642327843712899   -0.0002756599135885811
-0.0005482083510773713   -0.016394930904128472   -0.00021417482493960396
-0.000598792607403217   -0.012394213726859274   -8.938866406660289e-05
-0.002820159577262448   -0.012384574351774999   -0.00015301232607291347
-0.002637752735343992   -0.01642327843712899   -0.0002756599135885811
-0.0028499770168981613   -0.012353064744094411   -0.00013635170806430846
-0.0005482083510773713   -0.016394930904128472   -0.00021417482493960396
-0.0026618163905867886   -0.01639686171597042   -0.00026202858486975764
-0.0028499770168981613   -0.012353064744094411   -0.00013635170806430846
-0.002637752735343992   -0.01642327843712899   -0.0002756599135885811
-0.0005482083510773713   -0.016394930904128472   -0.00021417482493960396
-0.0028499770168981613   -0.012353064744094411   -0.00013635170806430846
-0.0006332285251093345   -0.012355351555827449   -7.659186187931304e-05
-0.000598792607403217   -0.012394213726859274   -8.938866406660289e-05
-0.0005482083510773713   -0.016394930904128472   -0.00021417482493960396
-0.0028499770168981613   -0.012353064744094411   -0.00013635170806430846
-0.000598792607403217   -0.012394213726859274   -8.938866406660289e-05
-0.002637752735343992   -0.01642327843712899   -0.0002756599135885811
-0.0025938968841803644   -0.0164934587068417   -0.00029541213801142845
-0.002764797063203536   -0.012455171907929004   -0.00017978495860918655
-0.004671104092491893   -0.016455856524176336   -0.0003619819371062657
-0.00261559903199877   -0.016455584760568152   -0.00028683042143003965
-0.002764797063203536   -0.012455171907929004   -0.00017978495860918655
-0.004951390381896431   -0.012426090788095942   -0.00024116461529890006
-0.004671104092491893   -0.016455856524176336   -0.0003619819371062657
-0.004978634650980444   -0.012396595220568121   -0.0002242927664504149
-0.00261559903199877   -0.016455584760568152   -0.00028683042143003965
-0.004693523931883032   -0.016425382289010807   -0.0003429799730043155
-0.004978634650980444   -0.012396595220568121   -0.0002242927664504149
-0.004671104092491893   -0.016455856524176336   -0.0003619819371062657
-0.00261559903199877   -0.016455584760568152   -0.00028683042143003965
-0.004978634650980444   -0.012396595220568121   -0.0002242927664504149
-0.002792159906066019   -0.012418797803476378   -0.00016748504286427556
-0.002764797063203536   -0.012455171907929004   -0.00017978495860918655
-0.00261559903199877   -0.016455584760568152   -0.00028683042143003965
-0.004978634650980444   -0.012396595220568121   -0.0002242927664504149
-0.002764797063203536   -0.012455171907929004   -0.00017978495860918655
-0.004671104092491893   -0.016455856524176336   -0.0003619819371062657
-0.00261559903199877   -0.016455584760568152   -0.00028683042143003965
-0.002792159906066019   -0.012418797803476378   -0.00016748504286427556
-0.004693523931883032   -0.016425382289010807   -0.0003429799730043155
-0.002637752735343992   -0.01642327843712899   -0.0002756599135885811
-0.002792159906066019   -0.012418797803476378   -0.00016748504286427556
-0.004978634650980444   -0.012396595220568121   -0.0002242927664504149
-0.004693523931883032   -0.016425382289010807   -0.0003429799730043155
-0.005004093632619611   -0.012369358230508621   -0.00020532189586619458
-0.002637752735343992   -0.01642327843712899   -0.0002756599135885811
-0.004713826203891873   -0.0164004365121997   -0.0003214516580097601
-0.005004093632619611   -0.012369358230508621   -0.00020532189586619458
-0.004693523931883032   -0.016425382289010807   -0.0003429799730043155
-0.002637752735343992   -0.01642327843712899   -0.0002756599135885811
-0.005004093632619611   -0.012369358230508621   -0.00020532189586619458
-0.002820159577262448   -0.012384574351774999   -0.00015301232607291347
-0.002792159906066019   -0.012418797803476378   -0.00016748504286427556
-0.002637752735343992   -0.01642327843712899   -0.0002756599135885811
-0.005004093632619611   -0.012369358230508621   -0.00020532189586619458
-0.002792159906066019   -0.012418797803476378   -0.00016748504286427556
-0.004693523931883032   -0.016425382289010807   -0.0003429799730043155
-0.002637752735343992   -0.01642327843712899   -0.0002756599135885811
-0.002820159577262448   -0.012384574351774999   -0.00015301232607291347
-0.004713826203891873   -0.0164004365121997   -0.0003214516580097601
-0.0026618163905867886   -0.01639686171597042   -0.00026202858486975764
-0.002820159577262448   -0.012384574351774999   -0.00015301232607291347
-0.005004093632619611   -0.012369358230508621   -0.00020532189586619458
-0.004713826203891873   -0.0164004365121997   -0.0003214516580097601
-0.00502964442435763   -0.012344450164700501   -0.00018435347450606552
-0.0026618163905867886   -0.01639686171597042   -0.00026202858486975764
-0.004734325956869705   -0.016381056433888354   -0.00029749081283162967
-0.00502964442435763   -0.012344450164700501   -0.00018435347450606552
-0.004713826203891873   -0.0164004365121997   -0.0003214516580097601
-0.0026618163905867886   -0.01639686171597042   -0.00026202858486975764
-0.00502964442435763   -0.012344450164700501   -0.00018435347450606552
-0.0028499770168981613   -0.012353064744094411   -0.00013635170806430846
-0.002820159577262448   -0.012384574351774999   -0.00015301232607291347
-0.0026618163905867886   -0.01639686171597042   -0.00026202858486975764
-0.00502964442435763   -0.012344450164700501   -0.00018435347450606552
-0.002820159577262448   -0.012384574351774999   -0.00015301232607291347
-0.004713826203891873   -0.0164004365121997   -0.0003214516580097601
-0.004671104092491893   -0.016455856524176336   -0.0003619819371062657
-0.004951390381896431   -0.012426090788095942   -0.00024116461529890006
-0.006789613453852239   -0.016399703257789274   -0.00041598127607384803
-0.004693523931883032   -0.016425382289010807   -0.0003429799730043155
-0.004951390381896431   -0.012426090788095942   -0.00024116461529890006
-0.0071777257559404355   -0.012386541556417292   -0.0002906525526328903
-0.006789613453852239   -0.016399703257789274   -0.00041598127607384803
-0.007203783540925785   -0.012364277515679426   -0.000269264839970173
-0.004693523931883032   -0.016425382289010807   -0.0003429799730043155
-0.00681035881422816   -0.016376671784694218   -0.00038647583406455137
-0.007203783540925785   -0.012364277515679426   -0.000269264839970173
-0.006789613453852239   -0.016399703257789274   -0.00041598127607384803
-0.004693523931883032   -0.016425382289010807   -0.0003429799730043155
-0.007203783540925785   -0.012364277515679426   -0.000269264839970173
-0.004978634650980444   -0.012396595220568121   -0.0002242927664504149
-0.004951390381896431   -0.012426090788095942   -0.00024116461529890006
-0.004693523931883032   -0.016425382289010807   -0.0003429799730043155
-0.007203783540925785   -0.012364277515679426   -0.000269264839970173
-0.004951390381896431   -0.012426090788095942   -0.00024116461529890006
-0.006789613453852239   -0.016399703257789274   -0.00041598127607384803
-0.004693523931883032   -0.016425382289010807   -0.0003429799730043155
-0.004978634650980444   -0.012396595220568121   -0.0002242927664504149
-0.00681035881422816   -0.016376671784694218   -0.00038647583406455137
-0.004713826203891873   -0.0164004365121997   -0.0003214516580097601
-0.004978634650980444   -0.012396595220568121   -0.0002242927664504149
-0.007203783540925785   -0.012364277515679426   -0.000269264839970173
-0.00681035881422816   -0.016376671784694218   -0.00038647583406455137
-0.00722335201004545   -0.012343495582268087   -0.0002461127650546255
-0.004713826203891873   -0.0164004365121997   -0.0003214516580097601
-0.006822654625684106   -0.0163585206987469   -0.00035477933507264915
-0.00722335201004545   -0.012343495582268087   -0.0002461127650546255
-0.00681035881422816   -0.016376671784694218   -0.00038647583406455137
-0.004713826203891873   -0.0164004365121997   -0.0003214516580097601
-0.00722335201004545   -0.012343495582268087   -0.0002461127650546255
-0.005004093632619611   -0.012369358230508621   -0.00020532189586619458
-0.004978634650980444   -0.012396595220568121   -0.0002242927664504149
-0.004713826203891873   -0.0164004365121997   -0.0003214516580097601
-0.00722335201004545   -0.012343495582268087   -0.0002461127650546255
-0.004978634650980444   -0.012396595220568121   -0.0002242927664504149
-0.00681035881422816   -0.016376671784694218   -0.00038647583406455137
-0.004713826203891873   -0.0164004365121997   -0.0003214516580097601
-0.005004093632619611   -0.012369358230508621   -0.00020532189586619458
-0.006822654625684106   -0.0163585206987469   -0.00035477933507264915
-0.004734325956869705   -0.016381056433888354   -0.00029749081283162967
-0.005004093632619611   -0.012369358230508621   -0.00020532189586619458
-0.00722335201004545   -0.012343495582268087   -0.0002461127650546255
-0.006822654625684106   -0.0163585206987469   -0.00035477933507264915
-0.007242812278288828   -0.012325186441916939   -0.00022074631243152427
-0.004734325956869705   -0.016381056433888354   -0.00029749081283162967
-0.006836300623782708   -0.016346431411325038   -0.00032044144551637523
-0.007242812278288828   -0.012325186441916939   -0.00022074631243152427
-0.006822654625684106   -0.0163585206987469   -0.00035477933507264915
-0.004734325956869705   -0.016381056433888354   -0.00029749081283162967
-0.007242812278288828   -0.012325186441916939   -0.00022074631243152427
-0.00502964442435763   -0.012344450164700501   -0.00018435347450606552
-0.005004093632619611   -0.012369358230508621   -0.00020532189586619458
-0.004734325956869705   -0.016381056433888354   -0.00029749081283162967
-0.007242812278288828   -0.012325186441916939   -0.00022074631243152427
-0.005004093632619611   -0.012369358230508621   -0.00020532189586619458
-0.006822654625684106   -0.0163585206987469   -0.00035477933507264915
-0.006789613453852239   -0.016399703257789274   -0.00041598127607384803
-0.0071777257559404355   -0.012386541556417292   -0.0002906525526328903
-0.009064603293986373   -0.016330158524724445   -0.00045866938620432545
-0.00681035881422816   -0.016376671784694218   -0.00038647583406455137
-0.0071777257559404355   -0.012386541556417292   -0.0002906525526328903
-0.009539150149049673   -0.012339408487991395   -0.000326824638757714
-0.009064603293986373   -0.016330158524724445   -0.00045866938620432545
-0.009542059619000669   -0.012321950382161134   -0.0003028557100718935
-0.00681035881422816   -0.016376671784694218   -0.00038647583406455137
-0.009047583802382332   -0.016310896248408948   -0.0004190773549616904
-0.009542059619000669   -0.012321950382161134   -0.0003028557100718935
-0.009064603293986373   -0.016330158524724445   -0.00045866938620432545
-0.00681035881422816   -0.016376671784694218   -0.00038647583406455137
-0.009542059619000669   -0.012321950382161134   -0.0003028557100718935
-0.007203783540925785   -0.012364277515679426   -0.000269264839970173
-0.0071777257559404355   -0.012386541556417292   -0.0002906525526328903
-0.00681035881422816   -0.016376671784694218   -0.00038647583406455137
-0.009542059619000669   -0.012321950382161134   -0.0003028557100718935
-0.0071777257559404355   -0.012386541556417292   -0.0002906525526328903
-0.009064603293986373   -0.016330158524724445   -0.00045866938620432545
-0.00681035881422816   -0.016376671784694218   -0.00038647583406455137
-0.007203783540925785   -0.012364277515679426   -0.000269264839970173
-0.009047583802382332   -0.016310896248408948   -0.0004190773549616904
-0.006822654625684106   -0.0163585206987469   -0.00035477933507264915
-0.007203783540925785   -0.012364277515679426   -0.000269264839970173
-0.009542059619000669   -0.012321950382161134   -0.0003028557100718935
-0.009047583802382332   -0.016310896248408948   -0.0004190773549616904
-0.009545228814119412   -0.012304488631561451   -0.00027534759926776443
-0.006822654625684106   -0.0163585206987469   -0.00035477933507264915
-0.009033695163415205   -0.016295951529754826   -0.0003754638862714362
-0.009545228814119412   -0.012304488631561451   -0.00027534759926776443
-0.009047583802382332   -0.016310896248408948   -0.0004190773549616904
-0.006822654625684106   -0.0163585206987469   -0.00035477933507264915
-0.009545228814119412   -0.012304488631561451   -0.00027534759926776443
-0.00722335201004545   -0.012343495582268087   -0.0002461127650546255
-0.007203783540925785   -0.012364277515679426   -0.000269264839970173
-0.006822654625684106   -0.0163585206987469   -0.00035477933507264915
-0.009545228814119412   -0.012304488631561451   -0.00027534759926776443
-0.007203783540925785   -0.012364277515679426   -0.000269264839970173
-0.009047583802382332   -0.016310896248408948   -0.0004190773549616904
-0.006822654625684106   -0.0163585206987469   -0.00035477933507264915
-0.00722335201004545   -0.012343495582268087   -0.0002461127650546255
-0.009033695163415205   -0.016295951529754826   -0.0003754638862714362
-0.006836300623782708   -0.016346431411325038   -0.00032044144551637523
-0.00722335201004545   -0.012343495582268087   -0.0002461127650546255
-0.009545228814119412   -0.012304488631561451   -0.00027534759926776443
-0.009033695163415205   -0.016295951529754826   -0.0003754638862714362
-0.009534827364961616   -0.012293900219635652   -0.0002447126268918787
-0.006836300623782708   -0.016346431411325038   -0.00032044144551637523
-0.009001688317956577   -0.016292676232075465   -0.000328285906011953
-0.009534827364961616   -0.012293900219635652   -0.0002447126268918787
-0.009033695163415205   -0.016295951529754826   -0.0003754638862714362
-0.006836300623782708   -0.016346431411325038   -0.00032044144551637523
-0.009534827364961616   -0.012293900219635652   -0.0002447126268918787
-0.007242812278288828   -0.012325186441916939   -0.00022074631243152427
-0.00722335201004545   -0.012343495582268087   -0.0002461127650546255
-0.006836300623782708   -0.016346431411325038   -0.00032044144551637523
-0.009534827364961616   -0.012293900219635652   -0.0002447126268918787
-0.00722335201004545   -0.012343495582268087   -0.0002461127650546255
-0.009033695163415205   -0.016295951529754826   -0.0003754638862714362
0.0018048311691158845   -0.012498991191736992   -2.0306741364215482e-05
0.0016265302055729805   -0.008354502436499985   4.805602045367884e-05
-0.0005416251333361381   -0.012479120960326735   -0.00010704424084658665
0.0017773792350235542   -0.012448429701181662   -1.9596863004075144e-05
0.0016265302055729805   -0.008354502436499985   4.805602045367884e-05
-0.0007435827500166531   -0.00831621078729093   -2.0058746796569012e-05
-0.0005416251333361381   -0.012479120960326735   -0.00010704424084658665
-0.0007757513237504106   -0.008276729212227675   -3.455234957096958e-06
0.0017773792350235542   -0.012448429701181662   -1.9596863004075144e-05
-0.0005682492369740382   -0.012435277450963966   -9.935078194434074e-05
-0.0007757513237504106   -0.008276729212227675   -3.455234957096958e-06
-0.0005416251333361381   -0.012479120960326735   -0.00010704424084658665
0.0017773792350235542   -0.012448429701181662   -1.9596863004075144e-05
-0.0007757513237504106   -0.008276729212227675   -3.455234957096958e-06
0.0015764344266591967   -0.008306493445319434   6.823365828800817e-05
0.0016265302055729805   -0.008354502436499985   4.805602045367884e-05
0.0017773792350235542   -0.012448429701181662   -1.9596863004075144e-05
-0.0007757513237504106   -0.008276729212227675   -3.455234957096958e-06
0.0016265302055729805   -0.008354502436499985   4.805602045367884e-05
-0.0005416251333361381   -0.012479120960326735   -0.00010704424084658665
0.0017773792350235542   -0.012448429701181662   -1.9596863004075144e-05
0.0015764344266591967   -0.008306493445319434   6.823365828800817e-05
-0.0005682492369740382   -0.012435277450963966   -9.935078194434074e-05
0.0017430592516093147   -0.012403728866174557   -1.426514117851014e-05
0.0015764344266591967   -0.008306493445319434   6.823365828800817e-05
-0.0007757513237504106   -0.008276729212227675   -3.455234957096958e-06
-0.0005682492369740382   -0.012435277450963966   -9.935078194434074e-05
-0.0008134773965057802   -0.008235183224078551   1.617724065809863e-05
0.0017430592516093147   -0.012403728866174557   -1.426514117851014e-05
-0.000598792607403217   -0.012394213726859274   -8.938866406660289e-05
-0.0008134773965057802   -0.008235183224078551   1.617724065809863e-05
-0.0005682492369740382   -0.012435277450963966   -9.935078194434074e-05
0.0017430592516093147   -0.012403728866174557   -1.426514117851014e-05
-0.0008134773965057802   -0.008235183224078551   1.617724065809863e-05
0.0015200102687068662   -0.008259112422422827   9.765726806624699e-05
0.0015764344266591967   -0.008306493445319434   6.823365828800817e-05
0.0017430592516093147   -0.012403728866174557   -1.426514117851014e-05
-0.0008134773965057802   -0.008235183224078551   1.617724065809863e-05
0.0015764344266591967   -0.008306493445319434   6.823365828800817e-05
-0.0005682492369740382   -0.012435277450963966   -9.935078194434074e-05
0.0017430592516093147   -0.012403728866174557   -1.426514117851014e-05
0.0015200102687068662   -0.008259112422422827   9.765726806624699e-05
-0.000598792607403217   -0.012394213726859274   -8.938866406660289e-05
0.001697654645975353   -0.012357211487575952   -4.5164866028860864e-06
0.0015200102687068662   -0.008259112422422827   9.765726806624699e-05
-0.0008134773965057802   -0.008235183224078551   1.617724065809863e-05
-0.000598792607403217   -0.012394213726859274   -8.938866406660289e-05
-0.0008526120106906662   -0.008191181740678623   3.8813339944107656e-05
0.001697654645975353   -0.012357211487575952   -4.5164866028860864e-06
-0.0006332285251093345   -0.012355351555827449   -7.659186187931304e-05
-0.0008526120106906662   -0.008191181740678623   3.8813339944107656e-05
-0.000598792607403217   -0.012394213726859274   -8.938866406660289e-05
0.001697654645975353   -0.012357211487575952   -4.5164866028860864e-06
-0.0008526120106906662   -0.008191181740678623   3.8813339944107656e-05
0.0014510196362370938   -0.008200792303340148   0.00013011081788319247
0.0015200102687068662   -0.008259112422422827   9.765726806624699e-05
0.001697654645975353   -0.012357211487575952   -4.5164866028860864e-06
-0.0008526120106906662   -0.008191181740678623   3.8813339944107656e-05
0.0015200102687068662   -0.008259112422422827   9.765726806624699e-05
-0.000598792607403217   -0.012394213726859274   -8.938866406660289e-05
-0.0005416251333361381   -0.012479120960326735   -0.00010704424084658665
-0.0007435827500166531   -0.00831621078729093   -2.0058746796569012e-05
-0.002764797063203536   -0.012455171907929004   -0.00017978495860918655
-0.0005682492369740382   -0.012435277450963966   -9.935078194434074e-05
-0.0007435827500166531   -0.00831621078729093   -2.0058746796569012e-05
-0.002973772883023253   -0.008306260621715448   -8.535407164815828e-05
-0.002764797063203536   -0.012455171907929004   -0.00017978495860918655
-0.003003037943435506   -0.008272075881503948   -6.966865683190776e-05
-0.0005682492369740382   -0.012435277450963966   -9.935078194434074e-05
-0.002792159906066019   -0.012418797803476378   -0.00016748504286427556
-0.003003037943435506   -0.008272075881503948   -6.966865683190776e-05
-0.002764797063203536   -0.012455171907929004   -0.00017978495860918655
-0.0005682492369740382   -0.012435277450963966   -9.935078194434074e-05
-0.003003037943435506   -0.008272075881503948   -6.966865683190776e-05
-0.0007757513237504106   -0.008276729212227675   -3.455234957096958e-06
-0.0007435827500166531   -0.00831621078729093   -2.0058746796569012e-05
-0.0005682492369740382   -0.012435277450963966   -9.935078194434074e-05
-0.003003037943435506   -0.008272075881503948   -6.966865683190776e-05
-0.0007435827500166531   -0.00831621078729093   -2.0058746796569012e-05
-0.002764797063203536   -0.012455171907929004   -0.00017978495860918655
-0.0005682492369740382   -0.012435277450963966   -9.935078194434074e-05
-0.0007757513237504106   -0.008276729212227675   -3.455234957096958e-06
-0.002792159906066019   -0.012418797803476378   -0.00016748504286427556
-0.000598792607403217   -0.012394213726859274   -8.938866406660289e-05
-0.0007757513237504106   -0.008276729212227675   -3.455234957096958e-06
-0.003003037943435506   -0.008272075881503948   -6.966865683190776e-05
-0.002792159906066019   -0.012418797803476378   -0.00016748504286427556
-0.003033357823694363   -0.008236565302895762   -5.2381810718561815e-05
-0.000598792607403217   -0.012394213726859274   -8.938866406660289e-05
-0.002820159577262448   -0.012384574351774999   -0.00015301232607291347
-0.003033357823694363   -0.008236565302895762   -5.2381810718561815e-05
-0.002792159906066019   -0.012418797803476378   -0.00016748504286427556
-0.000598792607403217   -0.012394213726859274   -8.938866406660289e-05
-0.003033357823694363   -0.008236565302895762   -5.2381810718561815e-05
-0.0008134773965057802   -0.008235183224078551   1.617724065809863e-05
-0.0007757513237504106   -0.008276729212227675   -3.455234957096958e-06
-0.000598792607403217   -0.012394213726859274   -8.938866406660289e-05
-0.003033357823694363   -0.008236565302895762   -5.2381810718561815e-05
-0.0007757513237504106   -0.008276729212227675   -3.455234957096958e-06
-0.002792159906066019   -0.012418797803476378   -0.00016748504286427556
-0.000598792607403217   -0.012394213726859274   -8.938866406660289e-05
-0.0008134773965057802   -0.008235183224078551   1.617724065809863e-05
-0.002820159577262448   -0.012384574351774999   -0.00015301232607291347
-0.0006332285251093345   -0.012355351555827449   -7.659186187931304e-05
-0.0008134773965057802   -0.008235183224078551   1.617724065809863e-05
-0.003033357823694363   -0.008236565302895762   -5.2381810718561815e-05
-0.002820159577262448   -0.012384574351774999   -0.00015301232607291347
-0.0030649700538335264   -0.008200429236834141   -3.318385111355932e-05
-0.0006332285251093345   -0.012355351555827449   -7.659186187931304e-05
-0.0028499770168981613   -0.012353064744094411   -0.00013635170806430846
-0.0030649700538335264   -0.008200429236834141   -3.318385111355932e-05
-0.002820159577262448   -0.012384574351774999   -0.00015301232607291347
-0.0006332285251093345   -0.012355351555827449   -7.659186187931304e-05
-0.0030649700538335264   -0.008200429236834141   -3.318385111355932e-05
-0.0008526120106906662   -0.008191181740678623   3.8813339944107656e-05
-0.0008134773965057802   -0.008235183224078551   1.617724065809863e-05
-0.0006332285251093345   -0.012355351555827449   -7.659186187931304e-05
-0.0030649700538335264   -0.008200429236834141   -3.318385111355932e-05
-0.0008134773965057802   -0.008235183224078551   1.617724065809863e-05
-0.002820159577262448   -0.012384574351774999   -0.00015301232607291347
-0.002764797063203536   -0.012455171907929004   -0.00017978495860918655
-0.002973772883023253   -0.008306260621715448   -8.535407164815828e-05
-0.004951390381896431   -0.012426090788095942   -0.00024116461529890006
-0.002792159906066019   -0.012418797803476378   -0.00016748504286427556
-0.002973772883023253   -0.008306260621715448   -8.535407164815828e-05
-0.005179880320110376   -0.008303437020755746   -0.00014415007765213156
-0.004951390381896431   -0.012426090788095942   -0.00024116461529890006
-0.005207949475659393   -0.008273660515884506   -0.0001289836922457481
-0.002792159906066019   -0.012418797803476378   -0.00016748504286427556
-0.004978634650980444   -0.012396595220568121   -0.0002242927664504149
-0.005207949475659393   -0.008273660515884506   -0.0001289836922457481
-0.004951390381896431   -0.012426090788095942   -0.00024116461529890006
-0.002792159906066019   -0.012418797803476378   -0.00016748504286427556
-0.005207949475659393   -0.008273660515884506   -0.0001289836922457481
-0.003003037943435506   -0.008272075881503948   -6.966865683190776e-05
-0.002973772883023253   -0.008306260621715448   -8.535407164815828e-05
-0.002792159906066019   -0.012418797803476378   -0.00016748504286427556
-0.005207949475659393   -0.008273660515884506   -0.0001289836922457481
-0.002973772883023253   -0.008306260621715448   -8.535407164815828e-05
-0.004951390381896431   -0.012426090788095942   -0.00024116461529890006
-0.002792159906066019   -0.012418797803476378   -0.00016748504286427556
-0.003003037943435506   -0.008272075881503948   -6.966865683190776e-05
-0.004978634650980444   -0.012396595220568121   -0.0002242927664504149
-0.002820159577262448   -0.012384574351774999   -0.00015301232607291347
-0.003003037943435506   -0.008272075881503948   -6.966865683190776e-05
-0.005207949475659393   -0.008273660515884506   -0.0001289836922457481
-0.004978634650980444   -0.012396595220568121   -0.0002242927664504149
-0.005234693727150277   -0.008243423674225144   -0.00011240935298167846
-0.002820159577262448   -0.012384574351774999   -0.00015301232607291347
-0.005004093632619611   -0.012369358230508621   -0.00020532189586619458
-0.005234693727150277   -0.008243423674225144   -0.00011240935298167846
-0.004978634650980444   -0.012396595220568121   -0.0002242927664504149
-0.002820159577262448   -0.012384574351774999   -0.00015301232607291347
-0.005234693727150277   -0.008243423674225144   -0.00011240935298167846
-0.003033357823694363   -0.008236565302895762   -5.2381810718561815e-05
-0.003003037943435506   -0.008272075881503948   -6.966865683190776e-05
-0.002820159577262448   -0.012384574351774999   -0.00015301232607291347
-0.005234693727150277   -0.008243423674225144   -0.00011240935298167846
-0.003003037943435506   -0.008272075881503948   -6.966865683190776e-05
-0.004978634650980444   -0.012396595220568121   -0.0002242927664504149
-0.002820159577262448   -0.012384574351774999   -0.00015301232607291347
-0.003033357823694363   -0.008236565302895762   -5.2381810718561815e-05
-0.005004093632619611   -0.012369358230508621   -0.00020532189586619458
-0.0028499770168981613   -0.012353064744094411   -0.00013635170806430846
-0.003033357823694363   -0.008236565302895762   -5.2381810718561815e-05
-0.005234693727150277   -0.008243423674225144   -0.00011240935298167846
-0.005004093632619611   -0.012369358230508621   -0.00020532189586619458
-0.005261174027755047   -0.008212541838288628   -9.449974779820502e-05
-0.0028499770168981613   -0.012353064744094411   -0.00013635170806430846
-0.00502964442435763   -0.012344450164700501   -0.00018435347450606552
-0.005261174027755047   -0.008212541838288628   -9.449974779820502e-05
-0.005004093632619611   -0.012369358230508621   -0.00020532189586619458
-0.0028499770168981613   -0.012353064744094411   -0.00013635170806430846
-0.005261174027755047   -0.008212541838288628   -9.449974779820502e-05
-0.0030649700538335264   -0.008200429236834141   -3.318385111355932e-05
-0.003033357823694363   -0.008236565302895762   -5.2381810718561815e-05
-0.0028499770168981613   -0.012353064744094411   -0.00013635170806430846
-0.005261174027755047   -0.008212541838288628   -9.449974779820502e-05
-0.003033357823694363   -0.008236565302895762   -5.2381810718561815e-05
-0.005004093632619611   -0.012369358230508621   -0.00020532189586619458
-0.004951390381896431   -0.012426090788095942   -0.00024116461529890006
-0.005179880320110376   -0.008303437020755746   -0.00014415007765213156
-0.0071777257559404355   -0.012386541556417292   -0.0002906525526328903
-0.004978634650980444   -0.012396595220568121   -0.0002242927664504149
-0.005179880320110376   -0.008303437020755746   -0.00014415007765213156
-0.007432902140647922   -0.008290336628656074   -0.00019309074967458528
-0.0071777257559404355   -0.012386541556417292   -0.0002906525526328903
-0.007459657781296536   -0.008266390412998495   -0.0001785456210743608
-0.004978634650980444   -0.012396595220568121   -0.0002242927664504149
-0.007203783540925785   -0.012364277515679426   -0.000269264839970173
-0.007459657781296536   -0.008266390412998495   -0.0001785456210743608
-0.0071777257559404355   -0.012386541556417292   -0.0002906525526328903
-0.004978634650980444   -0.012396595220568121   -0.0002242927664504149
-0.007459657781296536   -0.008266390412998495   -0.0001785456210743608
-0.005207949475659393   -0.008273660515884506   -0.0001289836922457481
-0.005179880320110376   -0.008303437020755746   -0.00014415007765213156
-0.004978634650980444   -0.012396595220568121   -0.0002242927664504149
-0.007459657781296536   -0.008266390412998495   -0.0001785456210743608
-0.005179880320110376   -0.008303437020755746   -0.00014415007765213156
-0.0071777257559404355   -0.012386541556417292   -0.0002906525526328903
-0.004978634650980444   -0.012396595220568121   -0.0002242927664504149
-0.005207949475659393   -0.008273660515884506   -0.0001289836922457481
-0.007203783540925785   -0.012364277515679426   -0.000269264839970173
-0.005004093632619611   -0.012369358230508621   -0.00020532189586619458
-0.005207949475659393   -0.008273660515884506   -0.0001289836922457481
-0.007459657781296536   -0.008266390412998495   -0.0001785456210743608
-0.007203783540925785   -0.012364277515679426   -0.000269264839970173
-0.007482226952443402   -0.008241158505575675   -0.0001629784321410205
-0.005004093632619611   -0.012369358230508621   -0.00020532189586619458
-0.00722335201004545   -0.012343495582268087   -0.0002461127650546255
-0.007482226952443402   -0.008241158505575675   -0.0001629784321410205
-0.007203783540925785   -0.012364277515679426   -0.000269264839970173
-0.005004093632619611   -0.012369358230508621   -0.00020532189586619458
-0.007482226952443402   -0.008241158505575675   -0.0001629784321410205
-0.005234693727150277   -0.008243423674225144   -0.00011240935298167846
-0.005207949475659393   -0.008273660515884506   -0.0001289836922457481
-0.005004093632619611   -0.012369358230508621   -0.00020532189586619458
-0.007482226952443402   -0.008241158505575675   -0.0001629784321410205
-0.005207949475659393   -0.008273660515884506   -0.0001289836922457481
-0.007203783540925785   -0.012364277515679426   -0.000269264839970173
-0.005004093632619611   -0.012369358230508621   -0.00020532189586619458
-0.005234693727150277   -0.008243423674225144   -0.00011240935298167846
-0.00722335201004545   -0.012343495582268087   -0.0002461127650546255
-0.00502964442435763   -0.012344450164700501   -0.00018435347450606552
-0.005234693727150277   -0.008243423674225144   -0.00011240935298167846
-0.007482226952443402   -0.008241158505575675   -0.0001629784321410205
-0.00722335201004545   -0.012343495582268087   -0.0002461127650546255
-0.007503552356673551   -0.008215330199958607   -0.0001459652102000929
-0.00502964442435763   -0.012344450164700501   -0.00018435347450606552
-0.007242812278288828   -0.012325186441916939   -0.00022074631243152427
-0.007503552356673551   -0.008215330199958607   -0.0001459652102000929
-0.00722335201004545   -0.012343495582268087   -0.0002461127650546255
-0.00502964442435763   -0.012344450164700501   -0.00018435347450606552
-0.007503552356673551   -0.008215330199958607   -0.0001459652102000929
-0.005261174027755047   -0.008212541838288628   -9.449974779820502e-05
-0.005234693727150277   -0.008243423674225144   -0.00011240935298167846
-0.00502964442435763   -0.012344450164700501   -0.00018435347450606552
-0.007503552356673551   -0.008215330199958607   -0.0001459652102000929
-0.005234693727150277   -0.008243423674225144   -0.00011240935298167846
-0.00722335201004545   -0.012343495582268087   -0.0002461127650546255
-0.0071777257559404355   -0.012386541556417292   -0.0002906525526328903
-0.007432902140647922   -0.008290336628656074   -0.00019309074967458528
-0.009539150149049673   -0.012339408487991395   -0.000326824638757714
-0.007203783540925785   -0.012364277515679426   -0.000269264839970173
-0.007432902140647922   -0.008290336628656074   -0.00019309074967458528
-0.009795112271043599   -0.008268464146996574   -0.0002285766649872974
-0.009539150149049673   -0.012339408487991395   -0.000326824638757714
-0.009811203365597723   -0.00824867955786295   -0.0002173439876635217
-0.007203783540925785   -0.012364277515679426   -0.000269264839970173
-0.009542059619000669   -0.012321950382161134   -0.0003028557100718935
-0.009811203365597723   -0.00824867955786295   -0.0002173439876635217
-0.009539150149049673   -0.012339408487991395   -0.000326824638757714
-0.007203783540925785   -0.012364277515679426   -0.000269264839970173
-0.009811203365597723   -0.00824867955786295   -0.0002173439876635217
-0.007459657781296536   -0.008266390412998495   -0.0001785456210743608
-0.007432902140647922   -0.008290336628656074   -0.00019309074967458528
-0.007203783540925785   -0.012364277515679426   -0.000269264839970173
-0.009811203365597723   -0.00824867955786295   -0.0002173439876635217
-0.007432902140647922   -0.008290336628656074   -0.00019309074967458528
-0.009539150149049673   -0.012339408487991395   -0.000326824638757714
-0.007203783540925785   -0.012364277515679426   -0.000269264839970173
-0.007459657781296536   -0.008266390412998495   -0.0001785456210743608
-0.009542059619000669   -0.012321950382161134   -0.0003028557100718935
-0.00722335201004545   -0.012343495582268087   -0.0002461127650546255
-0.007459657781296536   -0.008266390412998495   -0.0001785456210743608
-0.009811203365597723   -0.00824867955786295   -0.0002173439876635217
-0.009542059619000669   -0.012321950382161134   -0.0003028557100718935
-0.009825917176784583   -0.008226159893102429   -0.00020364936158930028
-0.00722335201004545   -0.012343495582268087   -0.0002461127650546255
-0.009545228814119412   -0.012304488631561451   -0.00027534759926776443
-0.009825917176784583   -0.008226159893102429   -0.00020364936158930028
-0.009542059619000669   -0.012321950382161134   -0.0003028557100718935
-0.00722335201004545   -0.012343495582268087   -0.0002461127650546255
-0.009825917176784583   -0.008226159893102429   -0.00020364936158930028
-0.007482226952443402   -0.008241158505575675   -0.0001629784321410205
-0.007459657781296536   -0.008266390412998495   -0.0001785456210743608
-0.00722335201004545   -0.012343495582268087   -0.0002461127650546255
-0.009825917176784583   -0.008226159893102429   -0.00020364936158930028
-0.007459657781296536   -0.008266390412998495   -0.0001785456210743608
-0.009542059619000669   -0.012321950382161134   -0.0003028557100718935
-0.00722335201004545   -0.012343495582268087   -0.0002461127650546255
-0.007482226952443402   -0.008241158505575675   -0.0001629784321410205
-0.009545228814119412   -0.012304488631561451   -0.00027534759926776443
-0.007242812278288828   -0.012325186441916939   -0.00022074631243152427
-0.007482226952443402   -0.008241158505575675   -0.0001629784321410205
-0.009825917176784583   -0.008226159893102429   -0.00020364936158930028
-0.009545228814119412   -0.012304488631561451   -0.00027534759926776443
-0.009832444754137129   -0.00820589036448361   -0.00018808295576223566
-0.007242812278288828   -0.012325186441916939   -0.00022074631243152427
-0.009534827364961616   -0.012293900219635652   -0.0002447126268918787
-0.009832444754137129   -0.00820589036448361   -0.00018808295576223566
-0.009545228814119412   -0.012304488631561451   -0.00027534759926776443
-0.007242812278288828   -0.012325186441916939   -0.00022074631243152427
-0.009832444754137129   -0.00820589036448361   -0.00018808295576223566
-0.007503552356673551   -0.008215330199958607   -0.0001459652102000929
-0.007482226952443402   -0.008241158505575675   -0.0001629784321410205
-0.007242812278288828   -0.012325186441916939   -0.00022074631243152427
-0.009832444754137129   -0.00820589036448361   -0.00018808295576223566
-0.007482226952443402   -0.008241158505575675   -0.0001629784321410205
-0.009545228814119412   -0.012304488631561451   -0.00027534759926776443
0.0016265302055729805   -0.008354502436499985   4.805602045367884e-05
0.0011452036131399637   -0.004206267518037669   5.2290008904208136e-05
-0.0007435827500166531   -0.00831621078729093   -2.0058746796569012e-05
0.0015764344266591967   -0.008306493445319434   6.823365828800817e-05
0.0011452036131399637   -0.004206267518037669   5.2290008904208136e-05
-0.0010717177268017865   -0.004153480137153055   2.9474319659754388e-05
-0.0007435827500166531   -0.00831621078729093   -2.0058746796569012e-05
-0.0011039503019309234   -0.0041344267549199955   5.290162760870074e-05
0.0015764344266591967   -0.008306493445319434   6.823365828800817e-05
-0.0007757513237504106   -0.008276729212227675   -3.455234957096958e-06
-0.0011039503019309234   -0.0041344267549199955   5.290162760870074e-05
-0.0007435827500166531   -0.00831621078729093   -2.0058746796569012e-05
0.0015764344266591967   -0.008306493445319434   6.823365828800817e-05
-0.0011039503019309234   -0.0041344267549199955   5.290162760870074e-05
0.0010444754937601283   -0.004154866844802212   0.00010993659224358567
0.0011452036131399637   -0.004206267518037669   5.2290008904208136e-05
0.0015764344266591967   -0.008306493445319434   6.823365828800817e-05
-0.0011039503019309234   -0.0041344267549199955   5.290162760870074e-05
0.0011452036131399637   -0.004206267518037669   5.2290008904208136e-05
-0.0007435827500166531   -0.00831621078729093   -2.0058746796569012e-05
0.0015764344266591967   -0.008306493445319434   6.823365828800817e-05
0.0010444754937601283   -0.004154866844802212   0.00010993659224358567
-0.0007757513237504106   -0.008276729212227675   -3.455234957096958e-06
0.0015200102687068662   -0.008259112422422827   9.765726806624699e-05
0.0010444754937601283   -0.004154866844802212   0.00010993659224358567
-0.0011039503019309234   -0.0041344267549199955   5.290162760870074e-05
-0.0007757513237504106   -0.008276729212227675   -3.455234957096958e-06
-0.001146713970540913   -0.0040991338585169065   8.146482028039292e-05
0.0015200102687068662   -0.008259112422422827   9.765726806624699e-05
-0.0008134773965057802   -0.008235183224078551   1.617724065809863e-05
-0.001146713970540913   -0.0040991338585169065   8.146482028039292e-05
-0.0007757513237504106   -0.008276729212227675   -3.455234957096958e-06
0.0015200102687068662   -0.008259112422422827   9.765726806624699e-05
-0.001146713970540913   -0.0040991338585169065   8.146482028039292e-05
0.0009856708529767783   -0.004113465989451255   0.00015273227985741555
0.0010444754937601283   -0.004154866844802212   0.00010993659224358567
0.0015200102687068662   -0.008259112422422827   9.765726806624699e-05
-0.001146713970540913   -0.0040991338585169065   8.146482028039292e-05
0.0010444754937601283   -0.004154866844802212   0.00010993659224358567
-0.0007757513237504106   -0.008276729212227675   -3.455234957096958e-06
0.0015200102687068662   -0.008259112422422827   9.765726806624699e-05
0.0009856708529767783   -0.004113465989451255   0.00015273227985741555
-0.0008134773965057802   -0.008235183224078551   1.617724065809863e-05
0.0014510196362370938   -0.008200792303340148   0.00013011081788319247
0.0009856708529767783   -0.004113465989451255   0.00015273227985741555
-0.001146713970540913   -0.0040991338585169065   8.146482028039292e-05
-0.0008134773965057802   -0.008235183224078551   1.617724065809863e-05
-0.0011828436110923556   -0.004061430550635588   0.00010658438233173337
0.0014510196362370938   -0.008200792303340148   0.00013011081788319247
-0.0008526120106906662   -0.008191181740678623   3.8813339944107656e-05
-0.0011828436110923556   -0.004061430550635588   0.00010658438233173337
-0.0008134773965057802   -0.008235183224078551   1.617724065809863e-05
0.0014510196362370938   -0.008200792303340148   0.00013011081788319247
-0.0011828436110923556   -0.004061430550635588   0.00010658438233173337
0.0009100205578638492   -0.004049589703897187   0.00020184006884114077
0.0009856708529767783   -0.004113465989451255   0.00015273227985741555
0.0014510196362370938   -0.008200792303340148   0.00013011081788319247
-0.0011828436110923556   -0.004061430550635588   0.00010658438233173337
0.0009856708529767783   -0.004113465989451255   0.00015273227985741555
-0.0008134773965057802   -0.008235183224078551   1.617724065809863e-05
-0.0007435827500166531   -0.00831621078729093   -2.0058746796569012e-05
-0.0010717177268017865   -0.004153480137153055   2.9474319659754388e-05
-0.002973772883023253   -0.008306260621715448   -8.535407164815828e-05
-0.0007757513237504106   -0.008276729212227675   -3.455234957096958e-06
-0.0010717177268017865   -0.004153480137153055   2.9474319659754388e-05
-0.0031766437176752845   -0.004216125759589793   -2.155980960217333e-05
-0.002973772883023253   -0.008306260621715448   -8.535407164815828e-05
-0.0032066794343234054   -0.004186031465000105   -4.819907210101476e-06
-0.0007757513237504106   -0.008276729212227675   -3.455234957096958e-06
-0.003003037943435506   -0.008272075881503948   -6.966865683190776e-05
-0.0032066794343234054   -0.004186031465000105   -4.819907210101476e-06
-0.002973772883023253   -0.008306260621715448   -8.535407164815828e-05
-0.0007757513237504106   -0.008276729212227675   -3.455234957096958e-06
-0.0032066794343234054   -0.004186031465000105   -4.819907210101476e-06
-0.0011039503019309234   -0.0041344267549199955   5.290162760870074e-05
-0.0010717177268017865   -0.004153480137153055   2.9474319659754388e-05
-0.0007757513237504106   -0.008276729212227675   -3.455234957096958e-06
-0.0032066794343234054   -0.004186031465000105   -4.819907210101476e-06
-0.0010717177268017865   -0.004153480137153055   2.9474319659754388e-05
-0.002973772883023253   -0.008306260621715448   -8.535407164815828e-05
-0.0007757513237504106   -0.008276729212227675   -3.455234957096958e-06
-0.0011039503019309234   -0.0041344267549199955   5.290162760870074e-05
-0.003003037943435506   -0.008272075881503948   -6.966865683190776e-05
-0.0008134773965057802   -0.008235183224078551   1.617724065809863e-05
-0.0011039503019309234   -0.0041344267549199955   5.290162760870074e-05
-0.0032066794343234054   -0.004186031465000105   -4.819907210101476e-06
-0.003003037943435506   -0.008272075881503948   -6.966865683190776e-05
-0.003238311960029956   -0.004151805248879199   1.2993428618658084e-05
-0.0008134773965057802   -0.008235183224078551   1.617724065809863e-05
-0.003033357823694363   -0.008236565302895762   -5.2381810718561815e-05
-0.003238311960029956   -0.004151805248879199   1.2993428618658084e-05
-0.003003037943435506   -0.008272075881503948   -6.966865683190776e-05
-0.0008134773965057802   -0.008235183224078551   1.617724065809863e-05
-0.003238311960029956   -0.004151805248879199   1.2993428618658084e-05
-0.001146713970540913   -0.0040991338585169065   8.146482028039292e-05
-0.0011039503019309234   -0.0041344267549199955   5.290162760870074e-05
-0.0008134773965057802   -0.008235183224078551   1.617724065809863e-05
-0.003238311960029956   -0.004151805248879199   1.2993428618658084e-05
-0.0011039503019309234   -0.0041344267549199955   5.290162760870074e-05
-0.003003037943435506   -0.008272075881503948   -6.966865683190776e-05
-0.0008134773965057802   -0.008235183224078551   1.617724065809863e-05
-0.001146713970540913   -0.0040991338585169065   8.146482028039292e-05
-0.003033357823694363   -0.008236565302895762   -5.2381810718561815e-05
-0.0008526120106906662   -0.008191181740678623   3.8813339944107656e-05
-0.001146713970540913   -0.0040991338585169065   8.146482028039292e-05
-0.003238311960029956   -0.004151805248879199   1.2993428618658084e-05
-0.003033357823694363   -0.008236565302895762   -5.2381810718561815e-05
-0.0032685387270471053   -0.0041142904156472905   3.269659574181143e-05
-0.0008526120106906662   -0.008191181740678623   3.8813339944107656e-05
-0.0030649700538335264   -0.008200429236834141   -3.318385111355932e-05
-0.0032685387270471053   -0.0041142904156472905   3.269659574181143e-05
-0.003033357823694363   -0.008236565302895762   -5.2381810718561815e-05
-0.0008526120106906662   -0.008191181740678623   3.8813339944107656e-05
-0.0032685387270471053   -0.0041142904156472905   3.269659574181143e-05
-0.0011828436110923556   -0.004061430550635588   0.00010658438233173337
-0.001146713970540913   -0.0040991338585169065   8.146482028039292e-05
-0.0008526120106906662   -0.008191181740678623   3.8813339944107656e-05
-0.0032685387270471053   -0.0041142904156472905   3.269659574181143e-05
-0.001146713970540913   -0.0040991338585169065   8.146482028039292e-05
-0.003033357823694363   -0.008236565302895762   -5.2381810718561815e-05
-0.002973772883023253   -0.008306260621715448   -8.535407164815828e-05
-0.0031766437176752845   -0.004216125759589793   -2.155980960217333e-05
-0.005179880320110376   -0.008303437020755746   -0.00014415007765213156
-0.003003037943435506   -0.008272075881503948   -6.966865683190776e-05
-0.0031766437176752845   -0.004216125759589793   -2.155980960217333e-05
-0.005330997804445693   -0.004265098152068312   -7.874231543571871e-05
-0.005179880320110376   -0.008303437020755746   -0.00014415007765213156
-0.005358130644793375   -0.004234129503318181   -6.56510145325673e-05
-0.003003037943435506   -0.008272075881503948   -6.966865683190776e-05
-0.005207949475659393   -0.008273660515884506   -0.0001289836922457481
-0.005358130644793375   -0.004234129503318181   -6.56510145325673e-05
-0.005179880320110376   -0.008303437020755746   -0.00014415007765213156
-0.003003037943435506   -0.008272075881503948   -6.966865683190776e-05
-0.005358130644793375   -0.004234129503318181   -6.56510145325673e-05
-0.0032066794343234054   -0.004186031465000105   -4.819907210101476e-06
-0.0031766437176752845   -0.004216125759589793   -2.155980960217333e-05
-0.003003037943435506   -0.008272075881503948   -6.966865683190776e-05
-0.005358130644793375   -0.004234129503318181   -6.56510145325673e-05
-0.0031766437176752845   -0.004216125759589793   -2.155980960217333e-05
-0.005179880320110376   -0.008303437020755746   -0.00014415007765213156
-0.003003037943435506   -0.008272075881503948   -6.966865683190776e-05
-0.0032066794343234054   -0.004186031465000105   -4.819907210101476e-06
-0.005207949475659393   -0.008273660515884506   -0.0001289836922457481
-0.003033357823694363   -0.008236565302895762   -5.2381810718561815e-05
-0.0032066794343234054   -0.004186031465000105   -4.819907210101476e-06
-0.005358130644793375   -0.004234129503318181   -6.56510145325673e-05
-0.005207949475659393   -0.008273660515884506   -0.0001289836922457481
-0.0053842112263691   -0.004201312088115777   -5.25327739588827e-05
-0.003033357823694363   -0.008236565302895762   -5.2381810718561815e-05
-0.005234693727150277   -0.008243423674225144   -0.00011240935298167846
-0.0053842112263691   -0.004201312088115777   -5.25327739588827e-05
-0.005207949475659393   -0.008273660515884506   -0.0001289836922457481
-0.003033357823694363   -0.008236565302895762   -5.2381810718561815e-05
-0.0053842112263691   -0.004201312088115777   -5.25327739588827e-05
-0.003238311960029956   -0.004151805248879199   1.2993428618658084e-05
-0.0032066794343234054   -0.004186031465000105   -4.819907210101476e-06
-0.003033357823694363   -0.008236565302895762   -5.2381810718561815e-05
-0.0053842112263691   -0.004201312088115777   -5.25327739588827e-05
-0.0032066794343234054   -0.004186031465000105   -4.819907210101476e-06
-0.005207949475659393   -0.008273660515884506   -0.0001289836922457481
-0.003033357823694363   -0.008236565302895762   -5.2381810718561815e-05
-0.003238311960029956   -0.004151805248879199   1.2993428618658084e-05
-0.005234693727150277   -0.008243423674225144   -0.00011240935298167846
-0.0030649700538335264   -0.008200429236834141   -3.318385111355932e-05
-0.003238311960029956   -0.004151805248879199   1.2993428618658084e-05
-0.0053842112263691   -0.004201312088115777   -5.25327739588827e-05
-0.005234693727150277   -0.008243423674225144   -0.00011240935298167846
-0.005408340917007554   -0.004165695204848851   -3.817732548960579e-05
-0.0030649700538335264   -0.008200429236834141   -3.318385111355932e-05
-0.005261174027755047   -0.008212541838288628   -9.449974779820502e-05
-0.005408340917007554   -0.004165695204848851   -3.817732548960579e-05
-0.005234693727150277   -0.008243423674225144   -0.00011240935298167846
-0.0030649700538335264   -0.008200429236834141   -3.318385111355932e-05
-0.005408340917007554   -0.004165695204848851   -3.817732548960579e-05
-0.0032685387270471053   -0.0041142904156472905   3.269659574181143e-05
-0.003238311960029956   -0.004151805248879199   1.2993428618658084e-05
-0.0030649700538335264   -0.008200429236834141   -3.318385111355932e-05
-0.005408340917007554   -0.004165695204848851   -3.817732548960579e-05
-0.003238311960029956   -0.004151805248879199   1.2993428618658084e-05
-0.005234693727150277   -0.008243423674225144   -0.00011240935298167846
-0.005179880320110376   -0.008303437020755746   -0.00014415007765213156
-0.005330997804445693   -0.004265098152068312   -7.874231543571871e-05
-0.007432902140647922   -0.008290336628656074   -0.00019309074967458528
-0.005207949475659393   -0.008273660515884506   -0.0001289836922457481
-0.005330997804445693   -0.004265098152068312   -7.874231543571871e-05
-0.007561090302356281   -0.004285306181684941   -0.00013138595642388072
-0.007432902140647922   -0.008290336628656074   -0.00019309074967458528
-0.007585569055244707   -0.004257679153887111   -0.00012174408287338916
-0.005207949475659393   -0.008273660515884506   -0.0001289836922457481
-0.007459657781296536   -0.008266390412998495   -0.0001785456210743608
-0.007585569055244707   -0.004257679153887111   -0.00012174408287338916
-0.007432902140647922   -0.008290336628656074   -0.00019309074967458528
-0.005207949475659393   -0.008273660515884506   -0.0001289836922457481
-0.007585569055244707   -0.004257679153887111   -0.00012174408287338916
-0.005358130644793375   -0.004234129503318181   -6.56510145325673e-05
-0.005330997804445693   -0.004265098152068312   -7.874231543571871e-05
-0.005207949475659393   -0.008273660515884506   -0.0001289836922457481
-0.007585569055244707   -0.004257679153887111   -0.00012174408287338916
-0.005330997804445693   -0.004265098152068312   -7.874231543571871e-05
-0.007432902140647922   -0.008290336628656074   -0.00019309074967458528
-0.005207949475659393   -0.008273660515884506   -0.0001289836922457481
-0.005358130644793375   -0.004234129503318181   -6.56510145325673e-05
-0.007459657781296536   -0.008266390412998495   -0.0001785456210743608
-0.005234693727150277   -0.008243423674225144   -0.00011240935298167846
-0.005358130644793375   -0.004234129503318181   -6.56510145325673e-05
-0.007585569055244707   -0.004257679153887111   -0.00012174408287338916
-0.007459657781296536   -0.008266390412998495   -0.0001785456210743608
-0.007607389176913867   -0.004227440642571134   -0.00011231331957727855
-0.005234693727150277   -0.008243423674225144   -0.00011240935298167846
-0.007482226952443402   -0.008241158505575675   -0.0001629784321410205
-0.007607389176913867   -0.004227440642571134   -0.00011231331957727855
-0.007459657781296536   -0.008266390412998495   -0.0001785456210743608
-0.005234693727150277   -0.008243423674225144   -0.00011240935298167846
-0.007607389176913867   -0.004227440642571134   -0.00011231331957727855
-0.0053842112263691   -0.004201312088115777   -5.25327739588827e-05
-0.005358130644793375   -0.004234129503318181   -6.56510145325673e-05
-0.005234693727150277   -0.008243423674225144   -0.00011240935298167846
-0.007607389176913867   -0.004227440642571134   -0.00011231331957727855
-0.005358130644793375   -0.004234129503318181   -6.56510145325673e-05
-0.007459657781296536   -0.008266390412998495   -0.0001785456210743608
-0.005234693727150277   -0.008243423674225144   -0.00011240935298167846
-0.0053842112263691   -0.004201312088115777   -5.25327739588827e-05
-0.007482226952443402   -0.008241158505575675   -0.0001629784321410205
-0.005261174027755047   -0.008212541838288628   -9.449974779820502e-05
-0.0053842112263691   -0.004201312088115777   -5.25327739588827e-05
-0.007607389176913867   -0.004227440642571134   -0.00011231331957727855
-0.007482226952443402   -0.008241158505575675   -0.0001629784321410205
-0.007627174850288159   -0.004195179486864205   -0.00010252801346291015
-0.005261174027755047   -0.008212541838288628   -9.449974779820502e-05
-0.007503552356673551   -0.008215330199958607   -0.0001459652102000929
-0.007627174850288159   -0.004195179486864205   -0.00010252801346291015
-0.007482226952443402   -0.008241158505575675   -0.0001629784321410205
-0.005261174027755047   -0.008212541838288628   -9.449974779820502e-05
-0.007627174850288159   -0.004195179486864205   -0.00010252801346291015
-0.005408340917007554   -0.004165695204848851   -3.817732548960579e-05
-0.0053842112263691   -0.004201312088115777   -5.25327739588827e-05
-0.005261174027755047   -0.008212541838288628   -9.449974779820502e-05
-0.007627174850288159   -0.004195179486864205   -0.00010252801346291015
-0.0053842112263691   -0.004201312088115777   -5.25327739588827e-05
-0.007482226952443402   -0.008241158505575675   -0.0001629784321410205
-0.007432902140647922   -0.008290336628656074   -0.00019309074967458528
-0.007561090302356281   -0.004285306181684941   -0.00013138595642388072
-0.009795112271043599   -0.008268464146996574   -0.0002285766649872974
-0.007459657781296536   -0.008266390412998495   -0.0001785456210743608
-0.007561090302356281   -0.004285306181684941   -0.00013138595642388072
-0.009872644994448104   -0.004287384661776826   -0.0001745973509078169
-0.009795112271043599   -0.008268464146996574   -0.0002285766649872974
-0.009893513974132217   -0.0042606536233396   -0.0001702675819862972
-0.007459657781296536   -0.008266390412998495   -0.0001785456210743608
-0.009811203365597723   -0.00824867955786295   -0.0002173439876635217
-0.009893513974132217   -0.0042606536233396   -0.0001702675819862972
-0.009795112271043599   -0.008268464146996574   -0.0002285766649872974
-0.007459657781296536   -0.008266390412998495   -0.0001785456210743608
-0.009893513974132217   -0.0042606536233396   -0.0001702675819862972
-0.007585569055244707   -0.004257679153887111   -0.00012174408287338916
-0.007561090302356281   -0.004285306181684941   -0.00013138595642388072
-0.007459657781296536   -0.008266390412998495   -0.0001785456210743608
-0.009893513974132217   -0.0042606536233396   -0.0001702675819862972
-0.007561090302356281   -0.004285306181684941   -0.00013138595642388072
-0.009795112271043599   -0.008268464146996574   -0.0002285766649872974
-0.007459657781296536   -0.008266390412998495   -0.0001785456210743608
-0.007585569055244707   -0.004257679153887111   -0.00012174408287338916
-0.009811203365597723   -0.00824867955786295   -0.0002173439876635217
-0.007482226952443402   -0.008241158505575675   -0.0001629784321410205
-0.007585569055244707   -0.004257679153887111   -0.00012174408287338916
-0.009893513974132217   -0.0042606536233396   -0.0001702675819862972
-0.009811203365597723   -0.00824867955786295   -0.0002173439876635217
-0.009912210957079906   -0.004231602617371521   -0.00016516840266508177
-0.007482226952443402   -0.008241158505575675   -0.0001629784321410205
-0.009825917176784583   -0.008226159893102429   -0.00020364936158930028
-0.009912210957079906   -0.004231602617371521   -0.00016516840266508177
-0.009811203365597723   -0.00824867955786295   -0.0002173439876635217
-0.007482226952443402   -0.008241158505575675   -0.0001629784321410205
-0.009912210957079906   -0.004231602617371521   -0.00016516840266508177
-0.007607389176913867   -0.004227440642571134   -0.00011231331957727855
-0.007585569055244707   -0.004257679153887111   -0.00012174408287338916
-0.007482226952443402   -0.008241158505575675   -0.0001629784321410205
-0.009912210957079906   -0.004231602617371521   -0.00016516840266508177
-0.007585569055244707   -0.004257679153887111   -0.00012174408287338916
-0.009811203365597723   -0.00824867955786295   -0.0002173439876635217
-0.007482226952443402   -0.008241158505575675   -0.0001629784321410205
-0.007607389176913867   -0.004227440642571134   -0.00011231331957727855
-0.009825917176784583   -0.008226159893102429   -0.00020364936158930028
-0.007503552356673551   -0.008215330199958607   -0.0001459652102000929
-0.007607389176913867   -0.004227440642571134   -0.00011231331957727855
-0.009912210957079906   -0.004231602617371521   -0.00016516840266508177
-0.009825917176784583   -0.008226159893102429   -0.00020364936158930028
-0.009927723432571364   -0.004200868755867188   -0.00016030481303198077
-0.007503552356673551   -0.008215330199958607   -0.0001459652102000929
-0.009832444754137129   -0.00820589036448361   -0.00018808295576223566
-0.009927723432571364   -0.004200868755867188   -0.00016030481303198077
-0.009825917176784583   -0.008226159893102429   -0.00020364936158930028
-0.007503552356673551   -0.008215330199958607   -0.0001459652102000929
-0.009927723432571364   -0.004200868755867188   -0.00016030481303198077
-0.007627174850288159   -0.004195179486864205   -0.00010252801346291015
-0.007607389176913867   -0.004227440642571134   -0.00011231331957727855
-0.007503552356673551   -0.008215330199958607   -0.0001459652102000929
-0.009927723432571364   -0.004200868755867188   -0.00016030481303198077
-0.007607389176913867   -0.004227440642571134   -0.00011231331957727855
-0.009825917176784583   -0.008226159893102429   -0.00020364936158930028
0.0011452036131399637   -0.004206267518037669   5.2290008904208136e-05
0.0   0.0   0.0
-0.0010717177268017865   -0.004153480137153055   2.9474319659754388e-05
0.0010444754937601283   -0.004154866844802212   0.00010993659224358567
0.0   0.0   0.0
-0.001338564433747832   -0.0003509510296179752   -8.540776332033648e-06
-0.0010717177268017865   -0.004153480137153055   2.9474319659754388e-05
-0.0014187874200175578   -0.0002750702612138418   3.874458044231306e-05
0.0010444754937601283   -0.004154866844802212   0.00010993659224358567
-0.0011039503019309234   -0.0041344267549199955   5.290162760870074e-05
-0.0014187874200175578   -0.0002750702612138418   3.874458044231306e-05
-0.0010717177268017865   -0.004153480137153055   2.9474319659754388e-05
0.0010444754937601283   -0.004154866844802212   0.00010993659224358567
-0.0014187874200175578   -0.0002750702612138418   3.874458044231306e-05
0.0   0.0   0.0
0.0   0.0   0.0
0.0010444754937601283   -0.004154866844802212   0.00010993659224358567
-0.0014187874200175578   -0.0002750702612138418   3.874458044231306e-05
0.0   0.0   0.0
-0.0010717177268017865   -0.004153480137153055   2.9474319659754388e-05
0.0010444754937601283   -0.004154866844802212   0.00010993659224358567
0.0   0.0   0.0
-0.0011039503019309234   -0.0041344267549199955   5.290162760870074e-05
0.0009856708529767783   -0.004113465989451255   0.00015273227985741555
0.0   0.0   0.0
-0.0014187874200175578   -0.0002750702612138418   3.874458044231306e-05
-0.0011039503019309234   -0.0041344267549199955   5.290162760870074e-05
-0.0014694835423225395   -0.0002388126964542243   6.64274330559992e-05
0.0009856708529767783   -0.004113465989451255   0.00015273227985741555
-0.001146713970540913   -0.0040991338585169065   8.146482028039292e-05
-0.0014694835423225395   -0.0002388126964542243   6.64274330559992e-05
-0.0011039503019309234   -0.0041344267549199955   5.290162760870074e-05
0.0009856708529767783   -0.004113465989451255   0.00015273227985741555
-0.0014694835423225395   -0.0002388126964542243   6.64274330559992e-05
0.0   0.0   0.0
0.0   0.0   0.0
0.0009856708529767783   -0.004113465989451255   0.00015273227985741555
-0.0014694835423225395   -0.0002388126964542243   6.64274330559992e-05
0.0   0.0   0.0
-0.0011039503019309234   -0.0041344267549199955   5.290162760870074e-05
0.0009856708529767783   -0.004113465989451255   0.00015273227985741555
0.0   0.0   0.0
-0.001146713970540913   -0.0040991338585169065   8.146482028039292e-05
0.0009100205578638492   -0.004049589703897187   0.00020184006884114077
0.0   0.0   0.0
-0.0014694835423225395   -0.0002388126964542243   6.64274330559992e-05
-0.001146713970540913   -0.0040991338585169065   8.146482028039292e-05
-0.0015380615257981928   -0.00019046665194360487   9.82769436896275e-05
0.0009100205578638492   -0.004049589703897187   0.00020184006884114077
-0.0011828436110923556   -0.004061430550635588   0.00010658438233173337
-0.0015380615257981928   -0.00019046665194360487   9.82769436896275e-05
-0.001146713970540913   -0.0040991338585169065   8.146482028039292e-05
0.0009100205578638492   -0.004049589703897187   0.00020184006884114077
-0.0015380615257981928   -0.00019046665194360487   9.82769436896275e-05
0.0   0.0   0.0
0.0   0.0   0.0
0.0009100205578638492   -0.004049589703897187   0.00020184006884114077
-0.0015380615257981928   -0.00019046665194360487   9.82769436896275e-05
0.0   0.0   0.0
-0.001146713970540913   -0.0040991338585169065   8.146482028039292e-05
-0.0010717177268017865   -0.004153480137153055   2.9474319659754388e-05
-0.001338564433747832   -0.0003509510296179752   -8.540776332033648e-06
-0.0031766437176752845   -0.004216125759589793   -2.155980960217333e-05
-0.0011039503019309234   -0.0041344267549199955   5.290162760870074e-05
-0.001338564433747832   -0.0003509510296179752   -8.540776332033648e-06
-0.003268901663070527   -0.0004639403741526608   -4.072190562564089e-06
-0.0031766437176752845   -0.004216125759589793   -2.155980960217333e-05
-0.0033106976811886663   -0.00042312154161712316   8.574219995505961e-06
-0.0011039503019309234   -0.0041344267549199955   5.290162760870074e-05
-0.0032066794343234054   -0.004186031465000105   -4.819907210101476e-06
-0.0033106976811886663   -0.00042312154161712316   8.574219995505961e-06
-0.0031766437176752845   -0.004216125759589793   -2.155980960217333e-05
-0.0011039503019309234   -0.0041344267549199955   5.290162760870074e-05
-0.0033106976811886663   -0.00042312154161712316   8.574219995505961e-06
-0.0014187874200175578   -0.0002750702612138418   3.874458044231306e-05
-0.001338564433747832   -0.0003509510296179752   -8.540776332033648e-06
-0.0011039503019309234   -0.0041344267549199955   5.290162760870074e-05
-0.0033106976811886663   -0.00042312154161712316   8.574219995505961e-06
-0.001338564433747832   -0.0003509510296179752   -8.540776332033648e-06
-0.0031766437176752845   -0.004216125759589793   -2.155980960217333e-05
-0.0011039503019309234   -0.0041344267549199955   5.290162760870074e-05
-0.0014187874200175578   -0.0002750702612138418   3.874458044231306e-05
-0.0032066794343234054   -0.004186031465000105   -4.819907210101476e-06
-0.001146713970540913   -0.0040991338585169065   8.146482028039292e-05
-0.0014187874200175578   -0.0002750702612138418   3.874458044231306e-05
-0.0033106976811886663   -0.00042312154161712316   8.574219995505961e-06
-0.0032066794343234054   -0.004186031465000105   -4.819907210101476e-06
-0.0033524793188802497   -0.00037518819807144525   3.082897285963066e-05
-0.001146713970540913   -0.0040991338585169065   8.146482028039292e-05
-0.003238311960029956   -0.004151805248879199   1.2993428618658084e-05
-0.0033524793188802497   -0.00037518819807144525   3.082897285963066e-05
-0.0032066794343234054   -0.004186031465000105   -4.819907210101476e-06
-0.001146713970540913   -0.0040991338585169065   8.146482028039292e-05
-0.0033524793188802497   -0.00037518819807144525   3.082897285963066e-05
-0.0014694835423225395   -0.0002388126964542243   6.64274330559992e-05
-0.0014187874200175578   -0.0002750702612138418   3.874458044231306e-05
-0.001146713970540913   -0.0040991338585169065   8.146482028039292e-05
-0.0033524793188802497   -0.00037518819807144525   3.082897285963066e-05
-0.0014187874200175578   -0.0002750702612138418   3.874458044231306e-05
-0.0032066794343234054   -0.004186031465000105   -4.819907210101476e-06
-0.001146713970540913   -0.0040991338585169065   8.146482028039292e-05
-0.0014694835423225395   -0.0002388126964542243   6.64274330559992e-05
-0.003238311960029956   -0.004151805248879199   1.2993428618658084e-05
-0.0011828436110923556   -0.004061430550635588   0.00010658438233173337
-0.0014694835423225395   -0.0002388126964542243   6.64274330559992e-05
-0.0033524793188802497   -0.00037518819807144525   3.082897285963066e-05
-0.003238311960029956   -0.004151805248879199   1.2993428618658084e-05
-0.0033993753859050285   -0.00031937471020544283   5.23865223701748e-05
-0.0011828436110923556   -0.004061430550635588   0.00010658438233173337
-0.0032685387270471053   -0.0041142904156472905   3.269659574181143e-05
-0.0033993753859050285   -0.00031937471020544283   5.23865223701748e-05
-0.003238311960029956   -0.004151805248879199   1.2993428618658084e-05
-0.0011828436110923556   -0.004061430550635588   0.00010658438233173337
-0.0033993753859050285   -0.00031937471020544283   5.23865223701748e-05
-0.0015380615257981928   -0.00019046665194360487   9.82769436896275e-05
-0.0014694835423225395   -0.0002388126964542243   6.64274330559992e-05
-0.0011828436110923556   -0.004061430550635588   0.00010658438233173337
-0.0033993753859050285   -0.00031937471020544283   5.23865223701748e-05
-0.0014694835423225395   -0.0002388126964542243   6.64274330559992e-05
-0.003238311960029956   -0.004151805248879199   1.2993428618658084e-05
-0.0031766437176752845   -0.004216125759589793   -2.155980960217333e-05
-0.003268901663070527   -0.0004639403741526608   -4.072190562564089e-06
-0.005330997804445693   -0.004265098152068312   -7.874231543571871e-05
-0.0032066794343234054   -0.004186031465000105   -4.819907210101476e-06
-0.003268901663070527   -0.0004639403741526608   -4.072190562564089e-06
-0.0053829013118154535   -0.0004978799553397415   -3.8800299964819545e-05
-0.005330997804445693   -0.004265098152068312   -7.874231543571871e-05
-0.00540851772570294   -0.0004667679318526764   -3.5065101800525384e-05
-0.0032066794343234054   -0.004186031465000105   -4.819907210101476e-06
-0.005358130644793375   -0.004234129503318181   -6.56510145325673e-05
-0.00540851772570294   -0.0004667679318526764   -3.5065101800525384e-05
-0.005330997804445693   -0.004265098152068312   -7.874231543571871e-05
-0.0032066794343234054   -0.004186031465000105   -4.819907210101476e-06
-0.00540851772570294   -0.0004667679318526764   -3.5065101800525384e-05
-0.0033106976811886663   -0.00042312154161712316   8.574219995505961e-06
-0.003268901663070527   -0.0004639403741526608   -4.072190562564089e-06
-0.0032066794343234054   -0.004186031465000105   -4.819907210101476e-06
-0.00540851772570294   -0.0004667679318526764   -3.5065101800525384e-05
-0.003268901663070527   -0.0004639403741526608   -4.072190562564089e-06
-0.005330997804445693   -0.004265098152068312   -7.874231543571871e-05
-0.0032066794343234054   -0.004186031465000105   -4.819907210101476e-06
-0.0033106976811886663   -0.00042312154161712316   8.574219995505961e-06
-0.005358130644793375   -0.004234129503318181   -6.56510145325673e-05
-0.003238311960029956   -0.004151805248879199   1.2993428618658084e-05
-0.0033106976811886663   -0.00042312154161712316   8.574219995505961e-06
-0.00540851772570294   -0.0004667679318526764   -3.5065101800525384e-05
-0.005358130644793375   -0.004234129503318181   -6.56510145325673e-05
-0.005435200013303939   -0.0004303002761396592   -2.8643115216184077e-05
-0.003238311960029956   -0.004151805248879199   1.2993428618658084e-05
-0.0053842112263691   -0.004201312088115777   -5.25327739588827e-05
-0.005435200013303939   -0.0004303002761396592   -2.8643115216184077e-05
-0.005358130644793375   -0.004234129503318181   -6.56510145325673e-05
-0.003238311960029956   -0.004151805248879199   1.2993428618658084e-05
-0.005435200013303939   -0.0004303002761396592   -2.8643115216184077e-05
-0.0033524793188802497   -0.00037518819807144525   3.082897285963066e-05
-0.0033106976811886663   -0.00042312154161712316   8.574219995505961e-06
-0.003238311960029956   -0.004151805248879199   1.2993428618658084e-05
-0.005435200013303939   -0.0004303002761396592   -2.8643115216184077e-05
-0.0033106976811886663   -0.00042312154161712316   8.574219995505961e-06
-0.005358130644793375   -0.004234129503318181   -6.56510145325673e-05
-0.003238311960029956   -0.004151805248879199   1.2993428618658084e-05
-0.0033524793188802497   -0.00037518819807144525   3.082897285963066e-05
-0.0053842112263691   -0.004201312088115777   -5.25327739588827e-05
-0.0032685387270471053   -0.0041142904156472905   3.269659574181143e-05
-0.0033524793188802497   -0.00037518819807144525   3.082897285963066e-05
-0.005435200013303939   -0.0004303002761396592   -2.8643115216184077e-05
-0.0053842112263691   -0.004201312088115777   -5.25327739588827e-05
-0.005461037797749041   -0.0003853366773027887   -2.014435738298316e-05
-0.0032685387270471053   -0.0041142904156472905   3.269659574181143e-05
-0.005408340917007554   -0.004165695204848851   -3.817732548960579e-05
-0.005461037797749041   -0.0003853366773027887   -2.014435738298316e-05
-0.0053842112263691   -0.004201312088115777   -5.25327739588827e-05
-0.0032685387270471053   -0.0041142904156472905   3.269659574181143e-05
-0.005461037797749041   -0.0003853366773027887   -2.014435738298316e-05
-0.0033993753859050285   -0.00031937471020544283   5.23865223701748e-05
-0.0033524793188802497   -0.00037518819807144525   3.082897285963066e-05
-0.0032685387270471053   -0.0041142904156472905   3.269659574181143e-05
-0.005461037797749041   -0.0003853366773027887   -2.014435738298316e-05
-0.0033524793188802497   -0.00037518819807144525   3.082897285963066e-05
-0.0053842112263691   -0.004201312088115777   -5.25327739588827e-05
-0.005330997804445693   -0.004265098152068312   -7.874231543571871e-05
-0.0053829013118154535   -0.0004978799553397415   -3.8800299964819545e-05
-0.007561090302356281   -0.004285306181684941   -0.00013138595642388072
-0.005358130644793375   -0.004234129503318181   -6.56510145325673e-05
-0.0053829013118154535   -0.0004978799553397415   -3.8800299964819545e-05
-0.0076006146664871575   -0.000494748749432054   -9.059339262196927e-05
-0.007561090302356281   -0.004285306181684941   -0.00013138595642388072
-0.0076179831132143746   -0.000467327327747664   -8.895915490606116e-05
-0.005358130644793375   -0.004234129503318181   -6.56510145325673e-05
-0.007585569055244707   -0.004257679153887111   -0.00012174408287338916
-0.0076179831132143746   -0.000467327327747664   -8.895915490606116e-05
-0.007561090302356281   -0.004285306181684941   -0.00013138595642388072
-0.005358130644793375   -0.004234129503318181   -6.56510145325673e-05
-0.0076179831132143746   -0.000467327327747664   -8.895915490606116e-05
-0.00540851772570294   -0.0004667679318526764   -3.5065101800525384e-05
-0.0053829013118154535   -0.0004978799553397415   -3.8800299964819545e-05
-0.005358130644793375   -0.004234129503318181   -6.56510145325673e-05
-0.0076179831132143746   -0.000467327327747664   -8.895915490606116e-05
-0.0053829013118154535   -0.0004978799553397415   -3.8800299964819545e-05
-0.007561090302356281   -0.004285306181684941   -0.00013138595642388072
-0.005358130644793375   -0.004234129503318181   -6.56510145325673e-05
-0.00540851772570294   -0.0004667679318526764   -3.5065101800525384e-05
-0.007585569055244707   -0.004257679153887111   -0.00012174408287338916
-0.0053842112263691   -0.004201312088115777   -5.25327739588827e-05
-0.00540851772570294   -0.0004667679318526764   -3.5065101800525384e-05
-0.0076179831132143746   -0.000467327327747664   -8.895915490606116e-05
-0.007585569055244707   -0.004257679153887111   -0.00012174408287338916
-0.007636087787453601   -0.00043646127236798463   -8.762640100441086e-05
-0.0053842112263691   -0.004201312088115777   -5.25327739588827e-05
-0.007607389176913867   -0.004227440642571134   -0.00011231331957727855
-0.007636087787453601   -0.00043646127236798463   -8.762640100441086e-05
-0.007585569055244707   -0.004257679153887111   -0.00012174408287338916
-0.0053842112263691   -0.004201312088115777   -5.25327739588827e-05
-0.007636087787453601   -0.00043646127236798463   -8.762640100441086e-05
-0.005435200013303939   -0.0004303002761396592   -2.8643115216184077e-05
-0.00540851772570294   -0.0004667679318526764   -3.5065101800525384e-05
-0.0053842112263691   -0.004201312088115777   -5.25327739588827e-05
-0.007636087787453601   -0.00043646127236798463   -8.762640100441086e-05
-0.00540851772570294   -0.0004667679318526764   -3.5065101800525384e-05
-0.007585569055244707   -0.004257679153887111   -0.00012174408287338916
-0.0053842112263691   -0.004201312088115777   -5.25327739588827e-05
-0.005435200013303939   -0.0004303002761396592   -2.8643115216184077e-05
-0.007607389176913867   -0.004227440642571134   -0.00011231331957727855
-0.005408340917007554   -0.004165695204848851   -3.817732548960579e-05
-0.005435200013303939   -0.0004303002761396592   -2.8643115216184077e-05
-0.007636087787453601   -0.00043646127236798463   -8.762640100441086e-05
-0.007607389176913867   -0.004227440642571134   -0.00011231331957727855
-0.007650201264095839   -0.00040269093615146265   -8.665366407301533e-05
-0.005408340917007554   -0.004165695204848851   -3.817732548960579e-05
-0.007627174850288159   -0.004195179486864205   -0.00010252801346291015
-0.007650201264095839   -0.00040269093615146265   -8.665366407301533e-05
-0.007607389176913867   -0.004227440642571134   -0.00011231331957727855
-0.005408340917007554   -0.004165695204848851   -3.817732548960579e-05
-0.007650201264095839   -0.00040269093615146265   -8.665366407301533e-05
-0.005461037797749041   -0.0003853366773027887   -2.014435738298316e-05
-0.005435200013303939   -0.0004303002761396592   -2.8643115216184077e-05
-0.005408340917007554   -0.004165695204848851   -3.817732548960579e-05
-0.007650201264095839   -0.00040269093615146265   -8.665366407301533e-05
-0.005435200013303939   -0.0004303002761396592   -2.8643115216184077e-05
-0.007607389176913867   -0.004227440642571134   -0.00011231331957727855
-0.007561090302356281   -0.004285306181684941   -0.00013138595642388072
-0.0076006146664871575   -0.000494748749432054   -9.059339262196927e-05
-0.009872644994448104   -0.004287384661776826   -0.0001745973509078169
-0.007585569055244707   -0.004257679153887111   -0.00012174408287338916
-0.0076006146664871575   -0.000494748749432054   -9.059339262196927e-05
-0.009881033737156096   -0.0004916032579117364   -0.00014175266763902735
-0.009872644994448104   -0.004287384661776826   -0.0001745973509078169
-0.009894958754974615   -0.00046198436755863135   -0.00014161318855608016
-0.007585569055244707   -0.004257679153887111   -0.00012174408287338916
-0.009893513974132217   -0.0042606536233396   -0.0001702675819862972
-0.009894958754974615   -0.00046198436755863135   -0.00014161318855608016
-0.009872644994448104   -0.004287384661776826   -0.0001745973509078169
-0.007585569055244707   -0.004257679153887111   -0.00012174408287338916
-0.009894958754974615   -0.00046198436755863135   -0.00014161318855608016
-0.0076179831132143746   -0.000467327327747664   -8.895915490606116e-05
-0.0076006146664871575   -0.000494748749432054   -9.059339262196927e-05
-0.007585569055244707   -0.004257679153887111   -0.00012174408287338916
-0.009894958754974615   -0.00046198436755863135   -0.00014161318855608016
-0.0076006146664871575   -0.000494748749432054   -9.059339262196927e-05
-0.009872644994448104   -0.004287384661776826   -0.0001745973509078169
-0.007585569055244707   -0.004257679153887111   -0.00012174408287338916
-0.0076179831132143746   -0.000467327327747664   -8.895915490606116e-05
-0.009893513974132217   -0.0042606536233396   -0.0001702675819862972
-0.007607389176913867   -0.004227440642571134   -0.00011231331957727855
-0.0076179831132143746   -0.000467327327747664   -8.895915490606116e-05
-0.009894958754974615   -0.00046198436755863135   -0.00014161318855608016
-0.009893513974132217   -0.0042606536233396   -0.0001702675819862972
-0.009910213340910442   -0.0004321614388675132   -0.000143797175617241
-0.007607389176913867   -0.004227440642571134   -0.00011231331957727855
-0.009912210957079906   -0.004231602617371521   -0.00016516840266508177
-0.009910213340910442   -0.0004321614388675132   -0.000143797175617241
-0.009893513974132217   -0.0042606536233396   -0.0001702675819862972
-0.007607389176913867   -0.004227440642571134   -0.00011231331957727855
-0.009910213340910442   -0.0004321614388675132   -0.000143797175617241
-0.007636087787453601   -0.00043646127236798463   -8.762640100441086e-05
-0.0076179831132143746   -0.000467327327747664   -8.895915490606116e-05
-0.007607389176913867   -0.004227440642571134   -0.00011231331957727855
-0.009910213340910442   -0.0004321614388675132   -0.000143797175617241
-0.0076179831132143746   -0.000467327327747664   -8.895915490606116e-05
-0.009893513974132217   -0.0042606536233396   -0.0001702675819862972
-0.007607389176913867   -0.004227440642571134   -0.00011231331957727855
-0.007636087787453601   -0.00043646127236798463   -8.762640100441086e-05
-0.009912210957079906   -0.004231602617371521   -0.00016516840266508177
-0.007627174850288159   -0.004195179486864205   -0.00010252801346291015
-0.007636087787453601   -0.00043646127236798463   -8.762640100441086e-05
-0.009910213340910442   -0.0004321614388675132   -0.000143797175617241
-0.009912210957079906   -0.004231602617371521   -0.00016516840266508177
-0.009921570736567914   -0.0003995295531539267   -0.00014606435980257952
-0.007627174850288159   -0.004195179486864205   -0.00010252801346291015
-0.009927723432571364   -0.004200868755867188   -0.00016030481303198077
-0.009921570736567914   -0.0003995295531539267   -0.00014606435980257952
-0.009912210957079906   -0.004231602617371521   -0.00016516840266508177
-0.007627174850288159   -0.004195179486864205   -0.00010252801346291015
-0.009921570736567914   -0.0003995295531539267   -0.00014606435980257952
-0.007650201264095839   -0.00040269093615146265   -8.665366407301533e-05
-0.007636087787453601   -0.00043646127236798463   -8.762640100441086e-05
-0.007627174850288159   -0.004195179486864205   -0.00010252801346291015
-0.009921570736567914   -0.0003995295531539267   -0.00014606435980257952
-0.007636087787453601   -0.00043646127236798463   -8.762640100441086e-05
-0.009912210957079906   -0.004231602617371521   -0.00016516840266508177
              </DataArray>   
          </PointData>  
       </Piece>  
   </UnstructuredGrid> 
</VTKFile> 
