<?xml version="1.0"?> 
<VTKFile type="UnstructuredGrid"> 
   <UnstructuredGrid> 
      <Piece NumberOfPoints="6000"  NumberOfCells="1500">  
          <Points>  
             <DataArray type="Float64" NumberOfComponents="3" format="ascii">   
-500.0   0.0   0.0
-450.0   0.0   0.0
-500.0   30.0   0.0
-500.0   0.0   16.666666666666668
-450.0   0.0   0.0
-450.0   30.0   0.0
-500.0   30.0   0.0
-450.0   30.0   16.666666666666668
-500.0   0.0   16.666666666666668
-500.0   30.0   16.666666666666668
-450.0   30.0   16.666666666666668
-500.0   30.0   0.0
-500.0   0.0   16.666666666666668
-450.0   30.0   16.666666666666668
-450.0   0.0   16.666666666666668
-450.0   0.0   0.0
-500.0   0.0   16.666666666666668
-450.0   30.0   16.666666666666668
-450.0   0.0   0.0
-500.0   30.0   0.0
-500.0   0.0   16.666666666666668
-450.0   0.0   16.666666666666668
-500.0   30.0   16.666666666666668
-500.0   0.0   33.333333333333336
-450.0   0.0   16.666666666666668
-450.0   30.0   16.666666666666668
-500.0   30.0   16.666666666666668
-450.0   30.0   33.333333333333336
-500.0   0.0   33.333333333333336
-500.0   30.0   33.333333333333336
-450.0   30.0   33.333333333333336
-500.0   30.0   16.666666666666668
-500.0   0.0   33.333333333333336
-450.0   30.0   33.333333333333336
-450.0   0.0   33.333333333333336
-450.0   0.0   16.666666666666668
-500.0   0.0   33.333333333333336
-450.0   30.0   33.333333333333336
-450.0   0.0   16.666666666666668
-500.0   30.0   16.666666666666668
-500.0   0.0   33.333333333333336
-450.0   0.0   33.333333333333336
-500.0   30.0   33.333333333333336
-500.0   0.0   50.0
-450.0   0.0   33.333333333333336
-450.0   30.0   33.333333333333336
-500.0   30.0   33.333333333333336
-450.0   30.0   50.0
-500.0   0.0   50.0
-500.0   30.0   50.0
-450.0   30.0   50.0
-500.0   30.0   33.333333333333336
-500.0   0.0   50.0
-450.0   30.0   50.0
-450.0   0.0   50.0
-450.0   0.0   33.333333333333336
-500.0   0.0   50.0
-450.0   30.0   50.0
-450.0   0.0   33.333333333333336
-500.0   30.0   33.333333333333336
-500.0   30.0   0.0
-450.0   30.0   0.0
-500.0   60.0   0.0
-500.0   30.0   16.666666666666668
-450.0   30.0   0.0
-450.0   60.0   0.0
-500.0   60.0   0.0
-450.0   60.0   16.666666666666668
-500.0   30.0   16.666666666666668
-500.0   60.0   16.666666666666668
-450.0   60.0   16.666666666666668
-500.0   60.0   0.0
-500.0   30.0   16.666666666666668
-450.0   60.0   16.666666666666668
-450.0   30.0   16.666666666666668
-450.0   30.0   0.0
-500.0   30.0   16.666666666666668
-450.0   60.0   16.666666666666668
-450.0   30.0   0.0
-500.0   60.0   0.0
-500.0   30.0   16.666666666666668
-450.0   30.0   16.666666666666668
-500.0   60.0   16.666666666666668
-500.0   30.0   33.333333333333336
-450.0   30.0   16.666666666666668
-450.0   60.0   16.666666666666668
-500.0   60.0   16.666666666666668
-450.0   60.0   33.333333333333336
-500.0   30.0   33.333333333333336
-500.0   60.0   33.333333333333336
-450.0   60.0   33.333333333333336
-500.0   60.0   16.666666666666668
-500.0   30.0   33.333333333333336
-450.0   60.0   33.333333333333336
-450.0   30.0   33.333333333333336
-450.0   30.0   16.666666666666668
-500.0   30.0   33.333333333333336
-450.0   60.0   33.333333333333336
-450.0   30.0   16.666666666666668
-500.0   60.0   16.666666666666668
-500.0   30.0   33.333333333333336
-450.0   30.0   33.333333333333336
-500.0   60.0   33.333333333333336
-500.0   30.0   50.0
-450.0   30.0   33.333333333333336
-450.0   60.0   33.333333333333336
-500.0   60.0   33.333333333333336
-450.0   60.0   50.0
-500.0   30.0   50.0
-500.0   60.0   50.0
-450.0   60.0   50.0
-500.0   60.0   33.333333333333336
-500.0   30.0   50.0
-450.0   60.0   50.0
-450.0   30.0   50.0
-450.0   30.0   33.333333333333336
-500.0   30.0   50.0
-450.0   60.0   50.0
-450.0   30.0   33.333333333333336
-500.0   60.0   33.333333333333336
-500.0   60.0   0.0
-450.0   60.0   0.0
-500.0   90.0   0.0
-500.0   60.0   16.666666666666668
-450.0   60.0   0.0
-450.0   90.0   0.0
-500.0   90.0   0.0
-450.0   90.0   16.666666666666668
-500.0   60.0   16.666666666666668
-500.0   90.0   16.666666666666668
-450.0   90.0   16.666666666666668
-500.0   90.0   0.0
-500.0   60.0   16.666666666666668
-450.0   90.0   16.666666666666668
-450.0   60.0   16.666666666666668
-450.0   60.0   0.0
-500.0   60.0   16.666666666666668
-450.0   90.0   16.666666666666668
-450.0   60.0   0.0
-500.0   90.0   0.0
-500.0   60.0   16.666666666666668
-450.0   60.0   16.666666666666668
-500.0   90.0   16.666666666666668
-500.0   60.0   33.333333333333336
-450.0   60.0   16.666666666666668
-450.0   90.0   16.666666666666668
-500.0   90.0   16.666666666666668
-450.0   90.0   33.333333333333336
-500.0   60.0   33.333333333333336
-500.0   90.0   33.333333333333336
-450.0   90.0   33.333333333333336
-500.0   90.0   16.666666666666668
-500.0   60.0   33.333333333333336
-450.0   90.0   33.333333333333336
-450.0   60.0   33.333333333333336
-450.0   60.0   16.666666666666668
-500.0   60.0   33.333333333333336
-450.0   90.0   33.333333333333336
-450.0   60.0   16.666666666666668
-500.0   90.0   16.666666666666668
-500.0   60.0   33.333333333333336
-450.0   60.0   33.333333333333336
-500.0   90.0   33.333333333333336
-500.0   60.0   50.0
-450.0   60.0   33.333333333333336
-450.0   90.0   33.333333333333336
-500.0   90.0   33.333333333333336
-450.0   90.0   50.0
-500.0   60.0   50.0
-500.0   90.0   50.0
-450.0   90.0   50.0
-500.0   90.0   33.333333333333336
-500.0   60.0   50.0
-450.0   90.0   50.0
-450.0   60.0   50.0
-450.0   60.0   33.333333333333336
-500.0   60.0   50.0
-450.0   90.0   50.0
-450.0   60.0   33.333333333333336
-500.0   90.0   33.333333333333336
-500.0   90.0   0.0
-450.0   90.0   0.0
-500.0   120.0   0.0
-500.0   90.0   16.666666666666668
-450.0   90.0   0.0
-450.0   120.0   0.0
-500.0   120.0   0.0
-450.0   120.0   16.666666666666668
-500.0   90.0   16.666666666666668
-500.0   120.0   16.666666666666668
-450.0   120.0   16.666666666666668
-500.0   120.0   0.0
-500.0   90.0   16.666666666666668
-450.0   120.0   16.666666666666668
-450.0   90.0   16.666666666666668
-450.0   90.0   0.0
-500.0   90.0   16.666666666666668
-450.0   120.0   16.666666666666668
-450.0   90.0   0.0
-500.0   120.0   0.0
-500.0   90.0   16.666666666666668
-450.0   90.0   16.666666666666668
-500.0   120.0   16.666666666666668
-500.0   90.0   33.333333333333336
-450.0   90.0   16.666666666666668
-450.0   120.0   16.666666666666668
-500.0   120.0   16.666666666666668
-450.0   120.0   33.333333333333336
-500.0   90.0   33.333333333333336
-500.0   120.0   33.333333333333336
-450.0   120.0   33.333333333333336
-500.0   120.0   16.666666666666668
-500.0   90.0   33.333333333333336
-450.0   120.0   33.333333333333336
-450.0   90.0   33.333333333333336
-450.0   90.0   16.666666666666668
-500.0   90.0   33.333333333333336
-450.0   120.0   33.333333333333336
-450.0   90.0   16.666666666666668
-500.0   120.0   16.666666666666668
-500.0   90.0   33.333333333333336
-450.0   90.0   33.333333333333336
-500.0   120.0   33.333333333333336
-500.0   90.0   50.0
-450.0   90.0   33.333333333333336
-450.0   120.0   33.333333333333336
-500.0   120.0   33.333333333333336
-450.0   120.0   50.0
-500.0   90.0   50.0
-500.0   120.0   50.0
-450.0   120.0   50.0
-500.0   120.0   33.333333333333336
-500.0   90.0   50.0
-450.0   120.0   50.0
-450.0   90.0   50.0
-450.0   90.0   33.333333333333336
-500.0   90.0   50.0
-450.0   120.0   50.0
-450.0   90.0   33.333333333333336
-500.0   120.0   33.333333333333336
-500.0   120.0   0.0
-450.0   120.0   0.0
-500.0   150.0   0.0
-500.0   120.0   16.666666666666668
-450.0   120.0   0.0
-450.0   150.0   0.0
-500.0   150.0   0.0
-450.0   150.0   16.666666666666668
-500.0   120.0   16.666666666666668
-500.0   150.0   16.666666666666668
-450.0   150.0   16.666666666666668
-500.0   150.0   0.0
-500.0   120.0   16.666666666666668
-450.0   150.0   16.666666666666668
-450.0   120.0   16.666666666666668
-450.0   120.0   0.0
-500.0   120.0   16.666666666666668
-450.0   150.0   16.666666666666668
-450.0   120.0   0.0
-500.0   150.0   0.0
-500.0   120.0   16.666666666666668
-450.0   120.0   16.666666666666668
-500.0   150.0   16.666666666666668
-500.0   120.0   33.333333333333336
-450.0   120.0   16.666666666666668
-450.0   150.0   16.666666666666668
-500.0   150.0   16.666666666666668
-450.0   150.0   33.333333333333336
-500.0   120.0   33.333333333333336
-500.0   150.0   33.333333333333336
-450.0   150.0   33.333333333333336
-500.0   150.0   16.666666666666668
-500.0   120.0   33.333333333333336
-450.0   150.0   33.333333333333336
-450.0   120.0   33.333333333333336
-450.0   120.0   16.666666666666668
-500.0   120.0   33.333333333333336
-450.0   150.0   33.333333333333336
-450.0   120.0   16.666666666666668
-500.0   150.0   16.666666666666668
-500.0   120.0   33.333333333333336
-450.0   120.0   33.333333333333336
-500.0   150.0   33.333333333333336
-500.0   120.0   50.0
-450.0   120.0   33.333333333333336
-450.0   150.0   33.333333333333336
-500.0   150.0   33.333333333333336
-450.0   150.0   50.0
-500.0   120.0   50.0
-500.0   150.0   50.0
-450.0   150.0   50.0
-500.0   150.0   33.333333333333336
-500.0   120.0   50.0
-450.0   150.0   50.0
-450.0   120.0   50.0
-450.0   120.0   33.333333333333336
-500.0   120.0   50.0
-450.0   150.0   50.0
-450.0   120.0   33.333333333333336
-500.0   150.0   33.333333333333336
-450.0   0.0   0.0
-400.0   0.0   0.0
-450.0   30.0   0.0
-450.0   0.0   16.666666666666668
-400.0   0.0   0.0
-400.0   30.0   0.0
-450.0   30.0   0.0
-400.0   30.0   16.666666666666668
-450.0   0.0   16.666666666666668
-450.0   30.0   16.666666666666668
-400.0   30.0   16.666666666666668
-450.0   30.0   0.0
-450.0   0.0   16.666666666666668
-400.0   30.0   16.666666666666668
-400.0   0.0   16.666666666666668
-400.0   0.0   0.0
-450.0   0.0   16.666666666666668
-400.0   30.0   16.666666666666668
-400.0   0.0   0.0
-450.0   30.0   0.0
-450.0   0.0   16.666666666666668
-400.0   0.0   16.666666666666668
-450.0   30.0   16.666666666666668
-450.0   0.0   33.333333333333336
-400.0   0.0   16.666666666666668
-400.0   30.0   16.666666666666668
-450.0   30.0   16.666666666666668
-400.0   30.0   33.333333333333336
-450.0   0.0   33.333333333333336
-450.0   30.0   33.333333333333336
-400.0   30.0   33.333333333333336
-450.0   30.0   16.666666666666668
-450.0   0.0   33.333333333333336
-400.0   30.0   33.333333333333336
-400.0   0.0   33.333333333333336
-400.0   0.0   16.666666666666668
-450.0   0.0   33.333333333333336
-400.0   30.0   33.333333333333336
-400.0   0.0   16.666666666666668
-450.0   30.0   16.666666666666668
-450.0   0.0   33.333333333333336
-400.0   0.0   33.333333333333336
-450.0   30.0   33.333333333333336
-450.0   0.0   50.0
-400.0   0.0   33.333333333333336
-400.0   30.0   33.333333333333336
-450.0   30.0   33.333333333333336
-400.0   30.0   50.0
-450.0   0.0   50.0
-450.0   30.0   50.0
-400.0   30.0   50.0
-450.0   30.0   33.333333333333336
-450.0   0.0   50.0
-400.0   30.0   50.0
-400.0   0.0   50.0
-400.0   0.0   33.333333333333336
-450.0   0.0   50.0
-400.0   30.0   50.0
-400.0   0.0   33.333333333333336
-450.0   30.0   33.333333333333336
-450.0   30.0   0.0
-400.0   30.0   0.0
-450.0   60.0   0.0
-450.0   30.0   16.666666666666668
-400.0   30.0   0.0
-400.0   60.0   0.0
-450.0   60.0   0.0
-400.0   60.0   16.666666666666668
-450.0   30.0   16.666666666666668
-450.0   60.0   16.666666666666668
-400.0   60.0   16.666666666666668
-450.0   60.0   0.0
-450.0   30.0   16.666666666666668
-400.0   60.0   16.666666666666668
-400.0   30.0   16.666666666666668
-400.0   30.0   0.0
-450.0   30.0   16.666666666666668
-400.0   60.0   16.666666666666668
-400.0   30.0   0.0
-450.0   60.0   0.0
-450.0   30.0   16.666666666666668
-400.0   30.0   16.666666666666668
-450.0   60.0   16.666666666666668
-450.0   30.0   33.333333333333336
-400.0   30.0   16.666666666666668
-400.0   60.0   16.666666666666668
-450.0   60.0   16.666666666666668
-400.0   60.0   33.333333333333336
-450.0   30.0   33.333333333333336
-450.0   60.0   33.333333333333336
-400.0   60.0   33.333333333333336
-450.0   60.0   16.666666666666668
-450.0   30.0   33.333333333333336
-400.0   60.0   33.333333333333336
-400.0   30.0   33.333333333333336
-400.0   30.0   16.666666666666668
-450.0   30.0   33.333333333333336
-400.0   60.0   33.333333333333336
-400.0   30.0   16.666666666666668
-450.0   60.0   16.666666666666668
-450.0   30.0   33.333333333333336
-400.0   30.0   33.333333333333336
-450.0   60.0   33.333333333333336
-450.0   30.0   50.0
-400.0   30.0   33.333333333333336
-400.0   60.0   33.333333333333336
-450.0   60.0   33.333333333333336
-400.0   60.0   50.0
-450.0   30.0   50.0
-450.0   60.0   50.0
-400.0   60.0   50.0
-450.0   60.0   33.333333333333336
-450.0   30.0   50.0
-400.0   60.0   50.0
-400.0   30.0   50.0
-400.0   30.0   33.333333333333336
-450.0   30.0   50.0
-400.0   60.0   50.0
-400.0   30.0   33.333333333333336
-450.0   60.0   33.333333333333336
-450.0   60.0   0.0
-400.0   60.0   0.0
-450.0   90.0   0.0
-450.0   60.0   16.666666666666668
-400.0   60.0   0.0
-400.0   90.0   0.0
-450.0   90.0   0.0
-400.0   90.0   16.666666666666668
-450.0   60.0   16.666666666666668
-450.0   90.0   16.666666666666668
-400.0   90.0   16.666666666666668
-450.0   90.0   0.0
-450.0   60.0   16.666666666666668
-400.0   90.0   16.666666666666668
-400.0   60.0   16.666666666666668
-400.0   60.0   0.0
-450.0   60.0   16.666666666666668
-400.0   90.0   16.666666666666668
-400.0   60.0   0.0
-450.0   90.0   0.0
-450.0   60.0   16.666666666666668
-400.0   60.0   16.666666666666668
-450.0   90.0   16.666666666666668
-450.0   60.0   33.333333333333336
-400.0   60.0   16.666666666666668
-400.0   90.0   16.666666666666668
-450.0   90.0   16.666666666666668
-400.0   90.0   33.333333333333336
-450.0   60.0   33.333333333333336
-450.0   90.0   33.333333333333336
-400.0   90.0   33.333333333333336
-450.0   90.0   16.666666666666668
-450.0   60.0   33.333333333333336
-400.0   90.0   33.333333333333336
-400.0   60.0   33.333333333333336
-400.0   60.0   16.666666666666668
-450.0   60.0   33.333333333333336
-400.0   90.0   33.333333333333336
-400.0   60.0   16.666666666666668
-450.0   90.0   16.666666666666668
-450.0   60.0   33.333333333333336
-400.0   60.0   33.333333333333336
-450.0   90.0   33.333333333333336
-450.0   60.0   50.0
-400.0   60.0   33.333333333333336
-400.0   90.0   33.333333333333336
-450.0   90.0   33.333333333333336
-400.0   90.0   50.0
-450.0   60.0   50.0
-450.0   90.0   50.0
-400.0   90.0   50.0
-450.0   90.0   33.333333333333336
-450.0   60.0   50.0
-400.0   90.0   50.0
-400.0   60.0   50.0
-400.0   60.0   33.333333333333336
-450.0   60.0   50.0
-400.0   90.0   50.0
-400.0   60.0   33.333333333333336
-450.0   90.0   33.333333333333336
-450.0   90.0   0.0
-400.0   90.0   0.0
-450.0   120.0   0.0
-450.0   90.0   16.666666666666668
-400.0   90.0   0.0
-400.0   120.0   0.0
-450.0   120.0   0.0
-400.0   120.0   16.666666666666668
-450.0   90.0   16.666666666666668
-450.0   120.0   16.666666666666668
-400.0   120.0   16.666666666666668
-450.0   120.0   0.0
-450.0   90.0   16.666666666666668
-400.0   120.0   16.666666666666668
-400.0   90.0   16.666666666666668
-400.0   90.0   0.0
-450.0   90.0   16.666666666666668
-400.0   120.0   16.666666666666668
-400.0   90.0   0.0
-450.0   120.0   0.0
-450.0   90.0   16.666666666666668
-400.0   90.0   16.666666666666668
-450.0   120.0   16.666666666666668
-450.0   90.0   33.333333333333336
-400.0   90.0   16.666666666666668
-400.0   120.0   16.666666666666668
-450.0   120.0   16.666666666666668
-400.0   120.0   33.333333333333336
-450.0   90.0   33.333333333333336
-450.0   120.0   33.333333333333336
-400.0   120.0   33.333333333333336
-450.0   120.0   16.666666666666668
-450.0   90.0   33.333333333333336
-400.0   120.0   33.333333333333336
-400.0   90.0   33.333333333333336
-400.0   90.0   16.666666666666668
-450.0   90.0   33.333333333333336
-400.0   120.0   33.333333333333336
-400.0   90.0   16.666666666666668
-450.0   120.0   16.666666666666668
-450.0   90.0   33.333333333333336
-400.0   90.0   33.333333333333336
-450.0   120.0   33.333333333333336
-450.0   90.0   50.0
-400.0   90.0   33.333333333333336
-400.0   120.0   33.333333333333336
-450.0   120.0   33.333333333333336
-400.0   120.0   50.0
-450.0   90.0   50.0
-450.0   120.0   50.0
-400.0   120.0   50.0
-450.0   120.0   33.333333333333336
-450.0   90.0   50.0
-400.0   120.0   50.0
-400.0   90.0   50.0
-400.0   90.0   33.333333333333336
-450.0   90.0   50.0
-400.0   120.0   50.0
-400.0   90.0   33.333333333333336
-450.0   120.0   33.333333333333336
-450.0   120.0   0.0
-400.0   120.0   0.0
-450.0   150.0   0.0
-450.0   120.0   16.666666666666668
-400.0   120.0   0.0
-400.0   150.0   0.0
-450.0   150.0   0.0
-400.0   150.0   16.666666666666668
-450.0   120.0   16.666666666666668
-450.0   150.0   16.666666666666668
-400.0   150.0   16.666666666666668
-450.0   150.0   0.0
-450.0   120.0   16.666666666666668
-400.0   150.0   16.666666666666668
-400.0   120.0   16.666666666666668
-400.0   120.0   0.0
-450.0   120.0   16.666666666666668
-400.0   150.0   16.666666666666668
-400.0   120.0   0.0
-450.0   150.0   0.0
-450.0   120.0   16.666666666666668
-400.0   120.0   16.666666666666668
-450.0   150.0   16.666666666666668
-450.0   120.0   33.333333333333336
-400.0   120.0   16.666666666666668
-400.0   150.0   16.666666666666668
-450.0   150.0   16.666666666666668
-400.0   150.0   33.333333333333336
-450.0   120.0   33.333333333333336
-450.0   150.0   33.333333333333336
-400.0   150.0   33.333333333333336
-450.0   150.0   16.666666666666668
-450.0   120.0   33.333333333333336
-400.0   150.0   33.333333333333336
-400.0   120.0   33.333333333333336
-400.0   120.0   16.666666666666668
-450.0   120.0   33.333333333333336
-400.0   150.0   33.333333333333336
-400.0   120.0   16.666666666666668
-450.0   150.0   16.666666666666668
-450.0   120.0   33.333333333333336
-400.0   120.0   33.333333333333336
-450.0   150.0   33.333333333333336
-450.0   120.0   50.0
-400.0   120.0   33.333333333333336
-400.0   150.0   33.333333333333336
-450.0   150.0   33.333333333333336
-400.0   150.0   50.0
-450.0   120.0   50.0
-450.0   150.0   50.0
-400.0   150.0   50.0
-450.0   150.0   33.333333333333336
-450.0   120.0   50.0
-400.0   150.0   50.0
-400.0   120.0   50.0
-400.0   120.0   33.333333333333336
-450.0   120.0   50.0
-400.0   150.0   50.0
-400.0   120.0   33.333333333333336
-450.0   150.0   33.333333333333336
-400.0   0.0   0.0
-350.0   0.0   0.0
-400.0   30.0   0.0
-400.0   0.0   16.666666666666668
-350.0   0.0   0.0
-350.0   30.0   0.0
-400.0   30.0   0.0
-350.0   30.0   16.666666666666668
-400.0   0.0   16.666666666666668
-400.0   30.0   16.666666666666668
-350.0   30.0   16.666666666666668
-400.0   30.0   0.0
-400.0   0.0   16.666666666666668
-350.0   30.0   16.666666666666668
-350.0   0.0   16.666666666666668
-350.0   0.0   0.0
-400.0   0.0   16.666666666666668
-350.0   30.0   16.666666666666668
-350.0   0.0   0.0
-400.0   30.0   0.0
-400.0   0.0   16.666666666666668
-350.0   0.0   16.666666666666668
-400.0   30.0   16.666666666666668
-400.0   0.0   33.333333333333336
-350.0   0.0   16.666666666666668
-350.0   30.0   16.666666666666668
-400.0   30.0   16.666666666666668
-350.0   30.0   33.333333333333336
-400.0   0.0   33.333333333333336
-400.0   30.0   33.333333333333336
-350.0   30.0   33.333333333333336
-400.0   30.0   16.666666666666668
-400.0   0.0   33.333333333333336
-350.0   30.0   33.333333333333336
-350.0   0.0   33.333333333333336
-350.0   0.0   16.666666666666668
-400.0   0.0   33.333333333333336
-350.0   30.0   33.333333333333336
-350.0   0.0   16.666666666666668
-400.0   30.0   16.666666666666668
-400.0   0.0   33.333333333333336
-350.0   0.0   33.333333333333336
-400.0   30.0   33.333333333333336
-400.0   0.0   50.0
-350.0   0.0   33.333333333333336
-350.0   30.0   33.333333333333336
-400.0   30.0   33.333333333333336
-350.0   30.0   50.0
-400.0   0.0   50.0
-400.0   30.0   50.0
-350.0   30.0   50.0
-400.0   30.0   33.333333333333336
-400.0   0.0   50.0
-350.0   30.0   50.0
-350.0   0.0   50.0
-350.0   0.0   33.333333333333336
-400.0   0.0   50.0
-350.0   30.0   50.0
-350.0   0.0   33.333333333333336
-400.0   30.0   33.333333333333336
-400.0   30.0   0.0
-350.0   30.0   0.0
-400.0   60.0   0.0
-400.0   30.0   16.666666666666668
-350.0   30.0   0.0
-350.0   60.0   0.0
-400.0   60.0   0.0
-350.0   60.0   16.666666666666668
-400.0   30.0   16.666666666666668
-400.0   60.0   16.666666666666668
-350.0   60.0   16.666666666666668
-400.0   60.0   0.0
-400.0   30.0   16.666666666666668
-350.0   60.0   16.666666666666668
-350.0   30.0   16.666666666666668
-350.0   30.0   0.0
-400.0   30.0   16.666666666666668
-350.0   60.0   16.666666666666668
-350.0   30.0   0.0
-400.0   60.0   0.0
-400.0   30.0   16.666666666666668
-350.0   30.0   16.666666666666668
-400.0   60.0   16.666666666666668
-400.0   30.0   33.333333333333336
-350.0   30.0   16.666666666666668
-350.0   60.0   16.666666666666668
-400.0   60.0   16.666666666666668
-350.0   60.0   33.333333333333336
-400.0   30.0   33.333333333333336
-400.0   60.0   33.333333333333336
-350.0   60.0   33.333333333333336
-400.0   60.0   16.666666666666668
-400.0   30.0   33.333333333333336
-350.0   60.0   33.333333333333336
-350.0   30.0   33.333333333333336
-350.0   30.0   16.666666666666668
-400.0   30.0   33.333333333333336
-350.0   60.0   33.333333333333336
-350.0   30.0   16.666666666666668
-400.0   60.0   16.666666666666668
-400.0   30.0   33.333333333333336
-350.0   30.0   33.333333333333336
-400.0   60.0   33.333333333333336
-400.0   30.0   50.0
-350.0   30.0   33.333333333333336
-350.0   60.0   33.333333333333336
-400.0   60.0   33.333333333333336
-350.0   60.0   50.0
-400.0   30.0   50.0
-400.0   60.0   50.0
-350.0   60.0   50.0
-400.0   60.0   33.333333333333336
-400.0   30.0   50.0
-350.0   60.0   50.0
-350.0   30.0   50.0
-350.0   30.0   33.333333333333336
-400.0   30.0   50.0
-350.0   60.0   50.0
-350.0   30.0   33.333333333333336
-400.0   60.0   33.333333333333336
-400.0   60.0   0.0
-350.0   60.0   0.0
-400.0   90.0   0.0
-400.0   60.0   16.666666666666668
-350.0   60.0   0.0
-350.0   90.0   0.0
-400.0   90.0   0.0
-350.0   90.0   16.666666666666668
-400.0   60.0   16.666666666666668
-400.0   90.0   16.666666666666668
-350.0   90.0   16.666666666666668
-400.0   90.0   0.0
-400.0   60.0   16.666666666666668
-350.0   90.0   16.666666666666668
-350.0   60.0   16.666666666666668
-350.0   60.0   0.0
-400.0   60.0   16.666666666666668
-350.0   90.0   16.666666666666668
-350.0   60.0   0.0
-400.0   90.0   0.0
-400.0   60.0   16.666666666666668
-350.0   60.0   16.666666666666668
-400.0   90.0   16.666666666666668
-400.0   60.0   33.333333333333336
-350.0   60.0   16.666666666666668
-350.0   90.0   16.666666666666668
-400.0   90.0   16.666666666666668
-350.0   90.0   33.333333333333336
-400.0   60.0   33.333333333333336
-400.0   90.0   33.333333333333336
-350.0   90.0   33.333333333333336
-400.0   90.0   16.666666666666668
-400.0   60.0   33.333333333333336
-350.0   90.0   33.333333333333336
-350.0   60.0   33.333333333333336
-350.0   60.0   16.666666666666668
-400.0   60.0   33.333333333333336
-350.0   90.0   33.333333333333336
-350.0   60.0   16.666666666666668
-400.0   90.0   16.666666666666668
-400.0   60.0   33.333333333333336
-350.0   60.0   33.333333333333336
-400.0   90.0   33.333333333333336
-400.0   60.0   50.0
-350.0   60.0   33.333333333333336
-350.0   90.0   33.333333333333336
-400.0   90.0   33.333333333333336
-350.0   90.0   50.0
-400.0   60.0   50.0
-400.0   90.0   50.0
-350.0   90.0   50.0
-400.0   90.0   33.333333333333336
-400.0   60.0   50.0
-350.0   90.0   50.0
-350.0   60.0   50.0
-350.0   60.0   33.333333333333336
-400.0   60.0   50.0
-350.0   90.0   50.0
-350.0   60.0   33.333333333333336
-400.0   90.0   33.333333333333336
-400.0   90.0   0.0
-350.0   90.0   0.0
-400.0   120.0   0.0
-400.0   90.0   16.666666666666668
-350.0   90.0   0.0
-350.0   120.0   0.0
-400.0   120.0   0.0
-350.0   120.0   16.666666666666668
-400.0   90.0   16.666666666666668
-400.0   120.0   16.666666666666668
-350.0   120.0   16.666666666666668
-400.0   120.0   0.0
-400.0   90.0   16.666666666666668
-350.0   120.0   16.666666666666668
-350.0   90.0   16.666666666666668
-350.0   90.0   0.0
-400.0   90.0   16.666666666666668
-350.0   120.0   16.666666666666668
-350.0   90.0   0.0
-400.0   120.0   0.0
-400.0   90.0   16.666666666666668
-350.0   90.0   16.666666666666668
-400.0   120.0   16.666666666666668
-400.0   90.0   33.333333333333336
-350.0   90.0   16.666666666666668
-350.0   120.0   16.666666666666668
-400.0   120.0   16.666666666666668
-350.0   120.0   33.333333333333336
-400.0   90.0   33.333333333333336
-400.0   120.0   33.333333333333336
-350.0   120.0   33.333333333333336
-400.0   120.0   16.666666666666668
-400.0   90.0   33.333333333333336
-350.0   120.0   33.333333333333336
-350.0   90.0   33.333333333333336
-350.0   90.0   16.666666666666668
-400.0   90.0   33.333333333333336
-350.0   120.0   33.333333333333336
-350.0   90.0   16.666666666666668
-400.0   120.0   16.666666666666668
-400.0   90.0   33.333333333333336
-350.0   90.0   33.333333333333336
-400.0   120.0   33.333333333333336
-400.0   90.0   50.0
-350.0   90.0   33.333333333333336
-350.0   120.0   33.333333333333336
-400.0   120.0   33.333333333333336
-350.0   120.0   50.0
-400.0   90.0   50.0
-400.0   120.0   50.0
-350.0   120.0   50.0
-400.0   120.0   33.333333333333336
-400.0   90.0   50.0
-350.0   120.0   50.0
-350.0   90.0   50.0
-350.0   90.0   33.333333333333336
-400.0   90.0   50.0
-350.0   120.0   50.0
-350.0   90.0   33.333333333333336
-400.0   120.0   33.333333333333336
-400.0   120.0   0.0
-350.0   120.0   0.0
-400.0   150.0   0.0
-400.0   120.0   16.666666666666668
-350.0   120.0   0.0
-350.0   150.0   0.0
-400.0   150.0   0.0
-350.0   150.0   16.666666666666668
-400.0   120.0   16.666666666666668
-400.0   150.0   16.666666666666668
-350.0   150.0   16.666666666666668
-400.0   150.0   0.0
-400.0   120.0   16.666666666666668
-350.0   150.0   16.666666666666668
-350.0   120.0   16.666666666666668
-350.0   120.0   0.0
-400.0   120.0   16.666666666666668
-350.0   150.0   16.666666666666668
-350.0   120.0   0.0
-400.0   150.0   0.0
-400.0   120.0   16.666666666666668
-350.0   120.0   16.666666666666668
-400.0   150.0   16.666666666666668
-400.0   120.0   33.333333333333336
-350.0   120.0   16.666666666666668
-350.0   150.0   16.666666666666668
-400.0   150.0   16.666666666666668
-350.0   150.0   33.333333333333336
-400.0   120.0   33.333333333333336
-400.0   150.0   33.333333333333336
-350.0   150.0   33.333333333333336
-400.0   150.0   16.666666666666668
-400.0   120.0   33.333333333333336
-350.0   150.0   33.333333333333336
-350.0   120.0   33.333333333333336
-350.0   120.0   16.666666666666668
-400.0   120.0   33.333333333333336
-350.0   150.0   33.333333333333336
-350.0   120.0   16.666666666666668
-400.0   150.0   16.666666666666668
-400.0   120.0   33.333333333333336
-350.0   120.0   33.333333333333336
-400.0   150.0   33.333333333333336
-400.0   120.0   50.0
-350.0   120.0   33.333333333333336
-350.0   150.0   33.333333333333336
-400.0   150.0   33.333333333333336
-350.0   150.0   50.0
-400.0   120.0   50.0
-400.0   150.0   50.0
-350.0   150.0   50.0
-400.0   150.0   33.333333333333336
-400.0   120.0   50.0
-350.0   150.0   50.0
-350.0   120.0   50.0
-350.0   120.0   33.333333333333336
-400.0   120.0   50.0
-350.0   150.0   50.0
-350.0   120.0   33.333333333333336
-400.0   150.0   33.333333333333336
-350.0   0.0   0.0
-300.0   0.0   0.0
-350.0   30.0   0.0
-350.0   0.0   16.666666666666668
-300.0   0.0   0.0
-300.0   30.0   0.0
-350.0   30.0   0.0
-300.0   30.0   16.666666666666668
-350.0   0.0   16.666666666666668
-350.0   30.0   16.666666666666668
-300.0   30.0   16.666666666666668
-350.0   30.0   0.0
-350.0   0.0   16.666666666666668
-300.0   30.0   16.666666666666668
-300.0   0.0   16.666666666666668
-300.0   0.0   0.0
-350.0   0.0   16.666666666666668
-300.0   30.0   16.666666666666668
-300.0   0.0   0.0
-350.0   30.0   0.0
-350.0   0.0   16.666666666666668
-300.0   0.0   16.666666666666668
-350.0   30.0   16.666666666666668
-350.0   0.0   33.333333333333336
-300.0   0.0   16.666666666666668
-300.0   30.0   16.666666666666668
-350.0   30.0   16.666666666666668
-300.0   30.0   33.333333333333336
-350.0   0.0   33.333333333333336
-350.0   30.0   33.333333333333336
-300.0   30.0   33.333333333333336
-350.0   30.0   16.666666666666668
-350.0   0.0   33.333333333333336
-300.0   30.0   33.333333333333336
-300.0   0.0   33.333333333333336
-300.0   0.0   16.666666666666668
-350.0   0.0   33.333333333333336
-300.0   30.0   33.333333333333336
-300.0   0.0   16.666666666666668
-350.0   30.0   16.666666666666668
-350.0   0.0   33.333333333333336
-300.0   0.0   33.333333333333336
-350.0   30.0   33.333333333333336
-350.0   0.0   50.0
-300.0   0.0   33.333333333333336
-300.0   30.0   33.333333333333336
-350.0   30.0   33.333333333333336
-300.0   30.0   50.0
-350.0   0.0   50.0
-350.0   30.0   50.0
-300.0   30.0   50.0
-350.0   30.0   33.333333333333336
-350.0   0.0   50.0
-300.0   30.0   50.0
-300.0   0.0   50.0
-300.0   0.0   33.333333333333336
-350.0   0.0   50.0
-300.0   30.0   50.0
-300.0   0.0   33.333333333333336
-350.0   30.0   33.333333333333336
-350.0   30.0   0.0
-300.0   30.0   0.0
-350.0   60.0   0.0
-350.0   30.0   16.666666666666668
-300.0   30.0   0.0
-300.0   60.0   0.0
-350.0   60.0   0.0
-300.0   60.0   16.666666666666668
-350.0   30.0   16.666666666666668
-350.0   60.0   16.666666666666668
-300.0   60.0   16.666666666666668
-350.0   60.0   0.0
-350.0   30.0   16.666666666666668
-300.0   60.0   16.666666666666668
-300.0   30.0   16.666666666666668
-300.0   30.0   0.0
-350.0   30.0   16.666666666666668
-300.0   60.0   16.666666666666668
-300.0   30.0   0.0
-350.0   60.0   0.0
-350.0   30.0   16.666666666666668
-300.0   30.0   16.666666666666668
-350.0   60.0   16.666666666666668
-350.0   30.0   33.333333333333336
-300.0   30.0   16.666666666666668
-300.0   60.0   16.666666666666668
-350.0   60.0   16.666666666666668
-300.0   60.0   33.333333333333336
-350.0   30.0   33.333333333333336
-350.0   60.0   33.333333333333336
-300.0   60.0   33.333333333333336
-350.0   60.0   16.666666666666668
-350.0   30.0   33.333333333333336
-300.0   60.0   33.333333333333336
-300.0   30.0   33.333333333333336
-300.0   30.0   16.666666666666668
-350.0   30.0   33.333333333333336
-300.0   60.0   33.333333333333336
-300.0   30.0   16.666666666666668
-350.0   60.0   16.666666666666668
-350.0   30.0   33.333333333333336
-300.0   30.0   33.333333333333336
-350.0   60.0   33.333333333333336
-350.0   30.0   50.0
-300.0   30.0   33.333333333333336
-300.0   60.0   33.333333333333336
-350.0   60.0   33.333333333333336
-300.0   60.0   50.0
-350.0   30.0   50.0
-350.0   60.0   50.0
-300.0   60.0   50.0
-350.0   60.0   33.333333333333336
-350.0   30.0   50.0
-300.0   60.0   50.0
-300.0   30.0   50.0
-300.0   30.0   33.333333333333336
-350.0   30.0   50.0
-300.0   60.0   50.0
-300.0   30.0   33.333333333333336
-350.0   60.0   33.333333333333336
-350.0   60.0   0.0
-300.0   60.0   0.0
-350.0   90.0   0.0
-350.0   60.0   16.666666666666668
-300.0   60.0   0.0
-300.0   90.0   0.0
-350.0   90.0   0.0
-300.0   90.0   16.666666666666668
-350.0   60.0   16.666666666666668
-350.0   90.0   16.666666666666668
-300.0   90.0   16.666666666666668
-350.0   90.0   0.0
-350.0   60.0   16.666666666666668
-300.0   90.0   16.666666666666668
-300.0   60.0   16.666666666666668
-300.0   60.0   0.0
-350.0   60.0   16.666666666666668
-300.0   90.0   16.666666666666668
-300.0   60.0   0.0
-350.0   90.0   0.0
-350.0   60.0   16.666666666666668
-300.0   60.0   16.666666666666668
-350.0   90.0   16.666666666666668
-350.0   60.0   33.333333333333336
-300.0   60.0   16.666666666666668
-300.0   90.0   16.666666666666668
-350.0   90.0   16.666666666666668
-300.0   90.0   33.333333333333336
-350.0   60.0   33.333333333333336
-350.0   90.0   33.333333333333336
-300.0   90.0   33.333333333333336
-350.0   90.0   16.666666666666668
-350.0   60.0   33.333333333333336
-300.0   90.0   33.333333333333336
-300.0   60.0   33.333333333333336
-300.0   60.0   16.666666666666668
-350.0   60.0   33.333333333333336
-300.0   90.0   33.333333333333336
-300.0   60.0   16.666666666666668
-350.0   90.0   16.666666666666668
-350.0   60.0   33.333333333333336
-300.0   60.0   33.333333333333336
-350.0   90.0   33.333333333333336
-350.0   60.0   50.0
-300.0   60.0   33.333333333333336
-300.0   90.0   33.333333333333336
-350.0   90.0   33.333333333333336
-300.0   90.0   50.0
-350.0   60.0   50.0
-350.0   90.0   50.0
-300.0   90.0   50.0
-350.0   90.0   33.333333333333336
-350.0   60.0   50.0
-300.0   90.0   50.0
-300.0   60.0   50.0
-300.0   60.0   33.333333333333336
-350.0   60.0   50.0
-300.0   90.0   50.0
-300.0   60.0   33.333333333333336
-350.0   90.0   33.333333333333336
-350.0   90.0   0.0
-300.0   90.0   0.0
-350.0   120.0   0.0
-350.0   90.0   16.666666666666668
-300.0   90.0   0.0
-300.0   120.0   0.0
-350.0   120.0   0.0
-300.0   120.0   16.666666666666668
-350.0   90.0   16.666666666666668
-350.0   120.0   16.666666666666668
-300.0   120.0   16.666666666666668
-350.0   120.0   0.0
-350.0   90.0   16.666666666666668
-300.0   120.0   16.666666666666668
-300.0   90.0   16.666666666666668
-300.0   90.0   0.0
-350.0   90.0   16.666666666666668
-300.0   120.0   16.666666666666668
-300.0   90.0   0.0
-350.0   120.0   0.0
-350.0   90.0   16.666666666666668
-300.0   90.0   16.666666666666668
-350.0   120.0   16.666666666666668
-350.0   90.0   33.333333333333336
-300.0   90.0   16.666666666666668
-300.0   120.0   16.666666666666668
-350.0   120.0   16.666666666666668
-300.0   120.0   33.333333333333336
-350.0   90.0   33.333333333333336
-350.0   120.0   33.333333333333336
-300.0   120.0   33.333333333333336
-350.0   120.0   16.666666666666668
-350.0   90.0   33.333333333333336
-300.0   120.0   33.333333333333336
-300.0   90.0   33.333333333333336
-300.0   90.0   16.666666666666668
-350.0   90.0   33.333333333333336
-300.0   120.0   33.333333333333336
-300.0   90.0   16.666666666666668
-350.0   120.0   16.666666666666668
-350.0   90.0   33.333333333333336
-300.0   90.0   33.333333333333336
-350.0   120.0   33.333333333333336
-350.0   90.0   50.0
-300.0   90.0   33.333333333333336
-300.0   120.0   33.333333333333336
-350.0   120.0   33.333333333333336
-300.0   120.0   50.0
-350.0   90.0   50.0
-350.0   120.0   50.0
-300.0   120.0   50.0
-350.0   120.0   33.333333333333336
-350.0   90.0   50.0
-300.0   120.0   50.0
-300.0   90.0   50.0
-300.0   90.0   33.333333333333336
-350.0   90.0   50.0
-300.0   120.0   50.0
-300.0   90.0   33.333333333333336
-350.0   120.0   33.333333333333336
-350.0   120.0   0.0
-300.0   120.0   0.0
-350.0   150.0   0.0
-350.0   120.0   16.666666666666668
-300.0   120.0   0.0
-300.0   150.0   0.0
-350.0   150.0   0.0
-300.0   150.0   16.666666666666668
-350.0   120.0   16.666666666666668
-350.0   150.0   16.666666666666668
-300.0   150.0   16.666666666666668
-350.0   150.0   0.0
-350.0   120.0   16.666666666666668
-300.0   150.0   16.666666666666668
-300.0   120.0   16.666666666666668
-300.0   120.0   0.0
-350.0   120.0   16.666666666666668
-300.0   150.0   16.666666666666668
-300.0   120.0   0.0
-350.0   150.0   0.0
-350.0   120.0   16.666666666666668
-300.0   120.0   16.666666666666668
-350.0   150.0   16.666666666666668
-350.0   120.0   33.333333333333336
-300.0   120.0   16.666666666666668
-300.0   150.0   16.666666666666668
-350.0   150.0   16.666666666666668
-300.0   150.0   33.333333333333336
-350.0   120.0   33.333333333333336
-350.0   150.0   33.333333333333336
-300.0   150.0   33.333333333333336
-350.0   150.0   16.666666666666668
-350.0   120.0   33.333333333333336
-300.0   150.0   33.333333333333336
-300.0   120.0   33.333333333333336
-300.0   120.0   16.666666666666668
-350.0   120.0   33.333333333333336
-300.0   150.0   33.333333333333336
-300.0   120.0   16.666666666666668
-350.0   150.0   16.666666666666668
-350.0   120.0   33.333333333333336
-300.0   120.0   33.333333333333336
-350.0   150.0   33.333333333333336
-350.0   120.0   50.0
-300.0   120.0   33.333333333333336
-300.0   150.0   33.333333333333336
-350.0   150.0   33.333333333333336
-300.0   150.0   50.0
-350.0   120.0   50.0
-350.0   150.0   50.0
-300.0   150.0   50.0
-350.0   150.0   33.333333333333336
-350.0   120.0   50.0
-300.0   150.0   50.0
-300.0   120.0   50.0
-300.0   120.0   33.333333333333336
-350.0   120.0   50.0
-300.0   150.0   50.0
-300.0   120.0   33.333333333333336
-350.0   150.0   33.333333333333336
-300.0   0.0   0.0
-250.0   0.0   0.0
-300.0   30.0   0.0
-300.0   0.0   16.666666666666668
-250.0   0.0   0.0
-250.0   30.0   0.0
-300.0   30.0   0.0
-250.0   30.0   16.666666666666668
-300.0   0.0   16.666666666666668
-300.0   30.0   16.666666666666668
-250.0   30.0   16.666666666666668
-300.0   30.0   0.0
-300.0   0.0   16.666666666666668
-250.0   30.0   16.666666666666668
-250.0   0.0   16.666666666666668
-250.0   0.0   0.0
-300.0   0.0   16.666666666666668
-250.0   30.0   16.666666666666668
-250.0   0.0   0.0
-300.0   30.0   0.0
-300.0   0.0   16.666666666666668
-250.0   0.0   16.666666666666668
-300.0   30.0   16.666666666666668
-300.0   0.0   33.333333333333336
-250.0   0.0   16.666666666666668
-250.0   30.0   16.666666666666668
-300.0   30.0   16.666666666666668
-250.0   30.0   33.333333333333336
-300.0   0.0   33.333333333333336
-300.0   30.0   33.333333333333336
-250.0   30.0   33.333333333333336
-300.0   30.0   16.666666666666668
-300.0   0.0   33.333333333333336
-250.0   30.0   33.333333333333336
-250.0   0.0   33.333333333333336
-250.0   0.0   16.666666666666668
-300.0   0.0   33.333333333333336
-250.0   30.0   33.333333333333336
-250.0   0.0   16.666666666666668
-300.0   30.0   16.666666666666668
-300.0   0.0   33.333333333333336
-250.0   0.0   33.333333333333336
-300.0   30.0   33.333333333333336
-300.0   0.0   50.0
-250.0   0.0   33.333333333333336
-250.0   30.0   33.333333333333336
-300.0   30.0   33.333333333333336
-250.0   30.0   50.0
-300.0   0.0   50.0
-300.0   30.0   50.0
-250.0   30.0   50.0
-300.0   30.0   33.333333333333336
-300.0   0.0   50.0
-250.0   30.0   50.0
-250.0   0.0   50.0
-250.0   0.0   33.333333333333336
-300.0   0.0   50.0
-250.0   30.0   50.0
-250.0   0.0   33.333333333333336
-300.0   30.0   33.333333333333336
-300.0   30.0   0.0
-250.0   30.0   0.0
-300.0   60.0   0.0
-300.0   30.0   16.666666666666668
-250.0   30.0   0.0
-250.0   60.0   0.0
-300.0   60.0   0.0
-250.0   60.0   16.666666666666668
-300.0   30.0   16.666666666666668
-300.0   60.0   16.666666666666668
-250.0   60.0   16.666666666666668
-300.0   60.0   0.0
-300.0   30.0   16.666666666666668
-250.0   60.0   16.666666666666668
-250.0   30.0   16.666666666666668
-250.0   30.0   0.0
-300.0   30.0   16.666666666666668
-250.0   60.0   16.666666666666668
-250.0   30.0   0.0
-300.0   60.0   0.0
-300.0   30.0   16.666666666666668
-250.0   30.0   16.666666666666668
-300.0   60.0   16.666666666666668
-300.0   30.0   33.333333333333336
-250.0   30.0   16.666666666666668
-250.0   60.0   16.666666666666668
-300.0   60.0   16.666666666666668
-250.0   60.0   33.333333333333336
-300.0   30.0   33.333333333333336
-300.0   60.0   33.333333333333336
-250.0   60.0   33.333333333333336
-300.0   60.0   16.666666666666668
-300.0   30.0   33.333333333333336
-250.0   60.0   33.333333333333336
-250.0   30.0   33.333333333333336
-250.0   30.0   16.666666666666668
-300.0   30.0   33.333333333333336
-250.0   60.0   33.333333333333336
-250.0   30.0   16.666666666666668
-300.0   60.0   16.666666666666668
-300.0   30.0   33.333333333333336
-250.0   30.0   33.333333333333336
-300.0   60.0   33.333333333333336
-300.0   30.0   50.0
-250.0   30.0   33.333333333333336
-250.0   60.0   33.333333333333336
-300.0   60.0   33.333333333333336
-250.0   60.0   50.0
-300.0   30.0   50.0
-300.0   60.0   50.0
-250.0   60.0   50.0
-300.0   60.0   33.333333333333336
-300.0   30.0   50.0
-250.0   60.0   50.0
-250.0   30.0   50.0
-250.0   30.0   33.333333333333336
-300.0   30.0   50.0
-250.0   60.0   50.0
-250.0   30.0   33.333333333333336
-300.0   60.0   33.333333333333336
-300.0   60.0   0.0
-250.0   60.0   0.0
-300.0   90.0   0.0
-300.0   60.0   16.666666666666668
-250.0   60.0   0.0
-250.0   90.0   0.0
-300.0   90.0   0.0
-250.0   90.0   16.666666666666668
-300.0   60.0   16.666666666666668
-300.0   90.0   16.666666666666668
-250.0   90.0   16.666666666666668
-300.0   90.0   0.0
-300.0   60.0   16.666666666666668
-250.0   90.0   16.666666666666668
-250.0   60.0   16.666666666666668
-250.0   60.0   0.0
-300.0   60.0   16.666666666666668
-250.0   90.0   16.666666666666668
-250.0   60.0   0.0
-300.0   90.0   0.0
-300.0   60.0   16.666666666666668
-250.0   60.0   16.666666666666668
-300.0   90.0   16.666666666666668
-300.0   60.0   33.333333333333336
-250.0   60.0   16.666666666666668
-250.0   90.0   16.666666666666668
-300.0   90.0   16.666666666666668
-250.0   90.0   33.333333333333336
-300.0   60.0   33.333333333333336
-300.0   90.0   33.333333333333336
-250.0   90.0   33.333333333333336
-300.0   90.0   16.666666666666668
-300.0   60.0   33.333333333333336
-250.0   90.0   33.333333333333336
-250.0   60.0   33.333333333333336
-250.0   60.0   16.666666666666668
-300.0   60.0   33.333333333333336
-250.0   90.0   33.333333333333336
-250.0   60.0   16.666666666666668
-300.0   90.0   16.666666666666668
-300.0   60.0   33.333333333333336
-250.0   60.0   33.333333333333336
-300.0   90.0   33.333333333333336
-300.0   60.0   50.0
-250.0   60.0   33.333333333333336
-250.0   90.0   33.333333333333336
-300.0   90.0   33.333333333333336
-250.0   90.0   50.0
-300.0   60.0   50.0
-300.0   90.0   50.0
-250.0   90.0   50.0
-300.0   90.0   33.333333333333336
-300.0   60.0   50.0
-250.0   90.0   50.0
-250.0   60.0   50.0
-250.0   60.0   33.333333333333336
-300.0   60.0   50.0
-250.0   90.0   50.0
-250.0   60.0   33.333333333333336
-300.0   90.0   33.333333333333336
-300.0   90.0   0.0
-250.0   90.0   0.0
-300.0   120.0   0.0
-300.0   90.0   16.666666666666668
-250.0   90.0   0.0
-250.0   120.0   0.0
-300.0   120.0   0.0
-250.0   120.0   16.666666666666668
-300.0   90.0   16.666666666666668
-300.0   120.0   16.666666666666668
-250.0   120.0   16.666666666666668
-300.0   120.0   0.0
-300.0   90.0   16.666666666666668
-250.0   120.0   16.666666666666668
-250.0   90.0   16.666666666666668
-250.0   90.0   0.0
-300.0   90.0   16.666666666666668
-250.0   120.0   16.666666666666668
-250.0   90.0   0.0
-300.0   120.0   0.0
-300.0   90.0   16.666666666666668
-250.0   90.0   16.666666666666668
-300.0   120.0   16.666666666666668
-300.0   90.0   33.333333333333336
-250.0   90.0   16.666666666666668
-250.0   120.0   16.666666666666668
-300.0   120.0   16.666666666666668
-250.0   120.0   33.333333333333336
-300.0   90.0   33.333333333333336
-300.0   120.0   33.333333333333336
-250.0   120.0   33.333333333333336
-300.0   120.0   16.666666666666668
-300.0   90.0   33.333333333333336
-250.0   120.0   33.333333333333336
-250.0   90.0   33.333333333333336
-250.0   90.0   16.666666666666668
-300.0   90.0   33.333333333333336
-250.0   120.0   33.333333333333336
-250.0   90.0   16.666666666666668
-300.0   120.0   16.666666666666668
-300.0   90.0   33.333333333333336
-250.0   90.0   33.333333333333336
-300.0   120.0   33.333333333333336
-300.0   90.0   50.0
-250.0   90.0   33.333333333333336
-250.0   120.0   33.333333333333336
-300.0   120.0   33.333333333333336
-250.0   120.0   50.0
-300.0   90.0   50.0
-300.0   120.0   50.0
-250.0   120.0   50.0
-300.0   120.0   33.333333333333336
-300.0   90.0   50.0
-250.0   120.0   50.0
-250.0   90.0   50.0
-250.0   90.0   33.333333333333336
-300.0   90.0   50.0
-250.0   120.0   50.0
-250.0   90.0   33.333333333333336
-300.0   120.0   33.333333333333336
-300.0   120.0   0.0
-250.0   120.0   0.0
-300.0   150.0   0.0
-300.0   120.0   16.666666666666668
-250.0   120.0   0.0
-250.0   150.0   0.0
-300.0   150.0   0.0
-250.0   150.0   16.666666666666668
-300.0   120.0   16.666666666666668
-300.0   150.0   16.666666666666668
-250.0   150.0   16.666666666666668
-300.0   150.0   0.0
-300.0   120.0   16.666666666666668
-250.0   150.0   16.666666666666668
-250.0   120.0   16.666666666666668
-250.0   120.0   0.0
-300.0   120.0   16.666666666666668
-250.0   150.0   16.666666666666668
-250.0   120.0   0.0
-300.0   150.0   0.0
-300.0   120.0   16.666666666666668
-250.0   120.0   16.666666666666668
-300.0   150.0   16.666666666666668
-300.0   120.0   33.333333333333336
-250.0   120.0   16.666666666666668
-250.0   150.0   16.666666666666668
-300.0   150.0   16.666666666666668
-250.0   150.0   33.333333333333336
-300.0   120.0   33.333333333333336
-300.0   150.0   33.333333333333336
-250.0   150.0   33.333333333333336
-300.0   150.0   16.666666666666668
-300.0   120.0   33.333333333333336
-250.0   150.0   33.333333333333336
-250.0   120.0   33.333333333333336
-250.0   120.0   16.666666666666668
-300.0   120.0   33.333333333333336
-250.0   150.0   33.333333333333336
-250.0   120.0   16.666666666666668
-300.0   150.0   16.666666666666668
-300.0   120.0   33.333333333333336
-250.0   120.0   33.333333333333336
-300.0   150.0   33.333333333333336
-300.0   120.0   50.0
-250.0   120.0   33.333333333333336
-250.0   150.0   33.333333333333336
-300.0   150.0   33.333333333333336
-250.0   150.0   50.0
-300.0   120.0   50.0
-300.0   150.0   50.0
-250.0   150.0   50.0
-300.0   150.0   33.333333333333336
-300.0   120.0   50.0
-250.0   150.0   50.0
-250.0   120.0   50.0
-250.0   120.0   33.333333333333336
-300.0   120.0   50.0
-250.0   150.0   50.0
-250.0   120.0   33.333333333333336
-300.0   150.0   33.333333333333336
-250.0   0.0   0.0
-200.0   0.0   0.0
-250.0   30.0   0.0
-250.0   0.0   16.666666666666668
-200.0   0.0   0.0
-200.0   30.0   0.0
-250.0   30.0   0.0
-200.0   30.0   16.666666666666668
-250.0   0.0   16.666666666666668
-250.0   30.0   16.666666666666668
-200.0   30.0   16.666666666666668
-250.0   30.0   0.0
-250.0   0.0   16.666666666666668
-200.0   30.0   16.666666666666668
-200.0   0.0   16.666666666666668
-200.0   0.0   0.0
-250.0   0.0   16.666666666666668
-200.0   30.0   16.666666666666668
-200.0   0.0   0.0
-250.0   30.0   0.0
-250.0   0.0   16.666666666666668
-200.0   0.0   16.666666666666668
-250.0   30.0   16.666666666666668
-250.0   0.0   33.333333333333336
-200.0   0.0   16.666666666666668
-200.0   30.0   16.666666666666668
-250.0   30.0   16.666666666666668
-200.0   30.0   33.333333333333336
-250.0   0.0   33.333333333333336
-250.0   30.0   33.333333333333336
-200.0   30.0   33.333333333333336
-250.0   30.0   16.666666666666668
-250.0   0.0   33.333333333333336
-200.0   30.0   33.333333333333336
-200.0   0.0   33.333333333333336
-200.0   0.0   16.666666666666668
-250.0   0.0   33.333333333333336
-200.0   30.0   33.333333333333336
-200.0   0.0   16.666666666666668
-250.0   30.0   16.666666666666668
-250.0   0.0   33.333333333333336
-200.0   0.0   33.333333333333336
-250.0   30.0   33.333333333333336
-250.0   0.0   50.0
-200.0   0.0   33.333333333333336
-200.0   30.0   33.333333333333336
-250.0   30.0   33.333333333333336
-200.0   30.0   50.0
-250.0   0.0   50.0
-250.0   30.0   50.0
-200.0   30.0   50.0
-250.0   30.0   33.333333333333336
-250.0   0.0   50.0
-200.0   30.0   50.0
-200.0   0.0   50.0
-200.0   0.0   33.333333333333336
-250.0   0.0   50.0
-200.0   30.0   50.0
-200.0   0.0   33.333333333333336
-250.0   30.0   33.333333333333336
-250.0   30.0   0.0
-200.0   30.0   0.0
-250.0   60.0   0.0
-250.0   30.0   16.666666666666668
-200.0   30.0   0.0
-200.0   60.0   0.0
-250.0   60.0   0.0
-200.0   60.0   16.666666666666668
-250.0   30.0   16.666666666666668
-250.0   60.0   16.666666666666668
-200.0   60.0   16.666666666666668
-250.0   60.0   0.0
-250.0   30.0   16.666666666666668
-200.0   60.0   16.666666666666668
-200.0   30.0   16.666666666666668
-200.0   30.0   0.0
-250.0   30.0   16.666666666666668
-200.0   60.0   16.666666666666668
-200.0   30.0   0.0
-250.0   60.0   0.0
-250.0   30.0   16.666666666666668
-200.0   30.0   16.666666666666668
-250.0   60.0   16.666666666666668
-250.0   30.0   33.333333333333336
-200.0   30.0   16.666666666666668
-200.0   60.0   16.666666666666668
-250.0   60.0   16.666666666666668
-200.0   60.0   33.333333333333336
-250.0   30.0   33.333333333333336
-250.0   60.0   33.333333333333336
-200.0   60.0   33.333333333333336
-250.0   60.0   16.666666666666668
-250.0   30.0   33.333333333333336
-200.0   60.0   33.333333333333336
-200.0   30.0   33.333333333333336
-200.0   30.0   16.666666666666668
-250.0   30.0   33.333333333333336
-200.0   60.0   33.333333333333336
-200.0   30.0   16.666666666666668
-250.0   60.0   16.666666666666668
-250.0   30.0   33.333333333333336
-200.0   30.0   33.333333333333336
-250.0   60.0   33.333333333333336
-250.0   30.0   50.0
-200.0   30.0   33.333333333333336
-200.0   60.0   33.333333333333336
-250.0   60.0   33.333333333333336
-200.0   60.0   50.0
-250.0   30.0   50.0
-250.0   60.0   50.0
-200.0   60.0   50.0
-250.0   60.0   33.333333333333336
-250.0   30.0   50.0
-200.0   60.0   50.0
-200.0   30.0   50.0
-200.0   30.0   33.333333333333336
-250.0   30.0   50.0
-200.0   60.0   50.0
-200.0   30.0   33.333333333333336
-250.0   60.0   33.333333333333336
-250.0   60.0   0.0
-200.0   60.0   0.0
-250.0   90.0   0.0
-250.0   60.0   16.666666666666668
-200.0   60.0   0.0
-200.0   90.0   0.0
-250.0   90.0   0.0
-200.0   90.0   16.666666666666668
-250.0   60.0   16.666666666666668
-250.0   90.0   16.666666666666668
-200.0   90.0   16.666666666666668
-250.0   90.0   0.0
-250.0   60.0   16.666666666666668
-200.0   90.0   16.666666666666668
-200.0   60.0   16.666666666666668
-200.0   60.0   0.0
-250.0   60.0   16.666666666666668
-200.0   90.0   16.666666666666668
-200.0   60.0   0.0
-250.0   90.0   0.0
-250.0   60.0   16.666666666666668
-200.0   60.0   16.666666666666668
-250.0   90.0   16.666666666666668
-250.0   60.0   33.333333333333336
-200.0   60.0   16.666666666666668
-200.0   90.0   16.666666666666668
-250.0   90.0   16.666666666666668
-200.0   90.0   33.333333333333336
-250.0   60.0   33.333333333333336
-250.0   90.0   33.333333333333336
-200.0   90.0   33.333333333333336
-250.0   90.0   16.666666666666668
-250.0   60.0   33.333333333333336
-200.0   90.0   33.333333333333336
-200.0   60.0   33.333333333333336
-200.0   60.0   16.666666666666668
-250.0   60.0   33.333333333333336
-200.0   90.0   33.333333333333336
-200.0   60.0   16.666666666666668
-250.0   90.0   16.666666666666668
-250.0   60.0   33.333333333333336
-200.0   60.0   33.333333333333336
-250.0   90.0   33.333333333333336
-250.0   60.0   50.0
-200.0   60.0   33.333333333333336
-200.0   90.0   33.333333333333336
-250.0   90.0   33.333333333333336
-200.0   90.0   50.0
-250.0   60.0   50.0
-250.0   90.0   50.0
-200.0   90.0   50.0
-250.0   90.0   33.333333333333336
-250.0   60.0   50.0
-200.0   90.0   50.0
-200.0   60.0   50.0
-200.0   60.0   33.333333333333336
-250.0   60.0   50.0
-200.0   90.0   50.0
-200.0   60.0   33.333333333333336
-250.0   90.0   33.333333333333336
-250.0   90.0   0.0
-200.0   90.0   0.0
-250.0   120.0   0.0
-250.0   90.0   16.666666666666668
-200.0   90.0   0.0
-200.0   120.0   0.0
-250.0   120.0   0.0
-200.0   120.0   16.666666666666668
-250.0   90.0   16.666666666666668
-250.0   120.0   16.666666666666668
-200.0   120.0   16.666666666666668
-250.0   120.0   0.0
-250.0   90.0   16.666666666666668
-200.0   120.0   16.666666666666668
-200.0   90.0   16.666666666666668
-200.0   90.0   0.0
-250.0   90.0   16.666666666666668
-200.0   120.0   16.666666666666668
-200.0   90.0   0.0
-250.0   120.0   0.0
-250.0   90.0   16.666666666666668
-200.0   90.0   16.666666666666668
-250.0   120.0   16.666666666666668
-250.0   90.0   33.333333333333336
-200.0   90.0   16.666666666666668
-200.0   120.0   16.666666666666668
-250.0   120.0   16.666666666666668
-200.0   120.0   33.333333333333336
-250.0   90.0   33.333333333333336
-250.0   120.0   33.333333333333336
-200.0   120.0   33.333333333333336
-250.0   120.0   16.666666666666668
-250.0   90.0   33.333333333333336
-200.0   120.0   33.333333333333336
-200.0   90.0   33.333333333333336
-200.0   90.0   16.666666666666668
-250.0   90.0   33.333333333333336
-200.0   120.0   33.333333333333336
-200.0   90.0   16.666666666666668
-250.0   120.0   16.666666666666668
-250.0   90.0   33.333333333333336
-200.0   90.0   33.333333333333336
-250.0   120.0   33.333333333333336
-250.0   90.0   50.0
-200.0   90.0   33.333333333333336
-200.0   120.0   33.333333333333336
-250.0   120.0   33.333333333333336
-200.0   120.0   50.0
-250.0   90.0   50.0
-250.0   120.0   50.0
-200.0   120.0   50.0
-250.0   120.0   33.333333333333336
-250.0   90.0   50.0
-200.0   120.0   50.0
-200.0   90.0   50.0
-200.0   90.0   33.333333333333336
-250.0   90.0   50.0
-200.0   120.0   50.0
-200.0   90.0   33.333333333333336
-250.0   120.0   33.333333333333336
-250.0   120.0   0.0
-200.0   120.0   0.0
-250.0   150.0   0.0
-250.0   120.0   16.666666666666668
-200.0   120.0   0.0
-200.0   150.0   0.0
-250.0   150.0   0.0
-200.0   150.0   16.666666666666668
-250.0   120.0   16.666666666666668
-250.0   150.0   16.666666666666668
-200.0   150.0   16.666666666666668
-250.0   150.0   0.0
-250.0   120.0   16.666666666666668
-200.0   150.0   16.666666666666668
-200.0   120.0   16.666666666666668
-200.0   120.0   0.0
-250.0   120.0   16.666666666666668
-200.0   150.0   16.666666666666668
-200.0   120.0   0.0
-250.0   150.0   0.0
-250.0   120.0   16.666666666666668
-200.0   120.0   16.666666666666668
-250.0   150.0   16.666666666666668
-250.0   120.0   33.333333333333336
-200.0   120.0   16.666666666666668
-200.0   150.0   16.666666666666668
-250.0   150.0   16.666666666666668
-200.0   150.0   33.333333333333336
-250.0   120.0   33.333333333333336
-250.0   150.0   33.333333333333336
-200.0   150.0   33.333333333333336
-250.0   150.0   16.666666666666668
-250.0   120.0   33.333333333333336
-200.0   150.0   33.333333333333336
-200.0   120.0   33.333333333333336
-200.0   120.0   16.666666666666668
-250.0   120.0   33.333333333333336
-200.0   150.0   33.333333333333336
-200.0   120.0   16.666666666666668
-250.0   150.0   16.666666666666668
-250.0   120.0   33.333333333333336
-200.0   120.0   33.333333333333336
-250.0   150.0   33.333333333333336
-250.0   120.0   50.0
-200.0   120.0   33.333333333333336
-200.0   150.0   33.333333333333336
-250.0   150.0   33.333333333333336
-200.0   150.0   50.0
-250.0   120.0   50.0
-250.0   150.0   50.0
-200.0   150.0   50.0
-250.0   150.0   33.333333333333336
-250.0   120.0   50.0
-200.0   150.0   50.0
-200.0   120.0   50.0
-200.0   120.0   33.333333333333336
-250.0   120.0   50.0
-200.0   150.0   50.0
-200.0   120.0   33.333333333333336
-250.0   150.0   33.333333333333336
-200.0   0.0   0.0
-150.0   0.0   0.0
-200.0   30.0   0.0
-200.0   0.0   16.666666666666668
-150.0   0.0   0.0
-150.0   30.0   0.0
-200.0   30.0   0.0
-150.0   30.0   16.666666666666668
-200.0   0.0   16.666666666666668
-200.0   30.0   16.666666666666668
-150.0   30.0   16.666666666666668
-200.0   30.0   0.0
-200.0   0.0   16.666666666666668
-150.0   30.0   16.666666666666668
-150.0   0.0   16.666666666666668
-150.0   0.0   0.0
-200.0   0.0   16.666666666666668
-150.0   30.0   16.666666666666668
-150.0   0.0   0.0
-200.0   30.0   0.0
-200.0   0.0   16.666666666666668
-150.0   0.0   16.666666666666668
-200.0   30.0   16.666666666666668
-200.0   0.0   33.333333333333336
-150.0   0.0   16.666666666666668
-150.0   30.0   16.666666666666668
-200.0   30.0   16.666666666666668
-150.0   30.0   33.333333333333336
-200.0   0.0   33.333333333333336
-200.0   30.0   33.333333333333336
-150.0   30.0   33.333333333333336
-200.0   30.0   16.666666666666668
-200.0   0.0   33.333333333333336
-150.0   30.0   33.333333333333336
-150.0   0.0   33.333333333333336
-150.0   0.0   16.666666666666668
-200.0   0.0   33.333333333333336
-150.0   30.0   33.333333333333336
-150.0   0.0   16.666666666666668
-200.0   30.0   16.666666666666668
-200.0   0.0   33.333333333333336
-150.0   0.0   33.333333333333336
-200.0   30.0   33.333333333333336
-200.0   0.0   50.0
-150.0   0.0   33.333333333333336
-150.0   30.0   33.333333333333336
-200.0   30.0   33.333333333333336
-150.0   30.0   50.0
-200.0   0.0   50.0
-200.0   30.0   50.0
-150.0   30.0   50.0
-200.0   30.0   33.333333333333336
-200.0   0.0   50.0
-150.0   30.0   50.0
-150.0   0.0   50.0
-150.0   0.0   33.333333333333336
-200.0   0.0   50.0
-150.0   30.0   50.0
-150.0   0.0   33.333333333333336
-200.0   30.0   33.333333333333336
-200.0   30.0   0.0
-150.0   30.0   0.0
-200.0   60.0   0.0
-200.0   30.0   16.666666666666668
-150.0   30.0   0.0
-150.0   60.0   0.0
-200.0   60.0   0.0
-150.0   60.0   16.666666666666668
-200.0   30.0   16.666666666666668
-200.0   60.0   16.666666666666668
-150.0   60.0   16.666666666666668
-200.0   60.0   0.0
-200.0   30.0   16.666666666666668
-150.0   60.0   16.666666666666668
-150.0   30.0   16.666666666666668
-150.0   30.0   0.0
-200.0   30.0   16.666666666666668
-150.0   60.0   16.666666666666668
-150.0   30.0   0.0
-200.0   60.0   0.0
-200.0   30.0   16.666666666666668
-150.0   30.0   16.666666666666668
-200.0   60.0   16.666666666666668
-200.0   30.0   33.333333333333336
-150.0   30.0   16.666666666666668
-150.0   60.0   16.666666666666668
-200.0   60.0   16.666666666666668
-150.0   60.0   33.333333333333336
-200.0   30.0   33.333333333333336
-200.0   60.0   33.333333333333336
-150.0   60.0   33.333333333333336
-200.0   60.0   16.666666666666668
-200.0   30.0   33.333333333333336
-150.0   60.0   33.333333333333336
-150.0   30.0   33.333333333333336
-150.0   30.0   16.666666666666668
-200.0   30.0   33.333333333333336
-150.0   60.0   33.333333333333336
-150.0   30.0   16.666666666666668
-200.0   60.0   16.666666666666668
-200.0   30.0   33.333333333333336
-150.0   30.0   33.333333333333336
-200.0   60.0   33.333333333333336
-200.0   30.0   50.0
-150.0   30.0   33.333333333333336
-150.0   60.0   33.333333333333336
-200.0   60.0   33.333333333333336
-150.0   60.0   50.0
-200.0   30.0   50.0
-200.0   60.0   50.0
-150.0   60.0   50.0
-200.0   60.0   33.333333333333336
-200.0   30.0   50.0
-150.0   60.0   50.0
-150.0   30.0   50.0
-150.0   30.0   33.333333333333336
-200.0   30.0   50.0
-150.0   60.0   50.0
-150.0   30.0   33.333333333333336
-200.0   60.0   33.333333333333336
-200.0   60.0   0.0
-150.0   60.0   0.0
-200.0   90.0   0.0
-200.0   60.0   16.666666666666668
-150.0   60.0   0.0
-150.0   90.0   0.0
-200.0   90.0   0.0
-150.0   90.0   16.666666666666668
-200.0   60.0   16.666666666666668
-200.0   90.0   16.666666666666668
-150.0   90.0   16.666666666666668
-200.0   90.0   0.0
-200.0   60.0   16.666666666666668
-150.0   90.0   16.666666666666668
-150.0   60.0   16.666666666666668
-150.0   60.0   0.0
-200.0   60.0   16.666666666666668
-150.0   90.0   16.666666666666668
-150.0   60.0   0.0
-200.0   90.0   0.0
-200.0   60.0   16.666666666666668
-150.0   60.0   16.666666666666668
-200.0   90.0   16.666666666666668
-200.0   60.0   33.333333333333336
-150.0   60.0   16.666666666666668
-150.0   90.0   16.666666666666668
-200.0   90.0   16.666666666666668
-150.0   90.0   33.333333333333336
-200.0   60.0   33.333333333333336
-200.0   90.0   33.333333333333336
-150.0   90.0   33.333333333333336
-200.0   90.0   16.666666666666668
-200.0   60.0   33.333333333333336
-150.0   90.0   33.333333333333336
-150.0   60.0   33.333333333333336
-150.0   60.0   16.666666666666668
-200.0   60.0   33.333333333333336
-150.0   90.0   33.333333333333336
-150.0   60.0   16.666666666666668
-200.0   90.0   16.666666666666668
-200.0   60.0   33.333333333333336
-150.0   60.0   33.333333333333336
-200.0   90.0   33.333333333333336
-200.0   60.0   50.0
-150.0   60.0   33.333333333333336
-150.0   90.0   33.333333333333336
-200.0   90.0   33.333333333333336
-150.0   90.0   50.0
-200.0   60.0   50.0
-200.0   90.0   50.0
-150.0   90.0   50.0
-200.0   90.0   33.333333333333336
-200.0   60.0   50.0
-150.0   90.0   50.0
-150.0   60.0   50.0
-150.0   60.0   33.333333333333336
-200.0   60.0   50.0
-150.0   90.0   50.0
-150.0   60.0   33.333333333333336
-200.0   90.0   33.333333333333336
-200.0   90.0   0.0
-150.0   90.0   0.0
-200.0   120.0   0.0
-200.0   90.0   16.666666666666668
-150.0   90.0   0.0
-150.0   120.0   0.0
-200.0   120.0   0.0
-150.0   120.0   16.666666666666668
-200.0   90.0   16.666666666666668
-200.0   120.0   16.666666666666668
-150.0   120.0   16.666666666666668
-200.0   120.0   0.0
-200.0   90.0   16.666666666666668
-150.0   120.0   16.666666666666668
-150.0   90.0   16.666666666666668
-150.0   90.0   0.0
-200.0   90.0   16.666666666666668
-150.0   120.0   16.666666666666668
-150.0   90.0   0.0
-200.0   120.0   0.0
-200.0   90.0   16.666666666666668
-150.0   90.0   16.666666666666668
-200.0   120.0   16.666666666666668
-200.0   90.0   33.333333333333336
-150.0   90.0   16.666666666666668
-150.0   120.0   16.666666666666668
-200.0   120.0   16.666666666666668
-150.0   120.0   33.333333333333336
-200.0   90.0   33.333333333333336
-200.0   120.0   33.333333333333336
-150.0   120.0   33.333333333333336
-200.0   120.0   16.666666666666668
-200.0   90.0   33.333333333333336
-150.0   120.0   33.333333333333336
-150.0   90.0   33.333333333333336
-150.0   90.0   16.666666666666668
-200.0   90.0   33.333333333333336
-150.0   120.0   33.333333333333336
-150.0   90.0   16.666666666666668
-200.0   120.0   16.666666666666668
-200.0   90.0   33.333333333333336
-150.0   90.0   33.333333333333336
-200.0   120.0   33.333333333333336
-200.0   90.0   50.0
-150.0   90.0   33.333333333333336
-150.0   120.0   33.333333333333336
-200.0   120.0   33.333333333333336
-150.0   120.0   50.0
-200.0   90.0   50.0
-200.0   120.0   50.0
-150.0   120.0   50.0
-200.0   120.0   33.333333333333336
-200.0   90.0   50.0
-150.0   120.0   50.0
-150.0   90.0   50.0
-150.0   90.0   33.333333333333336
-200.0   90.0   50.0
-150.0   120.0   50.0
-150.0   90.0   33.333333333333336
-200.0   120.0   33.333333333333336
-200.0   120.0   0.0
-150.0   120.0   0.0
-200.0   150.0   0.0
-200.0   120.0   16.666666666666668
-150.0   120.0   0.0
-150.0   150.0   0.0
-200.0   150.0   0.0
-150.0   150.0   16.666666666666668
-200.0   120.0   16.666666666666668
-200.0   150.0   16.666666666666668
-150.0   150.0   16.666666666666668
-200.0   150.0   0.0
-200.0   120.0   16.666666666666668
-150.0   150.0   16.666666666666668
-150.0   120.0   16.666666666666668
-150.0   120.0   0.0
-200.0   120.0   16.666666666666668
-150.0   150.0   16.666666666666668
-150.0   120.0   0.0
-200.0   150.0   0.0
-200.0   120.0   16.666666666666668
-150.0   120.0   16.666666666666668
-200.0   150.0   16.666666666666668
-200.0   120.0   33.333333333333336
-150.0   120.0   16.666666666666668
-150.0   150.0   16.666666666666668
-200.0   150.0   16.666666666666668
-150.0   150.0   33.333333333333336
-200.0   120.0   33.333333333333336
-200.0   150.0   33.333333333333336
-150.0   150.0   33.333333333333336
-200.0   150.0   16.666666666666668
-200.0   120.0   33.333333333333336
-150.0   150.0   33.333333333333336
-150.0   120.0   33.333333333333336
-150.0   120.0   16.666666666666668
-200.0   120.0   33.333333333333336
-150.0   150.0   33.333333333333336
-150.0   120.0   16.666666666666668
-200.0   150.0   16.666666666666668
-200.0   120.0   33.333333333333336
-150.0   120.0   33.333333333333336
-200.0   150.0   33.333333333333336
-200.0   120.0   50.0
-150.0   120.0   33.333333333333336
-150.0   150.0   33.333333333333336
-200.0   150.0   33.333333333333336
-150.0   150.0   50.0
-200.0   120.0   50.0
-200.0   150.0   50.0
-150.0   150.0   50.0
-200.0   150.0   33.333333333333336
-200.0   120.0   50.0
-150.0   150.0   50.0
-150.0   120.0   50.0
-150.0   120.0   33.333333333333336
-200.0   120.0   50.0
-150.0   150.0   50.0
-150.0   120.0   33.333333333333336
-200.0   150.0   33.333333333333336
-150.0   0.0   0.0
-100.0   0.0   0.0
-150.0   30.0   0.0
-150.0   0.0   16.666666666666668
-100.0   0.0   0.0
-100.0   30.0   0.0
-150.0   30.0   0.0
-100.0   30.0   16.666666666666668
-150.0   0.0   16.666666666666668
-150.0   30.0   16.666666666666668
-100.0   30.0   16.666666666666668
-150.0   30.0   0.0
-150.0   0.0   16.666666666666668
-100.0   30.0   16.666666666666668
-100.0   0.0   16.666666666666668
-100.0   0.0   0.0
-150.0   0.0   16.666666666666668
-100.0   30.0   16.666666666666668
-100.0   0.0   0.0
-150.0   30.0   0.0
-150.0   0.0   16.666666666666668
-100.0   0.0   16.666666666666668
-150.0   30.0   16.666666666666668
-150.0   0.0   33.333333333333336
-100.0   0.0   16.666666666666668
-100.0   30.0   16.666666666666668
-150.0   30.0   16.666666666666668
-100.0   30.0   33.333333333333336
-150.0   0.0   33.333333333333336
-150.0   30.0   33.333333333333336
-100.0   30.0   33.333333333333336
-150.0   30.0   16.666666666666668
-150.0   0.0   33.333333333333336
-100.0   30.0   33.333333333333336
-100.0   0.0   33.333333333333336
-100.0   0.0   16.666666666666668
-150.0   0.0   33.333333333333336
-100.0   30.0   33.333333333333336
-100.0   0.0   16.666666666666668
-150.0   30.0   16.666666666666668
-150.0   0.0   33.333333333333336
-100.0   0.0   33.333333333333336
-150.0   30.0   33.333333333333336
-150.0   0.0   50.0
-100.0   0.0   33.333333333333336
-100.0   30.0   33.333333333333336
-150.0   30.0   33.333333333333336
-100.0   30.0   50.0
-150.0   0.0   50.0
-150.0   30.0   50.0
-100.0   30.0   50.0
-150.0   30.0   33.333333333333336
-150.0   0.0   50.0
-100.0   30.0   50.0
-100.0   0.0   50.0
-100.0   0.0   33.333333333333336
-150.0   0.0   50.0
-100.0   30.0   50.0
-100.0   0.0   33.333333333333336
-150.0   30.0   33.333333333333336
-150.0   30.0   0.0
-100.0   30.0   0.0
-150.0   60.0   0.0
-150.0   30.0   16.666666666666668
-100.0   30.0   0.0
-100.0   60.0   0.0
-150.0   60.0   0.0
-100.0   60.0   16.666666666666668
-150.0   30.0   16.666666666666668
-150.0   60.0   16.666666666666668
-100.0   60.0   16.666666666666668
-150.0   60.0   0.0
-150.0   30.0   16.666666666666668
-100.0   60.0   16.666666666666668
-100.0   30.0   16.666666666666668
-100.0   30.0   0.0
-150.0   30.0   16.666666666666668
-100.0   60.0   16.666666666666668
-100.0   30.0   0.0
-150.0   60.0   0.0
-150.0   30.0   16.666666666666668
-100.0   30.0   16.666666666666668
-150.0   60.0   16.666666666666668
-150.0   30.0   33.333333333333336
-100.0   30.0   16.666666666666668
-100.0   60.0   16.666666666666668
-150.0   60.0   16.666666666666668
-100.0   60.0   33.333333333333336
-150.0   30.0   33.333333333333336
-150.0   60.0   33.333333333333336
-100.0   60.0   33.333333333333336
-150.0   60.0   16.666666666666668
-150.0   30.0   33.333333333333336
-100.0   60.0   33.333333333333336
-100.0   30.0   33.333333333333336
-100.0   30.0   16.666666666666668
-150.0   30.0   33.333333333333336
-100.0   60.0   33.333333333333336
-100.0   30.0   16.666666666666668
-150.0   60.0   16.666666666666668
-150.0   30.0   33.333333333333336
-100.0   30.0   33.333333333333336
-150.0   60.0   33.333333333333336
-150.0   30.0   50.0
-100.0   30.0   33.333333333333336
-100.0   60.0   33.333333333333336
-150.0   60.0   33.333333333333336
-100.0   60.0   50.0
-150.0   30.0   50.0
-150.0   60.0   50.0
-100.0   60.0   50.0
-150.0   60.0   33.333333333333336
-150.0   30.0   50.0
-100.0   60.0   50.0
-100.0   30.0   50.0
-100.0   30.0   33.333333333333336
-150.0   30.0   50.0
-100.0   60.0   50.0
-100.0   30.0   33.333333333333336
-150.0   60.0   33.333333333333336
-150.0   60.0   0.0
-100.0   60.0   0.0
-150.0   90.0   0.0
-150.0   60.0   16.666666666666668
-100.0   60.0   0.0
-100.0   90.0   0.0
-150.0   90.0   0.0
-100.0   90.0   16.666666666666668
-150.0   60.0   16.666666666666668
-150.0   90.0   16.666666666666668
-100.0   90.0   16.666666666666668
-150.0   90.0   0.0
-150.0   60.0   16.666666666666668
-100.0   90.0   16.666666666666668
-100.0   60.0   16.666666666666668
-100.0   60.0   0.0
-150.0   60.0   16.666666666666668
-100.0   90.0   16.666666666666668
-100.0   60.0   0.0
-150.0   90.0   0.0
-150.0   60.0   16.666666666666668
-100.0   60.0   16.666666666666668
-150.0   90.0   16.666666666666668
-150.0   60.0   33.333333333333336
-100.0   60.0   16.666666666666668
-100.0   90.0   16.666666666666668
-150.0   90.0   16.666666666666668
-100.0   90.0   33.333333333333336
-150.0   60.0   33.333333333333336
-150.0   90.0   33.333333333333336
-100.0   90.0   33.333333333333336
-150.0   90.0   16.666666666666668
-150.0   60.0   33.333333333333336
-100.0   90.0   33.333333333333336
-100.0   60.0   33.333333333333336
-100.0   60.0   16.666666666666668
-150.0   60.0   33.333333333333336
-100.0   90.0   33.333333333333336
-100.0   60.0   16.666666666666668
-150.0   90.0   16.666666666666668
-150.0   60.0   33.333333333333336
-100.0   60.0   33.333333333333336
-150.0   90.0   33.333333333333336
-150.0   60.0   50.0
-100.0   60.0   33.333333333333336
-100.0   90.0   33.333333333333336
-150.0   90.0   33.333333333333336
-100.0   90.0   50.0
-150.0   60.0   50.0
-150.0   90.0   50.0
-100.0   90.0   50.0
-150.0   90.0   33.333333333333336
-150.0   60.0   50.0
-100.0   90.0   50.0
-100.0   60.0   50.0
-100.0   60.0   33.333333333333336
-150.0   60.0   50.0
-100.0   90.0   50.0
-100.0   60.0   33.333333333333336
-150.0   90.0   33.333333333333336
-150.0   90.0   0.0
-100.0   90.0   0.0
-150.0   120.0   0.0
-150.0   90.0   16.666666666666668
-100.0   90.0   0.0
-100.0   120.0   0.0
-150.0   120.0   0.0
-100.0   120.0   16.666666666666668
-150.0   90.0   16.666666666666668
-150.0   120.0   16.666666666666668
-100.0   120.0   16.666666666666668
-150.0   120.0   0.0
-150.0   90.0   16.666666666666668
-100.0   120.0   16.666666666666668
-100.0   90.0   16.666666666666668
-100.0   90.0   0.0
-150.0   90.0   16.666666666666668
-100.0   120.0   16.666666666666668
-100.0   90.0   0.0
-150.0   120.0   0.0
-150.0   90.0   16.666666666666668
-100.0   90.0   16.666666666666668
-150.0   120.0   16.666666666666668
-150.0   90.0   33.333333333333336
-100.0   90.0   16.666666666666668
-100.0   120.0   16.666666666666668
-150.0   120.0   16.666666666666668
-100.0   120.0   33.333333333333336
-150.0   90.0   33.333333333333336
-150.0   120.0   33.333333333333336
-100.0   120.0   33.333333333333336
-150.0   120.0   16.666666666666668
-150.0   90.0   33.333333333333336
-100.0   120.0   33.333333333333336
-100.0   90.0   33.333333333333336
-100.0   90.0   16.666666666666668
-150.0   90.0   33.333333333333336
-100.0   120.0   33.333333333333336
-100.0   90.0   16.666666666666668
-150.0   120.0   16.666666666666668
-150.0   90.0   33.333333333333336
-100.0   90.0   33.333333333333336
-150.0   120.0   33.333333333333336
-150.0   90.0   50.0
-100.0   90.0   33.333333333333336
-100.0   120.0   33.333333333333336
-150.0   120.0   33.333333333333336
-100.0   120.0   50.0
-150.0   90.0   50.0
-150.0   120.0   50.0
-100.0   120.0   50.0
-150.0   120.0   33.333333333333336
-150.0   90.0   50.0
-100.0   120.0   50.0
-100.0   90.0   50.0
-100.0   90.0   33.333333333333336
-150.0   90.0   50.0
-100.0   120.0   50.0
-100.0   90.0   33.333333333333336
-150.0   120.0   33.333333333333336
-150.0   120.0   0.0
-100.0   120.0   0.0
-150.0   150.0   0.0
-150.0   120.0   16.666666666666668
-100.0   120.0   0.0
-100.0   150.0   0.0
-150.0   150.0   0.0
-100.0   150.0   16.666666666666668
-150.0   120.0   16.666666666666668
-150.0   150.0   16.666666666666668
-100.0   150.0   16.666666666666668
-150.0   150.0   0.0
-150.0   120.0   16.666666666666668
-100.0   150.0   16.666666666666668
-100.0   120.0   16.666666666666668
-100.0   120.0   0.0
-150.0   120.0   16.666666666666668
-100.0   150.0   16.666666666666668
-100.0   120.0   0.0
-150.0   150.0   0.0
-150.0   120.0   16.666666666666668
-100.0   120.0   16.666666666666668
-150.0   150.0   16.666666666666668
-150.0   120.0   33.333333333333336
-100.0   120.0   16.666666666666668
-100.0   150.0   16.666666666666668
-150.0   150.0   16.666666666666668
-100.0   150.0   33.333333333333336
-150.0   120.0   33.333333333333336
-150.0   150.0   33.333333333333336
-100.0   150.0   33.333333333333336
-150.0   150.0   16.666666666666668
-150.0   120.0   33.333333333333336
-100.0   150.0   33.333333333333336
-100.0   120.0   33.333333333333336
-100.0   120.0   16.666666666666668
-150.0   120.0   33.333333333333336
-100.0   150.0   33.333333333333336
-100.0   120.0   16.666666666666668
-150.0   150.0   16.666666666666668
-150.0   120.0   33.333333333333336
-100.0   120.0   33.333333333333336
-150.0   150.0   33.333333333333336
-150.0   120.0   50.0
-100.0   120.0   33.333333333333336
-100.0   150.0   33.333333333333336
-150.0   150.0   33.333333333333336
-100.0   150.0   50.0
-150.0   120.0   50.0
-150.0   150.0   50.0
-100.0   150.0   50.0
-150.0   150.0   33.333333333333336
-150.0   120.0   50.0
-100.0   150.0   50.0
-100.0   120.0   50.0
-100.0   120.0   33.333333333333336
-150.0   120.0   50.0
-100.0   150.0   50.0
-100.0   120.0   33.333333333333336
-150.0   150.0   33.333333333333336
-100.0   0.0   0.0
-50.0   0.0   0.0
-100.0   30.0   0.0
-100.0   0.0   16.666666666666668
-50.0   0.0   0.0
-50.0   30.0   0.0
-100.0   30.0   0.0
-50.0   30.0   16.666666666666668
-100.0   0.0   16.666666666666668
-100.0   30.0   16.666666666666668
-50.0   30.0   16.666666666666668
-100.0   30.0   0.0
-100.0   0.0   16.666666666666668
-50.0   30.0   16.666666666666668
-50.0   0.0   16.666666666666668
-50.0   0.0   0.0
-100.0   0.0   16.666666666666668
-50.0   30.0   16.666666666666668
-50.0   0.0   0.0
-100.0   30.0   0.0
-100.0   0.0   16.666666666666668
-50.0   0.0   16.666666666666668
-100.0   30.0   16.666666666666668
-100.0   0.0   33.333333333333336
-50.0   0.0   16.666666666666668
-50.0   30.0   16.666666666666668
-100.0   30.0   16.666666666666668
-50.0   30.0   33.333333333333336
-100.0   0.0   33.333333333333336
-100.0   30.0   33.333333333333336
-50.0   30.0   33.333333333333336
-100.0   30.0   16.666666666666668
-100.0   0.0   33.333333333333336
-50.0   30.0   33.333333333333336
-50.0   0.0   33.333333333333336
-50.0   0.0   16.666666666666668
-100.0   0.0   33.333333333333336
-50.0   30.0   33.333333333333336
-50.0   0.0   16.666666666666668
-100.0   30.0   16.666666666666668
-100.0   0.0   33.333333333333336
-50.0   0.0   33.333333333333336
-100.0   30.0   33.333333333333336
-100.0   0.0   50.0
-50.0   0.0   33.333333333333336
-50.0   30.0   33.333333333333336
-100.0   30.0   33.333333333333336
-50.0   30.0   50.0
-100.0   0.0   50.0
-100.0   30.0   50.0
-50.0   30.0   50.0
-100.0   30.0   33.333333333333336
-100.0   0.0   50.0
-50.0   30.0   50.0
-50.0   0.0   50.0
-50.0   0.0   33.333333333333336
-100.0   0.0   50.0
-50.0   30.0   50.0
-50.0   0.0   33.333333333333336
-100.0   30.0   33.333333333333336
-100.0   30.0   0.0
-50.0   30.0   0.0
-100.0   60.0   0.0
-100.0   30.0   16.666666666666668
-50.0   30.0   0.0
-50.0   60.0   0.0
-100.0   60.0   0.0
-50.0   60.0   16.666666666666668
-100.0   30.0   16.666666666666668
-100.0   60.0   16.666666666666668
-50.0   60.0   16.666666666666668
-100.0   60.0   0.0
-100.0   30.0   16.666666666666668
-50.0   60.0   16.666666666666668
-50.0   30.0   16.666666666666668
-50.0   30.0   0.0
-100.0   30.0   16.666666666666668
-50.0   60.0   16.666666666666668
-50.0   30.0   0.0
-100.0   60.0   0.0
-100.0   30.0   16.666666666666668
-50.0   30.0   16.666666666666668
-100.0   60.0   16.666666666666668
-100.0   30.0   33.333333333333336
-50.0   30.0   16.666666666666668
-50.0   60.0   16.666666666666668
-100.0   60.0   16.666666666666668
-50.0   60.0   33.333333333333336
-100.0   30.0   33.333333333333336
-100.0   60.0   33.333333333333336
-50.0   60.0   33.333333333333336
-100.0   60.0   16.666666666666668
-100.0   30.0   33.333333333333336
-50.0   60.0   33.333333333333336
-50.0   30.0   33.333333333333336
-50.0   30.0   16.666666666666668
-100.0   30.0   33.333333333333336
-50.0   60.0   33.333333333333336
-50.0   30.0   16.666666666666668
-100.0   60.0   16.666666666666668
-100.0   30.0   33.333333333333336
-50.0   30.0   33.333333333333336
-100.0   60.0   33.333333333333336
-100.0   30.0   50.0
-50.0   30.0   33.333333333333336
-50.0   60.0   33.333333333333336
-100.0   60.0   33.333333333333336
-50.0   60.0   50.0
-100.0   30.0   50.0
-100.0   60.0   50.0
-50.0   60.0   50.0
-100.0   60.0   33.333333333333336
-100.0   30.0   50.0
-50.0   60.0   50.0
-50.0   30.0   50.0
-50.0   30.0   33.333333333333336
-100.0   30.0   50.0
-50.0   60.0   50.0
-50.0   30.0   33.333333333333336
-100.0   60.0   33.333333333333336
-100.0   60.0   0.0
-50.0   60.0   0.0
-100.0   90.0   0.0
-100.0   60.0   16.666666666666668
-50.0   60.0   0.0
-50.0   90.0   0.0
-100.0   90.0   0.0
-50.0   90.0   16.666666666666668
-100.0   60.0   16.666666666666668
-100.0   90.0   16.666666666666668
-50.0   90.0   16.666666666666668
-100.0   90.0   0.0
-100.0   60.0   16.666666666666668
-50.0   90.0   16.666666666666668
-50.0   60.0   16.666666666666668
-50.0   60.0   0.0
-100.0   60.0   16.666666666666668
-50.0   90.0   16.666666666666668
-50.0   60.0   0.0
-100.0   90.0   0.0
-100.0   60.0   16.666666666666668
-50.0   60.0   16.666666666666668
-100.0   90.0   16.666666666666668
-100.0   60.0   33.333333333333336
-50.0   60.0   16.666666666666668
-50.0   90.0   16.666666666666668
-100.0   90.0   16.666666666666668
-50.0   90.0   33.333333333333336
-100.0   60.0   33.333333333333336
-100.0   90.0   33.333333333333336
-50.0   90.0   33.333333333333336
-100.0   90.0   16.666666666666668
-100.0   60.0   33.333333333333336
-50.0   90.0   33.333333333333336
-50.0   60.0   33.333333333333336
-50.0   60.0   16.666666666666668
-100.0   60.0   33.333333333333336
-50.0   90.0   33.333333333333336
-50.0   60.0   16.666666666666668
-100.0   90.0   16.666666666666668
-100.0   60.0   33.333333333333336
-50.0   60.0   33.333333333333336
-100.0   90.0   33.333333333333336
-100.0   60.0   50.0
-50.0   60.0   33.333333333333336
-50.0   90.0   33.333333333333336
-100.0   90.0   33.333333333333336
-50.0   90.0   50.0
-100.0   60.0   50.0
-100.0   90.0   50.0
-50.0   90.0   50.0
-100.0   90.0   33.333333333333336
-100.0   60.0   50.0
-50.0   90.0   50.0
-50.0   60.0   50.0
-50.0   60.0   33.333333333333336
-100.0   60.0   50.0
-50.0   90.0   50.0
-50.0   60.0   33.333333333333336
-100.0   90.0   33.333333333333336
-100.0   90.0   0.0
-50.0   90.0   0.0
-100.0   120.0   0.0
-100.0   90.0   16.666666666666668
-50.0   90.0   0.0
-50.0   120.0   0.0
-100.0   120.0   0.0
-50.0   120.0   16.666666666666668
-100.0   90.0   16.666666666666668
-100.0   120.0   16.666666666666668
-50.0   120.0   16.666666666666668
-100.0   120.0   0.0
-100.0   90.0   16.666666666666668
-50.0   120.0   16.666666666666668
-50.0   90.0   16.666666666666668
-50.0   90.0   0.0
-100.0   90.0   16.666666666666668
-50.0   120.0   16.666666666666668
-50.0   90.0   0.0
-100.0   120.0   0.0
-100.0   90.0   16.666666666666668
-50.0   90.0   16.666666666666668
-100.0   120.0   16.666666666666668
-100.0   90.0   33.333333333333336
-50.0   90.0   16.666666666666668
-50.0   120.0   16.666666666666668
-100.0   120.0   16.666666666666668
-50.0   120.0   33.333333333333336
-100.0   90.0   33.333333333333336
-100.0   120.0   33.333333333333336
-50.0   120.0   33.333333333333336
-100.0   120.0   16.666666666666668
-100.0   90.0   33.333333333333336
-50.0   120.0   33.333333333333336
-50.0   90.0   33.333333333333336
-50.0   90.0   16.666666666666668
-100.0   90.0   33.333333333333336
-50.0   120.0   33.333333333333336
-50.0   90.0   16.666666666666668
-100.0   120.0   16.666666666666668
-100.0   90.0   33.333333333333336
-50.0   90.0   33.333333333333336
-100.0   120.0   33.333333333333336
-100.0   90.0   50.0
-50.0   90.0   33.333333333333336
-50.0   120.0   33.333333333333336
-100.0   120.0   33.333333333333336
-50.0   120.0   50.0
-100.0   90.0   50.0
-100.0   120.0   50.0
-50.0   120.0   50.0
-100.0   120.0   33.333333333333336
-100.0   90.0   50.0
-50.0   120.0   50.0
-50.0   90.0   50.0
-50.0   90.0   33.333333333333336
-100.0   90.0   50.0
-50.0   120.0   50.0
-50.0   90.0   33.333333333333336
-100.0   120.0   33.333333333333336
-100.0   120.0   0.0
-50.0   120.0   0.0
-100.0   150.0   0.0
-100.0   120.0   16.666666666666668
-50.0   120.0   0.0
-50.0   150.0   0.0
-100.0   150.0   0.0
-50.0   150.0   16.666666666666668
-100.0   120.0   16.666666666666668
-100.0   150.0   16.666666666666668
-50.0   150.0   16.666666666666668
-100.0   150.0   0.0
-100.0   120.0   16.666666666666668
-50.0   150.0   16.666666666666668
-50.0   120.0   16.666666666666668
-50.0   120.0   0.0
-100.0   120.0   16.666666666666668
-50.0   150.0   16.666666666666668
-50.0   120.0   0.0
-100.0   150.0   0.0
-100.0   120.0   16.666666666666668
-50.0   120.0   16.666666666666668
-100.0   150.0   16.666666666666668
-100.0   120.0   33.333333333333336
-50.0   120.0   16.666666666666668
-50.0   150.0   16.666666666666668
-100.0   150.0   16.666666666666668
-50.0   150.0   33.333333333333336
-100.0   120.0   33.333333333333336
-100.0   150.0   33.333333333333336
-50.0   150.0   33.333333333333336
-100.0   150.0   16.666666666666668
-100.0   120.0   33.333333333333336
-50.0   150.0   33.333333333333336
-50.0   120.0   33.333333333333336
-50.0   120.0   16.666666666666668
-100.0   120.0   33.333333333333336
-50.0   150.0   33.333333333333336
-50.0   120.0   16.666666666666668
-100.0   150.0   16.666666666666668
-100.0   120.0   33.333333333333336
-50.0   120.0   33.333333333333336
-100.0   150.0   33.333333333333336
-100.0   120.0   50.0
-50.0   120.0   33.333333333333336
-50.0   150.0   33.333333333333336
-100.0   150.0   33.333333333333336
-50.0   150.0   50.0
-100.0   120.0   50.0
-100.0   150.0   50.0
-50.0   150.0   50.0
-100.0   150.0   33.333333333333336
-100.0   120.0   50.0
-50.0   150.0   50.0
-50.0   120.0   50.0
-50.0   120.0   33.333333333333336
-100.0   120.0   50.0
-50.0   150.0   50.0
-50.0   120.0   33.333333333333336
-100.0   150.0   33.333333333333336
-50.0   0.0   0.0
0.0   0.0   0.0
-50.0   30.0   0.0
-50.0   0.0   16.666666666666668
0.0   0.0   0.0
0.0   30.0   0.0
-50.0   30.0   0.0
0.0   30.0   16.666666666666668
-50.0   0.0   16.666666666666668
-50.0   30.0   16.666666666666668
0.0   30.0   16.666666666666668
-50.0   30.0   0.0
-50.0   0.0   16.666666666666668
0.0   30.0   16.666666666666668
0.0   0.0   16.666666666666668
0.0   0.0   0.0
-50.0   0.0   16.666666666666668
0.0   30.0   16.666666666666668
0.0   0.0   0.0
-50.0   30.0   0.0
-50.0   0.0   16.666666666666668
0.0   0.0   16.666666666666668
-50.0   30.0   16.666666666666668
-50.0   0.0   33.333333333333336
0.0   0.0   16.666666666666668
0.0   30.0   16.666666666666668
-50.0   30.0   16.666666666666668
0.0   30.0   33.333333333333336
-50.0   0.0   33.333333333333336
-50.0   30.0   33.333333333333336
0.0   30.0   33.333333333333336
-50.0   30.0   16.666666666666668
-50.0   0.0   33.333333333333336
0.0   30.0   33.333333333333336
0.0   0.0   33.333333333333336
0.0   0.0   16.666666666666668
-50.0   0.0   33.333333333333336
0.0   30.0   33.333333333333336
0.0   0.0   16.666666666666668
-50.0   30.0   16.666666666666668
-50.0   0.0   33.333333333333336
0.0   0.0   33.333333333333336
-50.0   30.0   33.333333333333336
-50.0   0.0   50.0
0.0   0.0   33.333333333333336
0.0   30.0   33.333333333333336
-50.0   30.0   33.333333333333336
0.0   30.0   50.0
-50.0   0.0   50.0
-50.0   30.0   50.0
0.0   30.0   50.0
-50.0   30.0   33.333333333333336
-50.0   0.0   50.0
0.0   30.0   50.0
0.0   0.0   50.0
0.0   0.0   33.333333333333336
-50.0   0.0   50.0
0.0   30.0   50.0
0.0   0.0   33.333333333333336
-50.0   30.0   33.333333333333336
-50.0   30.0   0.0
0.0   30.0   0.0
-50.0   60.0   0.0
-50.0   30.0   16.666666666666668
0.0   30.0   0.0
0.0   60.0   0.0
-50.0   60.0   0.0
0.0   60.0   16.666666666666668
-50.0   30.0   16.666666666666668
-50.0   60.0   16.666666666666668
0.0   60.0   16.666666666666668
-50.0   60.0   0.0
-50.0   30.0   16.666666666666668
0.0   60.0   16.666666666666668
0.0   30.0   16.666666666666668
0.0   30.0   0.0
-50.0   30.0   16.666666666666668
0.0   60.0   16.666666666666668
0.0   30.0   0.0
-50.0   60.0   0.0
-50.0   30.0   16.666666666666668
0.0   30.0   16.666666666666668
-50.0   60.0   16.666666666666668
-50.0   30.0   33.333333333333336
0.0   30.0   16.666666666666668
0.0   60.0   16.666666666666668
-50.0   60.0   16.666666666666668
0.0   60.0   33.333333333333336
-50.0   30.0   33.333333333333336
-50.0   60.0   33.333333333333336
0.0   60.0   33.333333333333336
-50.0   60.0   16.666666666666668
-50.0   30.0   33.333333333333336
0.0   60.0   33.333333333333336
0.0   30.0   33.333333333333336
0.0   30.0   16.666666666666668
-50.0   30.0   33.333333333333336
0.0   60.0   33.333333333333336
0.0   30.0   16.666666666666668
-50.0   60.0   16.666666666666668
-50.0   30.0   33.333333333333336
0.0   30.0   33.333333333333336
-50.0   60.0   33.333333333333336
-50.0   30.0   50.0
0.0   30.0   33.333333333333336
0.0   60.0   33.333333333333336
-50.0   60.0   33.333333333333336
0.0   60.0   50.0
-50.0   30.0   50.0
-50.0   60.0   50.0
0.0   60.0   50.0
-50.0   60.0   33.333333333333336
-50.0   30.0   50.0
0.0   60.0   50.0
0.0   30.0   50.0
0.0   30.0   33.333333333333336
-50.0   30.0   50.0
0.0   60.0   50.0
0.0   30.0   33.333333333333336
-50.0   60.0   33.333333333333336
-50.0   60.0   0.0
0.0   60.0   0.0
-50.0   90.0   0.0
-50.0   60.0   16.666666666666668
0.0   60.0   0.0
0.0   90.0   0.0
-50.0   90.0   0.0
0.0   90.0   16.666666666666668
-50.0   60.0   16.666666666666668
-50.0   90.0   16.666666666666668
0.0   90.0   16.666666666666668
-50.0   90.0   0.0
-50.0   60.0   16.666666666666668
0.0   90.0   16.666666666666668
0.0   60.0   16.666666666666668
0.0   60.0   0.0
-50.0   60.0   16.666666666666668
0.0   90.0   16.666666666666668
0.0   60.0   0.0
-50.0   90.0   0.0
-50.0   60.0   16.666666666666668
0.0   60.0   16.666666666666668
-50.0   90.0   16.666666666666668
-50.0   60.0   33.333333333333336
0.0   60.0   16.666666666666668
0.0   90.0   16.666666666666668
-50.0   90.0   16.666666666666668
0.0   90.0   33.333333333333336
-50.0   60.0   33.333333333333336
-50.0   90.0   33.333333333333336
0.0   90.0   33.333333333333336
-50.0   90.0   16.666666666666668
-50.0   60.0   33.333333333333336
0.0   90.0   33.333333333333336
0.0   60.0   33.333333333333336
0.0   60.0   16.666666666666668
-50.0   60.0   33.333333333333336
0.0   90.0   33.333333333333336
0.0   60.0   16.666666666666668
-50.0   90.0   16.666666666666668
-50.0   60.0   33.333333333333336
0.0   60.0   33.333333333333336
-50.0   90.0   33.333333333333336
-50.0   60.0   50.0
0.0   60.0   33.333333333333336
0.0   90.0   33.333333333333336
-50.0   90.0   33.333333333333336
0.0   90.0   50.0
-50.0   60.0   50.0
-50.0   90.0   50.0
0.0   90.0   50.0
-50.0   90.0   33.333333333333336
-50.0   60.0   50.0
0.0   90.0   50.0
0.0   60.0   50.0
0.0   60.0   33.333333333333336
-50.0   60.0   50.0
0.0   90.0   50.0
0.0   60.0   33.333333333333336
-50.0   90.0   33.333333333333336
-50.0   90.0   0.0
0.0   90.0   0.0
-50.0   120.0   0.0
-50.0   90.0   16.666666666666668
0.0   90.0   0.0
0.0   120.0   0.0
-50.0   120.0   0.0
0.0   120.0   16.666666666666668
-50.0   90.0   16.666666666666668
-50.0   120.0   16.666666666666668
0.0   120.0   16.666666666666668
-50.0   120.0   0.0
-50.0   90.0   16.666666666666668
0.0   120.0   16.666666666666668
0.0   90.0   16.666666666666668
0.0   90.0   0.0
-50.0   90.0   16.666666666666668
0.0   120.0   16.666666666666668
0.0   90.0   0.0
-50.0   120.0   0.0
-50.0   90.0   16.666666666666668
0.0   90.0   16.666666666666668
-50.0   120.0   16.666666666666668
-50.0   90.0   33.333333333333336
0.0   90.0   16.666666666666668
0.0   120.0   16.666666666666668
-50.0   120.0   16.666666666666668
0.0   120.0   33.333333333333336
-50.0   90.0   33.333333333333336
-50.0   120.0   33.333333333333336
0.0   120.0   33.333333333333336
-50.0   120.0   16.666666666666668
-50.0   90.0   33.333333333333336
0.0   120.0   33.333333333333336
0.0   90.0   33.333333333333336
0.0   90.0   16.666666666666668
-50.0   90.0   33.333333333333336
0.0   120.0   33.333333333333336
0.0   90.0   16.666666666666668
-50.0   120.0   16.666666666666668
-50.0   90.0   33.333333333333336
0.0   90.0   33.333333333333336
-50.0   120.0   33.333333333333336
-50.0   90.0   50.0
0.0   90.0   33.333333333333336
0.0   120.0   33.333333333333336
-50.0   120.0   33.333333333333336
0.0   120.0   50.0
-50.0   90.0   50.0
-50.0   120.0   50.0
0.0   120.0   50.0
-50.0   120.0   33.333333333333336
-50.0   90.0   50.0
0.0   120.0   50.0
0.0   90.0   50.0
0.0   90.0   33.333333333333336
-50.0   90.0   50.0
0.0   120.0   50.0
0.0   90.0   33.333333333333336
-50.0   120.0   33.333333333333336
-50.0   120.0   0.0
0.0   120.0   0.0
-50.0   150.0   0.0
-50.0   120.0   16.666666666666668
0.0   120.0   0.0
0.0   150.0   0.0
-50.0   150.0   0.0
0.0   150.0   16.666666666666668
-50.0   120.0   16.666666666666668
-50.0   150.0   16.666666666666668
0.0   150.0   16.666666666666668
-50.0   150.0   0.0
-50.0   120.0   16.666666666666668
0.0   150.0   16.666666666666668
0.0   120.0   16.666666666666668
0.0   120.0   0.0
-50.0   120.0   16.666666666666668
0.0   150.0   16.666666666666668
0.0   120.0   0.0
-50.0   150.0   0.0
-50.0   120.0   16.666666666666668
0.0   120.0   16.666666666666668
-50.0   150.0   16.666666666666668
-50.0   120.0   33.333333333333336
0.0   120.0   16.666666666666668
0.0   150.0   16.666666666666668
-50.0   150.0   16.666666666666668
0.0   150.0   33.333333333333336
-50.0   120.0   33.333333333333336
-50.0   150.0   33.333333333333336
0.0   150.0   33.333333333333336
-50.0   150.0   16.666666666666668
-50.0   120.0   33.333333333333336
0.0   150.0   33.333333333333336
0.0   120.0   33.333333333333336
0.0   120.0   16.666666666666668
-50.0   120.0   33.333333333333336
0.0   150.0   33.333333333333336
0.0   120.0   16.666666666666668
-50.0   150.0   16.666666666666668
-50.0   120.0   33.333333333333336
0.0   120.0   33.333333333333336
-50.0   150.0   33.333333333333336
-50.0   120.0   50.0
0.0   120.0   33.333333333333336
0.0   150.0   33.333333333333336
-50.0   150.0   33.333333333333336
0.0   150.0   50.0
-50.0   120.0   50.0
-50.0   150.0   50.0
0.0   150.0   50.0
-50.0   150.0   33.333333333333336
-50.0   120.0   50.0
0.0   150.0   50.0
0.0   120.0   50.0
0.0   120.0   33.333333333333336
-50.0   120.0   50.0
0.0   150.0   50.0
0.0   120.0   33.333333333333336
-50.0   150.0   33.333333333333336
0.0   0.0   0.0
50.0   0.0   0.0
0.0   30.0   0.0
0.0   0.0   16.666666666666668
50.0   0.0   0.0
50.0   30.0   0.0
0.0   30.0   0.0
50.0   30.0   16.666666666666668
0.0   0.0   16.666666666666668
0.0   30.0   16.666666666666668
50.0   30.0   16.666666666666668
0.0   30.0   0.0
0.0   0.0   16.666666666666668
50.0   30.0   16.666666666666668
50.0   0.0   16.666666666666668
50.0   0.0   0.0
0.0   0.0   16.666666666666668
50.0   30.0   16.666666666666668
50.0   0.0   0.0
0.0   30.0   0.0
0.0   0.0   16.666666666666668
50.0   0.0   16.666666666666668
0.0   30.0   16.666666666666668
0.0   0.0   33.333333333333336
50.0   0.0   16.666666666666668
50.0   30.0   16.666666666666668
0.0   30.0   16.666666666666668
50.0   30.0   33.333333333333336
0.0   0.0   33.333333333333336
0.0   30.0   33.333333333333336
50.0   30.0   33.333333333333336
0.0   30.0   16.666666666666668
0.0   0.0   33.333333333333336
50.0   30.0   33.333333333333336
50.0   0.0   33.333333333333336
50.0   0.0   16.666666666666668
0.0   0.0   33.333333333333336
50.0   30.0   33.333333333333336
50.0   0.0   16.666666666666668
0.0   30.0   16.666666666666668
0.0   0.0   33.333333333333336
50.0   0.0   33.333333333333336
0.0   30.0   33.333333333333336
0.0   0.0   50.0
50.0   0.0   33.333333333333336
50.0   30.0   33.333333333333336
0.0   30.0   33.333333333333336
50.0   30.0   50.0
0.0   0.0   50.0
0.0   30.0   50.0
50.0   30.0   50.0
0.0   30.0   33.333333333333336
0.0   0.0   50.0
50.0   30.0   50.0
50.0   0.0   50.0
50.0   0.0   33.333333333333336
0.0   0.0   50.0
50.0   30.0   50.0
50.0   0.0   33.333333333333336
0.0   30.0   33.333333333333336
0.0   30.0   0.0
50.0   30.0   0.0
0.0   60.0   0.0
0.0   30.0   16.666666666666668
50.0   30.0   0.0
50.0   60.0   0.0
0.0   60.0   0.0
50.0   60.0   16.666666666666668
0.0   30.0   16.666666666666668
0.0   60.0   16.666666666666668
50.0   60.0   16.666666666666668
0.0   60.0   0.0
0.0   30.0   16.666666666666668
50.0   60.0   16.666666666666668
50.0   30.0   16.666666666666668
50.0   30.0   0.0
0.0   30.0   16.666666666666668
50.0   60.0   16.666666666666668
50.0   30.0   0.0
0.0   60.0   0.0
0.0   30.0   16.666666666666668
50.0   30.0   16.666666666666668
0.0   60.0   16.666666666666668
0.0   30.0   33.333333333333336
50.0   30.0   16.666666666666668
50.0   60.0   16.666666666666668
0.0   60.0   16.666666666666668
50.0   60.0   33.333333333333336
0.0   30.0   33.333333333333336
0.0   60.0   33.333333333333336
50.0   60.0   33.333333333333336
0.0   60.0   16.666666666666668
0.0   30.0   33.333333333333336
50.0   60.0   33.333333333333336
50.0   30.0   33.333333333333336
50.0   30.0   16.666666666666668
0.0   30.0   33.333333333333336
50.0   60.0   33.333333333333336
50.0   30.0   16.666666666666668
0.0   60.0   16.666666666666668
0.0   30.0   33.333333333333336
50.0   30.0   33.333333333333336
0.0   60.0   33.333333333333336
0.0   30.0   50.0
50.0   30.0   33.333333333333336
50.0   60.0   33.333333333333336
0.0   60.0   33.333333333333336
50.0   60.0   50.0
0.0   30.0   50.0
0.0   60.0   50.0
50.0   60.0   50.0
0.0   60.0   33.333333333333336
0.0   30.0   50.0
50.0   60.0   50.0
50.0   30.0   50.0
50.0   30.0   33.333333333333336
0.0   30.0   50.0
50.0   60.0   50.0
50.0   30.0   33.333333333333336
0.0   60.0   33.333333333333336
0.0   60.0   0.0
50.0   60.0   0.0
0.0   90.0   0.0
0.0   60.0   16.666666666666668
50.0   60.0   0.0
50.0   90.0   0.0
0.0   90.0   0.0
50.0   90.0   16.666666666666668
0.0   60.0   16.666666666666668
0.0   90.0   16.666666666666668
50.0   90.0   16.666666666666668
0.0   90.0   0.0
0.0   60.0   16.666666666666668
50.0   90.0   16.666666666666668
50.0   60.0   16.666666666666668
50.0   60.0   0.0
0.0   60.0   16.666666666666668
50.0   90.0   16.666666666666668
50.0   60.0   0.0
0.0   90.0   0.0
0.0   60.0   16.666666666666668
50.0   60.0   16.666666666666668
0.0   90.0   16.666666666666668
0.0   60.0   33.333333333333336
50.0   60.0   16.666666666666668
50.0   90.0   16.666666666666668
0.0   90.0   16.666666666666668
50.0   90.0   33.333333333333336
0.0   60.0   33.333333333333336
0.0   90.0   33.333333333333336
50.0   90.0   33.333333333333336
0.0   90.0   16.666666666666668
0.0   60.0   33.333333333333336
50.0   90.0   33.333333333333336
50.0   60.0   33.333333333333336
50.0   60.0   16.666666666666668
0.0   60.0   33.333333333333336
50.0   90.0   33.333333333333336
50.0   60.0   16.666666666666668
0.0   90.0   16.666666666666668
0.0   60.0   33.333333333333336
50.0   60.0   33.333333333333336
0.0   90.0   33.333333333333336
0.0   60.0   50.0
50.0   60.0   33.333333333333336
50.0   90.0   33.333333333333336
0.0   90.0   33.333333333333336
50.0   90.0   50.0
0.0   60.0   50.0
0.0   90.0   50.0
50.0   90.0   50.0
0.0   90.0   33.333333333333336
0.0   60.0   50.0
50.0   90.0   50.0
50.0   60.0   50.0
50.0   60.0   33.333333333333336
0.0   60.0   50.0
50.0   90.0   50.0
50.0   60.0   33.333333333333336
0.0   90.0   33.333333333333336
0.0   90.0   0.0
50.0   90.0   0.0
0.0   120.0   0.0
0.0   90.0   16.666666666666668
50.0   90.0   0.0
50.0   120.0   0.0
0.0   120.0   0.0
50.0   120.0   16.666666666666668
0.0   90.0   16.666666666666668
0.0   120.0   16.666666666666668
50.0   120.0   16.666666666666668
0.0   120.0   0.0
0.0   90.0   16.666666666666668
50.0   120.0   16.666666666666668
50.0   90.0   16.666666666666668
50.0   90.0   0.0
0.0   90.0   16.666666666666668
50.0   120.0   16.666666666666668
50.0   90.0   0.0
0.0   120.0   0.0
0.0   90.0   16.666666666666668
50.0   90.0   16.666666666666668
0.0   120.0   16.666666666666668
0.0   90.0   33.333333333333336
50.0   90.0   16.666666666666668
50.0   120.0   16.666666666666668
0.0   120.0   16.666666666666668
50.0   120.0   33.333333333333336
0.0   90.0   33.333333333333336
0.0   120.0   33.333333333333336
50.0   120.0   33.333333333333336
0.0   120.0   16.666666666666668
0.0   90.0   33.333333333333336
50.0   120.0   33.333333333333336
50.0   90.0   33.333333333333336
50.0   90.0   16.666666666666668
0.0   90.0   33.333333333333336
50.0   120.0   33.333333333333336
50.0   90.0   16.666666666666668
0.0   120.0   16.666666666666668
0.0   90.0   33.333333333333336
50.0   90.0   33.333333333333336
0.0   120.0   33.333333333333336
0.0   90.0   50.0
50.0   90.0   33.333333333333336
50.0   120.0   33.333333333333336
0.0   120.0   33.333333333333336
50.0   120.0   50.0
0.0   90.0   50.0
0.0   120.0   50.0
50.0   120.0   50.0
0.0   120.0   33.333333333333336
0.0   90.0   50.0
50.0   120.0   50.0
50.0   90.0   50.0
50.0   90.0   33.333333333333336
0.0   90.0   50.0
50.0   120.0   50.0
50.0   90.0   33.333333333333336
0.0   120.0   33.333333333333336
0.0   120.0   0.0
50.0   120.0   0.0
0.0   150.0   0.0
0.0   120.0   16.666666666666668
50.0   120.0   0.0
50.0   150.0   0.0
0.0   150.0   0.0
50.0   150.0   16.666666666666668
0.0   120.0   16.666666666666668
0.0   150.0   16.666666666666668
50.0   150.0   16.666666666666668
0.0   150.0   0.0
0.0   120.0   16.666666666666668
50.0   150.0   16.666666666666668
50.0   120.0   16.666666666666668
50.0   120.0   0.0
0.0   120.0   16.666666666666668
50.0   150.0   16.666666666666668
50.0   120.0   0.0
0.0   150.0   0.0
0.0   120.0   16.666666666666668
50.0   120.0   16.666666666666668
0.0   150.0   16.666666666666668
0.0   120.0   33.333333333333336
50.0   120.0   16.666666666666668
50.0   150.0   16.666666666666668
0.0   150.0   16.666666666666668
50.0   150.0   33.333333333333336
0.0   120.0   33.333333333333336
0.0   150.0   33.333333333333336
50.0   150.0   33.333333333333336
0.0   150.0   16.666666666666668
0.0   120.0   33.333333333333336
50.0   150.0   33.333333333333336
50.0   120.0   33.333333333333336
50.0   120.0   16.666666666666668
0.0   120.0   33.333333333333336
50.0   150.0   33.333333333333336
50.0   120.0   16.666666666666668
0.0   150.0   16.666666666666668
0.0   120.0   33.333333333333336
50.0   120.0   33.333333333333336
0.0   150.0   33.333333333333336
0.0   120.0   50.0
50.0   120.0   33.333333333333336
50.0   150.0   33.333333333333336
0.0   150.0   33.333333333333336
50.0   150.0   50.0
0.0   120.0   50.0
0.0   150.0   50.0
50.0   150.0   50.0
0.0   150.0   33.333333333333336
0.0   120.0   50.0
50.0   150.0   50.0
50.0   120.0   50.0
50.0   120.0   33.333333333333336
0.0   120.0   50.0
50.0   150.0   50.0
50.0   120.0   33.333333333333336
0.0   150.0   33.333333333333336
50.0   0.0   0.0
100.0   0.0   0.0
50.0   30.0   0.0
50.0   0.0   16.666666666666668
100.0   0.0   0.0
100.0   30.0   0.0
50.0   30.0   0.0
100.0   30.0   16.666666666666668
50.0   0.0   16.666666666666668
50.0   30.0   16.666666666666668
100.0   30.0   16.666666666666668
50.0   30.0   0.0
50.0   0.0   16.666666666666668
100.0   30.0   16.666666666666668
100.0   0.0   16.666666666666668
100.0   0.0   0.0
50.0   0.0   16.666666666666668
100.0   30.0   16.666666666666668
100.0   0.0   0.0
50.0   30.0   0.0
50.0   0.0   16.666666666666668
100.0   0.0   16.666666666666668
50.0   30.0   16.666666666666668
50.0   0.0   33.333333333333336
100.0   0.0   16.666666666666668
100.0   30.0   16.666666666666668
50.0   30.0   16.666666666666668
100.0   30.0   33.333333333333336
50.0   0.0   33.333333333333336
50.0   30.0   33.333333333333336
100.0   30.0   33.333333333333336
50.0   30.0   16.666666666666668
50.0   0.0   33.333333333333336
100.0   30.0   33.333333333333336
100.0   0.0   33.333333333333336
100.0   0.0   16.666666666666668
50.0   0.0   33.333333333333336
100.0   30.0   33.333333333333336
100.0   0.0   16.666666666666668
50.0   30.0   16.666666666666668
50.0   0.0   33.333333333333336
100.0   0.0   33.333333333333336
50.0   30.0   33.333333333333336
50.0   0.0   50.0
100.0   0.0   33.333333333333336
100.0   30.0   33.333333333333336
50.0   30.0   33.333333333333336
100.0   30.0   50.0
50.0   0.0   50.0
50.0   30.0   50.0
100.0   30.0   50.0
50.0   30.0   33.333333333333336
50.0   0.0   50.0
100.0   30.0   50.0
100.0   0.0   50.0
100.0   0.0   33.333333333333336
50.0   0.0   50.0
100.0   30.0   50.0
100.0   0.0   33.333333333333336
50.0   30.0   33.333333333333336
50.0   30.0   0.0
100.0   30.0   0.0
50.0   60.0   0.0
50.0   30.0   16.666666666666668
100.0   30.0   0.0
100.0   60.0   0.0
50.0   60.0   0.0
100.0   60.0   16.666666666666668
50.0   30.0   16.666666666666668
50.0   60.0   16.666666666666668
100.0   60.0   16.666666666666668
50.0   60.0   0.0
50.0   30.0   16.666666666666668
100.0   60.0   16.666666666666668
100.0   30.0   16.666666666666668
100.0   30.0   0.0
50.0   30.0   16.666666666666668
100.0   60.0   16.666666666666668
100.0   30.0   0.0
50.0   60.0   0.0
50.0   30.0   16.666666666666668
100.0   30.0   16.666666666666668
50.0   60.0   16.666666666666668
50.0   30.0   33.333333333333336
100.0   30.0   16.666666666666668
100.0   60.0   16.666666666666668
50.0   60.0   16.666666666666668
100.0   60.0   33.333333333333336
50.0   30.0   33.333333333333336
50.0   60.0   33.333333333333336
100.0   60.0   33.333333333333336
50.0   60.0   16.666666666666668
50.0   30.0   33.333333333333336
100.0   60.0   33.333333333333336
100.0   30.0   33.333333333333336
100.0   30.0   16.666666666666668
50.0   30.0   33.333333333333336
100.0   60.0   33.333333333333336
100.0   30.0   16.666666666666668
50.0   60.0   16.666666666666668
50.0   30.0   33.333333333333336
100.0   30.0   33.333333333333336
50.0   60.0   33.333333333333336
50.0   30.0   50.0
100.0   30.0   33.333333333333336
100.0   60.0   33.333333333333336
50.0   60.0   33.333333333333336
100.0   60.0   50.0
50.0   30.0   50.0
50.0   60.0   50.0
100.0   60.0   50.0
50.0   60.0   33.333333333333336
50.0   30.0   50.0
100.0   60.0   50.0
100.0   30.0   50.0
100.0   30.0   33.333333333333336
50.0   30.0   50.0
100.0   60.0   50.0
100.0   30.0   33.333333333333336
50.0   60.0   33.333333333333336
50.0   60.0   0.0
100.0   60.0   0.0
50.0   90.0   0.0
50.0   60.0   16.666666666666668
100.0   60.0   0.0
100.0   90.0   0.0
50.0   90.0   0.0
100.0   90.0   16.666666666666668
50.0   60.0   16.666666666666668
50.0   90.0   16.666666666666668
100.0   90.0   16.666666666666668
50.0   90.0   0.0
50.0   60.0   16.666666666666668
100.0   90.0   16.666666666666668
100.0   60.0   16.666666666666668
100.0   60.0   0.0
50.0   60.0   16.666666666666668
100.0   90.0   16.666666666666668
100.0   60.0   0.0
50.0   90.0   0.0
50.0   60.0   16.666666666666668
100.0   60.0   16.666666666666668
50.0   90.0   16.666666666666668
50.0   60.0   33.333333333333336
100.0   60.0   16.666666666666668
100.0   90.0   16.666666666666668
50.0   90.0   16.666666666666668
100.0   90.0   33.333333333333336
50.0   60.0   33.333333333333336
50.0   90.0   33.333333333333336
100.0   90.0   33.333333333333336
50.0   90.0   16.666666666666668
50.0   60.0   33.333333333333336
100.0   90.0   33.333333333333336
100.0   60.0   33.333333333333336
100.0   60.0   16.666666666666668
50.0   60.0   33.333333333333336
100.0   90.0   33.333333333333336
100.0   60.0   16.666666666666668
50.0   90.0   16.666666666666668
50.0   60.0   33.333333333333336
100.0   60.0   33.333333333333336
50.0   90.0   33.333333333333336
50.0   60.0   50.0
100.0   60.0   33.333333333333336
100.0   90.0   33.333333333333336
50.0   90.0   33.333333333333336
100.0   90.0   50.0
50.0   60.0   50.0
50.0   90.0   50.0
100.0   90.0   50.0
50.0   90.0   33.333333333333336
50.0   60.0   50.0
100.0   90.0   50.0
100.0   60.0   50.0
100.0   60.0   33.333333333333336
50.0   60.0   50.0
100.0   90.0   50.0
100.0   60.0   33.333333333333336
50.0   90.0   33.333333333333336
50.0   90.0   0.0
100.0   90.0   0.0
50.0   120.0   0.0
50.0   90.0   16.666666666666668
100.0   90.0   0.0
100.0   120.0   0.0
50.0   120.0   0.0
100.0   120.0   16.666666666666668
50.0   90.0   16.666666666666668
50.0   120.0   16.666666666666668
100.0   120.0   16.666666666666668
50.0   120.0   0.0
50.0   90.0   16.666666666666668
100.0   120.0   16.666666666666668
100.0   90.0   16.666666666666668
100.0   90.0   0.0
50.0   90.0   16.666666666666668
100.0   120.0   16.666666666666668
100.0   90.0   0.0
50.0   120.0   0.0
50.0   90.0   16.666666666666668
100.0   90.0   16.666666666666668
50.0   120.0   16.666666666666668
50.0   90.0   33.333333333333336
100.0   90.0   16.666666666666668
100.0   120.0   16.666666666666668
50.0   120.0   16.666666666666668
100.0   120.0   33.333333333333336
50.0   90.0   33.333333333333336
50.0   120.0   33.333333333333336
100.0   120.0   33.333333333333336
50.0   120.0   16.666666666666668
50.0   90.0   33.333333333333336
100.0   120.0   33.333333333333336
100.0   90.0   33.333333333333336
100.0   90.0   16.666666666666668
50.0   90.0   33.333333333333336
100.0   120.0   33.333333333333336
100.0   90.0   16.666666666666668
50.0   120.0   16.666666666666668
50.0   90.0   33.333333333333336
100.0   90.0   33.333333333333336
50.0   120.0   33.333333333333336
50.0   90.0   50.0
100.0   90.0   33.333333333333336
100.0   120.0   33.333333333333336
50.0   120.0   33.333333333333336
100.0   120.0   50.0
50.0   90.0   50.0
50.0   120.0   50.0
100.0   120.0   50.0
50.0   120.0   33.333333333333336
50.0   90.0   50.0
100.0   120.0   50.0
100.0   90.0   50.0
100.0   90.0   33.333333333333336
50.0   90.0   50.0
100.0   120.0   50.0
100.0   90.0   33.333333333333336
50.0   120.0   33.333333333333336
50.0   120.0   0.0
100.0   120.0   0.0
50.0   150.0   0.0
50.0   120.0   16.666666666666668
100.0   120.0   0.0
100.0   150.0   0.0
50.0   150.0   0.0
100.0   150.0   16.666666666666668
50.0   120.0   16.666666666666668
50.0   150.0   16.666666666666668
100.0   150.0   16.666666666666668
50.0   150.0   0.0
50.0   120.0   16.666666666666668
100.0   150.0   16.666666666666668
100.0   120.0   16.666666666666668
100.0   120.0   0.0
50.0   120.0   16.666666666666668
100.0   150.0   16.666666666666668
100.0   120.0   0.0
50.0   150.0   0.0
50.0   120.0   16.666666666666668
100.0   120.0   16.666666666666668
50.0   150.0   16.666666666666668
50.0   120.0   33.333333333333336
100.0   120.0   16.666666666666668
100.0   150.0   16.666666666666668
50.0   150.0   16.666666666666668
100.0   150.0   33.333333333333336
50.0   120.0   33.333333333333336
50.0   150.0   33.333333333333336
100.0   150.0   33.333333333333336
50.0   150.0   16.666666666666668
50.0   120.0   33.333333333333336
100.0   150.0   33.333333333333336
100.0   120.0   33.333333333333336
100.0   120.0   16.666666666666668
50.0   120.0   33.333333333333336
100.0   150.0   33.333333333333336
100.0   120.0   16.666666666666668
50.0   150.0   16.666666666666668
50.0   120.0   33.333333333333336
100.0   120.0   33.333333333333336
50.0   150.0   33.333333333333336
50.0   120.0   50.0
100.0   120.0   33.333333333333336
100.0   150.0   33.333333333333336
50.0   150.0   33.333333333333336
100.0   150.0   50.0
50.0   120.0   50.0
50.0   150.0   50.0
100.0   150.0   50.0
50.0   150.0   33.333333333333336
50.0   120.0   50.0
100.0   150.0   50.0
100.0   120.0   50.0
100.0   120.0   33.333333333333336
50.0   120.0   50.0
100.0   150.0   50.0
100.0   120.0   33.333333333333336
50.0   150.0   33.333333333333336
100.0   0.0   0.0
150.0   0.0   0.0
100.0   30.0   0.0
100.0   0.0   16.666666666666668
150.0   0.0   0.0
150.0   30.0   0.0
100.0   30.0   0.0
150.0   30.0   16.666666666666668
100.0   0.0   16.666666666666668
100.0   30.0   16.666666666666668
150.0   30.0   16.666666666666668
100.0   30.0   0.0
100.0   0.0   16.666666666666668
150.0   30.0   16.666666666666668
150.0   0.0   16.666666666666668
150.0   0.0   0.0
100.0   0.0   16.666666666666668
150.0   30.0   16.666666666666668
150.0   0.0   0.0
100.0   30.0   0.0
100.0   0.0   16.666666666666668
150.0   0.0   16.666666666666668
100.0   30.0   16.666666666666668
100.0   0.0   33.333333333333336
150.0   0.0   16.666666666666668
150.0   30.0   16.666666666666668
100.0   30.0   16.666666666666668
150.0   30.0   33.333333333333336
100.0   0.0   33.333333333333336
100.0   30.0   33.333333333333336
150.0   30.0   33.333333333333336
100.0   30.0   16.666666666666668
100.0   0.0   33.333333333333336
150.0   30.0   33.333333333333336
150.0   0.0   33.333333333333336
150.0   0.0   16.666666666666668
100.0   0.0   33.333333333333336
150.0   30.0   33.333333333333336
150.0   0.0   16.666666666666668
100.0   30.0   16.666666666666668
100.0   0.0   33.333333333333336
150.0   0.0   33.333333333333336
100.0   30.0   33.333333333333336
100.0   0.0   50.0
150.0   0.0   33.333333333333336
150.0   30.0   33.333333333333336
100.0   30.0   33.333333333333336
150.0   30.0   50.0
100.0   0.0   50.0
100.0   30.0   50.0
150.0   30.0   50.0
100.0   30.0   33.333333333333336
100.0   0.0   50.0
150.0   30.0   50.0
150.0   0.0   50.0
150.0   0.0   33.333333333333336
100.0   0.0   50.0
150.0   30.0   50.0
150.0   0.0   33.333333333333336
100.0   30.0   33.333333333333336
100.0   30.0   0.0
150.0   30.0   0.0
100.0   60.0   0.0
100.0   30.0   16.666666666666668
150.0   30.0   0.0
150.0   60.0   0.0
100.0   60.0   0.0
150.0   60.0   16.666666666666668
100.0   30.0   16.666666666666668
100.0   60.0   16.666666666666668
150.0   60.0   16.666666666666668
100.0   60.0   0.0
100.0   30.0   16.666666666666668
150.0   60.0   16.666666666666668
150.0   30.0   16.666666666666668
150.0   30.0   0.0
100.0   30.0   16.666666666666668
150.0   60.0   16.666666666666668
150.0   30.0   0.0
100.0   60.0   0.0
100.0   30.0   16.666666666666668
150.0   30.0   16.666666666666668
100.0   60.0   16.666666666666668
100.0   30.0   33.333333333333336
150.0   30.0   16.666666666666668
150.0   60.0   16.666666666666668
100.0   60.0   16.666666666666668
150.0   60.0   33.333333333333336
100.0   30.0   33.333333333333336
100.0   60.0   33.333333333333336
150.0   60.0   33.333333333333336
100.0   60.0   16.666666666666668
100.0   30.0   33.333333333333336
150.0   60.0   33.333333333333336
150.0   30.0   33.333333333333336
150.0   30.0   16.666666666666668
100.0   30.0   33.333333333333336
150.0   60.0   33.333333333333336
150.0   30.0   16.666666666666668
100.0   60.0   16.666666666666668
100.0   30.0   33.333333333333336
150.0   30.0   33.333333333333336
100.0   60.0   33.333333333333336
100.0   30.0   50.0
150.0   30.0   33.333333333333336
150.0   60.0   33.333333333333336
100.0   60.0   33.333333333333336
150.0   60.0   50.0
100.0   30.0   50.0
100.0   60.0   50.0
150.0   60.0   50.0
100.0   60.0   33.333333333333336
100.0   30.0   50.0
150.0   60.0   50.0
150.0   30.0   50.0
150.0   30.0   33.333333333333336
100.0   30.0   50.0
150.0   60.0   50.0
150.0   30.0   33.333333333333336
100.0   60.0   33.333333333333336
100.0   60.0   0.0
150.0   60.0   0.0
100.0   90.0   0.0
100.0   60.0   16.666666666666668
150.0   60.0   0.0
150.0   90.0   0.0
100.0   90.0   0.0
150.0   90.0   16.666666666666668
100.0   60.0   16.666666666666668
100.0   90.0   16.666666666666668
150.0   90.0   16.666666666666668
100.0   90.0   0.0
100.0   60.0   16.666666666666668
150.0   90.0   16.666666666666668
150.0   60.0   16.666666666666668
150.0   60.0   0.0
100.0   60.0   16.666666666666668
150.0   90.0   16.666666666666668
150.0   60.0   0.0
100.0   90.0   0.0
100.0   60.0   16.666666666666668
150.0   60.0   16.666666666666668
100.0   90.0   16.666666666666668
100.0   60.0   33.333333333333336
150.0   60.0   16.666666666666668
150.0   90.0   16.666666666666668
100.0   90.0   16.666666666666668
150.0   90.0   33.333333333333336
100.0   60.0   33.333333333333336
100.0   90.0   33.333333333333336
150.0   90.0   33.333333333333336
100.0   90.0   16.666666666666668
100.0   60.0   33.333333333333336
150.0   90.0   33.333333333333336
150.0   60.0   33.333333333333336
150.0   60.0   16.666666666666668
100.0   60.0   33.333333333333336
150.0   90.0   33.333333333333336
150.0   60.0   16.666666666666668
100.0   90.0   16.666666666666668
100.0   60.0   33.333333333333336
150.0   60.0   33.333333333333336
100.0   90.0   33.333333333333336
100.0   60.0   50.0
150.0   60.0   33.333333333333336
150.0   90.0   33.333333333333336
100.0   90.0   33.333333333333336
150.0   90.0   50.0
100.0   60.0   50.0
100.0   90.0   50.0
150.0   90.0   50.0
100.0   90.0   33.333333333333336
100.0   60.0   50.0
150.0   90.0   50.0
150.0   60.0   50.0
150.0   60.0   33.333333333333336
100.0   60.0   50.0
150.0   90.0   50.0
150.0   60.0   33.333333333333336
100.0   90.0   33.333333333333336
100.0   90.0   0.0
150.0   90.0   0.0
100.0   120.0   0.0
100.0   90.0   16.666666666666668
150.0   90.0   0.0
150.0   120.0   0.0
100.0   120.0   0.0
150.0   120.0   16.666666666666668
100.0   90.0   16.666666666666668
100.0   120.0   16.666666666666668
150.0   120.0   16.666666666666668
100.0   120.0   0.0
100.0   90.0   16.666666666666668
150.0   120.0   16.666666666666668
150.0   90.0   16.666666666666668
150.0   90.0   0.0
100.0   90.0   16.666666666666668
150.0   120.0   16.666666666666668
150.0   90.0   0.0
100.0   120.0   0.0
100.0   90.0   16.666666666666668
150.0   90.0   16.666666666666668
100.0   120.0   16.666666666666668
100.0   90.0   33.333333333333336
150.0   90.0   16.666666666666668
150.0   120.0   16.666666666666668
100.0   120.0   16.666666666666668
150.0   120.0   33.333333333333336
100.0   90.0   33.333333333333336
100.0   120.0   33.333333333333336
150.0   120.0   33.333333333333336
100.0   120.0   16.666666666666668
100.0   90.0   33.333333333333336
150.0   120.0   33.333333333333336
150.0   90.0   33.333333333333336
150.0   90.0   16.666666666666668
100.0   90.0   33.333333333333336
150.0   120.0   33.333333333333336
150.0   90.0   16.666666666666668
100.0   120.0   16.666666666666668
100.0   90.0   33.333333333333336
150.0   90.0   33.333333333333336
100.0   120.0   33.333333333333336
100.0   90.0   50.0
150.0   90.0   33.333333333333336
150.0   120.0   33.333333333333336
100.0   120.0   33.333333333333336
150.0   120.0   50.0
100.0   90.0   50.0
100.0   120.0   50.0
150.0   120.0   50.0
100.0   120.0   33.333333333333336
100.0   90.0   50.0
150.0   120.0   50.0
150.0   90.0   50.0
150.0   90.0   33.333333333333336
100.0   90.0   50.0
150.0   120.0   50.0
150.0   90.0   33.333333333333336
100.0   120.0   33.333333333333336
100.0   120.0   0.0
150.0   120.0   0.0
100.0   150.0   0.0
100.0   120.0   16.666666666666668
150.0   120.0   0.0
150.0   150.0   0.0
100.0   150.0   0.0
150.0   150.0   16.666666666666668
100.0   120.0   16.666666666666668
100.0   150.0   16.666666666666668
150.0   150.0   16.666666666666668
100.0   150.0   0.0
100.0   120.0   16.666666666666668
150.0   150.0   16.666666666666668
150.0   120.0   16.666666666666668
150.0   120.0   0.0
100.0   120.0   16.666666666666668
150.0   150.0   16.666666666666668
150.0   120.0   0.0
100.0   150.0   0.0
100.0   120.0   16.666666666666668
150.0   120.0   16.666666666666668
100.0   150.0   16.666666666666668
100.0   120.0   33.333333333333336
150.0   120.0   16.666666666666668
150.0   150.0   16.666666666666668
100.0   150.0   16.666666666666668
150.0   150.0   33.333333333333336
100.0   120.0   33.333333333333336
100.0   150.0   33.333333333333336
150.0   150.0   33.333333333333336
100.0   150.0   16.666666666666668
100.0   120.0   33.333333333333336
150.0   150.0   33.333333333333336
150.0   120.0   33.333333333333336
150.0   120.0   16.666666666666668
100.0   120.0   33.333333333333336
150.0   150.0   33.333333333333336
150.0   120.0   16.666666666666668
100.0   150.0   16.666666666666668
100.0   120.0   33.333333333333336
150.0   120.0   33.333333333333336
100.0   150.0   33.333333333333336
100.0   120.0   50.0
150.0   120.0   33.333333333333336
150.0   150.0   33.333333333333336
100.0   150.0   33.333333333333336
150.0   150.0   50.0
100.0   120.0   50.0
100.0   150.0   50.0
150.0   150.0   50.0
100.0   150.0   33.333333333333336
100.0   120.0   50.0
150.0   150.0   50.0
150.0   120.0   50.0
150.0   120.0   33.333333333333336
100.0   120.0   50.0
150.0   150.0   50.0
150.0   120.0   33.333333333333336
100.0   150.0   33.333333333333336
150.0   0.0   0.0
200.0   0.0   0.0
150.0   30.0   0.0
150.0   0.0   16.666666666666668
200.0   0.0   0.0
200.0   30.0   0.0
150.0   30.0   0.0
200.0   30.0   16.666666666666668
150.0   0.0   16.666666666666668
150.0   30.0   16.666666666666668
200.0   30.0   16.666666666666668
150.0   30.0   0.0
150.0   0.0   16.666666666666668
200.0   30.0   16.666666666666668
200.0   0.0   16.666666666666668
200.0   0.0   0.0
150.0   0.0   16.666666666666668
200.0   30.0   16.666666666666668
200.0   0.0   0.0
150.0   30.0   0.0
150.0   0.0   16.666666666666668
200.0   0.0   16.666666666666668
150.0   30.0   16.666666666666668
150.0   0.0   33.333333333333336
200.0   0.0   16.666666666666668
200.0   30.0   16.666666666666668
150.0   30.0   16.666666666666668
200.0   30.0   33.333333333333336
150.0   0.0   33.333333333333336
150.0   30.0   33.333333333333336
200.0   30.0   33.333333333333336
150.0   30.0   16.666666666666668
150.0   0.0   33.333333333333336
200.0   30.0   33.333333333333336
200.0   0.0   33.333333333333336
200.0   0.0   16.666666666666668
150.0   0.0   33.333333333333336
200.0   30.0   33.333333333333336
200.0   0.0   16.666666666666668
150.0   30.0   16.666666666666668
150.0   0.0   33.333333333333336
200.0   0.0   33.333333333333336
150.0   30.0   33.333333333333336
150.0   0.0   50.0
200.0   0.0   33.333333333333336
200.0   30.0   33.333333333333336
150.0   30.0   33.333333333333336
200.0   30.0   50.0
150.0   0.0   50.0
150.0   30.0   50.0
200.0   30.0   50.0
150.0   30.0   33.333333333333336
150.0   0.0   50.0
200.0   30.0   50.0
200.0   0.0   50.0
200.0   0.0   33.333333333333336
150.0   0.0   50.0
200.0   30.0   50.0
200.0   0.0   33.333333333333336
150.0   30.0   33.333333333333336
150.0   30.0   0.0
200.0   30.0   0.0
150.0   60.0   0.0
150.0   30.0   16.666666666666668
200.0   30.0   0.0
200.0   60.0   0.0
150.0   60.0   0.0
200.0   60.0   16.666666666666668
150.0   30.0   16.666666666666668
150.0   60.0   16.666666666666668
200.0   60.0   16.666666666666668
150.0   60.0   0.0
150.0   30.0   16.666666666666668
200.0   60.0   16.666666666666668
200.0   30.0   16.666666666666668
200.0   30.0   0.0
150.0   30.0   16.666666666666668
200.0   60.0   16.666666666666668
200.0   30.0   0.0
150.0   60.0   0.0
150.0   30.0   16.666666666666668
200.0   30.0   16.666666666666668
150.0   60.0   16.666666666666668
150.0   30.0   33.333333333333336
200.0   30.0   16.666666666666668
200.0   60.0   16.666666666666668
150.0   60.0   16.666666666666668
200.0   60.0   33.333333333333336
150.0   30.0   33.333333333333336
150.0   60.0   33.333333333333336
200.0   60.0   33.333333333333336
150.0   60.0   16.666666666666668
150.0   30.0   33.333333333333336
200.0   60.0   33.333333333333336
200.0   30.0   33.333333333333336
200.0   30.0   16.666666666666668
150.0   30.0   33.333333333333336
200.0   60.0   33.333333333333336
200.0   30.0   16.666666666666668
150.0   60.0   16.666666666666668
150.0   30.0   33.333333333333336
200.0   30.0   33.333333333333336
150.0   60.0   33.333333333333336
150.0   30.0   50.0
200.0   30.0   33.333333333333336
200.0   60.0   33.333333333333336
150.0   60.0   33.333333333333336
200.0   60.0   50.0
150.0   30.0   50.0
150.0   60.0   50.0
200.0   60.0   50.0
150.0   60.0   33.333333333333336
150.0   30.0   50.0
200.0   60.0   50.0
200.0   30.0   50.0
200.0   30.0   33.333333333333336
150.0   30.0   50.0
200.0   60.0   50.0
200.0   30.0   33.333333333333336
150.0   60.0   33.333333333333336
150.0   60.0   0.0
200.0   60.0   0.0
150.0   90.0   0.0
150.0   60.0   16.666666666666668
200.0   60.0   0.0
200.0   90.0   0.0
150.0   90.0   0.0
200.0   90.0   16.666666666666668
150.0   60.0   16.666666666666668
150.0   90.0   16.666666666666668
200.0   90.0   16.666666666666668
150.0   90.0   0.0
150.0   60.0   16.666666666666668
200.0   90.0   16.666666666666668
200.0   60.0   16.666666666666668
200.0   60.0   0.0
150.0   60.0   16.666666666666668
200.0   90.0   16.666666666666668
200.0   60.0   0.0
150.0   90.0   0.0
150.0   60.0   16.666666666666668
200.0   60.0   16.666666666666668
150.0   90.0   16.666666666666668
150.0   60.0   33.333333333333336
200.0   60.0   16.666666666666668
200.0   90.0   16.666666666666668
150.0   90.0   16.666666666666668
200.0   90.0   33.333333333333336
150.0   60.0   33.333333333333336
150.0   90.0   33.333333333333336
200.0   90.0   33.333333333333336
150.0   90.0   16.666666666666668
150.0   60.0   33.333333333333336
200.0   90.0   33.333333333333336
200.0   60.0   33.333333333333336
200.0   60.0   16.666666666666668
150.0   60.0   33.333333333333336
200.0   90.0   33.333333333333336
200.0   60.0   16.666666666666668
150.0   90.0   16.666666666666668
150.0   60.0   33.333333333333336
200.0   60.0   33.333333333333336
150.0   90.0   33.333333333333336
150.0   60.0   50.0
200.0   60.0   33.333333333333336
200.0   90.0   33.333333333333336
150.0   90.0   33.333333333333336
200.0   90.0   50.0
150.0   60.0   50.0
150.0   90.0   50.0
200.0   90.0   50.0
150.0   90.0   33.333333333333336
150.0   60.0   50.0
200.0   90.0   50.0
200.0   60.0   50.0
200.0   60.0   33.333333333333336
150.0   60.0   50.0
200.0   90.0   50.0
200.0   60.0   33.333333333333336
150.0   90.0   33.333333333333336
150.0   90.0   0.0
200.0   90.0   0.0
150.0   120.0   0.0
150.0   90.0   16.666666666666668
200.0   90.0   0.0
200.0   120.0   0.0
150.0   120.0   0.0
200.0   120.0   16.666666666666668
150.0   90.0   16.666666666666668
150.0   120.0   16.666666666666668
200.0   120.0   16.666666666666668
150.0   120.0   0.0
150.0   90.0   16.666666666666668
200.0   120.0   16.666666666666668
200.0   90.0   16.666666666666668
200.0   90.0   0.0
150.0   90.0   16.666666666666668
200.0   120.0   16.666666666666668
200.0   90.0   0.0
150.0   120.0   0.0
150.0   90.0   16.666666666666668
200.0   90.0   16.666666666666668
150.0   120.0   16.666666666666668
150.0   90.0   33.333333333333336
200.0   90.0   16.666666666666668
200.0   120.0   16.666666666666668
150.0   120.0   16.666666666666668
200.0   120.0   33.333333333333336
150.0   90.0   33.333333333333336
150.0   120.0   33.333333333333336
200.0   120.0   33.333333333333336
150.0   120.0   16.666666666666668
150.0   90.0   33.333333333333336
200.0   120.0   33.333333333333336
200.0   90.0   33.333333333333336
200.0   90.0   16.666666666666668
150.0   90.0   33.333333333333336
200.0   120.0   33.333333333333336
200.0   90.0   16.666666666666668
150.0   120.0   16.666666666666668
150.0   90.0   33.333333333333336
200.0   90.0   33.333333333333336
150.0   120.0   33.333333333333336
150.0   90.0   50.0
200.0   90.0   33.333333333333336
200.0   120.0   33.333333333333336
150.0   120.0   33.333333333333336
200.0   120.0   50.0
150.0   90.0   50.0
150.0   120.0   50.0
200.0   120.0   50.0
150.0   120.0   33.333333333333336
150.0   90.0   50.0
200.0   120.0   50.0
200.0   90.0   50.0
200.0   90.0   33.333333333333336
150.0   90.0   50.0
200.0   120.0   50.0
200.0   90.0   33.333333333333336
150.0   120.0   33.333333333333336
150.0   120.0   0.0
200.0   120.0   0.0
150.0   150.0   0.0
150.0   120.0   16.666666666666668
200.0   120.0   0.0
200.0   150.0   0.0
150.0   150.0   0.0
200.0   150.0   16.666666666666668
150.0   120.0   16.666666666666668
150.0   150.0   16.666666666666668
200.0   150.0   16.666666666666668
150.0   150.0   0.0
150.0   120.0   16.666666666666668
200.0   150.0   16.666666666666668
200.0   120.0   16.666666666666668
200.0   120.0   0.0
150.0   120.0   16.666666666666668
200.0   150.0   16.666666666666668
200.0   120.0   0.0
150.0   150.0   0.0
150.0   120.0   16.666666666666668
200.0   120.0   16.666666666666668
150.0   150.0   16.666666666666668
150.0   120.0   33.333333333333336
200.0   120.0   16.666666666666668
200.0   150.0   16.666666666666668
150.0   150.0   16.666666666666668
200.0   150.0   33.333333333333336
150.0   120.0   33.333333333333336
150.0   150.0   33.333333333333336
200.0   150.0   33.333333333333336
150.0   150.0   16.666666666666668
150.0   120.0   33.333333333333336
200.0   150.0   33.333333333333336
200.0   120.0   33.333333333333336
200.0   120.0   16.666666666666668
150.0   120.0   33.333333333333336
200.0   150.0   33.333333333333336
200.0   120.0   16.666666666666668
150.0   150.0   16.666666666666668
150.0   120.0   33.333333333333336
200.0   120.0   33.333333333333336
150.0   150.0   33.333333333333336
150.0   120.0   50.0
200.0   120.0   33.333333333333336
200.0   150.0   33.333333333333336
150.0   150.0   33.333333333333336
200.0   150.0   50.0
150.0   120.0   50.0
150.0   150.0   50.0
200.0   150.0   50.0
150.0   150.0   33.333333333333336
150.0   120.0   50.0
200.0   150.0   50.0
200.0   120.0   50.0
200.0   120.0   33.333333333333336
150.0   120.0   50.0
200.0   150.0   50.0
200.0   120.0   33.333333333333336
150.0   150.0   33.333333333333336
200.0   0.0   0.0
250.0   0.0   0.0
200.0   30.0   0.0
200.0   0.0   16.666666666666668
250.0   0.0   0.0
250.0   30.0   0.0
200.0   30.0   0.0
250.0   30.0   16.666666666666668
200.0   0.0   16.666666666666668
200.0   30.0   16.666666666666668
250.0   30.0   16.666666666666668
200.0   30.0   0.0
200.0   0.0   16.666666666666668
250.0   30.0   16.666666666666668
250.0   0.0   16.666666666666668
250.0   0.0   0.0
200.0   0.0   16.666666666666668
250.0   30.0   16.666666666666668
250.0   0.0   0.0
200.0   30.0   0.0
200.0   0.0   16.666666666666668
250.0   0.0   16.666666666666668
200.0   30.0   16.666666666666668
200.0   0.0   33.333333333333336
250.0   0.0   16.666666666666668
250.0   30.0   16.666666666666668
200.0   30.0   16.666666666666668
250.0   30.0   33.333333333333336
200.0   0.0   33.333333333333336
200.0   30.0   33.333333333333336
250.0   30.0   33.333333333333336
200.0   30.0   16.666666666666668
200.0   0.0   33.333333333333336
250.0   30.0   33.333333333333336
250.0   0.0   33.333333333333336
250.0   0.0   16.666666666666668
200.0   0.0   33.333333333333336
250.0   30.0   33.333333333333336
250.0   0.0   16.666666666666668
200.0   30.0   16.666666666666668
200.0   0.0   33.333333333333336
250.0   0.0   33.333333333333336
200.0   30.0   33.333333333333336
200.0   0.0   50.0
250.0   0.0   33.333333333333336
250.0   30.0   33.333333333333336
200.0   30.0   33.333333333333336
250.0   30.0   50.0
200.0   0.0   50.0
200.0   30.0   50.0
250.0   30.0   50.0
200.0   30.0   33.333333333333336
200.0   0.0   50.0
250.0   30.0   50.0
250.0   0.0   50.0
250.0   0.0   33.333333333333336
200.0   0.0   50.0
250.0   30.0   50.0
250.0   0.0   33.333333333333336
200.0   30.0   33.333333333333336
200.0   30.0   0.0
250.0   30.0   0.0
200.0   60.0   0.0
200.0   30.0   16.666666666666668
250.0   30.0   0.0
250.0   60.0   0.0
200.0   60.0   0.0
250.0   60.0   16.666666666666668
200.0   30.0   16.666666666666668
200.0   60.0   16.666666666666668
250.0   60.0   16.666666666666668
200.0   60.0   0.0
200.0   30.0   16.666666666666668
250.0   60.0   16.666666666666668
250.0   30.0   16.666666666666668
250.0   30.0   0.0
200.0   30.0   16.666666666666668
250.0   60.0   16.666666666666668
250.0   30.0   0.0
200.0   60.0   0.0
200.0   30.0   16.666666666666668
250.0   30.0   16.666666666666668
200.0   60.0   16.666666666666668
200.0   30.0   33.333333333333336
250.0   30.0   16.666666666666668
250.0   60.0   16.666666666666668
200.0   60.0   16.666666666666668
250.0   60.0   33.333333333333336
200.0   30.0   33.333333333333336
200.0   60.0   33.333333333333336
250.0   60.0   33.333333333333336
200.0   60.0   16.666666666666668
200.0   30.0   33.333333333333336
250.0   60.0   33.333333333333336
250.0   30.0   33.333333333333336
250.0   30.0   16.666666666666668
200.0   30.0   33.333333333333336
250.0   60.0   33.333333333333336
250.0   30.0   16.666666666666668
200.0   60.0   16.666666666666668
200.0   30.0   33.333333333333336
250.0   30.0   33.333333333333336
200.0   60.0   33.333333333333336
200.0   30.0   50.0
250.0   30.0   33.333333333333336
250.0   60.0   33.333333333333336
200.0   60.0   33.333333333333336
250.0   60.0   50.0
200.0   30.0   50.0
200.0   60.0   50.0
250.0   60.0   50.0
200.0   60.0   33.333333333333336
200.0   30.0   50.0
250.0   60.0   50.0
250.0   30.0   50.0
250.0   30.0   33.333333333333336
200.0   30.0   50.0
250.0   60.0   50.0
250.0   30.0   33.333333333333336
200.0   60.0   33.333333333333336
200.0   60.0   0.0
250.0   60.0   0.0
200.0   90.0   0.0
200.0   60.0   16.666666666666668
250.0   60.0   0.0
250.0   90.0   0.0
200.0   90.0   0.0
250.0   90.0   16.666666666666668
200.0   60.0   16.666666666666668
200.0   90.0   16.666666666666668
250.0   90.0   16.666666666666668
200.0   90.0   0.0
200.0   60.0   16.666666666666668
250.0   90.0   16.666666666666668
250.0   60.0   16.666666666666668
250.0   60.0   0.0
200.0   60.0   16.666666666666668
250.0   90.0   16.666666666666668
250.0   60.0   0.0
200.0   90.0   0.0
200.0   60.0   16.666666666666668
250.0   60.0   16.666666666666668
200.0   90.0   16.666666666666668
200.0   60.0   33.333333333333336
250.0   60.0   16.666666666666668
250.0   90.0   16.666666666666668
200.0   90.0   16.666666666666668
250.0   90.0   33.333333333333336
200.0   60.0   33.333333333333336
200.0   90.0   33.333333333333336
250.0   90.0   33.333333333333336
200.0   90.0   16.666666666666668
200.0   60.0   33.333333333333336
250.0   90.0   33.333333333333336
250.0   60.0   33.333333333333336
250.0   60.0   16.666666666666668
200.0   60.0   33.333333333333336
250.0   90.0   33.333333333333336
250.0   60.0   16.666666666666668
200.0   90.0   16.666666666666668
200.0   60.0   33.333333333333336
250.0   60.0   33.333333333333336
200.0   90.0   33.333333333333336
200.0   60.0   50.0
250.0   60.0   33.333333333333336
250.0   90.0   33.333333333333336
200.0   90.0   33.333333333333336
250.0   90.0   50.0
200.0   60.0   50.0
200.0   90.0   50.0
250.0   90.0   50.0
200.0   90.0   33.333333333333336
200.0   60.0   50.0
250.0   90.0   50.0
250.0   60.0   50.0
250.0   60.0   33.333333333333336
200.0   60.0   50.0
250.0   90.0   50.0
250.0   60.0   33.333333333333336
200.0   90.0   33.333333333333336
200.0   90.0   0.0
250.0   90.0   0.0
200.0   120.0   0.0
200.0   90.0   16.666666666666668
250.0   90.0   0.0
250.0   120.0   0.0
200.0   120.0   0.0
250.0   120.0   16.666666666666668
200.0   90.0   16.666666666666668
200.0   120.0   16.666666666666668
250.0   120.0   16.666666666666668
200.0   120.0   0.0
200.0   90.0   16.666666666666668
250.0   120.0   16.666666666666668
250.0   90.0   16.666666666666668
250.0   90.0   0.0
200.0   90.0   16.666666666666668
250.0   120.0   16.666666666666668
250.0   90.0   0.0
200.0   120.0   0.0
200.0   90.0   16.666666666666668
250.0   90.0   16.666666666666668
200.0   120.0   16.666666666666668
200.0   90.0   33.333333333333336
250.0   90.0   16.666666666666668
250.0   120.0   16.666666666666668
200.0   120.0   16.666666666666668
250.0   120.0   33.333333333333336
200.0   90.0   33.333333333333336
200.0   120.0   33.333333333333336
250.0   120.0   33.333333333333336
200.0   120.0   16.666666666666668
200.0   90.0   33.333333333333336
250.0   120.0   33.333333333333336
250.0   90.0   33.333333333333336
250.0   90.0   16.666666666666668
200.0   90.0   33.333333333333336
250.0   120.0   33.333333333333336
250.0   90.0   16.666666666666668
200.0   120.0   16.666666666666668
200.0   90.0   33.333333333333336
250.0   90.0   33.333333333333336
200.0   120.0   33.333333333333336
200.0   90.0   50.0
250.0   90.0   33.333333333333336
250.0   120.0   33.333333333333336
200.0   120.0   33.333333333333336
250.0   120.0   50.0
200.0   90.0   50.0
200.0   120.0   50.0
250.0   120.0   50.0
200.0   120.0   33.333333333333336
200.0   90.0   50.0
250.0   120.0   50.0
250.0   90.0   50.0
250.0   90.0   33.333333333333336
200.0   90.0   50.0
250.0   120.0   50.0
250.0   90.0   33.333333333333336
200.0   120.0   33.333333333333336
200.0   120.0   0.0
250.0   120.0   0.0
200.0   150.0   0.0
200.0   120.0   16.666666666666668
250.0   120.0   0.0
250.0   150.0   0.0
200.0   150.0   0.0
250.0   150.0   16.666666666666668
200.0   120.0   16.666666666666668
200.0   150.0   16.666666666666668
250.0   150.0   16.666666666666668
200.0   150.0   0.0
200.0   120.0   16.666666666666668
250.0   150.0   16.666666666666668
250.0   120.0   16.666666666666668
250.0   120.0   0.0
200.0   120.0   16.666666666666668
250.0   150.0   16.666666666666668
250.0   120.0   0.0
200.0   150.0   0.0
200.0   120.0   16.666666666666668
250.0   120.0   16.666666666666668
200.0   150.0   16.666666666666668
200.0   120.0   33.333333333333336
250.0   120.0   16.666666666666668
250.0   150.0   16.666666666666668
200.0   150.0   16.666666666666668
250.0   150.0   33.333333333333336
200.0   120.0   33.333333333333336
200.0   150.0   33.333333333333336
250.0   150.0   33.333333333333336
200.0   150.0   16.666666666666668
200.0   120.0   33.333333333333336
250.0   150.0   33.333333333333336
250.0   120.0   33.333333333333336
250.0   120.0   16.666666666666668
200.0   120.0   33.333333333333336
250.0   150.0   33.333333333333336
250.0   120.0   16.666666666666668
200.0   150.0   16.666666666666668
200.0   120.0   33.333333333333336
250.0   120.0   33.333333333333336
200.0   150.0   33.333333333333336
200.0   120.0   50.0
250.0   120.0   33.333333333333336
250.0   150.0   33.333333333333336
200.0   150.0   33.333333333333336
250.0   150.0   50.0
200.0   120.0   50.0
200.0   150.0   50.0
250.0   150.0   50.0
200.0   150.0   33.333333333333336
200.0   120.0   50.0
250.0   150.0   50.0
250.0   120.0   50.0
250.0   120.0   33.333333333333336
200.0   120.0   50.0
250.0   150.0   50.0
250.0   120.0   33.333333333333336
200.0   150.0   33.333333333333336
250.0   0.0   0.0
300.0   0.0   0.0
250.0   30.0   0.0
250.0   0.0   16.666666666666668
300.0   0.0   0.0
300.0   30.0   0.0
250.0   30.0   0.0
300.0   30.0   16.666666666666668
250.0   0.0   16.666666666666668
250.0   30.0   16.666666666666668
300.0   30.0   16.666666666666668
250.0   30.0   0.0
250.0   0.0   16.666666666666668
300.0   30.0   16.666666666666668
300.0   0.0   16.666666666666668
300.0   0.0   0.0
250.0   0.0   16.666666666666668
300.0   30.0   16.666666666666668
300.0   0.0   0.0
250.0   30.0   0.0
250.0   0.0   16.666666666666668
300.0   0.0   16.666666666666668
250.0   30.0   16.666666666666668
250.0   0.0   33.333333333333336
300.0   0.0   16.666666666666668
300.0   30.0   16.666666666666668
250.0   30.0   16.666666666666668
300.0   30.0   33.333333333333336
250.0   0.0   33.333333333333336
250.0   30.0   33.333333333333336
300.0   30.0   33.333333333333336
250.0   30.0   16.666666666666668
250.0   0.0   33.333333333333336
300.0   30.0   33.333333333333336
300.0   0.0   33.333333333333336
300.0   0.0   16.666666666666668
250.0   0.0   33.333333333333336
300.0   30.0   33.333333333333336
300.0   0.0   16.666666666666668
250.0   30.0   16.666666666666668
250.0   0.0   33.333333333333336
300.0   0.0   33.333333333333336
250.0   30.0   33.333333333333336
250.0   0.0   50.0
300.0   0.0   33.333333333333336
300.0   30.0   33.333333333333336
250.0   30.0   33.333333333333336
300.0   30.0   50.0
250.0   0.0   50.0
250.0   30.0   50.0
300.0   30.0   50.0
250.0   30.0   33.333333333333336
250.0   0.0   50.0
300.0   30.0   50.0
300.0   0.0   50.0
300.0   0.0   33.333333333333336
250.0   0.0   50.0
300.0   30.0   50.0
300.0   0.0   33.333333333333336
250.0   30.0   33.333333333333336
250.0   30.0   0.0
300.0   30.0   0.0
250.0   60.0   0.0
250.0   30.0   16.666666666666668
300.0   30.0   0.0
300.0   60.0   0.0
250.0   60.0   0.0
300.0   60.0   16.666666666666668
250.0   30.0   16.666666666666668
250.0   60.0   16.666666666666668
300.0   60.0   16.666666666666668
250.0   60.0   0.0
250.0   30.0   16.666666666666668
300.0   60.0   16.666666666666668
300.0   30.0   16.666666666666668
300.0   30.0   0.0
250.0   30.0   16.666666666666668
300.0   60.0   16.666666666666668
300.0   30.0   0.0
250.0   60.0   0.0
250.0   30.0   16.666666666666668
300.0   30.0   16.666666666666668
250.0   60.0   16.666666666666668
250.0   30.0   33.333333333333336
300.0   30.0   16.666666666666668
300.0   60.0   16.666666666666668
250.0   60.0   16.666666666666668
300.0   60.0   33.333333333333336
250.0   30.0   33.333333333333336
250.0   60.0   33.333333333333336
300.0   60.0   33.333333333333336
250.0   60.0   16.666666666666668
250.0   30.0   33.333333333333336
300.0   60.0   33.333333333333336
300.0   30.0   33.333333333333336
300.0   30.0   16.666666666666668
250.0   30.0   33.333333333333336
300.0   60.0   33.333333333333336
300.0   30.0   16.666666666666668
250.0   60.0   16.666666666666668
250.0   30.0   33.333333333333336
300.0   30.0   33.333333333333336
250.0   60.0   33.333333333333336
250.0   30.0   50.0
300.0   30.0   33.333333333333336
300.0   60.0   33.333333333333336
250.0   60.0   33.333333333333336
300.0   60.0   50.0
250.0   30.0   50.0
250.0   60.0   50.0
300.0   60.0   50.0
250.0   60.0   33.333333333333336
250.0   30.0   50.0
300.0   60.0   50.0
300.0   30.0   50.0
300.0   30.0   33.333333333333336
250.0   30.0   50.0
300.0   60.0   50.0
300.0   30.0   33.333333333333336
250.0   60.0   33.333333333333336
250.0   60.0   0.0
300.0   60.0   0.0
250.0   90.0   0.0
250.0   60.0   16.666666666666668
300.0   60.0   0.0
300.0   90.0   0.0
250.0   90.0   0.0
300.0   90.0   16.666666666666668
250.0   60.0   16.666666666666668
250.0   90.0   16.666666666666668
300.0   90.0   16.666666666666668
250.0   90.0   0.0
250.0   60.0   16.666666666666668
300.0   90.0   16.666666666666668
300.0   60.0   16.666666666666668
300.0   60.0   0.0
250.0   60.0   16.666666666666668
300.0   90.0   16.666666666666668
300.0   60.0   0.0
250.0   90.0   0.0
250.0   60.0   16.666666666666668
300.0   60.0   16.666666666666668
250.0   90.0   16.666666666666668
250.0   60.0   33.333333333333336
300.0   60.0   16.666666666666668
300.0   90.0   16.666666666666668
250.0   90.0   16.666666666666668
300.0   90.0   33.333333333333336
250.0   60.0   33.333333333333336
250.0   90.0   33.333333333333336
300.0   90.0   33.333333333333336
250.0   90.0   16.666666666666668
250.0   60.0   33.333333333333336
300.0   90.0   33.333333333333336
300.0   60.0   33.333333333333336
300.0   60.0   16.666666666666668
250.0   60.0   33.333333333333336
300.0   90.0   33.333333333333336
300.0   60.0   16.666666666666668
250.0   90.0   16.666666666666668
250.0   60.0   33.333333333333336
300.0   60.0   33.333333333333336
250.0   90.0   33.333333333333336
250.0   60.0   50.0
300.0   60.0   33.333333333333336
300.0   90.0   33.333333333333336
250.0   90.0   33.333333333333336
300.0   90.0   50.0
250.0   60.0   50.0
250.0   90.0   50.0
300.0   90.0   50.0
250.0   90.0   33.333333333333336
250.0   60.0   50.0
300.0   90.0   50.0
300.0   60.0   50.0
300.0   60.0   33.333333333333336
250.0   60.0   50.0
300.0   90.0   50.0
300.0   60.0   33.333333333333336
250.0   90.0   33.333333333333336
250.0   90.0   0.0
300.0   90.0   0.0
250.0   120.0   0.0
250.0   90.0   16.666666666666668
300.0   90.0   0.0
300.0   120.0   0.0
250.0   120.0   0.0
300.0   120.0   16.666666666666668
250.0   90.0   16.666666666666668
250.0   120.0   16.666666666666668
300.0   120.0   16.666666666666668
250.0   120.0   0.0
250.0   90.0   16.666666666666668
300.0   120.0   16.666666666666668
300.0   90.0   16.666666666666668
300.0   90.0   0.0
250.0   90.0   16.666666666666668
300.0   120.0   16.666666666666668
300.0   90.0   0.0
250.0   120.0   0.0
250.0   90.0   16.666666666666668
300.0   90.0   16.666666666666668
250.0   120.0   16.666666666666668
250.0   90.0   33.333333333333336
300.0   90.0   16.666666666666668
300.0   120.0   16.666666666666668
250.0   120.0   16.666666666666668
300.0   120.0   33.333333333333336
250.0   90.0   33.333333333333336
250.0   120.0   33.333333333333336
300.0   120.0   33.333333333333336
250.0   120.0   16.666666666666668
250.0   90.0   33.333333333333336
300.0   120.0   33.333333333333336
300.0   90.0   33.333333333333336
300.0   90.0   16.666666666666668
250.0   90.0   33.333333333333336
300.0   120.0   33.333333333333336
300.0   90.0   16.666666666666668
250.0   120.0   16.666666666666668
250.0   90.0   33.333333333333336
300.0   90.0   33.333333333333336
250.0   120.0   33.333333333333336
250.0   90.0   50.0
300.0   90.0   33.333333333333336
300.0   120.0   33.333333333333336
250.0   120.0   33.333333333333336
300.0   120.0   50.0
250.0   90.0   50.0
250.0   120.0   50.0
300.0   120.0   50.0
250.0   120.0   33.333333333333336
250.0   90.0   50.0
300.0   120.0   50.0
300.0   90.0   50.0
300.0   90.0   33.333333333333336
250.0   90.0   50.0
300.0   120.0   50.0
300.0   90.0   33.333333333333336
250.0   120.0   33.333333333333336
250.0   120.0   0.0
300.0   120.0   0.0
250.0   150.0   0.0
250.0   120.0   16.666666666666668
300.0   120.0   0.0
300.0   150.0   0.0
250.0   150.0   0.0
300.0   150.0   16.666666666666668
250.0   120.0   16.666666666666668
250.0   150.0   16.666666666666668
300.0   150.0   16.666666666666668
250.0   150.0   0.0
250.0   120.0   16.666666666666668
300.0   150.0   16.666666666666668
300.0   120.0   16.666666666666668
300.0   120.0   0.0
250.0   120.0   16.666666666666668
300.0   150.0   16.666666666666668
300.0   120.0   0.0
250.0   150.0   0.0
250.0   120.0   16.666666666666668
300.0   120.0   16.666666666666668
250.0   150.0   16.666666666666668
250.0   120.0   33.333333333333336
300.0   120.0   16.666666666666668
300.0   150.0   16.666666666666668
250.0   150.0   16.666666666666668
300.0   150.0   33.333333333333336
250.0   120.0   33.333333333333336
250.0   150.0   33.333333333333336
300.0   150.0   33.333333333333336
250.0   150.0   16.666666666666668
250.0   120.0   33.333333333333336
300.0   150.0   33.333333333333336
300.0   120.0   33.333333333333336
300.0   120.0   16.666666666666668
250.0   120.0   33.333333333333336
300.0   150.0   33.333333333333336
300.0   120.0   16.666666666666668
250.0   150.0   16.666666666666668
250.0   120.0   33.333333333333336
300.0   120.0   33.333333333333336
250.0   150.0   33.333333333333336
250.0   120.0   50.0
300.0   120.0   33.333333333333336
300.0   150.0   33.333333333333336
250.0   150.0   33.333333333333336
300.0   150.0   50.0
250.0   120.0   50.0
250.0   150.0   50.0
300.0   150.0   50.0
250.0   150.0   33.333333333333336
250.0   120.0   50.0
300.0   150.0   50.0
300.0   120.0   50.0
300.0   120.0   33.333333333333336
250.0   120.0   50.0
300.0   150.0   50.0
300.0   120.0   33.333333333333336
250.0   150.0   33.333333333333336
300.0   0.0   0.0
350.0   0.0   0.0
300.0   30.0   0.0
300.0   0.0   16.666666666666668
350.0   0.0   0.0
350.0   30.0   0.0
300.0   30.0   0.0
350.0   30.0   16.666666666666668
300.0   0.0   16.666666666666668
300.0   30.0   16.666666666666668
350.0   30.0   16.666666666666668
300.0   30.0   0.0
300.0   0.0   16.666666666666668
350.0   30.0   16.666666666666668
350.0   0.0   16.666666666666668
350.0   0.0   0.0
300.0   0.0   16.666666666666668
350.0   30.0   16.666666666666668
350.0   0.0   0.0
300.0   30.0   0.0
300.0   0.0   16.666666666666668
350.0   0.0   16.666666666666668
300.0   30.0   16.666666666666668
300.0   0.0   33.333333333333336
350.0   0.0   16.666666666666668
350.0   30.0   16.666666666666668
300.0   30.0   16.666666666666668
350.0   30.0   33.333333333333336
300.0   0.0   33.333333333333336
300.0   30.0   33.333333333333336
350.0   30.0   33.333333333333336
300.0   30.0   16.666666666666668
300.0   0.0   33.333333333333336
350.0   30.0   33.333333333333336
350.0   0.0   33.333333333333336
350.0   0.0   16.666666666666668
300.0   0.0   33.333333333333336
350.0   30.0   33.333333333333336
350.0   0.0   16.666666666666668
300.0   30.0   16.666666666666668
300.0   0.0   33.333333333333336
350.0   0.0   33.333333333333336
300.0   30.0   33.333333333333336
300.0   0.0   50.0
350.0   0.0   33.333333333333336
350.0   30.0   33.333333333333336
300.0   30.0   33.333333333333336
350.0   30.0   50.0
300.0   0.0   50.0
300.0   30.0   50.0
350.0   30.0   50.0
300.0   30.0   33.333333333333336
300.0   0.0   50.0
350.0   30.0   50.0
350.0   0.0   50.0
350.0   0.0   33.333333333333336
300.0   0.0   50.0
350.0   30.0   50.0
350.0   0.0   33.333333333333336
300.0   30.0   33.333333333333336
300.0   30.0   0.0
350.0   30.0   0.0
300.0   60.0   0.0
300.0   30.0   16.666666666666668
350.0   30.0   0.0
350.0   60.0   0.0
300.0   60.0   0.0
350.0   60.0   16.666666666666668
300.0   30.0   16.666666666666668
300.0   60.0   16.666666666666668
350.0   60.0   16.666666666666668
300.0   60.0   0.0
300.0   30.0   16.666666666666668
350.0   60.0   16.666666666666668
350.0   30.0   16.666666666666668
350.0   30.0   0.0
300.0   30.0   16.666666666666668
350.0   60.0   16.666666666666668
350.0   30.0   0.0
300.0   60.0   0.0
300.0   30.0   16.666666666666668
350.0   30.0   16.666666666666668
300.0   60.0   16.666666666666668
300.0   30.0   33.333333333333336
350.0   30.0   16.666666666666668
350.0   60.0   16.666666666666668
300.0   60.0   16.666666666666668
350.0   60.0   33.333333333333336
300.0   30.0   33.333333333333336
300.0   60.0   33.333333333333336
350.0   60.0   33.333333333333336
300.0   60.0   16.666666666666668
300.0   30.0   33.333333333333336
350.0   60.0   33.333333333333336
350.0   30.0   33.333333333333336
350.0   30.0   16.666666666666668
300.0   30.0   33.333333333333336
350.0   60.0   33.333333333333336
350.0   30.0   16.666666666666668
300.0   60.0   16.666666666666668
300.0   30.0   33.333333333333336
350.0   30.0   33.333333333333336
300.0   60.0   33.333333333333336
300.0   30.0   50.0
350.0   30.0   33.333333333333336
350.0   60.0   33.333333333333336
300.0   60.0   33.333333333333336
350.0   60.0   50.0
300.0   30.0   50.0
300.0   60.0   50.0
350.0   60.0   50.0
300.0   60.0   33.333333333333336
300.0   30.0   50.0
350.0   60.0   50.0
350.0   30.0   50.0
350.0   30.0   33.333333333333336
300.0   30.0   50.0
350.0   60.0   50.0
350.0   30.0   33.333333333333336
300.0   60.0   33.333333333333336
300.0   60.0   0.0
350.0   60.0   0.0
300.0   90.0   0.0
300.0   60.0   16.666666666666668
350.0   60.0   0.0
350.0   90.0   0.0
300.0   90.0   0.0
350.0   90.0   16.666666666666668
300.0   60.0   16.666666666666668
300.0   90.0   16.666666666666668
350.0   90.0   16.666666666666668
300.0   90.0   0.0
300.0   60.0   16.666666666666668
350.0   90.0   16.666666666666668
350.0   60.0   16.666666666666668
350.0   60.0   0.0
300.0   60.0   16.666666666666668
350.0   90.0   16.666666666666668
350.0   60.0   0.0
300.0   90.0   0.0
300.0   60.0   16.666666666666668
350.0   60.0   16.666666666666668
300.0   90.0   16.666666666666668
300.0   60.0   33.333333333333336
350.0   60.0   16.666666666666668
350.0   90.0   16.666666666666668
300.0   90.0   16.666666666666668
350.0   90.0   33.333333333333336
300.0   60.0   33.333333333333336
300.0   90.0   33.333333333333336
350.0   90.0   33.333333333333336
300.0   90.0   16.666666666666668
300.0   60.0   33.333333333333336
350.0   90.0   33.333333333333336
350.0   60.0   33.333333333333336
350.0   60.0   16.666666666666668
300.0   60.0   33.333333333333336
350.0   90.0   33.333333333333336
350.0   60.0   16.666666666666668
300.0   90.0   16.666666666666668
300.0   60.0   33.333333333333336
350.0   60.0   33.333333333333336
300.0   90.0   33.333333333333336
300.0   60.0   50.0
350.0   60.0   33.333333333333336
350.0   90.0   33.333333333333336
300.0   90.0   33.333333333333336
350.0   90.0   50.0
300.0   60.0   50.0
300.0   90.0   50.0
350.0   90.0   50.0
300.0   90.0   33.333333333333336
300.0   60.0   50.0
350.0   90.0   50.0
350.0   60.0   50.0
350.0   60.0   33.333333333333336
300.0   60.0   50.0
350.0   90.0   50.0
350.0   60.0   33.333333333333336
300.0   90.0   33.333333333333336
300.0   90.0   0.0
350.0   90.0   0.0
300.0   120.0   0.0
300.0   90.0   16.666666666666668
350.0   90.0   0.0
350.0   120.0   0.0
300.0   120.0   0.0
350.0   120.0   16.666666666666668
300.0   90.0   16.666666666666668
300.0   120.0   16.666666666666668
350.0   120.0   16.666666666666668
300.0   120.0   0.0
300.0   90.0   16.666666666666668
350.0   120.0   16.666666666666668
350.0   90.0   16.666666666666668
350.0   90.0   0.0
300.0   90.0   16.666666666666668
350.0   120.0   16.666666666666668
350.0   90.0   0.0
300.0   120.0   0.0
300.0   90.0   16.666666666666668
350.0   90.0   16.666666666666668
300.0   120.0   16.666666666666668
300.0   90.0   33.333333333333336
350.0   90.0   16.666666666666668
350.0   120.0   16.666666666666668
300.0   120.0   16.666666666666668
350.0   120.0   33.333333333333336
300.0   90.0   33.333333333333336
300.0   120.0   33.333333333333336
350.0   120.0   33.333333333333336
300.0   120.0   16.666666666666668
300.0   90.0   33.333333333333336
350.0   120.0   33.333333333333336
350.0   90.0   33.333333333333336
350.0   90.0   16.666666666666668
300.0   90.0   33.333333333333336
350.0   120.0   33.333333333333336
350.0   90.0   16.666666666666668
300.0   120.0   16.666666666666668
300.0   90.0   33.333333333333336
350.0   90.0   33.333333333333336
300.0   120.0   33.333333333333336
300.0   90.0   50.0
350.0   90.0   33.333333333333336
350.0   120.0   33.333333333333336
300.0   120.0   33.333333333333336
350.0   120.0   50.0
300.0   90.0   50.0
300.0   120.0   50.0
350.0   120.0   50.0
300.0   120.0   33.333333333333336
300.0   90.0   50.0
350.0   120.0   50.0
350.0   90.0   50.0
350.0   90.0   33.333333333333336
300.0   90.0   50.0
350.0   120.0   50.0
350.0   90.0   33.333333333333336
300.0   120.0   33.333333333333336
300.0   120.0   0.0
350.0   120.0   0.0
300.0   150.0   0.0
300.0   120.0   16.666666666666668
350.0   120.0   0.0
350.0   150.0   0.0
300.0   150.0   0.0
350.0   150.0   16.666666666666668
300.0   120.0   16.666666666666668
300.0   150.0   16.666666666666668
350.0   150.0   16.666666666666668
300.0   150.0   0.0
300.0   120.0   16.666666666666668
350.0   150.0   16.666666666666668
350.0   120.0   16.666666666666668
350.0   120.0   0.0
300.0   120.0   16.666666666666668
350.0   150.0   16.666666666666668
350.0   120.0   0.0
300.0   150.0   0.0
300.0   120.0   16.666666666666668
350.0   120.0   16.666666666666668
300.0   150.0   16.666666666666668
300.0   120.0   33.333333333333336
350.0   120.0   16.666666666666668
350.0   150.0   16.666666666666668
300.0   150.0   16.666666666666668
350.0   150.0   33.333333333333336
300.0   120.0   33.333333333333336
300.0   150.0   33.333333333333336
350.0   150.0   33.333333333333336
300.0   150.0   16.666666666666668
300.0   120.0   33.333333333333336
350.0   150.0   33.333333333333336
350.0   120.0   33.333333333333336
350.0   120.0   16.666666666666668
300.0   120.0   33.333333333333336
350.0   150.0   33.333333333333336
350.0   120.0   16.666666666666668
300.0   150.0   16.666666666666668
300.0   120.0   33.333333333333336
350.0   120.0   33.333333333333336
300.0   150.0   33.333333333333336
300.0   120.0   50.0
350.0   120.0   33.333333333333336
350.0   150.0   33.333333333333336
300.0   150.0   33.333333333333336
350.0   150.0   50.0
300.0   120.0   50.0
300.0   150.0   50.0
350.0   150.0   50.0
300.0   150.0   33.333333333333336
300.0   120.0   50.0
350.0   150.0   50.0
350.0   120.0   50.0
350.0   120.0   33.333333333333336
300.0   120.0   50.0
350.0   150.0   50.0
350.0   120.0   33.333333333333336
300.0   150.0   33.333333333333336
350.0   0.0   0.0
400.0   0.0   0.0
350.0   30.0   0.0
350.0   0.0   16.666666666666668
400.0   0.0   0.0
400.0   30.0   0.0
350.0   30.0   0.0
400.0   30.0   16.666666666666668
350.0   0.0   16.666666666666668
350.0   30.0   16.666666666666668
400.0   30.0   16.666666666666668
350.0   30.0   0.0
350.0   0.0   16.666666666666668
400.0   30.0   16.666666666666668
400.0   0.0   16.666666666666668
400.0   0.0   0.0
350.0   0.0   16.666666666666668
400.0   30.0   16.666666666666668
400.0   0.0   0.0
350.0   30.0   0.0
350.0   0.0   16.666666666666668
400.0   0.0   16.666666666666668
350.0   30.0   16.666666666666668
350.0   0.0   33.333333333333336
400.0   0.0   16.666666666666668
400.0   30.0   16.666666666666668
350.0   30.0   16.666666666666668
400.0   30.0   33.333333333333336
350.0   0.0   33.333333333333336
350.0   30.0   33.333333333333336
400.0   30.0   33.333333333333336
350.0   30.0   16.666666666666668
350.0   0.0   33.333333333333336
400.0   30.0   33.333333333333336
400.0   0.0   33.333333333333336
400.0   0.0   16.666666666666668
350.0   0.0   33.333333333333336
400.0   30.0   33.333333333333336
400.0   0.0   16.666666666666668
350.0   30.0   16.666666666666668
350.0   0.0   33.333333333333336
400.0   0.0   33.333333333333336
350.0   30.0   33.333333333333336
350.0   0.0   50.0
400.0   0.0   33.333333333333336
400.0   30.0   33.333333333333336
350.0   30.0   33.333333333333336
400.0   30.0   50.0
350.0   0.0   50.0
350.0   30.0   50.0
400.0   30.0   50.0
350.0   30.0   33.333333333333336
350.0   0.0   50.0
400.0   30.0   50.0
400.0   0.0   50.0
400.0   0.0   33.333333333333336
350.0   0.0   50.0
400.0   30.0   50.0
400.0   0.0   33.333333333333336
350.0   30.0   33.333333333333336
350.0   30.0   0.0
400.0   30.0   0.0
350.0   60.0   0.0
350.0   30.0   16.666666666666668
400.0   30.0   0.0
400.0   60.0   0.0
350.0   60.0   0.0
400.0   60.0   16.666666666666668
350.0   30.0   16.666666666666668
350.0   60.0   16.666666666666668
400.0   60.0   16.666666666666668
350.0   60.0   0.0
350.0   30.0   16.666666666666668
400.0   60.0   16.666666666666668
400.0   30.0   16.666666666666668
400.0   30.0   0.0
350.0   30.0   16.666666666666668
400.0   60.0   16.666666666666668
400.0   30.0   0.0
350.0   60.0   0.0
350.0   30.0   16.666666666666668
400.0   30.0   16.666666666666668
350.0   60.0   16.666666666666668
350.0   30.0   33.333333333333336
400.0   30.0   16.666666666666668
400.0   60.0   16.666666666666668
350.0   60.0   16.666666666666668
400.0   60.0   33.333333333333336
350.0   30.0   33.333333333333336
350.0   60.0   33.333333333333336
400.0   60.0   33.333333333333336
350.0   60.0   16.666666666666668
350.0   30.0   33.333333333333336
400.0   60.0   33.333333333333336
400.0   30.0   33.333333333333336
400.0   30.0   16.666666666666668
350.0   30.0   33.333333333333336
400.0   60.0   33.333333333333336
400.0   30.0   16.666666666666668
350.0   60.0   16.666666666666668
350.0   30.0   33.333333333333336
400.0   30.0   33.333333333333336
350.0   60.0   33.333333333333336
350.0   30.0   50.0
400.0   30.0   33.333333333333336
400.0   60.0   33.333333333333336
350.0   60.0   33.333333333333336
400.0   60.0   50.0
350.0   30.0   50.0
350.0   60.0   50.0
400.0   60.0   50.0
350.0   60.0   33.333333333333336
350.0   30.0   50.0
400.0   60.0   50.0
400.0   30.0   50.0
400.0   30.0   33.333333333333336
350.0   30.0   50.0
400.0   60.0   50.0
400.0   30.0   33.333333333333336
350.0   60.0   33.333333333333336
350.0   60.0   0.0
400.0   60.0   0.0
350.0   90.0   0.0
350.0   60.0   16.666666666666668
400.0   60.0   0.0
400.0   90.0   0.0
350.0   90.0   0.0
400.0   90.0   16.666666666666668
350.0   60.0   16.666666666666668
350.0   90.0   16.666666666666668
400.0   90.0   16.666666666666668
350.0   90.0   0.0
350.0   60.0   16.666666666666668
400.0   90.0   16.666666666666668
400.0   60.0   16.666666666666668
400.0   60.0   0.0
350.0   60.0   16.666666666666668
400.0   90.0   16.666666666666668
400.0   60.0   0.0
350.0   90.0   0.0
350.0   60.0   16.666666666666668
400.0   60.0   16.666666666666668
350.0   90.0   16.666666666666668
350.0   60.0   33.333333333333336
400.0   60.0   16.666666666666668
400.0   90.0   16.666666666666668
350.0   90.0   16.666666666666668
400.0   90.0   33.333333333333336
350.0   60.0   33.333333333333336
350.0   90.0   33.333333333333336
400.0   90.0   33.333333333333336
350.0   90.0   16.666666666666668
350.0   60.0   33.333333333333336
400.0   90.0   33.333333333333336
400.0   60.0   33.333333333333336
400.0   60.0   16.666666666666668
350.0   60.0   33.333333333333336
400.0   90.0   33.333333333333336
400.0   60.0   16.666666666666668
350.0   90.0   16.666666666666668
350.0   60.0   33.333333333333336
400.0   60.0   33.333333333333336
350.0   90.0   33.333333333333336
350.0   60.0   50.0
400.0   60.0   33.333333333333336
400.0   90.0   33.333333333333336
350.0   90.0   33.333333333333336
400.0   90.0   50.0
350.0   60.0   50.0
350.0   90.0   50.0
400.0   90.0   50.0
350.0   90.0   33.333333333333336
350.0   60.0   50.0
400.0   90.0   50.0
400.0   60.0   50.0
400.0   60.0   33.333333333333336
350.0   60.0   50.0
400.0   90.0   50.0
400.0   60.0   33.333333333333336
350.0   90.0   33.333333333333336
350.0   90.0   0.0
400.0   90.0   0.0
350.0   120.0   0.0
350.0   90.0   16.666666666666668
400.0   90.0   0.0
400.0   120.0   0.0
350.0   120.0   0.0
400.0   120.0   16.666666666666668
350.0   90.0   16.666666666666668
350.0   120.0   16.666666666666668
400.0   120.0   16.666666666666668
350.0   120.0   0.0
350.0   90.0   16.666666666666668
400.0   120.0   16.666666666666668
400.0   90.0   16.666666666666668
400.0   90.0   0.0
350.0   90.0   16.666666666666668
400.0   120.0   16.666666666666668
400.0   90.0   0.0
350.0   120.0   0.0
350.0   90.0   16.666666666666668
400.0   90.0   16.666666666666668
350.0   120.0   16.666666666666668
350.0   90.0   33.333333333333336
400.0   90.0   16.666666666666668
400.0   120.0   16.666666666666668
350.0   120.0   16.666666666666668
400.0   120.0   33.333333333333336
350.0   90.0   33.333333333333336
350.0   120.0   33.333333333333336
400.0   120.0   33.333333333333336
350.0   120.0   16.666666666666668
350.0   90.0   33.333333333333336
400.0   120.0   33.333333333333336
400.0   90.0   33.333333333333336
400.0   90.0   16.666666666666668
350.0   90.0   33.333333333333336
400.0   120.0   33.333333333333336
400.0   90.0   16.666666666666668
350.0   120.0   16.666666666666668
350.0   90.0   33.333333333333336
400.0   90.0   33.333333333333336
350.0   120.0   33.333333333333336
350.0   90.0   50.0
400.0   90.0   33.333333333333336
400.0   120.0   33.333333333333336
350.0   120.0   33.333333333333336
400.0   120.0   50.0
350.0   90.0   50.0
350.0   120.0   50.0
400.0   120.0   50.0
350.0   120.0   33.333333333333336
350.0   90.0   50.0
400.0   120.0   50.0
400.0   90.0   50.0
400.0   90.0   33.333333333333336
350.0   90.0   50.0
400.0   120.0   50.0
400.0   90.0   33.333333333333336
350.0   120.0   33.333333333333336
350.0   120.0   0.0
400.0   120.0   0.0
350.0   150.0   0.0
350.0   120.0   16.666666666666668
400.0   120.0   0.0
400.0   150.0   0.0
350.0   150.0   0.0
400.0   150.0   16.666666666666668
350.0   120.0   16.666666666666668
350.0   150.0   16.666666666666668
400.0   150.0   16.666666666666668
350.0   150.0   0.0
350.0   120.0   16.666666666666668
400.0   150.0   16.666666666666668
400.0   120.0   16.666666666666668
400.0   120.0   0.0
350.0   120.0   16.666666666666668
400.0   150.0   16.666666666666668
400.0   120.0   0.0
350.0   150.0   0.0
350.0   120.0   16.666666666666668
400.0   120.0   16.666666666666668
350.0   150.0   16.666666666666668
350.0   120.0   33.333333333333336
400.0   120.0   16.666666666666668
400.0   150.0   16.666666666666668
350.0   150.0   16.666666666666668
400.0   150.0   33.333333333333336
350.0   120.0   33.333333333333336
350.0   150.0   33.333333333333336
400.0   150.0   33.333333333333336
350.0   150.0   16.666666666666668
350.0   120.0   33.333333333333336
400.0   150.0   33.333333333333336
400.0   120.0   33.333333333333336
400.0   120.0   16.666666666666668
350.0   120.0   33.333333333333336
400.0   150.0   33.333333333333336
400.0   120.0   16.666666666666668
350.0   150.0   16.666666666666668
350.0   120.0   33.333333333333336
400.0   120.0   33.333333333333336
350.0   150.0   33.333333333333336
350.0   120.0   50.0
400.0   120.0   33.333333333333336
400.0   150.0   33.333333333333336
350.0   150.0   33.333333333333336
400.0   150.0   50.0
350.0   120.0   50.0
350.0   150.0   50.0
400.0   150.0   50.0
350.0   150.0   33.333333333333336
350.0   120.0   50.0
400.0   150.0   50.0
400.0   120.0   50.0
400.0   120.0   33.333333333333336
350.0   120.0   50.0
400.0   150.0   50.0
400.0   120.0   33.333333333333336
350.0   150.0   33.333333333333336
400.0   0.0   0.0
450.0   0.0   0.0
400.0   30.0   0.0
400.0   0.0   16.666666666666668
450.0   0.0   0.0
450.0   30.0   0.0
400.0   30.0   0.0
450.0   30.0   16.666666666666668
400.0   0.0   16.666666666666668
400.0   30.0   16.666666666666668
450.0   30.0   16.666666666666668
400.0   30.0   0.0
400.0   0.0   16.666666666666668
450.0   30.0   16.666666666666668
450.0   0.0   16.666666666666668
450.0   0.0   0.0
400.0   0.0   16.666666666666668
450.0   30.0   16.666666666666668
450.0   0.0   0.0
400.0   30.0   0.0
400.0   0.0   16.666666666666668
450.0   0.0   16.666666666666668
400.0   30.0   16.666666666666668
400.0   0.0   33.333333333333336
450.0   0.0   16.666666666666668
450.0   30.0   16.666666666666668
400.0   30.0   16.666666666666668
450.0   30.0   33.333333333333336
400.0   0.0   33.333333333333336
400.0   30.0   33.333333333333336
450.0   30.0   33.333333333333336
400.0   30.0   16.666666666666668
400.0   0.0   33.333333333333336
450.0   30.0   33.333333333333336
450.0   0.0   33.333333333333336
450.0   0.0   16.666666666666668
400.0   0.0   33.333333333333336
450.0   30.0   33.333333333333336
450.0   0.0   16.666666666666668
400.0   30.0   16.666666666666668
400.0   0.0   33.333333333333336
450.0   0.0   33.333333333333336
400.0   30.0   33.333333333333336
400.0   0.0   50.0
450.0   0.0   33.333333333333336
450.0   30.0   33.333333333333336
400.0   30.0   33.333333333333336
450.0   30.0   50.0
400.0   0.0   50.0
400.0   30.0   50.0
450.0   30.0   50.0
400.0   30.0   33.333333333333336
400.0   0.0   50.0
450.0   30.0   50.0
450.0   0.0   50.0
450.0   0.0   33.333333333333336
400.0   0.0   50.0
450.0   30.0   50.0
450.0   0.0   33.333333333333336
400.0   30.0   33.333333333333336
400.0   30.0   0.0
450.0   30.0   0.0
400.0   60.0   0.0
400.0   30.0   16.666666666666668
450.0   30.0   0.0
450.0   60.0   0.0
400.0   60.0   0.0
450.0   60.0   16.666666666666668
400.0   30.0   16.666666666666668
400.0   60.0   16.666666666666668
450.0   60.0   16.666666666666668
400.0   60.0   0.0
400.0   30.0   16.666666666666668
450.0   60.0   16.666666666666668
450.0   30.0   16.666666666666668
450.0   30.0   0.0
400.0   30.0   16.666666666666668
450.0   60.0   16.666666666666668
450.0   30.0   0.0
400.0   60.0   0.0
400.0   30.0   16.666666666666668
450.0   30.0   16.666666666666668
400.0   60.0   16.666666666666668
400.0   30.0   33.333333333333336
450.0   30.0   16.666666666666668
450.0   60.0   16.666666666666668
400.0   60.0   16.666666666666668
450.0   60.0   33.333333333333336
400.0   30.0   33.333333333333336
400.0   60.0   33.333333333333336
450.0   60.0   33.333333333333336
400.0   60.0   16.666666666666668
400.0   30.0   33.333333333333336
450.0   60.0   33.333333333333336
450.0   30.0   33.333333333333336
450.0   30.0   16.666666666666668
400.0   30.0   33.333333333333336
450.0   60.0   33.333333333333336
450.0   30.0   16.666666666666668
400.0   60.0   16.666666666666668
400.0   30.0   33.333333333333336
450.0   30.0   33.333333333333336
400.0   60.0   33.333333333333336
400.0   30.0   50.0
450.0   30.0   33.333333333333336
450.0   60.0   33.333333333333336
400.0   60.0   33.333333333333336
450.0   60.0   50.0
400.0   30.0   50.0
400.0   60.0   50.0
450.0   60.0   50.0
400.0   60.0   33.333333333333336
400.0   30.0   50.0
450.0   60.0   50.0
450.0   30.0   50.0
450.0   30.0   33.333333333333336
400.0   30.0   50.0
450.0   60.0   50.0
450.0   30.0   33.333333333333336
400.0   60.0   33.333333333333336
400.0   60.0   0.0
450.0   60.0   0.0
400.0   90.0   0.0
400.0   60.0   16.666666666666668
450.0   60.0   0.0
450.0   90.0   0.0
400.0   90.0   0.0
450.0   90.0   16.666666666666668
400.0   60.0   16.666666666666668
400.0   90.0   16.666666666666668
450.0   90.0   16.666666666666668
400.0   90.0   0.0
400.0   60.0   16.666666666666668
450.0   90.0   16.666666666666668
450.0   60.0   16.666666666666668
450.0   60.0   0.0
400.0   60.0   16.666666666666668
450.0   90.0   16.666666666666668
450.0   60.0   0.0
400.0   90.0   0.0
400.0   60.0   16.666666666666668
450.0   60.0   16.666666666666668
400.0   90.0   16.666666666666668
400.0   60.0   33.333333333333336
450.0   60.0   16.666666666666668
450.0   90.0   16.666666666666668
400.0   90.0   16.666666666666668
450.0   90.0   33.333333333333336
400.0   60.0   33.333333333333336
400.0   90.0   33.333333333333336
450.0   90.0   33.333333333333336
400.0   90.0   16.666666666666668
400.0   60.0   33.333333333333336
450.0   90.0   33.333333333333336
450.0   60.0   33.333333333333336
450.0   60.0   16.666666666666668
400.0   60.0   33.333333333333336
450.0   90.0   33.333333333333336
450.0   60.0   16.666666666666668
400.0   90.0   16.666666666666668
400.0   60.0   33.333333333333336
450.0   60.0   33.333333333333336
400.0   90.0   33.333333333333336
400.0   60.0   50.0
450.0   60.0   33.333333333333336
450.0   90.0   33.333333333333336
400.0   90.0   33.333333333333336
450.0   90.0   50.0
400.0   60.0   50.0
400.0   90.0   50.0
450.0   90.0   50.0
400.0   90.0   33.333333333333336
400.0   60.0   50.0
450.0   90.0   50.0
450.0   60.0   50.0
450.0   60.0   33.333333333333336
400.0   60.0   50.0
450.0   90.0   50.0
450.0   60.0   33.333333333333336
400.0   90.0   33.333333333333336
400.0   90.0   0.0
450.0   90.0   0.0
400.0   120.0   0.0
400.0   90.0   16.666666666666668
450.0   90.0   0.0
450.0   120.0   0.0
400.0   120.0   0.0
450.0   120.0   16.666666666666668
400.0   90.0   16.666666666666668
400.0   120.0   16.666666666666668
450.0   120.0   16.666666666666668
400.0   120.0   0.0
400.0   90.0   16.666666666666668
450.0   120.0   16.666666666666668
450.0   90.0   16.666666666666668
450.0   90.0   0.0
400.0   90.0   16.666666666666668
450.0   120.0   16.666666666666668
450.0   90.0   0.0
400.0   120.0   0.0
400.0   90.0   16.666666666666668
450.0   90.0   16.666666666666668
400.0   120.0   16.666666666666668
400.0   90.0   33.333333333333336
450.0   90.0   16.666666666666668
450.0   120.0   16.666666666666668
400.0   120.0   16.666666666666668
450.0   120.0   33.333333333333336
400.0   90.0   33.333333333333336
400.0   120.0   33.333333333333336
450.0   120.0   33.333333333333336
400.0   120.0   16.666666666666668
400.0   90.0   33.333333333333336
450.0   120.0   33.333333333333336
450.0   90.0   33.333333333333336
450.0   90.0   16.666666666666668
400.0   90.0   33.333333333333336
450.0   120.0   33.333333333333336
450.0   90.0   16.666666666666668
400.0   120.0   16.666666666666668
400.0   90.0   33.333333333333336
450.0   90.0   33.333333333333336
400.0   120.0   33.333333333333336
400.0   90.0   50.0
450.0   90.0   33.333333333333336
450.0   120.0   33.333333333333336
400.0   120.0   33.333333333333336
450.0   120.0   50.0
400.0   90.0   50.0
400.0   120.0   50.0
450.0   120.0   50.0
400.0   120.0   33.333333333333336
400.0   90.0   50.0
450.0   120.0   50.0
450.0   90.0   50.0
450.0   90.0   33.333333333333336
400.0   90.0   50.0
450.0   120.0   50.0
450.0   90.0   33.333333333333336
400.0   120.0   33.333333333333336
400.0   120.0   0.0
450.0   120.0   0.0
400.0   150.0   0.0
400.0   120.0   16.666666666666668
450.0   120.0   0.0
450.0   150.0   0.0
400.0   150.0   0.0
450.0   150.0   16.666666666666668
400.0   120.0   16.666666666666668
400.0   150.0   16.666666666666668
450.0   150.0   16.666666666666668
400.0   150.0   0.0
400.0   120.0   16.666666666666668
450.0   150.0   16.666666666666668
450.0   120.0   16.666666666666668
450.0   120.0   0.0
400.0   120.0   16.666666666666668
450.0   150.0   16.666666666666668
450.0   120.0   0.0
400.0   150.0   0.0
400.0   120.0   16.666666666666668
450.0   120.0   16.666666666666668
400.0   150.0   16.666666666666668
400.0   120.0   33.333333333333336
450.0   120.0   16.666666666666668
450.0   150.0   16.666666666666668
400.0   150.0   16.666666666666668
450.0   150.0   33.333333333333336
400.0   120.0   33.333333333333336
400.0   150.0   33.333333333333336
450.0   150.0   33.333333333333336
400.0   150.0   16.666666666666668
400.0   120.0   33.333333333333336
450.0   150.0   33.333333333333336
450.0   120.0   33.333333333333336
450.0   120.0   16.666666666666668
400.0   120.0   33.333333333333336
450.0   150.0   33.333333333333336
450.0   120.0   16.666666666666668
400.0   150.0   16.666666666666668
400.0   120.0   33.333333333333336
450.0   120.0   33.333333333333336
400.0   150.0   33.333333333333336
400.0   120.0   50.0
450.0   120.0   33.333333333333336
450.0   150.0   33.333333333333336
400.0   150.0   33.333333333333336
450.0   150.0   50.0
400.0   120.0   50.0
400.0   150.0   50.0
450.0   150.0   50.0
400.0   150.0   33.333333333333336
400.0   120.0   50.0
450.0   150.0   50.0
450.0   120.0   50.0
450.0   120.0   33.333333333333336
400.0   120.0   50.0
450.0   150.0   50.0
450.0   120.0   33.333333333333336
400.0   150.0   33.333333333333336
450.0   0.0   0.0
500.0   0.0   0.0
450.0   30.0   0.0
450.0   0.0   16.666666666666668
500.0   0.0   0.0
500.0   30.0   0.0
450.0   30.0   0.0
500.0   30.0   16.666666666666668
450.0   0.0   16.666666666666668
450.0   30.0   16.666666666666668
500.0   30.0   16.666666666666668
450.0   30.0   0.0
450.0   0.0   16.666666666666668
500.0   30.0   16.666666666666668
500.0   0.0   16.666666666666668
500.0   0.0   0.0
450.0   0.0   16.666666666666668
500.0   30.0   16.666666666666668
500.0   0.0   0.0
450.0   30.0   0.0
450.0   0.0   16.666666666666668
500.0   0.0   16.666666666666668
450.0   30.0   16.666666666666668
450.0   0.0   33.333333333333336
500.0   0.0   16.666666666666668
500.0   30.0   16.666666666666668
450.0   30.0   16.666666666666668
500.0   30.0   33.333333333333336
450.0   0.0   33.333333333333336
450.0   30.0   33.333333333333336
500.0   30.0   33.333333333333336
450.0   30.0   16.666666666666668
450.0   0.0   33.333333333333336
500.0   30.0   33.333333333333336
500.0   0.0   33.333333333333336
500.0   0.0   16.666666666666668
450.0   0.0   33.333333333333336
500.0   30.0   33.333333333333336
500.0   0.0   16.666666666666668
450.0   30.0   16.666666666666668
450.0   0.0   33.333333333333336
500.0   0.0   33.333333333333336
450.0   30.0   33.333333333333336
450.0   0.0   50.0
500.0   0.0   33.333333333333336
500.0   30.0   33.333333333333336
450.0   30.0   33.333333333333336
500.0   30.0   50.0
450.0   0.0   50.0
450.0   30.0   50.0
500.0   30.0   50.0
450.0   30.0   33.333333333333336
450.0   0.0   50.0
500.0   30.0   50.0
500.0   0.0   50.0
500.0   0.0   33.333333333333336
450.0   0.0   50.0
500.0   30.0   50.0
500.0   0.0   33.333333333333336
450.0   30.0   33.333333333333336
450.0   30.0   0.0
500.0   30.0   0.0
450.0   60.0   0.0
450.0   30.0   16.666666666666668
500.0   30.0   0.0
500.0   60.0   0.0
450.0   60.0   0.0
500.0   60.0   16.666666666666668
450.0   30.0   16.666666666666668
450.0   60.0   16.666666666666668
500.0   60.0   16.666666666666668
450.0   60.0   0.0
450.0   30.0   16.666666666666668
500.0   60.0   16.666666666666668
500.0   30.0   16.666666666666668
500.0   30.0   0.0
450.0   30.0   16.666666666666668
500.0   60.0   16.666666666666668
500.0   30.0   0.0
450.0   60.0   0.0
450.0   30.0   16.666666666666668
500.0   30.0   16.666666666666668
450.0   60.0   16.666666666666668
450.0   30.0   33.333333333333336
500.0   30.0   16.666666666666668
500.0   60.0   16.666666666666668
450.0   60.0   16.666666666666668
500.0   60.0   33.333333333333336
450.0   30.0   33.333333333333336
450.0   60.0   33.333333333333336
500.0   60.0   33.333333333333336
450.0   60.0   16.666666666666668
450.0   30.0   33.333333333333336
500.0   60.0   33.333333333333336
500.0   30.0   33.333333333333336
500.0   30.0   16.666666666666668
450.0   30.0   33.333333333333336
500.0   60.0   33.333333333333336
500.0   30.0   16.666666666666668
450.0   60.0   16.666666666666668
450.0   30.0   33.333333333333336
500.0   30.0   33.333333333333336
450.0   60.0   33.333333333333336
450.0   30.0   50.0
500.0   30.0   33.333333333333336
500.0   60.0   33.333333333333336
450.0   60.0   33.333333333333336
500.0   60.0   50.0
450.0   30.0   50.0
450.0   60.0   50.0
500.0   60.0   50.0
450.0   60.0   33.333333333333336
450.0   30.0   50.0
500.0   60.0   50.0
500.0   30.0   50.0
500.0   30.0   33.333333333333336
450.0   30.0   50.0
500.0   60.0   50.0
500.0   30.0   33.333333333333336
450.0   60.0   33.333333333333336
450.0   60.0   0.0
500.0   60.0   0.0
450.0   90.0   0.0
450.0   60.0   16.666666666666668
500.0   60.0   0.0
500.0   90.0   0.0
450.0   90.0   0.0
500.0   90.0   16.666666666666668
450.0   60.0   16.666666666666668
450.0   90.0   16.666666666666668
500.0   90.0   16.666666666666668
450.0   90.0   0.0
450.0   60.0   16.666666666666668
500.0   90.0   16.666666666666668
500.0   60.0   16.666666666666668
500.0   60.0   0.0
450.0   60.0   16.666666666666668
500.0   90.0   16.666666666666668
500.0   60.0   0.0
450.0   90.0   0.0
450.0   60.0   16.666666666666668
500.0   60.0   16.666666666666668
450.0   90.0   16.666666666666668
450.0   60.0   33.333333333333336
500.0   60.0   16.666666666666668
500.0   90.0   16.666666666666668
450.0   90.0   16.666666666666668
500.0   90.0   33.333333333333336
450.0   60.0   33.333333333333336
450.0   90.0   33.333333333333336
500.0   90.0   33.333333333333336
450.0   90.0   16.666666666666668
450.0   60.0   33.333333333333336
500.0   90.0   33.333333333333336
500.0   60.0   33.333333333333336
500.0   60.0   16.666666666666668
450.0   60.0   33.333333333333336
500.0   90.0   33.333333333333336
500.0   60.0   16.666666666666668
450.0   90.0   16.666666666666668
450.0   60.0   33.333333333333336
500.0   60.0   33.333333333333336
450.0   90.0   33.333333333333336
450.0   60.0   50.0
500.0   60.0   33.333333333333336
500.0   90.0   33.333333333333336
450.0   90.0   33.333333333333336
500.0   90.0   50.0
450.0   60.0   50.0
450.0   90.0   50.0
500.0   90.0   50.0
450.0   90.0   33.333333333333336
450.0   60.0   50.0
500.0   90.0   50.0
500.0   60.0   50.0
500.0   60.0   33.333333333333336
450.0   60.0   50.0
500.0   90.0   50.0
500.0   60.0   33.333333333333336
450.0   90.0   33.333333333333336
450.0   90.0   0.0
500.0   90.0   0.0
450.0   120.0   0.0
450.0   90.0   16.666666666666668
500.0   90.0   0.0
500.0   120.0   0.0
450.0   120.0   0.0
500.0   120.0   16.666666666666668
450.0   90.0   16.666666666666668
450.0   120.0   16.666666666666668
500.0   120.0   16.666666666666668
450.0   120.0   0.0
450.0   90.0   16.666666666666668
500.0   120.0   16.666666666666668
500.0   90.0   16.666666666666668
500.0   90.0   0.0
450.0   90.0   16.666666666666668
500.0   120.0   16.666666666666668
500.0   90.0   0.0
450.0   120.0   0.0
450.0   90.0   16.666666666666668
500.0   90.0   16.666666666666668
450.0   120.0   16.666666666666668
450.0   90.0   33.333333333333336
500.0   90.0   16.666666666666668
500.0   120.0   16.666666666666668
450.0   120.0   16.666666666666668
500.0   120.0   33.333333333333336
450.0   90.0   33.333333333333336
450.0   120.0   33.333333333333336
500.0   120.0   33.333333333333336
450.0   120.0   16.666666666666668
450.0   90.0   33.333333333333336
500.0   120.0   33.333333333333336
500.0   90.0   33.333333333333336
500.0   90.0   16.666666666666668
450.0   90.0   33.333333333333336
500.0   120.0   33.333333333333336
500.0   90.0   16.666666666666668
450.0   120.0   16.666666666666668
450.0   90.0   33.333333333333336
500.0   90.0   33.333333333333336
450.0   120.0   33.333333333333336
450.0   90.0   50.0
500.0   90.0   33.333333333333336
500.0   120.0   33.333333333333336
450.0   120.0   33.333333333333336
500.0   120.0   50.0
450.0   90.0   50.0
450.0   120.0   50.0
500.0   120.0   50.0
450.0   120.0   33.333333333333336
450.0   90.0   50.0
500.0   120.0   50.0
500.0   90.0   50.0
500.0   90.0   33.333333333333336
450.0   90.0   50.0
500.0   120.0   50.0
500.0   90.0   33.333333333333336
450.0   120.0   33.333333333333336
450.0   120.0   0.0
500.0   120.0   0.0
450.0   150.0   0.0
450.0   120.0   16.666666666666668
500.0   120.0   0.0
500.0   150.0   0.0
450.0   150.0   0.0
500.0   150.0   16.666666666666668
450.0   120.0   16.666666666666668
450.0   150.0   16.666666666666668
500.0   150.0   16.666666666666668
450.0   150.0   0.0
450.0   120.0   16.666666666666668
500.0   150.0   16.666666666666668
500.0   120.0   16.666666666666668
500.0   120.0   0.0
450.0   120.0   16.666666666666668
500.0   150.0   16.666666666666668
500.0   120.0   0.0
450.0   150.0   0.0
450.0   120.0   16.666666666666668
500.0   120.0   16.666666666666668
450.0   150.0   16.666666666666668
450.0   120.0   33.333333333333336
500.0   120.0   16.666666666666668
500.0   150.0   16.666666666666668
450.0   150.0   16.666666666666668
500.0   150.0   33.333333333333336
450.0   120.0   33.333333333333336
450.0   150.0   33.333333333333336
500.0   150.0   33.333333333333336
450.0   150.0   16.666666666666668
450.0   120.0   33.333333333333336
500.0   150.0   33.333333333333336
500.0   120.0   33.333333333333336
500.0   120.0   16.666666666666668
450.0   120.0   33.333333333333336
500.0   150.0   33.333333333333336
500.0   120.0   16.666666666666668
450.0   150.0   16.666666666666668
450.0   120.0   33.333333333333336
500.0   120.0   33.333333333333336
450.0   150.0   33.333333333333336
450.0   120.0   50.0
500.0   120.0   33.333333333333336
500.0   150.0   33.333333333333336
450.0   150.0   33.333333333333336
500.0   150.0   50.0
450.0   120.0   50.0
450.0   150.0   50.0
500.0   150.0   50.0
450.0   150.0   33.333333333333336
450.0   120.0   50.0
500.0   150.0   50.0
500.0   120.0   50.0
500.0   120.0   33.333333333333336
450.0   120.0   50.0
500.0   150.0   50.0
500.0   120.0   33.333333333333336
450.0   150.0   33.333333333333336
             </DataArray>   
          </Points>  
          <Cells>  
             <DataArray type="Int32" Name="connectivity" format="ascii">   
0   1   2   3
4   5   6   7
8   9   10   11
12   13   14   15
16   17   18   19
20   21   22   23
24   25   26   27
28   29   30   31
32   33   34   35
36   37   38   39
40   41   42   43
44   45   46   47
48   49   50   51
52   53   54   55
56   57   58   59
60   61   62   63
64   65   66   67
68   69   70   71
72   73   74   75
76   77   78   79
80   81   82   83
84   85   86   87
88   89   90   91
92   93   94   95
96   97   98   99
100   101   102   103
104   105   106   107
108   109   110   111
112   113   114   115
116   117   118   119
120   121   122   123
124   125   126   127
128   129   130   131
132   133   134   135
136   137   138   139
140   141   142   143
144   145   146   147
148   149   150   151
152   153   154   155
156   157   158   159
160   161   162   163
164   165   166   167
168   169   170   171
172   173   174   175
176   177   178   179
180   181   182   183
184   185   186   187
188   189   190   191
192   193   194   195
196   197   198   199
200   201   202   203
204   205   206   207
208   209   210   211
212   213   214   215
216   217   218   219
220   221   222   223
224   225   226   227
228   229   230   231
232   233   234   235
236   237   238   239
240   241   242   243
244   245   246   247
248   249   250   251
252   253   254   255
256   257   258   259
260   261   262   263
264   265   266   267
268   269   270   271
272   273   274   275
276   277   278   279
280   281   282   283
284   285   286   287
288   289   290   291
292   293   294   295
296   297   298   299
300   301   302   303
304   305   306   307
308   309   310   311
312   313   314   315
316   317   318   319
320   321   322   323
324   325   326   327
328   329   330   331
332   333   334   335
336   337   338   339
340   341   342   343
344   345   346   347
348   349   350   351
352   353   354   355
356   357   358   359
360   361   362   363
364   365   366   367
368   369   370   371
372   373   374   375
376   377   378   379
380   381   382   383
384   385   386   387
388   389   390   391
392   393   394   395
396   397   398   399
400   401   402   403
404   405   406   407
408   409   410   411
412   413   414   415
416   417   418   419
420   421   422   423
424   425   426   427
428   429   430   431
432   433   434   435
436   437   438   439
440   441   442   443
444   445   446   447
448   449   450   451
452   453   454   455
456   457   458   459
460   461   462   463
464   465   466   467
468   469   470   471
472   473   474   475
476   477   478   479
480   481   482   483
484   485   486   487
488   489   490   491
492   493   494   495
496   497   498   499
500   501   502   503
504   505   506   507
508   509   510   511
512   513   514   515
516   517   518   519
520   521   522   523
524   525   526   527
528   529   530   531
532   533   534   535
536   537   538   539
540   541   542   543
544   545   546   547
548   549   550   551
552   553   554   555
556   557   558   559
560   561   562   563
564   565   566   567
568   569   570   571
572   573   574   575
576   577   578   579
580   581   582   583
584   585   586   587
588   589   590   591
592   593   594   595
596   597   598   599
600   601   602   603
604   605   606   607
608   609   610   611
612   613   614   615
616   617   618   619
620   621   622   623
624   625   626   627
628   629   630   631
632   633   634   635
636   637   638   639
640   641   642   643
644   645   646   647
648   649   650   651
652   653   654   655
656   657   658   659
660   661   662   663
664   665   666   667
668   669   670   671
672   673   674   675
676   677   678   679
680   681   682   683
684   685   686   687
688   689   690   691
692   693   694   695
696   697   698   699
700   701   702   703
704   705   706   707
708   709   710   711
712   713   714   715
716   717   718   719
720   721   722   723
724   725   726   727
728   729   730   731
732   733   734   735
736   737   738   739
740   741   742   743
744   745   746   747
748   749   750   751
752   753   754   755
756   757   758   759
760   761   762   763
764   765   766   767
768   769   770   771
772   773   774   775
776   777   778   779
780   781   782   783
784   785   786   787
788   789   790   791
792   793   794   795
796   797   798   799
800   801   802   803
804   805   806   807
808   809   810   811
812   813   814   815
816   817   818   819
820   821   822   823
824   825   826   827
828   829   830   831
832   833   834   835
836   837   838   839
840   841   842   843
844   845   846   847
848   849   850   851
852   853   854   855
856   857   858   859
860   861   862   863
864   865   866   867
868   869   870   871
872   873   874   875
876   877   878   879
880   881   882   883
884   885   886   887
888   889   890   891
892   893   894   895
896   897   898   899
900   901   902   903
904   905   906   907
908   909   910   911
912   913   914   915
916   917   918   919
920   921   922   923
924   925   926   927
928   929   930   931
932   933   934   935
936   937   938   939
940   941   942   943
944   945   946   947
948   949   950   951
952   953   954   955
956   957   958   959
960   961   962   963
964   965   966   967
968   969   970   971
972   973   974   975
976   977   978   979
980   981   982   983
984   985   986   987
988   989   990   991
992   993   994   995
996   997   998   999
1000   1001   1002   1003
1004   1005   1006   1007
1008   1009   1010   1011
1012   1013   1014   1015
1016   1017   1018   1019
1020   1021   1022   1023
1024   1025   1026   1027
1028   1029   1030   1031
1032   1033   1034   1035
1036   1037   1038   1039
1040   1041   1042   1043
1044   1045   1046   1047
1048   1049   1050   1051
1052   1053   1054   1055
1056   1057   1058   1059
1060   1061   1062   1063
1064   1065   1066   1067
1068   1069   1070   1071
1072   1073   1074   1075
1076   1077   1078   1079
1080   1081   1082   1083
1084   1085   1086   1087
1088   1089   1090   1091
1092   1093   1094   1095
1096   1097   1098   1099
1100   1101   1102   1103
1104   1105   1106   1107
1108   1109   1110   1111
1112   1113   1114   1115
1116   1117   1118   1119
1120   1121   1122   1123
1124   1125   1126   1127
1128   1129   1130   1131
1132   1133   1134   1135
1136   1137   1138   1139
1140   1141   1142   1143
1144   1145   1146   1147
1148   1149   1150   1151
1152   1153   1154   1155
1156   1157   1158   1159
1160   1161   1162   1163
1164   1165   1166   1167
1168   1169   1170   1171
1172   1173   1174   1175
1176   1177   1178   1179
1180   1181   1182   1183
1184   1185   1186   1187
1188   1189   1190   1191
1192   1193   1194   1195
1196   1197   1198   1199
1200   1201   1202   1203
1204   1205   1206   1207
1208   1209   1210   1211
1212   1213   1214   1215
1216   1217   1218   1219
1220   1221   1222   1223
1224   1225   1226   1227
1228   1229   1230   1231
1232   1233   1234   1235
1236   1237   1238   1239
1240   1241   1242   1243
1244   1245   1246   1247
1248   1249   1250   1251
1252   1253   1254   1255
1256   1257   1258   1259
1260   1261   1262   1263
1264   1265   1266   1267
1268   1269   1270   1271
1272   1273   1274   1275
1276   1277   1278   1279
1280   1281   1282   1283
1284   1285   1286   1287
1288   1289   1290   1291
1292   1293   1294   1295
1296   1297   1298   1299
1300   1301   1302   1303
1304   1305   1306   1307
1308   1309   1310   1311
1312   1313   1314   1315
1316   1317   1318   1319
1320   1321   1322   1323
1324   1325   1326   1327
1328   1329   1330   1331
1332   1333   1334   1335
1336   1337   1338   1339
1340   1341   1342   1343
1344   1345   1346   1347
1348   1349   1350   1351
1352   1353   1354   1355
1356   1357   1358   1359
1360   1361   1362   1363
1364   1365   1366   1367
1368   1369   1370   1371
1372   1373   1374   1375
1376   1377   1378   1379
1380   1381   1382   1383
1384   1385   1386   1387
1388   1389   1390   1391
1392   1393   1394   1395
1396   1397   1398   1399
1400   1401   1402   1403
1404   1405   1406   1407
1408   1409   1410   1411
1412   1413   1414   1415
1416   1417   1418   1419
1420   1421   1422   1423
1424   1425   1426   1427
1428   1429   1430   1431
1432   1433   1434   1435
1436   1437   1438   1439
1440   1441   1442   1443
1444   1445   1446   1447
1448   1449   1450   1451
1452   1453   1454   1455
1456   1457   1458   1459
1460   1461   1462   1463
1464   1465   1466   1467
1468   1469   1470   1471
1472   1473   1474   1475
1476   1477   1478   1479
1480   1481   1482   1483
1484   1485   1486   1487
1488   1489   1490   1491
1492   1493   1494   1495
1496   1497   1498   1499
1500   1501   1502   1503
1504   1505   1506   1507
1508   1509   1510   1511
1512   1513   1514   1515
1516   1517   1518   1519
1520   1521   1522   1523
1524   1525   1526   1527
1528   1529   1530   1531
1532   1533   1534   1535
1536   1537   1538   1539
1540   1541   1542   1543
1544   1545   1546   1547
1548   1549   1550   1551
1552   1553   1554   1555
1556   1557   1558   1559
1560   1561   1562   1563
1564   1565   1566   1567
1568   1569   1570   1571
1572   1573   1574   1575
1576   1577   1578   1579
1580   1581   1582   1583
1584   1585   1586   1587
1588   1589   1590   1591
1592   1593   1594   1595
1596   1597   1598   1599
1600   1601   1602   1603
1604   1605   1606   1607
1608   1609   1610   1611
1612   1613   1614   1615
1616   1617   1618   1619
1620   1621   1622   1623
1624   1625   1626   1627
1628   1629   1630   1631
1632   1633   1634   1635
1636   1637   1638   1639
1640   1641   1642   1643
1644   1645   1646   1647
1648   1649   1650   1651
1652   1653   1654   1655
1656   1657   1658   1659
1660   1661   1662   1663
1664   1665   1666   1667
1668   1669   1670   1671
1672   1673   1674   1675
1676   1677   1678   1679
1680   1681   1682   1683
1684   1685   1686   1687
1688   1689   1690   1691
1692   1693   1694   1695
1696   1697   1698   1699
1700   1701   1702   1703
1704   1705   1706   1707
1708   1709   1710   1711
1712   1713   1714   1715
1716   1717   1718   1719
1720   1721   1722   1723
1724   1725   1726   1727
1728   1729   1730   1731
1732   1733   1734   1735
1736   1737   1738   1739
1740   1741   1742   1743
1744   1745   1746   1747
1748   1749   1750   1751
1752   1753   1754   1755
1756   1757   1758   1759
1760   1761   1762   1763
1764   1765   1766   1767
1768   1769   1770   1771
1772   1773   1774   1775
1776   1777   1778   1779
1780   1781   1782   1783
1784   1785   1786   1787
1788   1789   1790   1791
1792   1793   1794   1795
1796   1797   1798   1799
1800   1801   1802   1803
1804   1805   1806   1807
1808   1809   1810   1811
1812   1813   1814   1815
1816   1817   1818   1819
1820   1821   1822   1823
1824   1825   1826   1827
1828   1829   1830   1831
1832   1833   1834   1835
1836   1837   1838   1839
1840   1841   1842   1843
1844   1845   1846   1847
1848   1849   1850   1851
1852   1853   1854   1855
1856   1857   1858   1859
1860   1861   1862   1863
1864   1865   1866   1867
1868   1869   1870   1871
1872   1873   1874   1875
1876   1877   1878   1879
1880   1881   1882   1883
1884   1885   1886   1887
1888   1889   1890   1891
1892   1893   1894   1895
1896   1897   1898   1899
1900   1901   1902   1903
1904   1905   1906   1907
1908   1909   1910   1911
1912   1913   1914   1915
1916   1917   1918   1919
1920   1921   1922   1923
1924   1925   1926   1927
1928   1929   1930   1931
1932   1933   1934   1935
1936   1937   1938   1939
1940   1941   1942   1943
1944   1945   1946   1947
1948   1949   1950   1951
1952   1953   1954   1955
1956   1957   1958   1959
1960   1961   1962   1963
1964   1965   1966   1967
1968   1969   1970   1971
1972   1973   1974   1975
1976   1977   1978   1979
1980   1981   1982   1983
1984   1985   1986   1987
1988   1989   1990   1991
1992   1993   1994   1995
1996   1997   1998   1999
2000   2001   2002   2003
2004   2005   2006   2007
2008   2009   2010   2011
2012   2013   2014   2015
2016   2017   2018   2019
2020   2021   2022   2023
2024   2025   2026   2027
2028   2029   2030   2031
2032   2033   2034   2035
2036   2037   2038   2039
2040   2041   2042   2043
2044   2045   2046   2047
2048   2049   2050   2051
2052   2053   2054   2055
2056   2057   2058   2059
2060   2061   2062   2063
2064   2065   2066   2067
2068   2069   2070   2071
2072   2073   2074   2075
2076   2077   2078   2079
2080   2081   2082   2083
2084   2085   2086   2087
2088   2089   2090   2091
2092   2093   2094   2095
2096   2097   2098   2099
2100   2101   2102   2103
2104   2105   2106   2107
2108   2109   2110   2111
2112   2113   2114   2115
2116   2117   2118   2119
2120   2121   2122   2123
2124   2125   2126   2127
2128   2129   2130   2131
2132   2133   2134   2135
2136   2137   2138   2139
2140   2141   2142   2143
2144   2145   2146   2147
2148   2149   2150   2151
2152   2153   2154   2155
2156   2157   2158   2159
2160   2161   2162   2163
2164   2165   2166   2167
2168   2169   2170   2171
2172   2173   2174   2175
2176   2177   2178   2179
2180   2181   2182   2183
2184   2185   2186   2187
2188   2189   2190   2191
2192   2193   2194   2195
2196   2197   2198   2199
2200   2201   2202   2203
2204   2205   2206   2207
2208   2209   2210   2211
2212   2213   2214   2215
2216   2217   2218   2219
2220   2221   2222   2223
2224   2225   2226   2227
2228   2229   2230   2231
2232   2233   2234   2235
2236   2237   2238   2239
2240   2241   2242   2243
2244   2245   2246   2247
2248   2249   2250   2251
2252   2253   2254   2255
2256   2257   2258   2259
2260   2261   2262   2263
2264   2265   2266   2267
2268   2269   2270   2271
2272   2273   2274   2275
2276   2277   2278   2279
2280   2281   2282   2283
2284   2285   2286   2287
2288   2289   2290   2291
2292   2293   2294   2295
2296   2297   2298   2299
2300   2301   2302   2303
2304   2305   2306   2307
2308   2309   2310   2311
2312   2313   2314   2315
2316   2317   2318   2319
2320   2321   2322   2323
2324   2325   2326   2327
2328   2329   2330   2331
2332   2333   2334   2335
2336   2337   2338   2339
2340   2341   2342   2343
2344   2345   2346   2347
2348   2349   2350   2351
2352   2353   2354   2355
2356   2357   2358   2359
2360   2361   2362   2363
2364   2365   2366   2367
2368   2369   2370   2371
2372   2373   2374   2375
2376   2377   2378   2379
2380   2381   2382   2383
2384   2385   2386   2387
2388   2389   2390   2391
2392   2393   2394   2395
2396   2397   2398   2399
2400   2401   2402   2403
2404   2405   2406   2407
2408   2409   2410   2411
2412   2413   2414   2415
2416   2417   2418   2419
2420   2421   2422   2423
2424   2425   2426   2427
2428   2429   2430   2431
2432   2433   2434   2435
2436   2437   2438   2439
2440   2441   2442   2443
2444   2445   2446   2447
2448   2449   2450   2451
2452   2453   2454   2455
2456   2457   2458   2459
2460   2461   2462   2463
2464   2465   2466   2467
2468   2469   2470   2471
2472   2473   2474   2475
2476   2477   2478   2479
2480   2481   2482   2483
2484   2485   2486   2487
2488   2489   2490   2491
2492   2493   2494   2495
2496   2497   2498   2499
2500   2501   2502   2503
2504   2505   2506   2507
2508   2509   2510   2511
2512   2513   2514   2515
2516   2517   2518   2519
2520   2521   2522   2523
2524   2525   2526   2527
2528   2529   2530   2531
2532   2533   2534   2535
2536   2537   2538   2539
2540   2541   2542   2543
2544   2545   2546   2547
2548   2549   2550   2551
2552   2553   2554   2555
2556   2557   2558   2559
2560   2561   2562   2563
2564   2565   2566   2567
2568   2569   2570   2571
2572   2573   2574   2575
2576   2577   2578   2579
2580   2581   2582   2583
2584   2585   2586   2587
2588   2589   2590   2591
2592   2593   2594   2595
2596   2597   2598   2599
2600   2601   2602   2603
2604   2605   2606   2607
2608   2609   2610   2611
2612   2613   2614   2615
2616   2617   2618   2619
2620   2621   2622   2623
2624   2625   2626   2627
2628   2629   2630   2631
2632   2633   2634   2635
2636   2637   2638   2639
2640   2641   2642   2643
2644   2645   2646   2647
2648   2649   2650   2651
2652   2653   2654   2655
2656   2657   2658   2659
2660   2661   2662   2663
2664   2665   2666   2667
2668   2669   2670   2671
2672   2673   2674   2675
2676   2677   2678   2679
2680   2681   2682   2683
2684   2685   2686   2687
2688   2689   2690   2691
2692   2693   2694   2695
2696   2697   2698   2699
2700   2701   2702   2703
2704   2705   2706   2707
2708   2709   2710   2711
2712   2713   2714   2715
2716   2717   2718   2719
2720   2721   2722   2723
2724   2725   2726   2727
2728   2729   2730   2731
2732   2733   2734   2735
2736   2737   2738   2739
2740   2741   2742   2743
2744   2745   2746   2747
2748   2749   2750   2751
2752   2753   2754   2755
2756   2757   2758   2759
2760   2761   2762   2763
2764   2765   2766   2767
2768   2769   2770   2771
2772   2773   2774   2775
2776   2777   2778   2779
2780   2781   2782   2783
2784   2785   2786   2787
2788   2789   2790   2791
2792   2793   2794   2795
2796   2797   2798   2799
2800   2801   2802   2803
2804   2805   2806   2807
2808   2809   2810   2811
2812   2813   2814   2815
2816   2817   2818   2819
2820   2821   2822   2823
2824   2825   2826   2827
2828   2829   2830   2831
2832   2833   2834   2835
2836   2837   2838   2839
2840   2841   2842   2843
2844   2845   2846   2847
2848   2849   2850   2851
2852   2853   2854   2855
2856   2857   2858   2859
2860   2861   2862   2863
2864   2865   2866   2867
2868   2869   2870   2871
2872   2873   2874   2875
2876   2877   2878   2879
2880   2881   2882   2883
2884   2885   2886   2887
2888   2889   2890   2891
2892   2893   2894   2895
2896   2897   2898   2899
2900   2901   2902   2903
2904   2905   2906   2907
2908   2909   2910   2911
2912   2913   2914   2915
2916   2917   2918   2919
2920   2921   2922   2923
2924   2925   2926   2927
2928   2929   2930   2931
2932   2933   2934   2935
2936   2937   2938   2939
2940   2941   2942   2943
2944   2945   2946   2947
2948   2949   2950   2951
2952   2953   2954   2955
2956   2957   2958   2959
2960   2961   2962   2963
2964   2965   2966   2967
2968   2969   2970   2971
2972   2973   2974   2975
2976   2977   2978   2979
2980   2981   2982   2983
2984   2985   2986   2987
2988   2989   2990   2991
2992   2993   2994   2995
2996   2997   2998   2999
3000   3001   3002   3003
3004   3005   3006   3007
3008   3009   3010   3011
3012   3013   3014   3015
3016   3017   3018   3019
3020   3021   3022   3023
3024   3025   3026   3027
3028   3029   3030   3031
3032   3033   3034   3035
3036   3037   3038   3039
3040   3041   3042   3043
3044   3045   3046   3047
3048   3049   3050   3051
3052   3053   3054   3055
3056   3057   3058   3059
3060   3061   3062   3063
3064   3065   3066   3067
3068   3069   3070   3071
3072   3073   3074   3075
3076   3077   3078   3079
3080   3081   3082   3083
3084   3085   3086   3087
3088   3089   3090   3091
3092   3093   3094   3095
3096   3097   3098   3099
3100   3101   3102   3103
3104   3105   3106   3107
3108   3109   3110   3111
3112   3113   3114   3115
3116   3117   3118   3119
3120   3121   3122   3123
3124   3125   3126   3127
3128   3129   3130   3131
3132   3133   3134   3135
3136   3137   3138   3139
3140   3141   3142   3143
3144   3145   3146   3147
3148   3149   3150   3151
3152   3153   3154   3155
3156   3157   3158   3159
3160   3161   3162   3163
3164   3165   3166   3167
3168   3169   3170   3171
3172   3173   3174   3175
3176   3177   3178   3179
3180   3181   3182   3183
3184   3185   3186   3187
3188   3189   3190   3191
3192   3193   3194   3195
3196   3197   3198   3199
3200   3201   3202   3203
3204   3205   3206   3207
3208   3209   3210   3211
3212   3213   3214   3215
3216   3217   3218   3219
3220   3221   3222   3223
3224   3225   3226   3227
3228   3229   3230   3231
3232   3233   3234   3235
3236   3237   3238   3239
3240   3241   3242   3243
3244   3245   3246   3247
3248   3249   3250   3251
3252   3253   3254   3255
3256   3257   3258   3259
3260   3261   3262   3263
3264   3265   3266   3267
3268   3269   3270   3271
3272   3273   3274   3275
3276   3277   3278   3279
3280   3281   3282   3283
3284   3285   3286   3287
3288   3289   3290   3291
3292   3293   3294   3295
3296   3297   3298   3299
3300   3301   3302   3303
3304   3305   3306   3307
3308   3309   3310   3311
3312   3313   3314   3315
3316   3317   3318   3319
3320   3321   3322   3323
3324   3325   3326   3327
3328   3329   3330   3331
3332   3333   3334   3335
3336   3337   3338   3339
3340   3341   3342   3343
3344   3345   3346   3347
3348   3349   3350   3351
3352   3353   3354   3355
3356   3357   3358   3359
3360   3361   3362   3363
3364   3365   3366   3367
3368   3369   3370   3371
3372   3373   3374   3375
3376   3377   3378   3379
3380   3381   3382   3383
3384   3385   3386   3387
3388   3389   3390   3391
3392   3393   3394   3395
3396   3397   3398   3399
3400   3401   3402   3403
3404   3405   3406   3407
3408   3409   3410   3411
3412   3413   3414   3415
3416   3417   3418   3419
3420   3421   3422   3423
3424   3425   3426   3427
3428   3429   3430   3431
3432   3433   3434   3435
3436   3437   3438   3439
3440   3441   3442   3443
3444   3445   3446   3447
3448   3449   3450   3451
3452   3453   3454   3455
3456   3457   3458   3459
3460   3461   3462   3463
3464   3465   3466   3467
3468   3469   3470   3471
3472   3473   3474   3475
3476   3477   3478   3479
3480   3481   3482   3483
3484   3485   3486   3487
3488   3489   3490   3491
3492   3493   3494   3495
3496   3497   3498   3499
3500   3501   3502   3503
3504   3505   3506   3507
3508   3509   3510   3511
3512   3513   3514   3515
3516   3517   3518   3519
3520   3521   3522   3523
3524   3525   3526   3527
3528   3529   3530   3531
3532   3533   3534   3535
3536   3537   3538   3539
3540   3541   3542   3543
3544   3545   3546   3547
3548   3549   3550   3551
3552   3553   3554   3555
3556   3557   3558   3559
3560   3561   3562   3563
3564   3565   3566   3567
3568   3569   3570   3571
3572   3573   3574   3575
3576   3577   3578   3579
3580   3581   3582   3583
3584   3585   3586   3587
3588   3589   3590   3591
3592   3593   3594   3595
3596   3597   3598   3599
3600   3601   3602   3603
3604   3605   3606   3607
3608   3609   3610   3611
3612   3613   3614   3615
3616   3617   3618   3619
3620   3621   3622   3623
3624   3625   3626   3627
3628   3629   3630   3631
3632   3633   3634   3635
3636   3637   3638   3639
3640   3641   3642   3643
3644   3645   3646   3647
3648   3649   3650   3651
3652   3653   3654   3655
3656   3657   3658   3659
3660   3661   3662   3663
3664   3665   3666   3667
3668   3669   3670   3671
3672   3673   3674   3675
3676   3677   3678   3679
3680   3681   3682   3683
3684   3685   3686   3687
3688   3689   3690   3691
3692   3693   3694   3695
3696   3697   3698   3699
3700   3701   3702   3703
3704   3705   3706   3707
3708   3709   3710   3711
3712   3713   3714   3715
3716   3717   3718   3719
3720   3721   3722   3723
3724   3725   3726   3727
3728   3729   3730   3731
3732   3733   3734   3735
3736   3737   3738   3739
3740   3741   3742   3743
3744   3745   3746   3747
3748   3749   3750   3751
3752   3753   3754   3755
3756   3757   3758   3759
3760   3761   3762   3763
3764   3765   3766   3767
3768   3769   3770   3771
3772   3773   3774   3775
3776   3777   3778   3779
3780   3781   3782   3783
3784   3785   3786   3787
3788   3789   3790   3791
3792   3793   3794   3795
3796   3797   3798   3799
3800   3801   3802   3803
3804   3805   3806   3807
3808   3809   3810   3811
3812   3813   3814   3815
3816   3817   3818   3819
3820   3821   3822   3823
3824   3825   3826   3827
3828   3829   3830   3831
3832   3833   3834   3835
3836   3837   3838   3839
3840   3841   3842   3843
3844   3845   3846   3847
3848   3849   3850   3851
3852   3853   3854   3855
3856   3857   3858   3859
3860   3861   3862   3863
3864   3865   3866   3867
3868   3869   3870   3871
3872   3873   3874   3875
3876   3877   3878   3879
3880   3881   3882   3883
3884   3885   3886   3887
3888   3889   3890   3891
3892   3893   3894   3895
3896   3897   3898   3899
3900   3901   3902   3903
3904   3905   3906   3907
3908   3909   3910   3911
3912   3913   3914   3915
3916   3917   3918   3919
3920   3921   3922   3923
3924   3925   3926   3927
3928   3929   3930   3931
3932   3933   3934   3935
3936   3937   3938   3939
3940   3941   3942   3943
3944   3945   3946   3947
3948   3949   3950   3951
3952   3953   3954   3955
3956   3957   3958   3959
3960   3961   3962   3963
3964   3965   3966   3967
3968   3969   3970   3971
3972   3973   3974   3975
3976   3977   3978   3979
3980   3981   3982   3983
3984   3985   3986   3987
3988   3989   3990   3991
3992   3993   3994   3995
3996   3997   3998   3999
4000   4001   4002   4003
4004   4005   4006   4007
4008   4009   4010   4011
4012   4013   4014   4015
4016   4017   4018   4019
4020   4021   4022   4023
4024   4025   4026   4027
4028   4029   4030   4031
4032   4033   4034   4035
4036   4037   4038   4039
4040   4041   4042   4043
4044   4045   4046   4047
4048   4049   4050   4051
4052   4053   4054   4055
4056   4057   4058   4059
4060   4061   4062   4063
4064   4065   4066   4067
4068   4069   4070   4071
4072   4073   4074   4075
4076   4077   4078   4079
4080   4081   4082   4083
4084   4085   4086   4087
4088   4089   4090   4091
4092   4093   4094   4095
4096   4097   4098   4099
4100   4101   4102   4103
4104   4105   4106   4107
4108   4109   4110   4111
4112   4113   4114   4115
4116   4117   4118   4119
4120   4121   4122   4123
4124   4125   4126   4127
4128   4129   4130   4131
4132   4133   4134   4135
4136   4137   4138   4139
4140   4141   4142   4143
4144   4145   4146   4147
4148   4149   4150   4151
4152   4153   4154   4155
4156   4157   4158   4159
4160   4161   4162   4163
4164   4165   4166   4167
4168   4169   4170   4171
4172   4173   4174   4175
4176   4177   4178   4179
4180   4181   4182   4183
4184   4185   4186   4187
4188   4189   4190   4191
4192   4193   4194   4195
4196   4197   4198   4199
4200   4201   4202   4203
4204   4205   4206   4207
4208   4209   4210   4211
4212   4213   4214   4215
4216   4217   4218   4219
4220   4221   4222   4223
4224   4225   4226   4227
4228   4229   4230   4231
4232   4233   4234   4235
4236   4237   4238   4239
4240   4241   4242   4243
4244   4245   4246   4247
4248   4249   4250   4251
4252   4253   4254   4255
4256   4257   4258   4259
4260   4261   4262   4263
4264   4265   4266   4267
4268   4269   4270   4271
4272   4273   4274   4275
4276   4277   4278   4279
4280   4281   4282   4283
4284   4285   4286   4287
4288   4289   4290   4291
4292   4293   4294   4295
4296   4297   4298   4299
4300   4301   4302   4303
4304   4305   4306   4307
4308   4309   4310   4311
4312   4313   4314   4315
4316   4317   4318   4319
4320   4321   4322   4323
4324   4325   4326   4327
4328   4329   4330   4331
4332   4333   4334   4335
4336   4337   4338   4339
4340   4341   4342   4343
4344   4345   4346   4347
4348   4349   4350   4351
4352   4353   4354   4355
4356   4357   4358   4359
4360   4361   4362   4363
4364   4365   4366   4367
4368   4369   4370   4371
4372   4373   4374   4375
4376   4377   4378   4379
4380   4381   4382   4383
4384   4385   4386   4387
4388   4389   4390   4391
4392   4393   4394   4395
4396   4397   4398   4399
4400   4401   4402   4403
4404   4405   4406   4407
4408   4409   4410   4411
4412   4413   4414   4415
4416   4417   4418   4419
4420   4421   4422   4423
4424   4425   4426   4427
4428   4429   4430   4431
4432   4433   4434   4435
4436   4437   4438   4439
4440   4441   4442   4443
4444   4445   4446   4447
4448   4449   4450   4451
4452   4453   4454   4455
4456   4457   4458   4459
4460   4461   4462   4463
4464   4465   4466   4467
4468   4469   4470   4471
4472   4473   4474   4475
4476   4477   4478   4479
4480   4481   4482   4483
4484   4485   4486   4487
4488   4489   4490   4491
4492   4493   4494   4495
4496   4497   4498   4499
4500   4501   4502   4503
4504   4505   4506   4507
4508   4509   4510   4511
4512   4513   4514   4515
4516   4517   4518   4519
4520   4521   4522   4523
4524   4525   4526   4527
4528   4529   4530   4531
4532   4533   4534   4535
4536   4537   4538   4539
4540   4541   4542   4543
4544   4545   4546   4547
4548   4549   4550   4551
4552   4553   4554   4555
4556   4557   4558   4559
4560   4561   4562   4563
4564   4565   4566   4567
4568   4569   4570   4571
4572   4573   4574   4575
4576   4577   4578   4579
4580   4581   4582   4583
4584   4585   4586   4587
4588   4589   4590   4591
4592   4593   4594   4595
4596   4597   4598   4599
4600   4601   4602   4603
4604   4605   4606   4607
4608   4609   4610   4611
4612   4613   4614   4615
4616   4617   4618   4619
4620   4621   4622   4623
4624   4625   4626   4627
4628   4629   4630   4631
4632   4633   4634   4635
4636   4637   4638   4639
4640   4641   4642   4643
4644   4645   4646   4647
4648   4649   4650   4651
4652   4653   4654   4655
4656   4657   4658   4659
4660   4661   4662   4663
4664   4665   4666   4667
4668   4669   4670   4671
4672   4673   4674   4675
4676   4677   4678   4679
4680   4681   4682   4683
4684   4685   4686   4687
4688   4689   4690   4691
4692   4693   4694   4695
4696   4697   4698   4699
4700   4701   4702   4703
4704   4705   4706   4707
4708   4709   4710   4711
4712   4713   4714   4715
4716   4717   4718   4719
4720   4721   4722   4723
4724   4725   4726   4727
4728   4729   4730   4731
4732   4733   4734   4735
4736   4737   4738   4739
4740   4741   4742   4743
4744   4745   4746   4747
4748   4749   4750   4751
4752   4753   4754   4755
4756   4757   4758   4759
4760   4761   4762   4763
4764   4765   4766   4767
4768   4769   4770   4771
4772   4773   4774   4775
4776   4777   4778   4779
4780   4781   4782   4783
4784   4785   4786   4787
4788   4789   4790   4791
4792   4793   4794   4795
4796   4797   4798   4799
4800   4801   4802   4803
4804   4805   4806   4807
4808   4809   4810   4811
4812   4813   4814   4815
4816   4817   4818   4819
4820   4821   4822   4823
4824   4825   4826   4827
4828   4829   4830   4831
4832   4833   4834   4835
4836   4837   4838   4839
4840   4841   4842   4843
4844   4845   4846   4847
4848   4849   4850   4851
4852   4853   4854   4855
4856   4857   4858   4859
4860   4861   4862   4863
4864   4865   4866   4867
4868   4869   4870   4871
4872   4873   4874   4875
4876   4877   4878   4879
4880   4881   4882   4883
4884   4885   4886   4887
4888   4889   4890   4891
4892   4893   4894   4895
4896   4897   4898   4899
4900   4901   4902   4903
4904   4905   4906   4907
4908   4909   4910   4911
4912   4913   4914   4915
4916   4917   4918   4919
4920   4921   4922   4923
4924   4925   4926   4927
4928   4929   4930   4931
4932   4933   4934   4935
4936   4937   4938   4939
4940   4941   4942   4943
4944   4945   4946   4947
4948   4949   4950   4951
4952   4953   4954   4955
4956   4957   4958   4959
4960   4961   4962   4963
4964   4965   4966   4967
4968   4969   4970   4971
4972   4973   4974   4975
4976   4977   4978   4979
4980   4981   4982   4983
4984   4985   4986   4987
4988   4989   4990   4991
4992   4993   4994   4995
4996   4997   4998   4999
5000   5001   5002   5003
5004   5005   5006   5007
5008   5009   5010   5011
5012   5013   5014   5015
5016   5017   5018   5019
5020   5021   5022   5023
5024   5025   5026   5027
5028   5029   5030   5031
5032   5033   5034   5035
5036   5037   5038   5039
5040   5041   5042   5043
5044   5045   5046   5047
5048   5049   5050   5051
5052   5053   5054   5055
5056   5057   5058   5059
5060   5061   5062   5063
5064   5065   5066   5067
5068   5069   5070   5071
5072   5073   5074   5075
5076   5077   5078   5079
5080   5081   5082   5083
5084   5085   5086   5087
5088   5089   5090   5091
5092   5093   5094   5095
5096   5097   5098   5099
5100   5101   5102   5103
5104   5105   5106   5107
5108   5109   5110   5111
5112   5113   5114   5115
5116   5117   5118   5119
5120   5121   5122   5123
5124   5125   5126   5127
5128   5129   5130   5131
5132   5133   5134   5135
5136   5137   5138   5139
5140   5141   5142   5143
5144   5145   5146   5147
5148   5149   5150   5151
5152   5153   5154   5155
5156   5157   5158   5159
5160   5161   5162   5163
5164   5165   5166   5167
5168   5169   5170   5171
5172   5173   5174   5175
5176   5177   5178   5179
5180   5181   5182   5183
5184   5185   5186   5187
5188   5189   5190   5191
5192   5193   5194   5195
5196   5197   5198   5199
5200   5201   5202   5203
5204   5205   5206   5207
5208   5209   5210   5211
5212   5213   5214   5215
5216   5217   5218   5219
5220   5221   5222   5223
5224   5225   5226   5227
5228   5229   5230   5231
5232   5233   5234   5235
5236   5237   5238   5239
5240   5241   5242   5243
5244   5245   5246   5247
5248   5249   5250   5251
5252   5253   5254   5255
5256   5257   5258   5259
5260   5261   5262   5263
5264   5265   5266   5267
5268   5269   5270   5271
5272   5273   5274   5275
5276   5277   5278   5279
5280   5281   5282   5283
5284   5285   5286   5287
5288   5289   5290   5291
5292   5293   5294   5295
5296   5297   5298   5299
5300   5301   5302   5303
5304   5305   5306   5307
5308   5309   5310   5311
5312   5313   5314   5315
5316   5317   5318   5319
5320   5321   5322   5323
5324   5325   5326   5327
5328   5329   5330   5331
5332   5333   5334   5335
5336   5337   5338   5339
5340   5341   5342   5343
5344   5345   5346   5347
5348   5349   5350   5351
5352   5353   5354   5355
5356   5357   5358   5359
5360   5361   5362   5363
5364   5365   5366   5367
5368   5369   5370   5371
5372   5373   5374   5375
5376   5377   5378   5379
5380   5381   5382   5383
5384   5385   5386   5387
5388   5389   5390   5391
5392   5393   5394   5395
5396   5397   5398   5399
5400   5401   5402   5403
5404   5405   5406   5407
5408   5409   5410   5411
5412   5413   5414   5415
5416   5417   5418   5419
5420   5421   5422   5423
5424   5425   5426   5427
5428   5429   5430   5431
5432   5433   5434   5435
5436   5437   5438   5439
5440   5441   5442   5443
5444   5445   5446   5447
5448   5449   5450   5451
5452   5453   5454   5455
5456   5457   5458   5459
5460   5461   5462   5463
5464   5465   5466   5467
5468   5469   5470   5471
5472   5473   5474   5475
5476   5477   5478   5479
5480   5481   5482   5483
5484   5485   5486   5487
5488   5489   5490   5491
5492   5493   5494   5495
5496   5497   5498   5499
5500   5501   5502   5503
5504   5505   5506   5507
5508   5509   5510   5511
5512   5513   5514   5515
5516   5517   5518   5519
5520   5521   5522   5523
5524   5525   5526   5527
5528   5529   5530   5531
5532   5533   5534   5535
5536   5537   5538   5539
5540   5541   5542   5543
5544   5545   5546   5547
5548   5549   5550   5551
5552   5553   5554   5555
5556   5557   5558   5559
5560   5561   5562   5563
5564   5565   5566   5567
5568   5569   5570   5571
5572   5573   5574   5575
5576   5577   5578   5579
5580   5581   5582   5583
5584   5585   5586   5587
5588   5589   5590   5591
5592   5593   5594   5595
5596   5597   5598   5599
5600   5601   5602   5603
5604   5605   5606   5607
5608   5609   5610   5611
5612   5613   5614   5615
5616   5617   5618   5619
5620   5621   5622   5623
5624   5625   5626   5627
5628   5629   5630   5631
5632   5633   5634   5635
5636   5637   5638   5639
5640   5641   5642   5643
5644   5645   5646   5647
5648   5649   5650   5651
5652   5653   5654   5655
5656   5657   5658   5659
5660   5661   5662   5663
5664   5665   5666   5667
5668   5669   5670   5671
5672   5673   5674   5675
5676   5677   5678   5679
5680   5681   5682   5683
5684   5685   5686   5687
5688   5689   5690   5691
5692   5693   5694   5695
5696   5697   5698   5699
5700   5701   5702   5703
5704   5705   5706   5707
5708   5709   5710   5711
5712   5713   5714   5715
5716   5717   5718   5719
5720   5721   5722   5723
5724   5725   5726   5727
5728   5729   5730   5731
5732   5733   5734   5735
5736   5737   5738   5739
5740   5741   5742   5743
5744   5745   5746   5747
5748   5749   5750   5751
5752   5753   5754   5755
5756   5757   5758   5759
5760   5761   5762   5763
5764   5765   5766   5767
5768   5769   5770   5771
5772   5773   5774   5775
5776   5777   5778   5779
5780   5781   5782   5783
5784   5785   5786   5787
5788   5789   5790   5791
5792   5793   5794   5795
5796   5797   5798   5799
5800   5801   5802   5803
5804   5805   5806   5807
5808   5809   5810   5811
5812   5813   5814   5815
5816   5817   5818   5819
5820   5821   5822   5823
5824   5825   5826   5827
5828   5829   5830   5831
5832   5833   5834   5835
5836   5837   5838   5839
5840   5841   5842   5843
5844   5845   5846   5847
5848   5849   5850   5851
5852   5853   5854   5855
5856   5857   5858   5859
5860   5861   5862   5863
5864   5865   5866   5867
5868   5869   5870   5871
5872   5873   5874   5875
5876   5877   5878   5879
5880   5881   5882   5883
5884   5885   5886   5887
5888   5889   5890   5891
5892   5893   5894   5895
5896   5897   5898   5899
5900   5901   5902   5903
5904   5905   5906   5907
5908   5909   5910   5911
5912   5913   5914   5915
5916   5917   5918   5919
5920   5921   5922   5923
5924   5925   5926   5927
5928   5929   5930   5931
5932   5933   5934   5935
5936   5937   5938   5939
5940   5941   5942   5943
5944   5945   5946   5947
5948   5949   5950   5951
5952   5953   5954   5955
5956   5957   5958   5959
5960   5961   5962   5963
5964   5965   5966   5967
5968   5969   5970   5971
5972   5973   5974   5975
5976   5977   5978   5979
5980   5981   5982   5983
5984   5985   5986   5987
5988   5989   5990   5991
5992   5993   5994   5995
5996   5997   5998   5999
              </DataArray>   
              <DataArray type="Int32" Name="offsets" format="ascii">   
4
8
12
16
20
24
28
32
36
40
44
48
52
56
60
64
68
72
76
80
84
88
92
96
100
104
108
112
116
120
124
128
132
136
140
144
148
152
156
160
164
168
172
176
180
184
188
192
196
200
204
208
212
216
220
224
228
232
236
240
244
248
252
256
260
264
268
272
276
280
284
288
292
296
300
304
308
312
316
320
324
328
332
336
340
344
348
352
356
360
364
368
372
376
380
384
388
392
396
400
404
408
412
416
420
424
428
432
436
440
444
448
452
456
460
464
468
472
476
480
484
488
492
496
500
504
508
512
516
520
524
528
532
536
540
544
548
552
556
560
564
568
572
576
580
584
588
592
596
600
604
608
612
616
620
624
628
632
636
640
644
648
652
656
660
664
668
672
676
680
684
688
692
696
700
704
708
712
716
720
724
728
732
736
740
744
748
752
756
760
764
768
772
776
780
784
788
792
796
800
804
808
812
816
820
824
828
832
836
840
844
848
852
856
860
864
868
872
876
880
884
888
892
896
900
904
908
912
916
920
924
928
932
936
940
944
948
952
956
960
964
968
972
976
980
984
988
992
996
1000
1004
1008
1012
1016
1020
1024
1028
1032
1036
1040
1044
1048
1052
1056
1060
1064
1068
1072
1076
1080
1084
1088
1092
1096
1100
1104
1108
1112
1116
1120
1124
1128
1132
1136
1140
1144
1148
1152
1156
1160
1164
1168
1172
1176
1180
1184
1188
1192
1196
1200
1204
1208
1212
1216
1220
1224
1228
1232
1236
1240
1244
1248
1252
1256
1260
1264
1268
1272
1276
1280
1284
1288
1292
1296
1300
1304
1308
1312
1316
1320
1324
1328
1332
1336
1340
1344
1348
1352
1356
1360
1364
1368
1372
1376
1380
1384
1388
1392
1396
1400
1404
1408
1412
1416
1420
1424
1428
1432
1436
1440
1444
1448
1452
1456
1460
1464
1468
1472
1476
1480
1484
1488
1492
1496
1500
1504
1508
1512
1516
1520
1524
1528
1532
1536
1540
1544
1548
1552
1556
1560
1564
1568
1572
1576
1580
1584
1588
1592
1596
1600
1604
1608
1612
1616
1620
1624
1628
1632
1636
1640
1644
1648
1652
1656
1660
1664
1668
1672
1676
1680
1684
1688
1692
1696
1700
1704
1708
1712
1716
1720
1724
1728
1732
1736
1740
1744
1748
1752
1756
1760
1764
1768
1772
1776
1780
1784
1788
1792
1796
1800
1804
1808
1812
1816
1820
1824
1828
1832
1836
1840
1844
1848
1852
1856
1860
1864
1868
1872
1876
1880
1884
1888
1892
1896
1900
1904
1908
1912
1916
1920
1924
1928
1932
1936
1940
1944
1948
1952
1956
1960
1964
1968
1972
1976
1980
1984
1988
1992
1996
2000
2004
2008
2012
2016
2020
2024
2028
2032
2036
2040
2044
2048
2052
2056
2060
2064
2068
2072
2076
2080
2084
2088
2092
2096
2100
2104
2108
2112
2116
2120
2124
2128
2132
2136
2140
2144
2148
2152
2156
2160
2164
2168
2172
2176
2180
2184
2188
2192
2196
2200
2204
2208
2212
2216
2220
2224
2228
2232
2236
2240
2244
2248
2252
2256
2260
2264
2268
2272
2276
2280
2284
2288
2292
2296
2300
2304
2308
2312
2316
2320
2324
2328
2332
2336
2340
2344
2348
2352
2356
2360
2364
2368
2372
2376
2380
2384
2388
2392
2396
2400
2404
2408
2412
2416
2420
2424
2428
2432
2436
2440
2444
2448
2452
2456
2460
2464
2468
2472
2476
2480
2484
2488
2492
2496
2500
2504
2508
2512
2516
2520
2524
2528
2532
2536
2540
2544
2548
2552
2556
2560
2564
2568
2572
2576
2580
2584
2588
2592
2596
2600
2604
2608
2612
2616
2620
2624
2628
2632
2636
2640
2644
2648
2652
2656
2660
2664
2668
2672
2676
2680
2684
2688
2692
2696
2700
2704
2708
2712
2716
2720
2724
2728
2732
2736
2740
2744
2748
2752
2756
2760
2764
2768
2772
2776
2780
2784
2788
2792
2796
2800
2804
2808
2812
2816
2820
2824
2828
2832
2836
2840
2844
2848
2852
2856
2860
2864
2868
2872
2876
2880
2884
2888
2892
2896
2900
2904
2908
2912
2916
2920
2924
2928
2932
2936
2940
2944
2948
2952
2956
2960
2964
2968
2972
2976
2980
2984
2988
2992
2996
3000
3004
3008
3012
3016
3020
3024
3028
3032
3036
3040
3044
3048
3052
3056
3060
3064
3068
3072
3076
3080
3084
3088
3092
3096
3100
3104
3108
3112
3116
3120
3124
3128
3132
3136
3140
3144
3148
3152
3156
3160
3164
3168
3172
3176
3180
3184
3188
3192
3196
3200
3204
3208
3212
3216
3220
3224
3228
3232
3236
3240
3244
3248
3252
3256
3260
3264
3268
3272
3276
3280
3284
3288
3292
3296
3300
3304
3308
3312
3316
3320
3324
3328
3332
3336
3340
3344
3348
3352
3356
3360
3364
3368
3372
3376
3380
3384
3388
3392
3396
3400
3404
3408
3412
3416
3420
3424
3428
3432
3436
3440
3444
3448
3452
3456
3460
3464
3468
3472
3476
3480
3484
3488
3492
3496
3500
3504
3508
3512
3516
3520
3524
3528
3532
3536
3540
3544
3548
3552
3556
3560
3564
3568
3572
3576
3580
3584
3588
3592
3596
3600
3604
3608
3612
3616
3620
3624
3628
3632
3636
3640
3644
3648
3652
3656
3660
3664
3668
3672
3676
3680
3684
3688
3692
3696
3700
3704
3708
3712
3716
3720
3724
3728
3732
3736
3740
3744
3748
3752
3756
3760
3764
3768
3772
3776
3780
3784
3788
3792
3796
3800
3804
3808
3812
3816
3820
3824
3828
3832
3836
3840
3844
3848
3852
3856
3860
3864
3868
3872
3876
3880
3884
3888
3892
3896
3900
3904
3908
3912
3916
3920
3924
3928
3932
3936
3940
3944
3948
3952
3956
3960
3964
3968
3972
3976
3980
3984
3988
3992
3996
4000
4004
4008
4012
4016
4020
4024
4028
4032
4036
4040
4044
4048
4052
4056
4060
4064
4068
4072
4076
4080
4084
4088
4092
4096
4100
4104
4108
4112
4116
4120
4124
4128
4132
4136
4140
4144
4148
4152
4156
4160
4164
4168
4172
4176
4180
4184
4188
4192
4196
4200
4204
4208
4212
4216
4220
4224
4228
4232
4236
4240
4244
4248
4252
4256
4260
4264
4268
4272
4276
4280
4284
4288
4292
4296
4300
4304
4308
4312
4316
4320
4324
4328
4332
4336
4340
4344
4348
4352
4356
4360
4364
4368
4372
4376
4380
4384
4388
4392
4396
4400
4404
4408
4412
4416
4420
4424
4428
4432
4436
4440
4444
4448
4452
4456
4460
4464
4468
4472
4476
4480
4484
4488
4492
4496
4500
4504
4508
4512
4516
4520
4524
4528
4532
4536
4540
4544
4548
4552
4556
4560
4564
4568
4572
4576
4580
4584
4588
4592
4596
4600
4604
4608
4612
4616
4620
4624
4628
4632
4636
4640
4644
4648
4652
4656
4660
4664
4668
4672
4676
4680
4684
4688
4692
4696
4700
4704
4708
4712
4716
4720
4724
4728
4732
4736
4740
4744
4748
4752
4756
4760
4764
4768
4772
4776
4780
4784
4788
4792
4796
4800
4804
4808
4812
4816
4820
4824
4828
4832
4836
4840
4844
4848
4852
4856
4860
4864
4868
4872
4876
4880
4884
4888
4892
4896
4900
4904
4908
4912
4916
4920
4924
4928
4932
4936
4940
4944
4948
4952
4956
4960
4964
4968
4972
4976
4980
4984
4988
4992
4996
5000
5004
5008
5012
5016
5020
5024
5028
5032
5036
5040
5044
5048
5052
5056
5060
5064
5068
5072
5076
5080
5084
5088
5092
5096
5100
5104
5108
5112
5116
5120
5124
5128
5132
5136
5140
5144
5148
5152
5156
5160
5164
5168
5172
5176
5180
5184
5188
5192
5196
5200
5204
5208
5212
5216
5220
5224
5228
5232
5236
5240
5244
5248
5252
5256
5260
5264
5268
5272
5276
5280
5284
5288
5292
5296
5300
5304
5308
5312
5316
5320
5324
5328
5332
5336
5340
5344
5348
5352
5356
5360
5364
5368
5372
5376
5380
5384
5388
5392
5396
5400
5404
5408
5412
5416
5420
5424
5428
5432
5436
5440
5444
5448
5452
5456
5460
5464
5468
5472
5476
5480
5484
5488
5492
5496
5500
5504
5508
5512
5516
5520
5524
5528
5532
5536
5540
5544
5548
5552
5556
5560
5564
5568
5572
5576
5580
5584
5588
5592
5596
5600
5604
5608
5612
5616
5620
5624
5628
5632
5636
5640
5644
5648
5652
5656
5660
5664
5668
5672
5676
5680
5684
5688
5692
5696
5700
5704
5708
5712
5716
5720
5724
5728
5732
5736
5740
5744
5748
5752
5756
5760
5764
5768
5772
5776
5780
5784
5788
5792
5796
5800
5804
5808
5812
5816
5820
5824
5828
5832
5836
5840
5844
5848
5852
5856
5860
5864
5868
5872
5876
5880
5884
5888
5892
5896
5900
5904
5908
5912
5916
5920
5924
5928
5932
5936
5940
5944
5948
5952
5956
5960
5964
5968
5972
5976
5980
5984
5988
5992
5996
6000
              </DataArray>   
              <DataArray type="UInt8" Name="types" format="ascii">   
10
10
10
10
10
10
10
10
10
10
10
10
10
10
10
10
10
10
10
10
10
10
10
10
10
10
10
10
10
10
10
10
10
10
10
10
10
10
10
10
10
10
10
10
10
10
10
10
10
10
10
10
10
10
10
10
10
10
10
10
10
10
10
10
10
10
10
10
10
10
10
10
10
10
10
10
10
10
10
10
10
10
10
10
10
10
10
10
10
10
10
10
10
10
10
10
10
10
10
10
10
10
10
10
10
10
10
10
10
10
10
10
10
10
10
10
10
10
10
10
10
10
10
10
10
10
10
10
10
10
10
10
10
10
10
10
10
10
10
10
10
10
10
10
10
10
10
10
10
10
10
10
10
10
10
10
10
10
10
10
10
10
10
10
10
10
10
10
10
10
10
10
10
10
10
10
10
10
10
10
10
10
10
10
10
10
10
10
10
10
10
10
10
10
10
10
10
10
10
10
10
10
10
10
10
10
10
10
10
10
10
10
10
10
10
10
10
10
10
10
10
10
10
10
10
10
10
10
10
10
10
10
10
10
10
10
10
10
10
10
10
10
10
10
10
10
10
10
10
10
10
10
10
10
10
10
10
10
10
10
10
10
10
10
10
10
10
10
10
10
10
10
10
10
10
10
10
10
10
10
10
10
10
10
10
10
10
10
10
10
10
10
10
10
10
10
10
10
10
10
10
10
10
10
10
10
10
10
10
10
10
10
10
10
10
10
10
10
10
10
10
10
10
10
10
10
10
10
10
10
10
10
10
10
10
10
10
10
10
10
10
10
10
10
10
10
10
10
10
10
10
10
10
10
10
10
10
10
10
10
10
10
10
10
10
10
10
10
10
10
10
10
10
10
10
10
10
10
10
10
10
10
10
10
10
10
10
10
10
10
10
10
10
10
10
10
10
10
10
10
10
10
10
10
10
10
10
10
10
10
10
10
10
10
10
10
10
10
10
10
10
10
10
10
10
10
10
10
10
10
10
10
10
10
10
10
10
10
10
10
10
10
10
10
10
10
10
10
10
10
10
10
10
10
10
10
10
10
10
10
10
10
10
10
10
10
10
10
10
10
10
10
10
10
10
10
10
10
10
10
10
10
10
10
10
10
10
10
10
10
10
10
10
10
10
10
10
10
10
10
10
10
10
10
10
10
10
10
10
10
10
10
10
10
10
10
10
10
10
10
10
10
10
10
10
10
10
10
10
10
10
10
10
10
10
10
10
10
10
10
10
10
10
10
10
10
10
10
10
10
10
10
10
10
10
10
10
10
10
10
10
10
10
10
10
10
10
10
10
10
10
10
10
10
10
10
10
10
10
10
10
10
10
10
10
10
10
10
10
10
10
10
10
10
10
10
10
10
10
10
10
10
10
10
10
10
10
10
10
10
10
10
10
10
10
10
10
10
10
10
10
10
10
10
10
10
10
10
10
10
10
10
10
10
10
10
10
10
10
10
10
10
10
10
10
10
10
10
10
10
10
10
10
10
10
10
10
10
10
10
10
10
10
10
10
10
10
10
10
10
10
10
10
10
10
10
10
10
10
10
10
10
10
10
10
10
10
10
10
10
10
10
10
10
10
10
10
10
10
10
10
10
10
10
10
10
10
10
10
10
10
10
10
10
10
10
10
10
10
10
10
10
10
10
10
10
10
10
10
10
10
10
10
10
10
10
10
10
10
10
10
10
10
10
10
10
10
10
10
10
10
10
10
10
10
10
10
10
10
10
10
10
10
10
10
10
10
10
10
10
10
10
10
10
10
10
10
10
10
10
10
10
10
10
10
10
10
10
10
10
10
10
10
10
10
10
10
10
10
10
10
10
10
10
10
10
10
10
10
10
10
10
10
10
10
10
10
10
10
10
10
10
10
10
10
10
10
10
10
10
10
10
10
10
10
10
10
10
10
10
10
10
10
10
10
10
10
10
10
10
10
10
10
10
10
10
10
10
10
10
10
10
10
10
10
10
10
10
10
10
10
10
10
10
10
10
10
10
10
10
10
10
10
10
10
10
10
10
10
10
10
10
10
10
10
10
10
10
10
10
10
10
10
10
10
10
10
10
10
10
10
10
10
10
10
10
10
10
10
10
10
10
10
10
10
10
10
10
10
10
10
10
10
10
10
10
10
10
10
10
10
10
10
10
10
10
10
10
10
10
10
10
10
10
10
10
10
10
10
10
10
10
10
10
10
10
10
10
10
10
10
10
10
10
10
10
10
10
10
10
10
10
10
10
10
10
10
10
10
10
10
10
10
10
10
10
10
10
10
10
10
10
10
10
10
10
10
10
10
10
10
10
10
10
10
10
10
10
10
10
10
10
10
10
10
10
10
10
10
10
10
10
10
10
10
10
10
10
10
10
10
10
10
10
10
10
10
10
10
10
10
10
10
10
10
10
10
10
10
10
10
10
10
10
10
10
10
10
10
10
10
10
10
10
10
10
10
10
10
10
10
10
10
10
10
10
10
10
10
10
10
10
10
10
10
10
10
10
10
10
10
10
10
10
10
10
10
10
10
10
10
10
10
10
10
10
10
10
10
10
10
10
10
10
10
10
10
10
10
10
10
10
10
10
10
10
10
10
10
10
10
10
10
10
10
10
10
10
10
10
10
10
10
10
10
10
10
10
10
10
10
10
10
10
10
10
10
10
10
10
10
10
10
10
10
10
10
10
10
10
10
10
10
10
10
10
10
10
10
10
10
10
10
10
10
10
10
10
10
10
10
10
10
10
10
10
10
10
10
10
10
10
10
10
10
10
10
10
10
10
10
10
10
10
10
10
10
10
10
10
10
10
10
10
10
10
10
10
10
10
10
10
10
10
10
10
10
10
10
10
10
10
10
10
10
10
10
10
10
10
10
10
10
10
10
10
10
10
10
10
10
10
10
10
10
10
10
10
10
10
10
10
10
10
10
10
10
10
10
10
10
10
10
10
10
10
10
10
10
10
10
10
10
10
10
10
10
10
10
10
10
10
10
10
10
10
10
10
10
10
10
10
10
10
10
10
10
10
10
10
10
10
10
10
10
10
10
10
10
10
10
10
10
10
10
10
10
10
10
10
10
10
10
10
10
10
10
10
10
10
10
10
10
10
10
10
10
10
10
10
10
10
10
10
10
10
10
10
10
10
10
10
10
10
10
10
10
10
10
10
10
10
10
10
10
10
10
10
10
10
10
10
10
10
10
10
10
10
10
10
10
10
10
10
10
10
10
10
10
10
10
10
10
10
10
10
10
10
10
10
10
10
10
10
10
10
10
10
10
10
10
10
10
10
10
10
10
10
10
10
10
10
10
10
10
10
10
10
10
10
10
10
10
10
10
10
10
10
10
10
10
10
10
10
10
10
10
10
10
10
10
10
10
10
10
10
10
10
10
10
10
10
10
10
10
10
10
10
10
10
              </DataArray>   
          </Cells>  
          <PointData>  
             <DataArray type="Float64" NumberOfComponents="3" Name="Strains" format="ascii">   
-8.811470777282684e-05   0.0   -5.784762011345662e-05
-8.811470777282684e-05   0.0   -5.784762011345662e-05
-8.811470777282684e-05   0.0   -5.784762011345662e-05
-8.811470777282684e-05   0.0   -5.784762011345662e-05
-5.606733686609902e-05   9.759060494663477e-06   1.4201010278877259e-06
-5.606733686609902e-05   9.759060494663477e-06   1.4201010278877259e-06
-5.606733686609902e-05   9.759060494663477e-06   1.4201010278877259e-06
-5.606733686609902e-05   9.759060494663477e-06   1.4201010278877259e-06
-5.495745030111146e-05   0.0   -5.45990830971456e-05
-5.495745030111146e-05   0.0   -5.45990830971456e-05
-5.495745030111146e-05   0.0   -5.45990830971456e-05
-5.495745030111146e-05   0.0   -5.45990830971456e-05
-9.221490587969393e-05   1.1712495372744438e-05   4.6917897684542746e-07
-9.221490587969393e-05   1.1712495372744438e-05   4.6917897684542746e-07
-9.221490587969393e-05   1.1712495372744438e-05   4.6917897684542746e-07
-9.221490587969393e-05   1.1712495372744438e-05   4.6917897684542746e-07
-7.153607903696903e-05   2.7071141802591735e-06   -2.8592303712204888e-05
-7.153607903696903e-05   2.7071141802591735e-06   -2.8592303712204888e-05
-7.153607903696903e-05   2.7071141802591735e-06   -2.8592303712204888e-05
-7.153607903696903e-05   2.7071141802591735e-06   -2.8592303712204888e-05
-9.221490587969409e-05   0.0   -6.162658032079228e-05
-9.221490587969409e-05   0.0   -6.162658032079228e-05
-9.221490587969409e-05   0.0   -6.162658032079228e-05
-9.221490587969409e-05   0.0   -6.162658032079228e-05
-5.495745030111146e-05   1.1712495372744451e-05   7.496676200492109e-06
-5.495745030111146e-05   1.1712495372744451e-05   7.496676200492109e-06
-5.495745030111146e-05   1.1712495372744451e-05   7.496676200492109e-06
-5.495745030111146e-05   1.1712495372744451e-05   7.496676200492109e-06
-5.511129806235679e-05   0.0   -5.593516943382347e-05
-5.511129806235679e-05   0.0   -5.593516943382347e-05
-5.511129806235679e-05   0.0   -5.593516943382347e-05
-5.511129806235679e-05   0.0   -5.593516943382347e-05
-9.509391057788338e-05   1.2548479668887281e-05   3.173430290722058e-06
-9.509391057788338e-05   1.2548479668887281e-05   3.173430290722058e-06
-9.509391057788338e-05   1.2548479668887281e-05   3.173430290722058e-06
-9.509391057788338e-05   1.2548479668887281e-05   3.173430290722058e-06
-7.366310197102531e-05   4.7428424058073386e-06   -2.7861201696193394e-05
-7.366310197102531e-05   4.7428424058073386e-06   -2.7861201696193394e-05
-7.366310197102531e-05   4.7428424058073386e-06   -2.7861201696193394e-05
-7.366310197102531e-05   4.7428424058073386e-06   -2.7861201696193394e-05
-9.509391057788354e-05   0.0   -6.346425723515585e-05
-9.509391057788354e-05   0.0   -6.346425723515585e-05
-9.509391057788354e-05   0.0   -6.346425723515585e-05
-9.509391057788354e-05   0.0   -6.346425723515585e-05
-5.511129806235669e-05   1.2548479668887281e-05   1.0702518092054427e-05
-5.511129806235669e-05   1.2548479668887281e-05   1.0702518092054427e-05
-5.511129806235669e-05   1.2548479668887281e-05   1.0702518092054427e-05
-5.511129806235669e-05   1.2548479668887281e-05   1.0702518092054427e-05
-5.5081043023665526e-05   0.0   -5.6278670412893195e-05
-5.5081043023665526e-05   0.0   -5.6278670412893195e-05
-5.5081043023665526e-05   0.0   -5.6278670412893195e-05
-5.5081043023665526e-05   0.0   -5.6278670412893195e-05
-0.00010129721312654971   1.4296246229896729e-05   1.2170532020642643e-05
-0.00010129721312654971   1.4296246229896729e-05   1.2170532020642643e-05
-0.00010129721312654971   1.4296246229896729e-05   1.2170532020642643e-05
-0.00010129721312654971   1.4296246229896729e-05   1.2170532020642643e-05
-7.508747680077441e-05   5.987989018552218e-06   -2.6527407528842763e-05
-7.508747680077441e-05   5.987989018552218e-06   -2.6527407528842763e-05
-7.508747680077441e-05   5.987989018552218e-06   -2.6527407528842763e-05
-7.508747680077441e-05   5.987989018552218e-06   -2.6527407528842763e-05
-5.606733686609911e-05   0.0   -5.199218381665853e-05
-5.606733686609911e-05   0.0   -5.199218381665853e-05
-5.606733686609911e-05   0.0   -5.199218381665853e-05
-5.606733686609911e-05   0.0   -5.199218381665853e-05
-2.553468900691537e-05   3.5787844187872887e-06   1.0428332665867132e-06
-2.553468900691537e-05   3.5787844187872887e-06   1.0428332665867132e-06
-2.553468900691537e-05   3.5787844187872887e-06   1.0428332665867132e-06
-2.553468900691537e-05   3.5787844187872887e-06   1.0428332665867132e-06
-2.4557789629964746e-05   0.0   -5.154156849151608e-05
-2.4557789629964746e-05   0.0   -5.154156849151608e-05
-2.4557789629964746e-05   0.0   -5.154156849151608e-05
-2.4557789629964746e-05   0.0   -5.154156849151608e-05
-5.495745030111146e-05   5.095857676049056e-06   -3.932981978567825e-06
-5.495745030111146e-05   5.095857676049056e-06   -3.932981978567825e-06
-5.495745030111146e-05   5.095857676049056e-06   -3.932981978567825e-06
-5.495745030111146e-05   5.095857676049056e-06   -3.932981978567825e-06
-4.0312563248031884e-05   3.7551277095196296e-07   -2.550892012397535e-05
-4.0312563248031884e-05   3.7551277095196296e-07   -2.550892012397535e-05
-4.0312563248031884e-05   3.7551277095196296e-07   -2.550892012397535e-05
-4.0312563248031884e-05   3.7551277095196296e-07   -2.550892012397535e-05
-5.495745030111141e-05   0.0   -5.4599083097145555e-05
-5.495745030111141e-05   0.0   -5.4599083097145555e-05
-5.495745030111141e-05   0.0   -5.4599083097145555e-05
-5.495745030111141e-05   0.0   -5.4599083097145555e-05
-2.4557789629964746e-05   5.095857676049042e-06   -8.754673729383932e-07
-2.4557789629964746e-05   5.095857676049042e-06   -8.754673729383932e-07
-2.4557789629964746e-05   5.095857676049042e-06   -8.754673729383932e-07
-2.4557789629964746e-05   5.095857676049042e-06   -8.754673729383932e-07
-2.4008666051394713e-05   0.0   -5.218831806579588e-05
-2.4008666051394713e-05   0.0   -5.218831806579588e-05
-2.4008666051394713e-05   0.0   -5.218831806579588e-05
-2.4008666051394713e-05   0.0   -5.218831806579588e-05
-5.511129806235679e-05   6.244752280045823e-06   -4.097449415553422e-06
-5.511129806235679e-05   6.244752280045823e-06   -4.097449415553422e-06
-5.511129806235679e-05   6.244752280045823e-06   -4.097449415553422e-06
-5.511129806235679e-05   6.244752280045823e-06   -4.097449415553422e-06
-3.948305817625303e-05   2.0089708594580314e-06   -2.7603047040040117e-05
-3.948305817625303e-05   2.0089708594580314e-06   -2.7603047040040117e-05
-3.948305817625303e-05   2.0089708594580314e-06   -2.7603047040040117e-05
-3.948305817625303e-05   2.0089708594580314e-06   -2.7603047040040117e-05
-5.511129806235679e-05   0.0   -5.593516943382347e-05
-5.511129806235679e-05   0.0   -5.593516943382347e-05
-5.511129806235679e-05   0.0   -5.593516943382347e-05
-5.511129806235679e-05   0.0   -5.593516943382347e-05
-2.4008666051394754e-05   6.244752280045823e-06   -3.505980475259252e-07
-2.4008666051394754e-05   6.244752280045823e-06   -3.505980475259252e-07
-2.4008666051394754e-05   6.244752280045823e-06   -3.505980475259252e-07
-2.4008666051394754e-05   6.244752280045823e-06   -3.505980475259252e-07
-2.3508457373627188e-05   0.0   -5.1918609024739406e-05
-2.3508457373627188e-05   0.0   -5.1918609024739406e-05
-2.3508457373627188e-05   0.0   -5.1918609024739406e-05
-2.3508457373627188e-05   0.0   -5.1918609024739406e-05
-5.508104302366538e-05   7.266768980256216e-06   -3.657694329495953e-06
-5.508104302366538e-05   7.266768980256216e-06   -3.657694329495953e-06
-5.508104302366538e-05   7.266768980256216e-06   -3.657694329495953e-06
-5.508104302366538e-05   7.266768980256216e-06   -3.657694329495953e-06
-3.9309877717991975e-05   3.3471336742366852e-06   -2.7591188655340103e-05
-3.9309877717991975e-05   3.3471336742366852e-06   -2.7591188655340103e-05
-3.9309877717991975e-05   3.3471336742366852e-06   -2.7591188655340103e-05
-3.9309877717991975e-05   3.3471336742366852e-06   -2.7591188655340103e-05
-2.5534689006915415e-05   0.0   -4.9844913165386154e-05
-2.5534689006915415e-05   0.0   -4.9844913165386154e-05
-2.5534689006915415e-05   0.0   -4.9844913165386154e-05
-2.5534689006915415e-05   0.0   -4.9844913165386154e-05
3.311951520451573e-06   -4.588374977388581e-07   -2.042481451751105e-06
3.311951520451573e-06   -4.588374977388581e-07   -2.042481451751105e-06
3.311951520451573e-06   -4.588374977388581e-07   -2.042481451751105e-06
3.311951520451573e-06   -4.588374977388581e-07   -2.042481451751105e-06
3.936034150393771e-06   0.0   -5.0999424514461206e-05
3.936034150393771e-06   0.0   -5.0999424514461206e-05
3.936034150393771e-06   0.0   -5.0999424514461206e-05
3.936034150393771e-06   0.0   -5.0999424514461206e-05
-2.4557789629964746e-05   9.03573295091319e-07   -4.05186219091854e-06
-2.4557789629964746e-05   9.03573295091319e-07   -4.05186219091854e-06
-2.4557789629964746e-05   9.03573295091319e-07   -4.05186219091854e-06
-2.4557789629964746e-05   9.03573295091319e-07   -4.05186219091854e-06
-1.0799327428260797e-05   -9.62092790896022e-07   -2.586323287549937e-05
-1.0799327428260797e-05   -9.62092790896022e-07   -2.586323287549937e-05
-1.0799327428260797e-05   -9.62092790896022e-07   -2.586323287549937e-05
-1.0799327428260797e-05   -9.62092790896022e-07   -2.586323287549937e-05
-2.455778962996479e-05   0.0   -5.154156849151618e-05
-2.455778962996479e-05   0.0   -5.154156849151618e-05
-2.455778962996479e-05   0.0   -5.154156849151618e-05
-2.455778962996479e-05   0.0   -5.154156849151618e-05
3.9360341503937785e-06   9.03573295091319e-07   -3.5097182138637563e-06
3.9360341503937785e-06   9.03573295091319e-07   -3.5097182138637563e-06
3.9360341503937785e-06   9.03573295091319e-07   -3.5097182138637563e-06
3.9360341503937785e-06   9.03573295091319e-07   -3.5097182138637563e-06
4.428750660908976e-06   0.0   -5.092637444946985e-05
4.428750660908976e-06   0.0   -5.092637444946985e-05
4.428750660908976e-06   0.0   -5.092637444946985e-05
4.428750660908976e-06   0.0   -5.092637444946985e-05
-2.4008666051394672e-05   2.1032393605433794e-06   -4.79262354528974e-06
-2.4008666051394672e-05   2.1032393605433794e-06   -4.79262354528974e-06
-2.4008666051394672e-05   2.1032393605433794e-06   -4.79262354528974e-06
-2.4008666051394672e-05   2.1032393605433794e-06   -4.79262354528974e-06
-1.0064519484527884e-05   5.126617017051931e-07   -2.707852122809818e-05
-1.0064519484527884e-05   5.126617017051931e-07   -2.707852122809818e-05
-1.0064519484527884e-05   5.126617017051931e-07   -2.707852122809818e-05
-1.0064519484527884e-05   5.126617017051931e-07   -2.707852122809818e-05
-2.4008666051394754e-05   0.0   -5.218831806579597e-05
-2.4008666051394754e-05   0.0   -5.218831806579597e-05
-2.4008666051394754e-05   0.0   -5.218831806579597e-05
-2.4008666051394754e-05   0.0   -5.218831806579597e-05
4.428750660908984e-06   2.103239360543393e-06   -3.530679928963716e-06
4.428750660908984e-06   2.103239360543393e-06   -3.530679928963716e-06
4.428750660908984e-06   2.103239360543393e-06   -3.530679928963716e-06
4.428750660908984e-06   2.103239360543393e-06   -3.530679928963716e-06
5.091323994772181e-06   0.0   -4.982299471603475e-05
5.091323994772181e-06   0.0   -4.982299471603475e-05
5.091323994772181e-06   0.0   -4.982299471603475e-05
5.091323994772181e-06   0.0   -4.982299471603475e-05
-2.3508457373627167e-05   3.4926905145076875e-06   -4.252306744073792e-06
-2.3508457373627167e-05   3.4926905145076875e-06   -4.252306744073792e-06
-2.3508457373627167e-05   3.4926905145076875e-06   -4.252306744073792e-06
-2.3508457373627167e-05   3.4926905145076875e-06   -4.252306744073792e-06
-9.458671028311265e-06   1.9711027914676106e-06   -2.675566468577622e-05
-9.458671028311265e-06   1.9711027914676106e-06   -2.675566468577622e-05
-9.458671028311265e-06   1.9711027914676106e-06   -2.675566468577622e-05
-9.458671028311265e-06   1.9711027914676106e-06   -2.675566468577622e-05
3.3119515204515784e-06   0.0   -5.012021566402946e-05
3.3119515204515784e-06   0.0   -5.012021566402946e-05
3.3119515204515784e-06   0.0   -5.012021566402946e-05
3.3119515204515784e-06   0.0   -5.012021566402946e-05
3.462551490355021e-05   -4.061225247406014e-06   -3.6767850730845547e-07
3.462551490355021e-05   -4.061225247406014e-06   -3.6767850730845547e-07
3.462551490355021e-05   -4.061225247406014e-06   -3.6767850730845547e-07
3.462551490355021e-05   -4.061225247406014e-06   -3.6767850730845547e-07
3.468799026798772e-05   0.0   -5.28362072242441e-05
3.468799026798772e-05   0.0   -5.28362072242441e-05
3.468799026798772e-05   0.0   -5.28362072242441e-05
3.468799026798772e-05   0.0   -5.28362072242441e-05
3.9360341503937785e-06   -3.0613045163045233e-06   2.5383568152850976e-07
3.9360341503937785e-06   -3.0613045163045233e-06   2.5383568152850976e-07
3.9360341503937785e-06   -3.0613045163045233e-06   2.5383568152850976e-07
3.9360341503937785e-06   -3.0613045163045233e-06   2.5383568152850976e-07
1.899997089421965e-05   -2.2633263001788613e-06   -2.533151248785664e-05
1.899997089421965e-05   -2.2633263001788613e-06   -2.533151248785664e-05
1.899997089421965e-05   -2.2633263001788613e-06   -2.533151248785664e-05
1.899997089421965e-05   -2.2633263001788613e-06   -2.533151248785664e-05
3.936034150393785e-06   0.0   -5.099942451446138e-05
3.936034150393785e-06   0.0   -5.099942451446138e-05
3.936034150393785e-06   0.0   -5.099942451446138e-05
3.936034150393785e-06   0.0   -5.099942451446138e-05
3.468799026798766e-05   -3.0613045163045233e-06   -1.5829470282542103e-06
3.468799026798766e-05   -3.0613045163045233e-06   -1.5829470282542103e-06
3.468799026798766e-05   -3.0613045163045233e-06   -1.5829470282542103e-06
3.468799026798766e-05   -3.0613045163045233e-06   -1.5829470282542103e-06
3.454020686997893e-05   0.0   -5.208173262049209e-05
3.454020686997893e-05   0.0   -5.208173262049209e-05
3.454020686997893e-05   0.0   -5.208173262049209e-05
3.454020686997893e-05   0.0   -5.208173262049209e-05
4.428750660908984e-06   -1.925596951703583e-06   -7.406141010200437e-07
4.428750660908984e-06   -1.925596951703583e-06   -7.406141010200437e-07
4.428750660908984e-06   -1.925596951703583e-06   -7.406141010200437e-07
4.428750660908984e-06   -1.925596951703583e-06   -7.406141010200437e-07
1.9238120510186358e-05   -9.019234216922579e-07   -2.6037101301155766e-05
1.9238120510186358e-05   -9.019234216922579e-07   -2.6037101301155766e-05
1.9238120510186358e-05   -9.019234216922579e-07   -2.6037101301155766e-05
1.9238120510186358e-05   -9.019234216922579e-07   -2.6037101301155766e-05
4.428750660908984e-06   0.0   -5.092637444946994e-05
4.428750660908984e-06   0.0   -5.092637444946994e-05
4.428750660908984e-06   0.0   -5.092637444946994e-05
4.428750660908984e-06   0.0   -5.092637444946994e-05
3.454020686997887e-05   -1.925596951703583e-06   -1.8959722720421885e-06
3.454020686997887e-05   -1.925596951703583e-06   -1.8959722720421885e-06
3.454020686997887e-05   -1.925596951703583e-06   -1.8959722720421885e-06
3.454020686997887e-05   -1.925596951703583e-06   -1.8959722720421885e-06
3.520989644507425e-05   0.0   -5.006269898400085e-05
3.520989644507425e-05   0.0   -5.006269898400085e-05
3.520989644507425e-05   0.0   -5.006269898400085e-05
3.520989644507425e-05   0.0   -5.006269898400085e-05
5.091323994772189e-06   -3.99507113276685e-07   3.7462603446859215e-07
5.091323994772189e-06   -3.99507113276685e-07   3.7462603446859215e-07
5.091323994772189e-06   -3.99507113276685e-07   3.7462603446859215e-07
5.091323994772189e-06   -3.99507113276685e-07   3.7462603446859215e-07
1.9819323552991617e-05   7.197295545575784e-07   -2.4843581896597655e-05
1.9819323552991617e-05   7.197295545575784e-07   -2.4843581896597655e-05
1.9819323552991617e-05   7.197295545575784e-07   -2.4843581896597655e-05
1.9819323552991617e-05   7.197295545575784e-07   -2.4843581896597655e-05
3.4625514903550334e-05   0.0   -5.255695081247308e-05
3.4625514903550334e-05   0.0   -5.255695081247308e-05
3.4625514903550334e-05   0.0   -5.255695081247308e-05
3.4625514903550334e-05   0.0   -5.255695081247308e-05
7.817683139686965e-05   -1.0295796335178364e-05   1.3851098875285685e-05
7.817683139686965e-05   -1.0295796335178364e-05   1.3851098875285685e-05
7.817683139686965e-05   -1.0295796335178364e-05   1.3851098875285685e-05
7.817683139686965e-05   -1.0295796335178364e-05   1.3851098875285685e-05
7.342183676005828e-05   0.0   -5.8091970913348014e-05
7.342183676005828e-05   0.0   -5.8091970913348014e-05
7.342183676005828e-05   0.0   -5.8091970913348014e-05
7.342183676005828e-05   0.0   -5.8091970913348014e-05
3.468799026798766e-05   -8.759606148506512e-06   1.172020359587348e-05
3.468799026798766e-05   -8.759606148506512e-06   1.172020359587348e-05
3.468799026798766e-05   -8.759606148506512e-06   1.172020359587348e-05
3.468799026798766e-05   -8.759606148506512e-06   1.172020359587348e-05
5.4023675831804305e-05   -4.612516750729117e-06   -2.2994192649153896e-05
5.4023675831804305e-05   -4.612516750729117e-06   -2.2994192649153896e-05
5.4023675831804305e-05   -4.612516750729117e-06   -2.2994192649153896e-05
5.4023675831804305e-05   -4.612516750729117e-06   -2.2994192649153896e-05
3.4687990267987696e-05   0.0   -5.283620722424405e-05
3.4687990267987696e-05   0.0   -5.283620722424405e-05
3.4687990267987696e-05   0.0   -5.283620722424405e-05
3.4687990267987696e-05   0.0   -5.283620722424405e-05
7.342183676005828e-05   -8.759606148506526e-06   6.464439906769579e-06
7.342183676005828e-05   -8.759606148506526e-06   6.464439906769579e-06
7.342183676005828e-05   -8.759606148506526e-06   6.464439906769579e-06
7.342183676005828e-05   -8.759606148506526e-06   6.464439906769579e-06
7.122947103041006e-05   0.0   -5.688421559955945e-05
7.122947103041006e-05   0.0   -5.688421559955945e-05
7.122947103041006e-05   0.0   -5.688421559955945e-05
7.122947103041006e-05   0.0   -5.688421559955945e-05
3.454020686997887e-05   -8.004138298445585e-06   9.067040980226441e-06
3.454020686997887e-05   -8.004138298445585e-06   9.067040980226441e-06
3.454020686997887e-05   -8.004138298445585e-06   9.067040980226441e-06
3.454020686997887e-05   -8.004138298445585e-06   9.067040980226441e-06
5.295873064919886e-05   -3.3733403127628024e-06   -2.440897744321645e-05
5.295873064919886e-05   -3.3733403127628024e-06   -2.440897744321645e-05
5.295873064919886e-05   -3.3733403127628024e-06   -2.440897744321645e-05
5.295873064919886e-05   -3.3733403127628024e-06   -2.440897744321645e-05
3.454020686997893e-05   0.0   -5.208173262049209e-05
3.454020686997893e-05   0.0   -5.208173262049209e-05
3.454020686997893e-05   0.0   -5.208173262049209e-05
3.454020686997893e-05   0.0   -5.208173262049209e-05
7.122947103040994e-05   -8.004138298445585e-06   4.264558001159085e-06
7.122947103040994e-05   -8.004138298445585e-06   4.264558001159085e-06
7.122947103040994e-05   -8.004138298445585e-06   4.264558001159085e-06
7.122947103040994e-05   -8.004138298445585e-06   4.264558001159085e-06
6.796510978901279e-05   0.0   -5.379496724956085e-05
6.796510978901279e-05   0.0   -5.379496724956085e-05
6.796510978901279e-05   0.0   -5.379496724956085e-05
6.796510978901279e-05   0.0   -5.379496724956085e-05
3.520989644507416e-05   -6.220447109266648e-06   4.529323255896745e-06
3.520989644507416e-05   -6.220447109266648e-06   4.529323255896745e-06
3.520989644507416e-05   -6.220447109266648e-06   4.529323255896745e-06
3.520989644507416e-05   -6.220447109266648e-06   4.529323255896745e-06
5.1252658329495766e-05   -1.4276955242239608e-06   -2.508426416916485e-05
5.1252658329495766e-05   -1.4276955242239608e-06   -2.508426416916485e-05
5.1252658329495766e-05   -1.4276955242239608e-06   -2.508426416916485e-05
5.1252658329495766e-05   -1.4276955242239608e-06   -2.508426416916485e-05
-7.643886827158201e-05   9.759060494663463e-06   -5.0165597483219826e-05
-7.643886827158201e-05   9.759060494663463e-06   -5.0165597483219826e-05
-7.643886827158201e-05   9.759060494663463e-06   -5.0165597483219826e-05
-7.643886827158201e-05   9.759060494663463e-06   -5.0165597483219826e-05
-4.8959655016755194e-05   8.775358717541331e-06   -4.957129791448382e-06
-4.8959655016755194e-05   8.775358717541331e-06   -4.957129791448382e-06
-4.8959655016755194e-05   8.775358717541331e-06   -4.957129791448382e-06
-4.8959655016755194e-05   8.775358717541331e-06   -4.957129791448382e-06
-5.019106276975223e-05   1.1712495372744424e-05   -4.213216676480548e-05
-5.019106276975223e-05   1.1712495372744424e-05   -4.213216676480548e-05
-5.019106276975223e-05   1.1712495372744424e-05   -4.213216676480548e-05
-5.019106276975223e-05   1.1712495372744424e-05   -4.213216676480548e-05
-7.726540999114703e-05   1.0533150461824981e-05   3.699352217404283e-06
-7.726540999114703e-05   1.0533150461824981e-05   3.699352217404283e-06
-7.726540999114703e-05   1.0533150461824981e-05   3.699352217404283e-06
-7.726540999114703e-05   1.0533150461824981e-05   3.699352217404283e-06
-6.07099231847398e-05   1.0194074821472996e-05   -2.3689680409063537e-05
-6.07099231847398e-05   1.0194074821472996e-05   -2.3689680409063537e-05
-6.07099231847398e-05   1.0194074821472996e-05   -2.3689680409063537e-05
-6.07099231847398e-05   1.0194074821472996e-05   -2.3689680409063537e-05
-7.726540999114703e-05   1.1712495372744424e-05   -4.142455981825381e-05
-7.726540999114703e-05   1.1712495372744424e-05   -4.142455981825381e-05
-7.726540999114703e-05   1.1712495372744424e-05   -4.142455981825381e-05
-7.726540999114703e-05   1.1712495372744424e-05   -4.142455981825381e-05
-5.01910627697524e-05   1.0533150461824981e-05   2.9917452708526934e-06
-5.01910627697524e-05   1.0533150461824981e-05   2.9917452708526934e-06
-5.01910627697524e-05   1.0533150461824981e-05   2.9917452708526934e-06
-5.01910627697524e-05   1.0533150461824981e-05   2.9917452708526934e-06
-5.044858051923032e-05   1.2548479668887281e-05   -3.788004981318866e-05
-5.044858051923032e-05   1.2548479668887281e-05   -3.788004981318866e-05
-5.044858051923032e-05   1.2548479668887281e-05   -3.788004981318866e-05
-5.044858051923032e-05   1.2548479668887281e-05   -3.788004981318866e-05
-7.780838548764357e-05   1.1326518162863074e-05   8.452802037781166e-06
-7.780838548764357e-05   1.1326518162863074e-05   8.452802037781166e-06
-7.780838548764357e-05   1.1326518162863074e-05   8.452802037781166e-06
-7.780838548764357e-05   1.1326518162863074e-05   8.452802037781166e-06
-6.249441678671674e-05   1.129930566817003e-05   -1.705415163361437e-05
-6.249441678671674e-05   1.129930566817003e-05   -1.705415163361437e-05
-6.249441678671674e-05   1.129930566817003e-05   -1.705415163361437e-05
-6.249441678671674e-05   1.129930566817003e-05   -1.705415163361437e-05
-7.780838548764343e-05   1.2548479668887281e-05   -3.7146872909574125e-05
-7.780838548764343e-05   1.2548479668887281e-05   -3.7146872909574125e-05
-7.780838548764343e-05   1.2548479668887281e-05   -3.7146872909574125e-05
-7.780838548764343e-05   1.2548479668887281e-05   -3.7146872909574125e-05
-5.044858051923041e-05   1.132651816286302e-05   7.719625134166503e-06
-5.044858051923041e-05   1.132651816286302e-05   7.719625134166503e-06
-5.044858051923041e-05   1.132651816286302e-05   7.719625134166503e-06
-5.044858051923041e-05   1.132651816286302e-05   7.719625134166503e-06
-5.016148937801565e-05   1.4296246229896715e-05   -2.79914220290977e-05
-5.016148937801565e-05   1.4296246229896715e-05   -2.79914220290977e-05
-5.016148937801565e-05   1.4296246229896715e-05   -2.79914220290977e-05
-5.016148937801565e-05   1.4296246229896715e-05   -2.79914220290977e-05
-7.56496099635354e-05   1.1957770415403559e-05   1.5891864435464196e-05
-7.56496099635354e-05   1.1957770415403559e-05   1.5891864435464196e-05
-7.56496099635354e-05   1.1957770415403559e-05   1.5891864435464196e-05
-7.56496099635354e-05   1.1957770415403559e-05   1.5891864435464196e-05
-6.086815863915086e-05   1.2394186478459007e-05   -9.005737409676637e-06
-6.086815863915086e-05   1.2394186478459007e-05   -9.005737409676637e-06
-6.086815863915086e-05   1.2394186478459007e-05   -9.005737409676637e-06
-6.086815863915086e-05   1.2394186478459007e-05   -9.005737409676637e-06
-4.8959655016755194e-05   3.578784418787275e-06   -5.3280356962066485e-05
-4.8959655016755194e-05   3.578784418787275e-06   -5.3280356962066485e-05
-4.8959655016755194e-05   3.578784418787275e-06   -5.3280356962066485e-05
-4.8959655016755194e-05   3.578784418787275e-06   -5.3280356962066485e-05
-2.320197264058146e-05   4.0833345839712005e-06   -1.0048156235999828e-05
-2.320197264058146e-05   4.0833345839712005e-06   -1.0048156235999828e-05
-2.320197264058146e-05   4.0833345839712005e-06   -1.0048156235999828e-05
-2.320197264058146e-05   4.0833345839712005e-06   -1.0048156235999828e-05
-2.3755845600971177e-05   5.095857676049056e-06   -5.3199506834353434e-05
-2.3755845600971177e-05   5.095857676049056e-06   -5.3199506834353434e-05
-2.3755845600971177e-05   5.095857676049056e-06   -5.3199506834353434e-05
-2.3755845600971177e-05   5.095857676049056e-06   -5.3199506834353434e-05
-5.019106276975223e-05   5.699721191902436e-06   -9.503129662563564e-06
-5.019106276975223e-05   5.699721191902436e-06   -9.503129662563564e-06
-5.019106276975223e-05   5.699721191902436e-06   -9.503129662563564e-06
-5.019106276975223e-05   5.699721191902436e-06   -9.503129662563564e-06
-3.6424243902881746e-05   4.589400581675001e-06   -3.178163540787805e-05
-3.6424243902881746e-05   4.589400581675001e-06   -3.178163540787805e-05
-3.6424243902881746e-05   4.589400581675001e-06   -3.178163540787805e-05
-3.6424243902881746e-05   4.589400581675001e-06   -3.178163540787805e-05
-5.019106276975218e-05   5.095857676049042e-06   -5.3561824943865305e-05
-5.019106276975218e-05   5.095857676049042e-06   -5.3561824943865305e-05
-5.019106276975218e-05   5.095857676049042e-06   -5.3561824943865305e-05
-5.019106276975218e-05   5.095857676049042e-06   -5.3561824943865305e-05
-2.375584560097113e-05   5.699721191902436e-06   -9.140811553051412e-06
-2.375584560097113e-05   5.699721191902436e-06   -9.140811553051412e-06
-2.375584560097113e-05   5.699721191902436e-06   -9.140811553051412e-06
-2.375584560097113e-05   5.699721191902436e-06   -9.140811553051412e-06
-2.3929811246650254e-05   6.244752280045823e-06   -5.220422647992954e-05
-2.3929811246650254e-05   6.244752280045823e-06   -5.220422647992954e-05
-2.3929811246650254e-05   6.244752280045823e-06   -5.220422647992954e-05
-2.3929811246650254e-05   6.244752280045823e-06   -5.220422647992954e-05
-5.044858051923032e-05   7.037737014824218e-06   -8.48206853316292e-06
-5.044858051923032e-05   7.037737014824218e-06   -8.48206853316292e-06
-5.044858051923032e-05   7.037737014824218e-06   -8.48206853316292e-06
-5.044858051923032e-05   7.037737014824218e-06   -8.48206853316292e-06
-3.6708951338293585e-05   5.82528794825055e-06   -3.065398106144664e-05
-3.6708951338293585e-05   5.82528794825055e-06   -3.065398106144664e-05
-3.6708951338293585e-05   5.82528794825055e-06   -3.065398106144664e-05
-3.6708951338293585e-05   5.82528794825055e-06   -3.065398106144664e-05
-5.044858051923032e-05   6.24475228004581e-06   -5.268001732079647e-05
-5.044858051923032e-05   6.24475228004581e-06   -5.268001732079647e-05
-5.044858051923032e-05   6.24475228004581e-06   -5.268001732079647e-05
-5.044858051923032e-05   6.24475228004581e-06   -5.268001732079647e-05
-2.39298112466503e-05   7.037737014824218e-06   -8.006277692296018e-06
-2.39298112466503e-05   7.037737014824218e-06   -8.006277692296018e-06
-2.39298112466503e-05   7.037737014824218e-06   -8.006277692296018e-06
-2.39298112466503e-05   7.037737014824218e-06   -8.006277692296018e-06
-2.3871365875748588e-05   7.266768980256216e-06   -5.167098503315061e-05
-2.3871365875748588e-05   7.266768980256216e-06   -5.167098503315061e-05
-2.3871365875748588e-05   7.266768980256216e-06   -5.167098503315061e-05
-2.3871365875748588e-05   7.266768980256216e-06   -5.167098503315061e-05
-5.01614893780157e-05   8.477454120295845e-06   -8.580523613395897e-06
-5.01614893780157e-05   8.477454120295845e-06   -8.580523613395897e-06
-5.01614893780157e-05   8.477454120295845e-06   -8.580523613395897e-06
-5.01614893780157e-05   8.477454120295845e-06   -8.580523613395897e-06
-3.6924996377951324e-05   6.943907482249967e-06   -2.9721217297342292e-05
-3.6924996377951324e-05   6.943907482249967e-06   -2.9721217297342292e-05
-3.6924996377951324e-05   6.943907482249967e-06   -2.9721217297342292e-05
-3.6924996377951324e-05   6.943907482249967e-06   -2.9721217297342292e-05
-2.3201972640581422e-05   -4.588374977388445e-07   -5.5787639082650616e-05
-2.3201972640581422e-05   -4.588374977388445e-07   -5.5787639082650616e-05
-2.3201972640581422e-05   -4.588374977388445e-07   -5.5787639082650616e-05
-2.3201972640581422e-05   -4.588374977388445e-07   -5.5787639082650616e-05
2.2307147609589487e-06   -1.2183230463201503e-07   -1.31976236308859e-05
2.2307147609589487e-06   -1.2183230463201503e-07   -1.31976236308859e-05
2.2307147609589487e-06   -1.2183230463201503e-07   -1.31976236308859e-05
2.2307147609589487e-06   -1.2183230463201503e-07   -1.31976236308859e-05
2.126145970195499e-06   9.03573295091319e-07   -5.609756169048384e-05
2.126145970195499e-06   9.03573295091319e-07   -5.609756169048384e-05
2.126145970195499e-06   9.03573295091319e-07   -5.609756169048384e-05
2.126145970195499e-06   9.03573295091319e-07   -5.609756169048384e-05
-2.375584560097113e-05   1.3674732315074227e-06   -1.3239249033722443e-05
-2.375584560097113e-05   1.3674732315074227e-06   -1.3239249033722443e-05
-2.375584560097113e-05   1.3674732315074227e-06   -1.3239249033722443e-05
-2.375584560097113e-05   1.3674732315074227e-06   -1.3239249033722443e-05
-1.071432170869717e-05   4.541223185491487e-07   -3.442711163973742e-05
-1.071432170869717e-05   4.541223185491487e-07   -3.442711163973742e-05
-1.071432170869717e-05   4.541223185491487e-07   -3.442711163973742e-05
-1.071432170869717e-05   4.541223185491487e-07   -3.442711163973742e-05
-2.375584560097113e-05   9.03573295091319e-07   -5.637590165233349e-05
-2.375584560097113e-05   9.03573295091319e-07   -5.637590165233349e-05
-2.375584560097113e-05   9.03573295091319e-07   -5.637590165233349e-05
-2.375584560097113e-05   9.03573295091319e-07   -5.637590165233349e-05
2.1261459701955015e-06   1.3674732315074227e-06   -1.2960909071872695e-05
2.1261459701955015e-06   1.3674732315074227e-06   -1.2960909071872695e-05
2.1261459701955015e-06   1.3674732315074227e-06   -1.2960909071872695e-05
2.1261459701955015e-06   1.3674732315074227e-06   -1.2960909071872695e-05
1.9837985705542383e-06   2.1032393605433794e-06   -5.621460283457153e-05
1.9837985705542383e-06   2.1032393605433794e-06   -5.621460283457153e-05
1.9837985705542383e-06   2.1032393605433794e-06   -5.621460283457153e-05
1.9837985705542383e-06   2.1032393605433794e-06   -5.621460283457153e-05
-2.3929811246650213e-05   2.8226545990796205e-06   -1.3456902282352479e-05
-2.3929811246650213e-05   2.8226545990796205e-06   -1.3456902282352479e-05
-2.3929811246650213e-05   2.8226545990796205e-06   -1.3456902282352479e-05
-2.3929811246650213e-05   2.8226545990796205e-06   -1.3456902282352479e-05
-1.0914227049235864e-05   1.7161651593618763e-06   -3.448564894754572e-05
-1.0914227049235864e-05   1.7161651593618763e-06   -3.448564894754572e-05
-1.0914227049235864e-05   1.7161651593618763e-06   -3.448564894754572e-05
-1.0914227049235864e-05   1.7161651593618763e-06   -3.448564894754572e-05
-2.3929811246650213e-05   2.1032393605433794e-06   -5.664625197769328e-05
-2.3929811246650213e-05   2.1032393605433794e-06   -5.664625197769328e-05
-2.3929811246650213e-05   2.1032393605433794e-06   -5.664625197769328e-05
-2.3929811246650213e-05   2.1032393605433794e-06   -5.664625197769328e-05
1.9837985705542383e-06   2.8226545990796205e-06   -1.3025253139230827e-05
1.9837985705542383e-06   2.8226545990796205e-06   -1.3025253139230827e-05
1.9837985705542383e-06   2.8226545990796205e-06   -1.3025253139230827e-05
1.9837985705542383e-06   2.8226545990796205e-06   -1.3025253139230827e-05
1.6969284311128283e-06   3.4926905145076875e-06   -5.611799968164479e-05
1.6969284311128283e-06   3.4926905145076875e-06   -5.611799968164479e-05
1.6969284311128283e-06   3.4926905145076875e-06   -5.611799968164479e-05
1.6969284311128283e-06   3.4926905145076875e-06   -5.611799968164479e-05
-2.3871365875748568e-05   4.338789104903272e-06   -1.401183499111319e-05
-2.3871365875748568e-05   4.338789104903272e-06   -1.401183499111319e-05
-2.3871365875748568e-05   4.338789104903272e-06   -1.401183499111319e-05
-2.3871365875748568e-05   4.338789104903272e-06   -1.401183499111319e-05
-1.1035259079720863e-05   3.0126687174330624e-06   -3.460967408534388e-05
-1.1035259079720863e-05   3.0126687174330624e-06   -3.460967408534388e-05
-1.1035259079720863e-05   3.0126687174330624e-06   -3.460967408534388e-05
-1.1035259079720863e-05   3.0126687174330624e-06   -3.460967408534388e-05
2.2307147609589487e-06   -4.061225247406014e-06   -5.147389787390029e-05
2.2307147609589487e-06   -4.061225247406014e-06   -5.147389787390029e-05
2.2307147609589487e-06   -4.061225247406014e-06   -5.147389787390029e-05
2.2307147609589487e-06   -4.061225247406014e-06   -5.147389787390029e-05
2.8439466215504526e-05   -4.175293708438409e-06   -7.861086526277067e-06
2.8439466215504526e-05   -4.175293708438409e-06   -7.861086526277067e-06
2.8439466215504526e-05   -4.175293708438409e-06   -7.861086526277067e-06
2.8439466215504526e-05   -4.175293708438409e-06   -7.861086526277067e-06
2.867267125307708e-05   -3.0613045163045233e-06   -5.21903914453079e-05
2.867267125307708e-05   -3.0613045163045233e-06   -5.21903914453079e-05
2.867267125307708e-05   -3.0613045163045233e-06   -5.21903914453079e-05
2.867267125307708e-05   -3.0613045163045233e-06   -5.21903914453079e-05
2.1261459701955015e-06   -2.8219439333317456e-06   -8.089798990288912e-06
2.1261459701955015e-06   -2.8219439333317456e-06   -8.089798990288912e-06
2.1261459701955015e-06   -2.8219439333317456e-06   -8.089798990288912e-06
2.1261459701955015e-06   -2.8219439333317456e-06   -8.089798990288912e-06
1.5170889374265608e-05   -3.378332767049383e-06   -2.9497204696841853e-05
1.5170889374265608e-05   -3.378332767049383e-06   -2.9497204696841853e-05
1.5170889374265608e-05   -3.378332767049383e-06   -2.9497204696841853e-05
1.5170889374265608e-05   -3.378332767049383e-06   -2.9497204696841853e-05
2.126145970195499e-06   -3.0613045163045233e-06   -5.233400779509157e-05
2.126145970195499e-06   -3.0613045163045233e-06   -5.233400779509157e-05
2.126145970195499e-06   -3.0613045163045233e-06   -5.233400779509157e-05
2.126145970195499e-06   -3.0613045163045233e-06   -5.233400779509157e-05
2.867267125307708e-05   -2.8219439333317456e-06   -7.946182640505145e-06
2.867267125307708e-05   -2.8219439333317456e-06   -7.946182640505145e-06
2.867267125307708e-05   -2.8219439333317456e-06   -7.946182640505145e-06
2.867267125307708e-05   -2.8219439333317456e-06   -7.946182640505145e-06
2.853102393095922e-05   -1.925596951703583e-06   -5.316700459756369e-05
2.853102393095922e-05   -1.925596951703583e-06   -5.316700459756369e-05
2.853102393095922e-05   -1.925596951703583e-06   -5.316700459756369e-05
2.853102393095922e-05   -1.925596951703583e-06   -5.316700459756369e-05
1.9837985705542383e-06   -1.4963762699298465e-06   -9.179161405952942e-06
1.9837985705542383e-06   -1.4963762699298465e-06   -9.179161405952942e-06
1.9837985705542383e-06   -1.4963762699298465e-06   -9.179161405952942e-06
1.9837985705542383e-06   -1.4963762699298465e-06   -9.179161405952942e-06
1.5008334996315368e-05   -2.2980315297807096e-06   -3.0405728959644283e-05
1.5008334996315368e-05   -2.2980315297807096e-06   -3.0405728959644283e-05
1.5008334996315368e-05   -2.2980315297807096e-06   -3.0405728959644283e-05
1.5008334996315368e-05   -2.2980315297807096e-06   -3.0405728959644283e-05
1.9837985705542383e-06   -1.925596951703583e-06   -5.3424537006627854e-05
1.9837985705542383e-06   -1.925596951703583e-06   -5.3424537006627854e-05
1.9837985705542383e-06   -1.925596951703583e-06   -5.3424537006627854e-05
1.9837985705542383e-06   -1.925596951703583e-06   -5.3424537006627854e-05
2.853102393095922e-05   -1.4963762699297923e-06   -8.921628996888759e-06
2.853102393095922e-05   -1.4963762699297923e-06   -8.921628996888759e-06
2.853102393095922e-05   -1.4963762699297923e-06   -8.921628996888759e-06
2.853102393095922e-05   -1.4963762699297923e-06   -8.921628996888759e-06
2.7696690549023725e-05   -3.995071132766986e-07   -5.326114319575755e-05
2.7696690549023725e-05   -3.995071132766986e-07   -5.326114319575755e-05
2.7696690549023725e-05   -3.995071132766986e-07   -5.326114319575755e-05
2.7696690549023725e-05   -3.995071132766986e-07   -5.326114319575755e-05
1.6969284311128283e-06   1.4305624680590722e-07   -1.0253744348622329e-05
1.6969284311128283e-06   1.4305624680590722e-07   -1.0253744348622329e-05
1.6969284311128283e-06   1.4305624680590722e-07   -1.0253744348622329e-05
1.6969284311128283e-06   1.4305624680590722e-07   -1.0253744348622329e-05
1.4843802680405036e-05   -1.036274191809416e-06   -3.145760316760679e-05
1.4843802680405036e-05   -1.036274191809416e-06   -3.145760316760679e-05
1.4843802680405036e-05   -1.036274191809416e-06   -3.145760316760679e-05
1.4843802680405036e-05   -1.036274191809416e-06   -3.145760316760679e-05
2.8439466215504526e-05   -1.0295796335178337e-05   -3.1146083766818585e-05
2.8439466215504526e-05   -1.0295796335178337e-05   -3.1146083766818585e-05
2.8439466215504526e-05   -1.0295796335178337e-05   -3.1146083766818585e-05
2.8439466215504526e-05   -1.0295796335178337e-05   -3.1146083766818585e-05
5.430555118859901e-05   -7.759839568672483e-06   1.3485631914909055e-05
5.430555118859901e-05   -7.759839568672483e-06   1.3485631914909055e-05
5.430555118859901e-05   -7.759839568672483e-06   1.3485631914909055e-05
5.430555118859901e-05   -7.759839568672483e-06   1.3485631914909055e-05
5.637045987156992e-05   -8.759606148506526e-06   -3.7854943752728493e-05
5.637045987156992e-05   -8.759606148506526e-06   -3.7854943752728493e-05
5.637045987156992e-05   -8.759606148506526e-06   -3.7854943752728493e-05
5.637045987156992e-05   -8.759606148506526e-06   -3.7854943752728493e-05
2.867267125307713e-05   -7.039111034420182e-06   7.275740209641046e-06
2.867267125307713e-05   -7.039111034420182e-06   7.275740209641046e-06
2.867267125307713e-05   -7.039111034420182e-06   7.275740209641046e-06
2.867267125307713e-05   -7.039111034420182e-06   7.275740209641046e-06
3.99962280429128e-05   -8.427487339477183e-06   -1.0763828657050877e-05
3.99962280429128e-05   -8.427487339477183e-06   -1.0763828657050877e-05
3.99962280429128e-05   -8.427487339477183e-06   -1.0763828657050877e-05
3.99962280429128e-05   -8.427487339477183e-06   -1.0763828657050877e-05
2.8672671253077054e-05   -8.759606148506498e-06   -3.888724082118012e-05
2.8672671253077054e-05   -8.759606148506498e-06   -3.888724082118012e-05
2.8672671253077054e-05   -8.759606148506498e-06   -3.888724082118012e-05
2.8672671253077054e-05   -8.759606148506498e-06   -3.888724082118012e-05
5.63704598715698e-05   -7.039111034420182e-06   8.308037278092941e-06
5.63704598715698e-05   -7.039111034420182e-06   8.308037278092941e-06
5.63704598715698e-05   -7.039111034420182e-06   8.308037278092941e-06
5.63704598715698e-05   -7.039111034420182e-06   8.308037278092941e-06
5.615829728093477e-05   -8.004138298445599e-06   -4.116728674894891e-05
5.615829728093477e-05   -8.004138298445599e-06   -4.116728674894891e-05
5.615829728093477e-05   -8.004138298445599e-06   -4.116728674894891e-05
5.615829728093477e-05   -8.004138298445599e-06   -4.116728674894891e-05
2.853102393095922e-05   -6.276297304535366e-06   3.841464237997564e-06
2.853102393095922e-05   -6.276297304535366e-06   3.841464237997564e-06
2.853102393095922e-05   -6.276297304535366e-06   3.841464237997564e-06
2.853102393095922e-05   -6.276297304535366e-06   3.841464237997564e-06
4.139319310118618e-05   -7.442212813783984e-06   -1.6895935073498226e-05
4.139319310118618e-05   -7.442212813783984e-06   -1.6895935073498226e-05
4.139319310118618e-05   -7.442212813783984e-06   -1.6895935073498226e-05
4.139319310118618e-05   -7.442212813783984e-06   -1.6895935073498226e-05
2.8531023930959172e-05   -8.004138298445585e-06   -4.2203991345295e-05
2.8531023930959172e-05   -8.004138298445585e-06   -4.2203991345295e-05
2.8531023930959172e-05   -8.004138298445585e-06   -4.2203991345295e-05
2.8531023930959172e-05   -8.004138298445585e-06   -4.2203991345295e-05
5.615829728093468e-05   -6.276297304535312e-06   4.878168834343631e-06
5.615829728093468e-05   -6.276297304535312e-06   4.878168834343631e-06
5.615829728093468e-05   -6.276297304535312e-06   4.878168834343631e-06
5.615829728093468e-05   -6.276297304535312e-06   4.878168834343631e-06
5.581733760847958e-05   -6.220447109266648e-06   -4.791535722083102e-05
5.581733760847958e-05   -6.220447109266648e-06   -4.791535722083102e-05
5.581733760847958e-05   -6.220447109266648e-06   -4.791535722083102e-05
5.581733760847958e-05   -6.220447109266648e-06   -4.791535722083102e-05
2.7696690549023698e-05   -4.634806300045987e-06   -1.9989966072702915e-06
2.7696690549023698e-05   -4.634806300045987e-06   -1.9989966072702915e-06
2.7696690549023698e-05   -4.634806300045987e-06   -1.9989966072702915e-06
2.7696690549023698e-05   -4.634806300045987e-06   -1.9989966072702915e-06
4.020715536147314e-05   -6.4078047994519565e-06   -2.1785972195042426e-05
4.020715536147314e-05   -6.4078047994519565e-06   -2.1785972195042426e-05
4.020715536147314e-05   -6.4078047994519565e-06   -2.1785972195042426e-05
4.020715536147314e-05   -6.4078047994519565e-06   -2.1785972195042426e-05
-6.087965485787432e-05   8.775358717541331e-06   -4.2029442618947286e-05
-6.087965485787432e-05   8.775358717541331e-06   -4.2029442618947286e-05
-6.087965485787432e-05   8.775358717541331e-06   -4.2029442618947286e-05
-6.087965485787432e-05   8.775358717541331e-06   -4.2029442618947286e-05
-3.9914791644937006e-05   6.704309688606311e-06   -8.330633348079409e-06
-3.9914791644937006e-05   6.704309688606311e-06   -8.330633348079409e-06
-3.9914791644937006e-05   6.704309688606311e-06   -8.330633348079409e-06
-3.9914791644937006e-05   6.704309688606311e-06   -8.330633348079409e-06
-4.010766598336821e-05   1.0533150461824981e-05   -3.4897640341716e-05
-4.010766598336821e-05   1.0533150461824981e-05   -3.4897640341716e-05
-4.010766598336821e-05   1.0533150461824981e-05   -3.4897640341716e-05
-4.010766598336821e-05   1.0533150461824981e-05   -3.4897640341716e-05
-5.995690694920154e-05   8.110807860672322e-06   -3.621665046354722e-07
-5.995690694920154e-05   8.110807860672322e-06   -3.621665046354722e-07
-5.995690694920154e-05   8.110807860672322e-06   -3.621665046354722e-07
-5.995690694920154e-05   8.110807860672322e-06   -3.621665046354722e-07
-4.8091051101409885e-05   8.923508378455255e-06   -2.062621322829145e-05
-4.8091051101409885e-05   8.923508378455255e-06   -2.062621322829145e-05
-4.8091051101409885e-05   8.923508378455255e-06   -2.062621322829145e-05
-4.8091051101409885e-05   8.923508378455255e-06   -2.062621322829145e-05
-5.995690694920154e-05   1.0533150461824981e-05   -3.3444234781024334e-05
-5.995690694920154e-05   1.0533150461824981e-05   -3.3444234781024334e-05
-5.995690694920154e-05   1.0533150461824981e-05   -3.3444234781024334e-05
-5.995690694920154e-05   1.0533150461824981e-05   -3.3444234781024334e-05
-4.010766598336821e-05   8.110807860672322e-06   -1.8155720653271112e-06
-4.010766598336821e-05   8.110807860672322e-06   -1.8155720653271112e-06
-4.010766598336821e-05   8.110807860672322e-06   -1.8155720653271112e-06
-4.010766598336821e-05   8.110807860672322e-06   -1.8155720653271112e-06
-4.0066940524242356e-05   1.132651816286302e-05   -2.9855715525311383e-05
-4.0066940524242356e-05   1.132651816286302e-05   -2.9855715525311383e-05
-4.0066940524242356e-05   1.132651816286302e-05   -2.9855715525311383e-05
-4.0066940524242356e-05   1.132651816286302e-05   -2.9855715525311383e-05
-5.9057532416208994e-05   8.728857552047333e-06   3.353867327789145e-06
-5.9057532416208994e-05   8.728857552047333e-06   3.353867327789145e-06
-5.9057532416208994e-05   8.728857552047333e-06   3.353867327789145e-06
-5.9057532416208994e-05   8.728857552047333e-06   3.353867327789145e-06
-4.850661639474075e-05   9.738857742157026e-06   -1.4836992822057126e-05
-4.850661639474075e-05   9.738857742157026e-06   -1.4836992822057126e-05
-4.850661639474075e-05   9.738857742157026e-06   -1.4836992822057126e-05
-4.850661639474075e-05   9.738857742157026e-06   -1.4836992822057126e-05
-5.9057532416208994e-05   1.132651816286302e-05   -2.8297119158821906e-05
-5.9057532416208994e-05   1.132651816286302e-05   -2.8297119158821906e-05
-5.9057532416208994e-05   1.132651816286302e-05   -2.8297119158821906e-05
-5.9057532416208994e-05   1.132651816286302e-05   -2.8297119158821906e-05
-4.0066940524242423e-05   8.728857552047333e-06   1.7952709612997628e-06
-4.0066940524242423e-05   8.728857552047333e-06   1.7952709612997628e-06
-4.0066940524242423e-05   8.728857552047333e-06   1.7952709612997628e-06
-4.0066940524242423e-05   8.728857552047333e-06   1.7952709612997628e-06
-4.0107705899382974e-05   1.1957770415403559e-05   -2.2796118739087305e-05
-4.0107705899382974e-05   1.1957770415403559e-05   -2.2796118739087305e-05
-4.0107705899382974e-05   1.1957770415403559e-05   -2.2796118739087305e-05
-4.0107705899382974e-05   1.1957770415403559e-05   -2.2796118739087305e-05
-5.7883216622545234e-05   9.337514455769321e-06   8.401886041963598e-06
-5.7883216622545234e-05   9.337514455769321e-06   8.401886041963598e-06
-5.7883216622545234e-05   9.337514455769321e-06   8.401886041963598e-06
-5.7883216622545234e-05   9.337514455769321e-06   8.401886041963598e-06
-4.740168255556391e-05   1.0168154077156729e-05   -9.565721175837272e-06
-4.740168255556391e-05   1.0168154077156729e-05   -9.565721175837272e-06
-4.740168255556391e-05   1.0168154077156729e-05   -9.565721175837272e-06
-4.740168255556391e-05   1.0168154077156729e-05   -9.565721175837272e-06
-3.9914791644937006e-05   4.0833345839712005e-06   -4.8665828579970067e-05
-3.9914791644937006e-05   4.0833345839712005e-06   -4.8665828579970067e-05
-3.9914791644937006e-05   4.0833345839712005e-06   -4.8665828579970067e-05
-3.9914791644937006e-05   4.0833345839712005e-06   -4.8665828579970067e-05
-2.031803977145906e-05   3.343336677525538e-06   -1.644857420137425e-05
-2.031803977145906e-05   3.343336677525538e-06   -1.644857420137425e-05
-2.031803977145906e-05   3.343336677525538e-06   -1.644857420137425e-05
-2.031803977145906e-05   3.343336677525538e-06   -1.644857420137425e-05
-2.0564794697026814e-05   5.699721191902436e-06   -4.797633186010269e-05
-2.0564794697026814e-05   5.699721191902436e-06   -4.797633186010269e-05
-2.0564794697026814e-05   5.699721191902436e-06   -4.797633186010269e-05
-2.0564794697026814e-05   5.699721191902436e-06   -4.797633186010269e-05
-4.010766598336821e-05   4.72669355028473e-06   -1.4821063131229776e-05
-4.010766598336821e-05   4.72669355028473e-06   -1.4821063131229776e-05
-4.010766598336821e-05   4.72669355028473e-06   -1.4821063131229776e-05
-4.010766598336821e-05   4.72669355028473e-06   -1.4821063131229776e-05
-2.9967519368696765e-05   4.709792370367574e-06   -3.17111667810652e-05
-2.9967519368696765e-05   4.709792370367574e-06   -3.17111667810652e-05
-2.9967519368696765e-05   4.709792370367574e-06   -3.17111667810652e-05
-2.9967519368696765e-05   4.709792370367574e-06   -3.17111667810652e-05
-4.010766598336817e-05   5.699721191902436e-06   -4.739251527513198e-05
-4.010766598336817e-05   5.699721191902436e-06   -4.739251527513198e-05
-4.010766598336817e-05   5.699721191902436e-06   -4.739251527513198e-05
-4.010766598336817e-05   5.699721191902436e-06   -4.739251527513198e-05
-2.0564794697026855e-05   4.72669355028473e-06   -1.5404879716200477e-05
-2.0564794697026855e-05   4.72669355028473e-06   -1.5404879716200477e-05
-2.0564794697026855e-05   4.72669355028473e-06   -1.5404879716200477e-05
-2.0564794697026855e-05   4.72669355028473e-06   -1.5404879716200477e-05
-2.0724802500269857e-05   7.037737014824218e-06   -4.670656430174155e-05
-2.0724802500269857e-05   7.037737014824218e-06   -4.670656430174155e-05
-2.0724802500269857e-05   7.037737014824218e-06   -4.670656430174155e-05
-2.0724802500269857e-05   7.037737014824218e-06   -4.670656430174155e-05
-4.0066940524242356e-05   5.95581183298981e-06   -1.382051248602012e-05
-4.0066940524242356e-05   5.95581183298981e-06   -1.382051248602012e-05
-4.0066940524242356e-05   5.95581183298981e-06   -1.382051248602012e-05
-4.0066940524242356e-05   5.95581183298981e-06   -1.382051248602012e-05
-3.0022972520011806e-05   5.847961242835478e-06   -3.0495748805644883e-05
-3.0022972520011806e-05   5.847961242835478e-06   -3.0495748805644883e-05
-3.0022972520011806e-05   5.847961242835478e-06   -3.0495748805644883e-05
-3.0022972520011806e-05   5.847961242835478e-06   -3.0495748805644883e-05
-4.0066940524242356e-05   7.037737014824218e-06   -4.605740919264095e-05
-4.0066940524242356e-05   7.037737014824218e-06   -4.605740919264095e-05
-4.0066940524242356e-05   7.037737014824218e-06   -4.605740919264095e-05
-4.0066940524242356e-05   7.037737014824218e-06   -4.605740919264095e-05
-2.072480250026989e-05   5.9558118329899185e-06   -1.4469667595120603e-05
-2.072480250026989e-05   5.9558118329899185e-06   -1.4469667595120603e-05
-2.072480250026989e-05   5.9558118329899185e-06   -1.4469667595120603e-05
-2.072480250026989e-05   5.9558118329899185e-06   -1.4469667595120603e-05
-2.0931859175644923e-05   8.477454120295845e-06   -4.659384469483745e-05
-2.0931859175644923e-05   8.477454120295845e-06   -4.659384469483745e-05
-2.0931859175644923e-05   8.477454120295845e-06   -4.659384469483745e-05
-2.0931859175644923e-05   8.477454120295845e-06   -4.659384469483745e-05
-4.010770589938292e-05   7.263415127652497e-06   -1.3905676759688149e-05
-4.010770589938292e-05   7.263415127652497e-06   -1.3905676759688149e-05
-4.010770589938292e-05   7.263415127652497e-06   -1.3905676759688149e-05
-4.010770589938292e-05   7.263415127652497e-06   -1.3905676759688149e-05
-3.0378745915561983e-05   6.9754161646696676e-06   -2.9947810688266378e-05
-3.0378745915561983e-05   6.9754161646696676e-06   -2.9947810688266378e-05
-3.0378745915561983e-05   6.9754161646696676e-06   -2.9947810688266378e-05
-3.0378745915561983e-05   6.9754161646696676e-06   -2.9947810688266378e-05
-2.0318039771459025e-05   -1.2183230463201503e-07   -5.246149783458765e-05
-2.0318039771459025e-05   -1.2183230463201503e-07   -5.246149783458765e-05
-2.0318039771459025e-05   -1.2183230463201503e-07   -5.246149783458765e-05
-2.0318039771459025e-05   -1.2183230463201503e-07   -5.246149783458765e-05
-9.404881290663305e-07   1.7807051703577076e-07   -1.9985636737599176e-05
-9.404881290663305e-07   1.7807051703577076e-07   -1.9985636737599176e-05
-9.404881290663305e-07   1.7807051703577076e-07   -1.9985636737599176e-05
-9.404881290663305e-07   1.7807051703577076e-07   -1.9985636737599176e-05
-1.1384732348939428e-06   1.3674732315074227e-06   -5.1971315201800934e-05
-1.1384732348939428e-06   1.3674732315074227e-06   -5.1971315201800934e-05
-1.1384732348939428e-06   1.3674732315074227e-06   -5.1971315201800934e-05
-1.1384732348939428e-06   1.3674732315074227e-06   -5.1971315201800934e-05
-2.0564794697026794e-05   1.539896796462015e-06   -1.9697566903885514e-05
-2.0564794697026794e-05   1.539896796462015e-06   -1.9697566903885514e-05
-2.0564794697026794e-05   1.539896796462015e-06   -1.9697566903885514e-05
-2.0564794697026794e-05   1.539896796462015e-06   -1.9697566903885514e-05
-1.0680012791867557e-05   8.972956815685325e-07   -3.578664274354823e-05
-1.0680012791867557e-05   8.972956815685325e-07   -3.578664274354823e-05
-1.0680012791867557e-05   8.972956815685325e-07   -3.578664274354823e-05
-1.0680012791867557e-05   8.972956815685325e-07   -3.578664274354823e-05
-2.0564794697026814e-05   1.3674732315074227e-06   -5.207476934077365e-05
-2.0564794697026814e-05   1.3674732315074227e-06   -5.207476934077365e-05
-2.0564794697026814e-05   1.3674732315074227e-06   -5.207476934077365e-05
-2.0564794697026814e-05   1.3674732315074227e-06   -5.207476934077365e-05
-1.1384732348939428e-06   1.5398967964619066e-06   -1.959411276491278e-05
-1.1384732348939428e-06   1.5398967964619066e-06   -1.959411276491278e-05
-1.1384732348939428e-06   1.5398967964619066e-06   -1.959411276491278e-05
-1.1384732348939428e-06   1.5398967964619066e-06   -1.959411276491278e-05
-1.2815264222940541e-06   2.8226545990796205e-06   -5.2112175989832996e-05
-1.2815264222940541e-06   2.8226545990796205e-06   -5.2112175989832996e-05
-1.2815264222940541e-06   2.8226545990796205e-06   -5.2112175989832996e-05
-1.2815264222940541e-06   2.8226545990796205e-06   -5.2112175989832996e-05
-2.0724802500269857e-05   2.8976761023548434e-06   -1.97517287618384e-05
-2.0724802500269857e-05   2.8976761023548434e-06   -1.97517287618384e-05
-2.0724802500269857e-05   2.8976761023548434e-06   -1.97517287618384e-05
-2.0724802500269857e-05   2.8976761023548434e-06   -1.97517287618384e-05
-1.0935554970668944e-05   2.098320627212137e-06   -3.558752802608767e-05
-1.0935554970668944e-05   2.098320627212137e-06   -3.558752802608767e-05
-1.0935554970668944e-05   2.098320627212137e-06   -3.558752802608767e-05
-1.0935554970668944e-05   2.098320627212137e-06   -3.558752802608767e-05
-2.0724802500269857e-05   2.8226545990796205e-06   -5.215718889179811e-05
-2.0724802500269857e-05   2.8226545990796205e-06   -5.215718889179811e-05
-2.0724802500269857e-05   2.8226545990796205e-06   -5.215718889179811e-05
-2.0724802500269857e-05   2.8226545990796205e-06   -5.215718889179811e-05
-1.2815264222940541e-06   2.897676102354735e-06   -1.97067158598732e-05
-1.2815264222940541e-06   2.897676102354735e-06   -1.97067158598732e-05
-1.2815264222940541e-06   2.897676102354735e-06   -1.97067158598732e-05
-1.2815264222940541e-06   2.897676102354735e-06   -1.97067158598732e-05
-1.5063047002976762e-06   4.338789104903272e-06   -5.278263653333003e-05
-1.5063047002976762e-06   4.338789104903272e-06   -5.278263653333003e-05
-1.5063047002976762e-06   4.338789104903272e-06   -5.278263653333003e-05
-1.5063047002976762e-06   4.338789104903272e-06   -5.278263653333003e-05
-2.093185917564495e-05   4.287006810317563e-06   -2.0375643030999915e-05
-2.093185917564495e-05   4.287006810317563e-06   -2.0375643030999915e-05
-2.093185917564495e-05   4.287006810317563e-06   -2.0375643030999915e-05
-2.093185917564495e-05   4.287006810317563e-06   -2.0375643030999915e-05
-1.1207029027407468e-05   3.313613892725405e-06   -3.59996575275068e-05
-1.1207029027407468e-05   3.313613892725405e-06   -3.59996575275068e-05
-1.1207029027407468e-05   3.313613892725405e-06   -3.59996575275068e-05
-1.1207029027407468e-05   3.313613892725405e-06   -3.59996575275068e-05
-9.404881290663322e-07   -4.175293708438409e-06   -4.6876577960358734e-05
-9.404881290663322e-07   -4.175293708438409e-06   -4.6876577960358734e-05
-9.404881290663322e-07   -4.175293708438409e-06   -4.6876577960358734e-05
-9.404881290663322e-07   -4.175293708438409e-06   -4.6876577960358734e-05
1.8338788681259975e-05   -2.798991869409342e-06   -1.3918668839730858e-05
1.8338788681259975e-05   -2.798991869409342e-06   -1.3918668839730858e-05
1.8338788681259975e-05   -2.798991869409342e-06   -1.3918668839730858e-05
1.8338788681259975e-05   -2.798991869409342e-06   -1.3918668839730858e-05
1.8324739728592314e-05   -2.8219439333317456e-06   -4.633735986608802e-05
1.8324739728592314e-05   -2.8219439333317456e-06   -4.633735986608802e-05
1.8324739728592314e-05   -2.8219439333317456e-06   -4.633735986608802e-05
1.8324739728592314e-05   -2.8219439333317456e-06   -4.633735986608802e-05
-1.1384732348939428e-06   -1.5505351764499332e-06   -1.4661516847739995e-05
-1.1384732348939428e-06   -1.5505351764499332e-06   -1.4661516847739995e-05
-1.1384732348939428e-06   -1.5505351764499332e-06   -1.4661516847739995e-05
-1.1384732348939428e-06   -1.5505351764499332e-06   -1.4661516847739995e-05
8.580209081178581e-06   -2.7383906351472354e-06   -3.0146607432642494e-05
8.580209081178581e-06   -2.7383906351472354e-06   -3.0146607432642494e-05
8.580209081178581e-06   -2.7383906351472354e-06   -3.0146607432642494e-05
8.580209081178581e-06   -2.7383906351472354e-06   -3.0146607432642494e-05
-1.1384732348939428e-06   -2.8219439333317456e-06   -4.710020512021708e-05
-1.1384732348939428e-06   -2.8219439333317456e-06   -4.710020512021708e-05
-1.1384732348939428e-06   -2.8219439333317456e-06   -4.710020512021708e-05
-1.1384732348939428e-06   -2.8219439333317456e-06   -4.710020512021708e-05
1.8324739728592355e-05   -1.5505351764500417e-06   -1.3898671593611e-05
1.8324739728592355e-05   -1.5505351764500417e-06   -1.3898671593611e-05
1.8324739728592355e-05   -1.5505351764500417e-06   -1.3898671593611e-05
1.8324739728592355e-05   -1.5505351764500417e-06   -1.3898671593611e-05
1.8411479470069236e-05   -1.4963762699297923e-06   -4.756260670170834e-05
1.8411479470069236e-05   -1.4963762699297923e-06   -4.756260670170834e-05
1.8411479470069236e-05   -1.4963762699297923e-06   -4.756260670170834e-05
1.8411479470069236e-05   -1.4963762699297923e-06   -4.756260670170834e-05
-1.2815264222940567e-06   -3.23913678518359e-07   -1.5444407769283085e-05
-1.2815264222940567e-06   -3.23913678518359e-07   -1.5444407769283085e-05
-1.2815264222940567e-06   -3.23913678518359e-07   -1.5444407769283085e-05
-1.2815264222940567e-06   -3.23913678518359e-07   -1.5444407769283085e-05
8.316603202087325e-06   -1.655883876483733e-06   -3.0642108357806176e-05
8.316603202087325e-06   -1.655883876483733e-06   -3.0642108357806176e-05
8.316603202087325e-06   -1.655883876483733e-06   -3.0642108357806176e-05
8.316603202087325e-06   -1.655883876483733e-06   -3.0642108357806176e-05
-1.2815264222940541e-06   -1.4963762699297923e-06   -4.826608425655516e-05
-1.2815264222940541e-06   -1.4963762699297923e-06   -4.826608425655516e-05
-1.2815264222940541e-06   -1.4963762699297923e-06   -4.826608425655516e-05
-1.2815264222940541e-06   -1.4963762699297923e-06   -4.826608425655516e-05
1.8411479470069276e-05   -3.2391367851846743e-07   -1.474093021443609e-05
1.8411479470069276e-05   -3.2391367851846743e-07   -1.474093021443609e-05
1.8411479470069276e-05   -3.2391367851846743e-07   -1.474093021443609e-05
1.8411479470069276e-05   -3.2391367851846743e-07   -1.474093021443609e-05
1.82701567708493e-05   1.4305624680590722e-07   -4.895196033852711e-05
1.82701567708493e-05   1.4305624680590722e-07   -4.895196033852711e-05
1.82701567708493e-05   1.4305624680590722e-07   -4.895196033852711e-05
1.82701567708493e-05   1.4305624680590722e-07   -4.895196033852711e-05
-1.5063047002976787e-06   1.110130757721729e-06   -1.6571435926498405e-05
-1.5063047002976787e-06   1.110130757721729e-06   -1.6571435926498405e-05
-1.5063047002976787e-06   1.110130757721729e-06   -1.6571435926498405e-05
-1.5063047002976787e-06   1.110130757721729e-06   -1.6571435926498405e-05
8.224141673646638e-06   -4.977414670076844e-07   -3.182412321490106e-05
8.224141673646638e-06   -4.977414670076844e-07   -3.182412321490106e-05
8.224141673646638e-06   -4.977414670076844e-07   -3.182412321490106e-05
8.224141673646638e-06   -4.977414670076844e-07   -3.182412321490106e-05
1.8338788681259934e-05   -7.759839568672537e-06   -2.62256524756586e-05
1.8338788681259934e-05   -7.759839568672537e-06   -2.62256524756586e-05
1.8338788681259934e-05   -7.759839568672537e-06   -2.62256524756586e-05
1.8338788681259934e-05   -7.759839568672537e-06   -2.62256524756586e-05
3.6389080315694694e-05   -5.075316537518854e-06   5.468880733758177e-06
3.6389080315694694e-05   -5.075316537518854e-06   5.468880733758177e-06
3.6389080315694694e-05   -5.075316537518854e-06   5.468880733758177e-06
3.6389080315694694e-05   -5.075316537518854e-06   5.468880733758177e-06
3.7616787956144153e-05   -7.039111034420182e-06   -2.950533259080875e-05
3.7616787956144153e-05   -7.039111034420182e-06   -2.950533259080875e-05
3.7616787956144153e-05   -7.039111034420182e-06   -2.950533259080875e-05
3.7616787956144153e-05   -7.039111034420182e-06   -2.950533259080875e-05
1.8324739728592314e-05   -4.355603659198632e-06   1.0379766966447414e-06
1.8324739728592314e-05   -4.355603659198632e-06   1.0379766966447414e-06
1.8324739728592314e-05   -4.355603659198632e-06   1.0379766966447414e-06
1.8324739728592314e-05   -4.355603659198632e-06   1.0379766966447414e-06
2.6484905140776715e-05   -5.985644347712249e-06   -1.1584274577221102e-05
2.6484905140776715e-05   -5.985644347712249e-06   -1.1584274577221102e-05
2.6484905140776715e-05   -5.985644347712249e-06   -1.1584274577221102e-05
2.6484905140776715e-05   -5.985644347712249e-06   -1.1584274577221102e-05
1.83247397285923e-05   -7.039111034420182e-06   -3.111543701594171e-05
1.83247397285923e-05   -7.039111034420182e-06   -3.111543701594171e-05
1.83247397285923e-05   -7.039111034420182e-06   -3.111543701594171e-05
1.83247397285923e-05   -7.039111034420182e-06   -3.111543701594171e-05
3.7616787956144153e-05   -4.3556036591985235e-06   2.6480811217776496e-06
3.7616787956144153e-05   -4.3556036591985235e-06   2.6480811217776496e-06
3.7616787956144153e-05   -4.3556036591985235e-06   2.6480811217776496e-06
3.7616787956144153e-05   -4.3556036591985235e-06   2.6480811217776496e-06
3.856061775605346e-05   -6.276297304535366e-06   -3.327694241968711e-05
3.856061775605346e-05   -6.276297304535366e-06   -3.327694241968711e-05
3.856061775605346e-05   -6.276297304535366e-06   -3.327694241968711e-05
3.856061775605346e-05   -6.276297304535366e-06   -3.327694241968711e-05
1.841147947006921e-05   -3.7386788926436912e-06   -1.217616323515063e-06
1.841147947006921e-05   -3.7386788926436912e-06   -1.217616323515063e-06
1.841147947006921e-05   -3.7386788926436912e-06   -1.217616323515063e-06
1.841147947006921e-05   -3.7386788926436912e-06   -1.217616323515063e-06
2.7385129942244474e-05   -5.521323116825807e-06   -1.5104113909297918e-05
2.7385129942244474e-05   -5.521323116825807e-06   -1.5104113909297918e-05
2.7385129942244474e-05   -5.521323116825807e-06   -1.5104113909297918e-05
2.7385129942244474e-05   -5.521323116825807e-06   -1.5104113909297918e-05
1.8411479470069236e-05   -6.276297304535366e-06   -3.479951346682211e-05
1.8411479470069236e-05   -6.276297304535366e-06   -3.479951346682211e-05
1.8411479470069236e-05   -6.276297304535366e-06   -3.479951346682211e-05
1.8411479470069236e-05   -6.276297304535366e-06   -3.479951346682211e-05
3.856061775605338e-05   -3.7386788926436912e-06   3.0495472361994746e-07
3.856061775605338e-05   -3.7386788926436912e-06   3.0495472361994746e-07
3.856061775605338e-05   -3.7386788926436912e-06   3.0495472361994746e-07
3.856061775605338e-05   -3.7386788926436912e-06   3.0495472361994746e-07
3.9566565982198005e-05   -4.634806300045987e-06   -3.96945304590579e-05
3.9566565982198005e-05   -4.634806300045987e-06   -3.96945304590579e-05
3.9566565982198005e-05   -4.634806300045987e-06   -3.96945304590579e-05
3.9566565982198005e-05   -4.634806300045987e-06   -3.96945304590579e-05
1.827015677084926e-05   -2.4211060431015554e-06   -5.528735260976729e-06
1.827015677084926e-05   -2.4211060431015554e-06   -5.528735260976729e-06
1.827015677084926e-05   -2.4211060431015554e-06   -5.528735260976729e-06
1.827015677084926e-05   -2.4211060431015554e-06   -5.528735260976729e-06
2.7268684172627525e-05   -4.756014424969865e-06   -1.9125335901486107e-05
2.7268684172627525e-05   -4.756014424969865e-06   -1.9125335901486107e-05
2.7268684172627525e-05   -4.756014424969865e-06   -1.9125335901486107e-05
2.7268684172627525e-05   -4.756014424969865e-06   -1.9125335901486107e-05
-4.3738474496073326e-05   6.704309688606311e-06   -3.32829218887667e-05
-4.3738474496073326e-05   6.704309688606311e-06   -3.32829218887667e-05
-4.3738474496073326e-05   6.704309688606311e-06   -3.32829218887667e-05
-4.3738474496073326e-05   6.704309688606311e-06   -3.32829218887667e-05
-2.978575393659027e-05   4.2638411709019315e-06   -1.1492668733584163e-05
-2.978575393659027e-05   4.2638411709019315e-06   -1.1492668733584163e-05
-2.978575393659027e-05   4.2638411709019315e-06   -1.1492668733584163e-05
-2.978575393659027e-05   4.2638411709019315e-06   -1.1492668733584163e-05
-2.9677246473339494e-05   8.110807860672322e-06   -2.827542135865036e-05
-2.9677246473339494e-05   8.110807860672322e-06   -2.827542135865036e-05
-2.9677246473339494e-05   8.110807860672322e-06   -2.827542135865036e-05
-2.9677246473339494e-05   8.110807860672322e-06   -2.827542135865036e-05
-4.2429225243925504e-05   5.427816631431112e-06   -5.4123286701289225e-06
-4.2429225243925504e-05   5.427816631431112e-06   -5.4123286701289225e-06
-4.2429225243925504e-05   5.427816631431112e-06   -5.4123286701289225e-06
-4.2429225243925504e-05   5.427816631431112e-06   -5.4123286701289225e-06
-3.486306228904696e-05   6.456036450682215e-06   -1.8639532153143886e-05
-3.486306228904696e-05   6.456036450682215e-06   -1.8639532153143886e-05
-3.486306228904696e-05   6.456036450682215e-06   -1.8639532153143886e-05
-3.486306228904696e-05   6.456036450682215e-06   -1.8639532153143886e-05
-4.2429225243925504e-05   8.110807860672322e-06   -2.6665626621105688e-05
-4.2429225243925504e-05   8.110807860672322e-06   -2.6665626621105688e-05
-4.2429225243925504e-05   8.110807860672322e-06   -2.6665626621105688e-05
-4.2429225243925504e-05   8.110807860672322e-06   -2.6665626621105688e-05
-2.9677246473339548e-05   5.427816631431112e-06   -7.022123407673755e-06
-2.9677246473339548e-05   5.427816631431112e-06   -7.022123407673755e-06
-2.9677246473339548e-05   5.427816631431112e-06   -7.022123407673755e-06
-2.9677246473339548e-05   5.427816631431112e-06   -7.022123407673755e-06
-2.94521231997374e-05   8.728857552047333e-06   -2.465613513965366e-05
-2.94521231997374e-05   8.728857552047333e-06   -2.465613513965366e-05
-2.94521231997374e-05   8.728857552047333e-06   -2.465613513965366e-05
-2.94521231997374e-05   8.728857552047333e-06   -2.465613513965366e-05
-4.145071722916075e-05   5.970317785703241e-06   -3.0033545641416763e-06
-4.145071722916075e-05   5.970317785703241e-06   -3.0033545641416763e-06
-4.145071722916075e-05   5.970317785703241e-06   -3.0033545641416763e-06
-4.145071722916075e-05   5.970317785703241e-06   -3.0033545641416763e-06
-3.486469141678359e-05   7.105567815770132e-06   -1.4661214269477135e-05
-3.486469141678359e-05   7.105567815770132e-06   -1.4661214269477135e-05
-3.486469141678359e-05   7.105567815770132e-06   -1.4661214269477135e-05
-3.486469141678359e-05   7.105567815770132e-06   -1.4661214269477135e-05
-4.145071722916075e-05   8.728857552047333e-06   -2.3001011279847315e-05
-4.145071722916075e-05   8.728857552047333e-06   -2.3001011279847315e-05
-4.145071722916075e-05   8.728857552047333e-06   -2.3001011279847315e-05
-4.145071722916075e-05   8.728857552047333e-06   -2.3001011279847315e-05
-2.9452123199737455e-05   5.970317785703241e-06   -4.658478423948002e-06
-2.9452123199737455e-05   5.970317785703241e-06   -4.658478423948002e-06
-2.9452123199737455e-05   5.970317785703241e-06   -4.658478423948002e-06
-2.9452123199737455e-05   5.970317785703241e-06   -4.658478423948002e-06
-2.936213038691056e-05   9.337514455769213e-06   -1.964675642881586e-05
-2.936213038691056e-05   9.337514455769213e-06   -1.964675642881586e-05
-2.936213038691056e-05   9.337514455769213e-06   -1.964675642881586e-05
-2.936213038691056e-05   9.337514455769213e-06   -1.964675642881586e-05
-4.017064275279317e-05   6.652772561666987e-06   -2.172401588349318e-08
-4.017064275279317e-05   6.652772561666987e-06   -2.172401588349318e-08
-4.017064275279317e-05   6.652772561666987e-06   -2.172401588349318e-08
-4.017064275279317e-05   6.652772561666987e-06   -2.172401588349318e-08
-3.3833027790205805e-05   7.457853885795994e-06   -1.1067464414673142e-05
-3.3833027790205805e-05   7.457853885795994e-06   -1.1067464414673142e-05
-3.3833027790205805e-05   7.457853885795994e-06   -1.1067464414673142e-05
-3.3833027790205805e-05   7.457853885795994e-06   -1.1067464414673142e-05
-2.9785753936590215e-05   3.343336677525538e-06   -4.242114510881672e-05
-2.9785753936590215e-05   3.343336677525538e-06   -4.242114510881672e-05
-2.9785753936590215e-05   3.343336677525538e-06   -4.242114510881672e-05
-2.9785753936590215e-05   3.343336677525538e-06   -4.242114510881672e-05
-1.7137542387338814e-05   2.2051564206905516e-06   -2.2023700680832016e-05
-1.7137542387338814e-05   2.2051564206905516e-06   -2.2023700680832016e-05
-1.7137542387338814e-05   2.2051564206905516e-06   -2.2023700680832016e-05
-1.7137542387338814e-05   2.2051564206905516e-06   -2.2023700680832016e-05
-1.7145909326958417e-05   4.726693550284621e-06   -4.2056457461136956e-05
-1.7145909326958417e-05   4.726693550284621e-06   -4.2056457461136956e-05
-1.7145909326958417e-05   4.726693550284621e-06   -4.2056457461136956e-05
-1.7145909326958417e-05   4.726693550284621e-06   -4.2056457461136956e-05
-2.9677246473339494e-05   3.434118489311429e-06   -2.039535051391795e-05
-2.9677246473339494e-05   3.434118489311429e-06   -2.039535051391795e-05
-2.9677246473339494e-05   3.434118489311429e-06   -2.039535051391795e-05
-2.9677246473339494e-05   3.434118489311429e-06   -2.039535051391795e-05
-2.322049812305749e-05   3.657439518313572e-06   -3.1290590381789334e-05
-2.322049812305749e-05   3.657439518313572e-06   -3.1290590381789334e-05
-2.322049812305749e-05   3.657439518313572e-06   -3.1290590381789334e-05
-2.322049812305749e-05   3.657439518313572e-06   -3.1290590381789334e-05
-2.9677246473339494e-05   4.72669355028473e-06   -4.12809124245529e-05
-2.9677246473339494e-05   4.72669355028473e-06   -4.12809124245529e-05
-2.9677246473339494e-05   4.72669355028473e-06   -4.12809124245529e-05
-2.9677246473339494e-05   4.72669355028473e-06   -4.12809124245529e-05
-1.7145909326958417e-05   3.4341184893113205e-06   -2.1170895550501963e-05
-1.7145909326958417e-05   3.4341184893113205e-06   -2.1170895550501963e-05
-1.7145909326958417e-05   3.4341184893113205e-06   -2.1170895550501963e-05
-1.7145909326958417e-05   3.4341184893113205e-06   -2.1170895550501963e-05
-1.713327728575725e-05   5.95581183298981e-06   -4.1113865869002106e-05
-1.713327728575725e-05   5.95581183298981e-06   -4.1113865869002106e-05
-1.713327728575725e-05   5.95581183298981e-06   -4.1113865869002106e-05
-1.713327728575725e-05   5.95581183298981e-06   -4.1113865869002106e-05
-2.94521231997374e-05   4.55256636294212e-06   -1.974050873033989e-05
-2.94521231997374e-05   4.55256636294212e-06   -1.974050873033989e-05
-2.94521231997374e-05   4.55256636294212e-06   -1.974050873033989e-05
-2.94521231997374e-05   4.55256636294212e-06   -1.974050873033989e-05
-2.3112366788925585e-05   4.666860680644334e-06   -3.0375346005647263e-05
-2.3112366788925585e-05   4.666860680644334e-06   -3.0375346005647263e-05
-2.3112366788925585e-05   4.666860680644334e-06   -3.0375346005647263e-05
-2.3112366788925585e-05   4.666860680644334e-06   -3.0375346005647263e-05
-2.94521231997374e-05   5.95581183298981e-06   -4.02719185869735e-05
-2.94521231997374e-05   5.95581183298981e-06   -4.02719185869735e-05
-2.94521231997374e-05   5.95581183298981e-06   -4.02719185869735e-05
-2.94521231997374e-05   5.95581183298981e-06   -4.02719185869735e-05
-1.713327728575725e-05   4.55256636294212e-06   -2.0582456012368437e-05
-1.713327728575725e-05   4.55256636294212e-06   -2.0582456012368437e-05
-1.713327728575725e-05   4.55256636294212e-06   -2.0582456012368437e-05
-1.713327728575725e-05   4.55256636294212e-06   -2.0582456012368437e-05
-1.714705078379258e-05   7.263415127652497e-06   -4.1279643469949385e-05
-1.714705078379258e-05   7.263415127652497e-06   -4.1279643469949385e-05
-1.714705078379258e-05   7.263415127652497e-06   -4.1279643469949385e-05
-1.714705078379258e-05   7.263415127652497e-06   -4.1279643469949385e-05
-2.936213038691056e-05   5.767618768881891e-06   -2.0023699649490288e-05
-2.936213038691056e-05   5.767618768881891e-06   -2.0023699649490288e-05
-2.936213038691056e-05   5.767618768881891e-06   -2.0023699649490288e-05
-2.936213038691056e-05   5.767618768881891e-06   -2.0023699649490288e-05
-2.3262078707500555e-05   5.665653065995671e-06   -3.0129273026775175e-05
-2.3262078707500555e-05   5.665653065995671e-06   -3.0129273026775175e-05
-2.3262078707500555e-05   5.665653065995671e-06   -3.0129273026775175e-05
-2.3262078707500555e-05   5.665653065995671e-06   -3.0129273026775175e-05
-1.7137542387338854e-05   1.7807051703577076e-07   -4.6821057492143334e-05
-1.7137542387338854e-05   1.7807051703577076e-07   -4.6821057492143334e-05
-1.7137542387338854e-05   1.7807051703577076e-07   -4.6821057492143334e-05
-1.7137542387338854e-05   1.7807051703577076e-07   -4.6821057492143334e-05
-4.664399304550077e-06   3.8011002082493587e-07   -2.5911261985221918e-05
-4.664399304550077e-06   3.8011002082493587e-07   -2.5911261985221918e-05
-4.664399304550077e-06   3.8011002082493587e-07   -2.5911261985221918e-05
-4.664399304550077e-06   3.8011002082493587e-07   -2.5911261985221918e-05
-4.673326113430003e-06   1.5398967964619066e-06   -4.630352876417744e-05
-4.673326113430003e-06   1.5398967964619066e-06   -4.630352876417744e-05
-4.673326113430003e-06   1.5398967964619066e-06   -4.630352876417744e-05
-4.673326113430003e-06   1.5398967964619066e-06   -4.630352876417744e-05
-1.7145909326958417e-05   1.615923270869863e-06   -2.5561505959608094e-05
-1.7145909326958417e-05   1.615923270869863e-06   -2.5561505959608094e-05
-1.7145909326958417e-05   1.615923270869863e-06   -2.5561505959608094e-05
-1.7145909326958417e-05   1.615923270869863e-06   -2.5561505959608094e-05
-1.083280562920541e-05   1.088511426778748e-06   -3.576689834940849e-05
-1.083280562920541e-05   1.088511426778748e-06   -3.576689834940849e-05
-1.083280562920541e-05   1.088511426778748e-06   -3.576689834940849e-05
-1.083280562920541e-05   1.088511426778748e-06   -3.576689834940849e-05
-1.7145909326958457e-05   1.5398967964619066e-06   -4.63491446488222e-05
-1.7145909326958457e-05   1.5398967964619066e-06   -4.63491446488222e-05
-1.7145909326958457e-05   1.5398967964619066e-06   -4.63491446488222e-05
-1.7145909326958457e-05   1.5398967964619066e-06   -4.63491446488222e-05
-4.673326113430003e-06   1.615923270869863e-06   -2.5515890074963375e-05
-4.673326113430003e-06   1.615923270869863e-06   -2.5515890074963375e-05
-4.673326113430003e-06   1.615923270869863e-06   -2.5515890074963375e-05
-4.673326113430003e-06   1.615923270869863e-06   -2.5515890074963375e-05
-4.6569375289401354e-06   2.8976761023548434e-06   -4.6421118623832486e-05
-4.6569375289401354e-06   2.8976761023548434e-06   -4.6421118623832486e-05
-4.6569375289401354e-06   2.8976761023548434e-06   -4.6421118623832486e-05
-4.6569375289401354e-06   2.8976761023548434e-06   -4.6421118623832486e-05
-1.713327728575725e-05   2.8556901221670535e-06   -2.5602027441024716e-05
-1.713327728575725e-05   2.8556901221670535e-06   -2.5602027441024716e-05
-1.713327728575725e-05   2.8556901221670535e-06   -2.5602027441024716e-05
-1.713327728575725e-05   2.8556901221670535e-06   -2.5602027441024716e-05
-1.0905340531036337e-05   2.169688978808195e-06   -3.557032134621091e-05
-1.0905340531036337e-05   2.169688978808195e-06   -3.557032134621091e-05
-1.0905340531036337e-05   2.169688978808195e-06   -3.557032134621091e-05
-1.0905340531036337e-05   2.169688978808195e-06   -3.557032134621091e-05
-1.713327728575725e-05   2.8976761023548434e-06   -4.6395927035719875e-05
-1.713327728575725e-05   2.8976761023548434e-06   -4.6395927035719875e-05
-1.713327728575725e-05   2.8976761023548434e-06   -4.6395927035719875e-05
-1.713327728575725e-05   2.8976761023548434e-06   -4.6395927035719875e-05
-4.6569375289401354e-06   2.8556901221670535e-06   -2.562721902913724e-05
-4.6569375289401354e-06   2.8556901221670535e-06   -2.562721902913724e-05
-4.6569375289401354e-06   2.8556901221670535e-06   -2.562721902913724e-05
-4.6569375289401354e-06   2.8556901221670535e-06   -2.562721902913724e-05
-4.664266691237879e-06   4.287006810317563e-06   -4.7123110655774355e-05
-4.664266691237879e-06   4.287006810317563e-06   -4.7123110655774355e-05
-4.664266691237879e-06   4.287006810317563e-06   -4.7123110655774355e-05
-4.664266691237879e-06   4.287006810317563e-06   -4.7123110655774355e-05
-1.7147050783792594e-05   4.117132960152099e-06   -2.621654619141715e-05
-1.7147050783792594e-05   4.117132960152099e-06   -2.621654619141715e-05
-1.7147050783792594e-05   4.117132960152099e-06   -2.621654619141715e-05
-1.7147050783792594e-05   4.117132960152099e-06   -2.621654619141715e-05
-1.0999108216935522e-05   3.26506685195178e-06   -3.595187747125876e-05
-1.0999108216935522e-05   3.26506685195178e-06   -3.595187747125876e-05
-1.0999108216935522e-05   3.26506685195178e-06   -3.595187747125876e-05
-1.0999108216935522e-05   3.26506685195178e-06   -3.595187747125876e-05
-4.66439930455007e-06   -2.798991869409342e-06   -4.145864699541896e-05
-4.66439930455007e-06   -2.798991869409342e-06   -4.145864699541896e-05
-4.66439930455007e-06   -2.798991869409342e-06   -4.145864699541896e-05
-4.66439930455007e-06   -2.798991869409342e-06   -4.145864699541896e-05
7.626121186837744e-06   -1.2888480460186138e-06   -2.006835988240495e-05
7.626121186837744e-06   -1.2888480460186138e-06   -2.006835988240495e-05
7.626121186837744e-06   -1.2888480460186138e-06   -2.006835988240495e-05
7.626121186837744e-06   -1.2888480460186138e-06   -2.006835988240495e-05
7.726433138271452e-06   -1.5505351764499332e-06   -4.051540332028654e-05
7.726433138271452e-06   -1.5505351764499332e-06   -4.051540332028654e-05
7.726433138271452e-06   -1.5505351764499332e-06   -4.051540332028654e-05
7.726433138271452e-06   -1.5505351764499332e-06   -4.051540332028654e-05
-4.6733261134299945e-06   -1.2465263191986133e-07   -2.070466742750218e-05
-4.6733261134299945e-06   -1.2465263191986133e-07   -2.070466742750218e-05
-4.6733261134299945e-06   -1.2465263191986133e-07   -2.070466742750218e-05
-4.6733261134299945e-06   -1.2465263191986133e-07   -2.070466742750218e-05
1.5110682748562814e-06   -1.3333142325292749e-06   -3.0286794447613653e-05
1.5110682748562814e-06   -1.3333142325292749e-06   -3.0286794447613653e-05
1.5110682748562814e-06   -1.3333142325292749e-06   -3.0286794447613653e-05
1.5110682748562814e-06   -1.3333142325292749e-06   -3.0286794447613653e-05
-4.673326113430003e-06   -1.5505351764499332e-06   -4.1370932847004577e-05
-4.673326113430003e-06   -1.5505351764499332e-06   -4.1370932847004577e-05
-4.673326113430003e-06   -1.5505351764499332e-06   -4.1370932847004577e-05
-4.673326113430003e-06   -1.5505351764499332e-06   -4.1370932847004577e-05
7.726433138271452e-06   -1.2465263191986133e-07   -1.9849137900784114e-05
7.726433138271452e-06   -1.2465263191986133e-07   -1.9849137900784114e-05
7.726433138271452e-06   -1.2465263191986133e-07   -1.9849137900784114e-05
7.726433138271452e-06   -1.2465263191986133e-07   -1.9849137900784114e-05
7.963135835911981e-06   -3.2391367851846743e-07   -4.136735721980614e-05
7.963135835911981e-06   -3.2391367851846743e-07   -4.136735721980614e-05
7.963135835911981e-06   -3.2391367851846743e-07   -4.136735721980614e-05
7.963135835911981e-06   -3.2391367851846743e-07   -4.136735721980614e-05
-4.656937528940126e-06   9.951751772084051e-07   -2.112535492515533e-05
-4.656937528940126e-06   9.951751772084051e-07   -2.112535492515533e-05
-4.656937528940126e-06   9.951751772084051e-07   -2.112535492515533e-05
-4.656937528940126e-06   9.951751772084051e-07   -2.112535492515533e-05
1.43990141017919e-06   -3.647907074249223e-07   -3.0470773626240947e-05
1.43990141017919e-06   -3.647907074249223e-07   -3.0470773626240947e-05
1.43990141017919e-06   -3.647907074249223e-07   -3.0470773626240947e-05
1.43990141017919e-06   -3.647907074249223e-07   -3.0470773626240947e-05
-4.6569375289401354e-06   -3.2391367851846743e-07   -4.215881053324226e-05
-4.6569375289401354e-06   -3.2391367851846743e-07   -4.215881053324226e-05
-4.6569375289401354e-06   -3.2391367851846743e-07   -4.215881053324226e-05
-4.6569375289401354e-06   -3.2391367851846743e-07   -4.215881053324226e-05
7.963135835911981e-06   9.951751772085135e-07   -2.033390161171924e-05
7.963135835911981e-06   9.951751772085135e-07   -2.033390161171924e-05
7.963135835911981e-06   9.951751772085135e-07   -2.033390161171924e-05
7.963135835911981e-06   9.951751772085135e-07   -2.033390161171924e-05
8.079054603409917e-06   1.110130757721729e-06   -4.258683331043384e-05
8.079054603409917e-06   1.110130757721729e-06   -4.258683331043384e-05
8.079054603409917e-06   1.110130757721729e-06   -4.258683331043384e-05
8.079054603409917e-06   1.110130757721729e-06   -4.258683331043384e-05
-4.664266691237879e-06   2.2784655312010254e-06   -2.2048965350108217e-05
-4.664266691237879e-06   2.2784655312010254e-06   -2.2048965350108217e-05
-4.664266691237879e-06   2.2784655312010254e-06   -2.2048965350108217e-05
-4.664266691237879e-06   2.2784655312010254e-06   -2.2048965350108217e-05
1.4826128259957366e-06   6.709943120508047e-07   -3.1329281814007566e-05
1.4826128259957366e-06   6.709943120508047e-07   -3.1329281814007566e-05
1.4826128259957366e-06   6.709943120508047e-07   -3.1329281814007566e-05
1.4826128259957366e-06   6.709943120508047e-07   -3.1329281814007566e-05
7.626121186837744e-06   -5.075316537518854e-06   -2.2775724946587676e-05
7.626121186837744e-06   -5.075316537518854e-06   -2.2775724946587676e-05
7.626121186837744e-06   -5.075316537518854e-06   -2.2775724946587676e-05
7.626121186837744e-06   -5.075316537518854e-06   -2.2775724946587676e-05
1.8537594582121984e-05   -2.367299672193391e-06   -2.9651258352520046e-06
1.8537594582121984e-05   -2.367299672193391e-06   -2.9651258352520046e-06
1.8537594582121984e-05   -2.367299672193391e-06   -2.9651258352520046e-06
1.8537594582121984e-05   -2.367299672193391e-06   -2.9651258352520046e-06
1.9835127834450032e-05   -4.355603659198632e-06   -2.3912510316816647e-05
1.9835127834450032e-05   -4.355603659198632e-06   -2.3912510316816647e-05
1.9835127834450032e-05   -4.355603659198632e-06   -2.3912510316816647e-05
1.9835127834450032e-05   -4.355603659198632e-06   -2.3912510316816647e-05
7.726433138271452e-06   -1.5785291371749575e-06   -5.397597203066543e-06
7.726433138271452e-06   -1.5785291371749575e-06   -5.397597203066543e-06
7.726433138271452e-06   -1.5785291371749575e-06   -5.397597203066543e-06
7.726433138271452e-06   -1.5785291371749575e-06   -5.397597203066543e-06
1.2858619629277092e-05   -3.240545458641853e-06   -1.2954031561862497e-05
1.2858619629277092e-05   -3.240545458641853e-06   -1.2954031561862497e-05
1.2858619629277092e-05   -3.240545458641853e-06   -1.2954031561862497e-05
1.2858619629277092e-05   -3.240545458641853e-06   -1.2954031561862497e-05
7.726433138271438e-06   -4.355603659198632e-06   -2.5578755030030743e-05
7.726433138271438e-06   -4.355603659198632e-06   -2.5578755030030743e-05
7.726433138271438e-06   -4.355603659198632e-06   -2.5578755030030743e-05
7.726433138271438e-06   -4.355603659198632e-06   -2.5578755030030743e-05
1.9835127834450005e-05   -1.5785291371748491e-06   -3.7313524898523924e-06
1.9835127834450005e-05   -1.5785291371748491e-06   -3.7313524898523924e-06
1.9835127834450005e-05   -1.5785291371748491e-06   -3.7313524898523924e-06
1.9835127834450005e-05   -1.5785291371748491e-06   -3.7313524898523924e-06
2.0834064837489907e-05   -3.7386788926436912e-06   -2.622135433271469e-05
2.0834064837489907e-05   -3.7386788926436912e-06   -2.622135433271469e-05
2.0834064837489907e-05   -3.7386788926436912e-06   -2.622135433271469e-05
2.0834064837489907e-05   -3.7386788926436912e-06   -2.622135433271469e-05
7.963135835911981e-06   -1.0341972323599105e-06   -6.3924949929218436e-06
7.963135835911981e-06   -1.0341972323599105e-06   -6.3924949929218436e-06
7.963135835911981e-06   -1.0341972323599105e-06   -6.3924949929218436e-06
7.963135835911981e-06   -1.0341972323599105e-06   -6.3924949929218436e-06
1.3651245217018452e-05   -2.835407997985029e-06   -1.4791950835390716e-05
1.3651245217018452e-05   -2.835407997985029e-06   -1.4791950835390716e-05
1.3651245217018452e-05   -2.835407997985029e-06   -1.4791950835390716e-05
1.3651245217018452e-05   -2.835407997985029e-06   -1.4791950835390716e-05
7.963135835911981e-06   -3.7386788926436912e-06   -2.7844043328885035e-05
7.963135835911981e-06   -3.7386788926436912e-06   -2.7844043328885035e-05
7.963135835911981e-06   -3.7386788926436912e-06   -2.7844043328885035e-05
7.963135835911981e-06   -3.7386788926436912e-06   -2.7844043328885035e-05
2.083406483748988e-05   -1.0341972323599105e-06   -4.7698059967512824e-06
2.083406483748988e-05   -1.0341972323599105e-06   -4.7698059967512824e-06
2.083406483748988e-05   -1.0341972323599105e-06   -4.7698059967512824e-06
2.083406483748988e-05   -1.0341972323599105e-06   -4.7698059967512824e-06
2.2161889108523384e-05   -2.421106043101447e-06   -3.065042576321739e-05
2.2161889108523384e-05   -2.421106043101447e-06   -3.065042576321739e-05
2.2161889108523384e-05   -2.421106043101447e-06   -3.065042576321739e-05
2.2161889108523384e-05   -2.421106043101447e-06   -3.065042576321739e-05
8.07905460340993e-06   3.5479937305943517e-08   -8.652986509605828e-06
8.07905460340993e-06   3.5479937305943517e-08   -8.652986509605828e-06
8.07905460340993e-06   3.5479937305943517e-08   -8.652986509605828e-06
8.07905460340993e-06   3.5479937305943517e-08   -8.652986509605828e-06
1.3915809381393889e-05   -2.2332581330831904e-06   -1.7019668297345788e-05
1.3915809381393889e-05   -2.2332581330831904e-06   -1.7019668297345788e-05
1.3915809381393889e-05   -2.2332581330831904e-06   -1.7019668297345788e-05
1.3915809381393889e-05   -2.2332581330831904e-06   -1.7019668297345788e-05
-2.6465283413252703e-05   4.2638411709019315e-06   -2.4809639588201722e-05
-2.6465283413252703e-05   4.2638411709019315e-06   -2.4809639588201722e-05
-2.6465283413252703e-05   4.2638411709019315e-06   -2.4809639588201722e-05
-2.6465283413252703e-05   4.2638411709019315e-06   -2.4809639588201722e-05
-1.9549030289262362e-05   1.735956600410534e-06   -1.4799281790512736e-05
-1.9549030289262362e-05   1.735956600410534e-06   -1.4799281790512736e-05
-1.9549030289262362e-05   1.735956600410534e-06   -1.4799281790512736e-05
-1.9549030289262362e-05   1.735956600410534e-06   -1.4799281790512736e-05
-1.9261927268209473e-05   5.427816631431112e-06   -2.1886635409527227e-05
-1.9261927268209473e-05   5.427816631431112e-06   -2.1886635409527227e-05
-1.9261927268209473e-05   5.427816631431112e-06   -2.1886635409527227e-05
-1.9261927268209473e-05   5.427816631431112e-06   -2.1886635409527227e-05
-2.502629599566091e-05   2.7042319483512253e-06   -1.0645203387259932e-05
-2.502629599566091e-05   2.7042319483512253e-06   -1.0645203387259932e-05
-2.502629599566091e-05   2.7042319483512253e-06   -1.0645203387259932e-05
-2.502629599566091e-05   2.7042319483512253e-06   -1.0645203387259932e-05
-2.1619178039520204e-05   3.824923213364246e-06   -1.699614807316992e-05
-2.1619178039520204e-05   3.824923213364246e-06   -1.699614807316992e-05
-2.1619178039520204e-05   3.824923213364246e-06   -1.699614807316992e-05
-2.1619178039520204e-05   3.824923213364246e-06   -1.699614807316992e-05
-2.502629599566091e-05   5.427816631431112e-06   -2.025248459967924e-05
-2.502629599566091e-05   5.427816631431112e-06   -2.025248459967924e-05
-2.502629599566091e-05   5.427816631431112e-06   -2.025248459967924e-05
-2.502629599566091e-05   5.427816631431112e-06   -2.025248459967924e-05
-1.92619272682095e-05   2.7042319483510085e-06   -1.2279354197108e-05
-1.92619272682095e-05   2.7042319483510085e-06   -1.2279354197108e-05
-1.92619272682095e-05   2.7042319483510085e-06   -1.2279354197108e-05
-1.92619272682095e-05   2.7042319483510085e-06   -1.2279354197108e-05
-1.88520337207601e-05   5.970317785703241e-06   -1.9543400157285683e-05
-1.88520337207601e-05   5.970317785703241e-06   -1.9543400157285683e-05
-1.88520337207601e-05   5.970317785703241e-06   -1.9543400157285683e-05
-1.88520337207601e-05   5.970317785703241e-06   -1.9543400157285683e-05
-2.3878849024081526e-05   3.1937010434599043e-06   -9.499404606403772e-06
-2.3878849024081526e-05   3.1937010434599043e-06   -9.499404606403772e-06
-2.3878849024081526e-05   3.1937010434599043e-06   -9.499404606403772e-06
-2.3878849024081526e-05   3.1937010434599043e-06   -9.499404606403772e-06
-2.1239874423744016e-05   4.34749748148811e-06   -1.4589973469783385e-05
-2.1239874423744016e-05   4.34749748148811e-06   -1.4589973469783385e-05
-2.1239874423744016e-05   4.34749748148811e-06   -1.4589973469783385e-05
-2.1239874423744016e-05   4.34749748148811e-06   -1.4589973469783385e-05
-2.3878849024081472e-05   5.970317785703241e-06   -1.787743011193968e-05
-2.3878849024081472e-05   5.970317785703241e-06   -1.787743011193968e-05
-2.3878849024081472e-05   5.970317785703241e-06   -1.787743011193968e-05
-2.3878849024081472e-05   5.970317785703241e-06   -1.787743011193968e-05
-1.8852033720760127e-05   3.1937010434599043e-06   -1.1165374651749802e-05
-1.8852033720760127e-05   3.1937010434599043e-06   -1.1165374651749802e-05
-1.8852033720760127e-05   3.1937010434599043e-06   -1.1165374651749802e-05
-1.8852033720760127e-05   3.1937010434599043e-06   -1.1165374651749802e-05
-1.857312186348767e-05   6.652772561666987e-06   -1.6537879339800906e-05
-1.857312186348767e-05   6.652772561666987e-06   -1.6537879339800906e-05
-1.857312186348767e-05   6.652772561666987e-06   -1.6537879339800906e-05
-1.857312186348767e-05   6.652772561666987e-06   -1.6537879339800906e-05
-2.2417833146741537e-05   3.969164190458256e-06   -8.5198621783191e-06
-2.2417833146741537e-05   3.969164190458256e-06   -8.5198621783191e-06
-2.2417833146741537e-05   3.969164190458256e-06   -8.5198621783191e-06
-2.2417833146741537e-05   3.969164190458256e-06   -8.5198621783191e-06
-2.024763025772517e-05   4.710184189191135e-06   -1.2581478992586175e-05
-2.024763025772517e-05   4.710184189191135e-06   -1.2581478992586175e-05
-2.024763025772517e-05   4.710184189191135e-06   -1.2581478992586175e-05
-2.024763025772517e-05   4.710184189191135e-06   -1.2581478992586175e-05
-1.9549030289262362e-05   2.2051564206905516e-06   -3.6174494123643514e-05
-1.9549030289262362e-05   2.2051564206905516e-06   -3.6174494123643514e-05
-1.9549030289262362e-05   2.2051564206905516e-06   -3.6174494123643514e-05
-1.9549030289262362e-05   2.2051564206905516e-06   -3.6174494123643514e-05
-1.3928524818952354e-05   9.979788442428337e-07   -2.7531291552328684e-05
-1.3928524818952354e-05   9.979788442428337e-07   -2.7531291552328684e-05
-1.3928524818952354e-05   9.979788442428337e-07   -2.7531291552328684e-05
-1.3928524818952354e-05   9.979788442428337e-07   -2.7531291552328684e-05
-1.3740836345615877e-05   3.4341184893113205e-06   -3.6055298133866776e-05
-1.3740836345615877e-05   3.4341184893113205e-06   -3.6055298133866776e-05
-1.3740836345615877e-05   3.4341184893113205e-06   -3.6055298133866776e-05
-1.3740836345615877e-05   3.4341184893113205e-06   -3.6055298133866776e-05
-1.92619272682095e-05   2.108392459152647e-06   -2.6058044311448472e-05
-1.92619272682095e-05   2.108392459152647e-06   -2.6058044311448472e-05
-1.92619272682095e-05   2.108392459152647e-06   -2.6058044311448472e-05
-1.92619272682095e-05   2.108392459152647e-06   -2.6058044311448472e-05
-1.6458037010157482e-05   2.399811037365131e-06   -3.090604588846366e-05
-1.6458037010157482e-05   2.399811037365131e-06   -3.090604588846366e-05
-1.6458037010157482e-05   2.399811037365131e-06   -3.090604588846366e-05
-1.6458037010157482e-05   2.399811037365131e-06   -3.090604588846366e-05
-1.9261927268209473e-05   3.4341184893113205e-06   -3.5259862515771366e-05
-1.9261927268209473e-05   3.4341184893113205e-06   -3.5259862515771366e-05
-1.9261927268209473e-05   3.4341184893113205e-06   -3.5259862515771366e-05
-1.9261927268209473e-05   3.4341184893113205e-06   -3.5259862515771366e-05
-1.3740836345615905e-05   2.108392459152647e-06   -2.685347992954399e-05
-1.3740836345615905e-05   2.108392459152647e-06   -2.685347992954399e-05
-1.3740836345615905e-05   2.108392459152647e-06   -2.685347992954399e-05
-1.3740836345615905e-05   2.108392459152647e-06   -2.685347992954399e-05
-1.3533511075167654e-05   4.55256636294212e-06   -3.547230388622298e-05
-1.3533511075167654e-05   4.55256636294212e-06   -3.547230388622298e-05
-1.3533511075167654e-05   4.55256636294212e-06   -3.547230388622298e-05
-1.3533511075167654e-05   4.55256636294212e-06   -3.547230388622298e-05
-1.885203372076018e-05   3.1411106586995592e-06   -2.57612260543564e-05
-1.885203372076018e-05   3.1411106586995592e-06   -2.57612260543564e-05
-1.885203372076018e-05   3.1411106586995592e-06   -2.57612260543564e-05
-1.885203372076018e-05   3.1411106586995592e-06   -2.57612260543564e-05
-1.6211069697266267e-05   3.2978371884664795e-06   -3.025686867803951e-05
-1.6211069697266267e-05   3.2978371884664795e-06   -3.025686867803951e-05
-1.6211069697266267e-05   3.2978371884664795e-06   -3.025686867803951e-05
-1.6211069697266267e-05   3.2978371884664795e-06   -3.025686867803951e-05
-1.88520337207601e-05   4.55256636294212e-06   -3.4625430463677386e-05
-1.88520337207601e-05   4.55256636294212e-06   -3.4625430463677386e-05
-1.88520337207601e-05   4.55256636294212e-06   -3.4625430463677386e-05
-1.88520337207601e-05   4.55256636294212e-06   -3.4625430463677386e-05
-1.3533511075167654e-05   3.1411106586995592e-06   -2.6608099476901936e-05
-1.3533511075167654e-05   3.1411106586995592e-06   -2.6608099476901936e-05
-1.3533511075167654e-05   3.1411106586995592e-06   -2.6608099476901936e-05
-1.3533511075167654e-05   3.1411106586995592e-06   -2.6608099476901936e-05
-1.3349248567470559e-05   5.767618768881891e-06   -3.581627610885977e-05
-1.3349248567470559e-05   5.767618768881891e-06   -3.581627610885977e-05
-1.3349248567470559e-05   5.767618768881891e-06   -3.581627610885977e-05
-1.3349248567470559e-05   5.767618768881891e-06   -3.581627610885977e-05
-1.8573121863487698e-05   4.288841649026376e-06   -2.6222554343584444e-05
-1.8573121863487698e-05   4.288841649026376e-06   -2.6222554343584444e-05
-1.8573121863487698e-05   4.288841649026376e-06   -2.6222554343584444e-05
-1.8573121863487698e-05   4.288841649026376e-06   -2.6222554343584444e-05
-1.6115016015281987e-05   4.2076513926119375e-06   -3.0270683270078585e-05
-1.6115016015281987e-05   4.2076513926119375e-06   -3.0270683270078585e-05
-1.6115016015281987e-05   4.2076513926119375e-06   -3.0270683270078585e-05
-1.6115016015281987e-05   4.2076513926119375e-06   -3.0270683270078585e-05
-1.3928524818952314e-05   3.8011002082493587e-07   -4.090758567617543e-05
-1.3928524818952314e-05   3.8011002082493587e-07   -4.090758567617543e-05
-1.3928524818952314e-05   3.8011002082493587e-07   -4.090758567617543e-05
-1.3928524818952314e-05   3.8011002082493587e-07   -4.090758567617543e-05
-8.45079134718723e-06   5.728485532366899e-07   -3.16623867704534e-05
-8.45079134718723e-06   5.728485532366899e-07   -3.16623867704534e-05
-8.45079134718723e-06   5.728485532366899e-07   -3.16623867704534e-05
-8.45079134718723e-06   5.728485532366899e-07   -3.16623867704534e-05
-8.267946767043386e-06   1.615923270869863e-06   -4.039302741344381e-05
-8.267946767043386e-06   1.615923270869863e-06   -4.039302741344381e-05
-8.267946767043386e-06   1.615923270869863e-06   -4.039302741344381e-05
-8.267946767043386e-06   1.615923270869863e-06   -4.039302741344381e-05
-1.3740836345615877e-05   1.7040584867516247e-06   -3.1324425912018436e-05
-1.3740836345615877e-05   1.7040584867516247e-06   -3.1324425912018436e-05
-1.3740836345615877e-05   1.7040584867516247e-06   -3.1324425912018436e-05
-1.3740836345615877e-05   1.7040584867516247e-06   -3.1324425912018436e-05
-1.1025887106449019e-05   1.2258466243762257e-06   -3.5562414193205364e-05
-1.1025887106449019e-05   1.2258466243762257e-06   -3.5562414193205364e-05
-1.1025887106449019e-05   1.2258466243762257e-06   -3.5562414193205364e-05
-1.1025887106449019e-05   1.2258466243762257e-06   -3.5562414193205364e-05
-1.374083634561585e-05   1.615923270869863e-06   -4.0445908542972785e-05
-1.374083634561585e-05   1.615923270869863e-06   -4.0445908542972785e-05
-1.374083634561585e-05   1.615923270869863e-06   -4.0445908542972785e-05
-1.374083634561585e-05   1.615923270869863e-06   -4.0445908542972785e-05
-8.267946767043372e-06   1.7040584867516247e-06   -3.127154478248955e-05
-8.267946767043372e-06   1.7040584867516247e-06   -3.127154478248955e-05
-8.267946767043372e-06   1.7040584867516247e-06   -3.127154478248955e-05
-8.267946767043372e-06   1.7040584867516247e-06   -3.127154478248955e-05
-8.062097860193327e-06   2.8556901221670535e-06   -4.0498188790269256e-05
-8.062097860193327e-06   2.8556901221670535e-06   -4.0498188790269256e-05
-8.062097860193327e-06   2.8556901221670535e-06   -4.0498188790269256e-05
-8.062097860193327e-06   2.8556901221670535e-06   -4.0498188790269256e-05
-1.3533511075167627e-05   2.8451676631834847e-06   -3.1372853289921736e-05
-1.3533511075167627e-05   2.8451676631834847e-06   -3.1372853289921736e-05
-1.3533511075167627e-05   2.8451676631834847e-06   -3.1372853289921736e-05
-1.3533511075167627e-05   2.8451676631834847e-06   -3.1372853289921736e-05
-1.0903505934347314e-05   2.19790324444577e-06   -3.53678365400464e-05
-1.0903505934347314e-05   2.19790324444577e-06   -3.53678365400464e-05
-1.0903505934347314e-05   2.19790324444577e-06   -3.53678365400464e-05
-1.0903505934347314e-05   2.19790324444577e-06   -3.53678365400464e-05
-1.3533511075167613e-05   2.8556901221670535e-06   -4.049187531487897e-05
-1.3533511075167613e-05   2.8556901221670535e-06   -4.049187531487897e-05
-1.3533511075167613e-05   2.8556901221670535e-06   -4.049187531487897e-05
-1.3533511075167613e-05   2.8556901221670535e-06   -4.049187531487897e-05
-8.062097860193314e-06   2.8451676631834847e-06   -3.1379166765311845e-05
-8.062097860193314e-06   2.8451676631834847e-06   -3.1379166765311845e-05
-8.062097860193314e-06   2.8451676631834847e-06   -3.1379166765311845e-05
-8.062097860193314e-06   2.8451676631834847e-06   -3.1379166765311845e-05
-7.877197234750941e-06   4.117132960152208e-06   -4.1179818383445884e-05
-7.877197234750941e-06   4.117132960152208e-06   -4.1179818383445884e-05
-7.877197234750941e-06   4.117132960152208e-06   -4.1179818383445884e-05
-7.877197234750941e-06   4.117132960152208e-06   -4.1179818383445884e-05
-1.3349248567470559e-05   4.0035103802827775e-06   -3.199155928099151e-05
-1.3349248567470559e-05   4.0035103802827775e-06   -3.199155928099151e-05
-1.3349248567470559e-05   4.0035103802827775e-06   -3.199155928099151e-05
-1.3349248567470559e-05   4.0035103802827775e-06   -3.199155928099151e-05
-1.0802468215528444e-05   3.1828869300460196e-06   -3.574381913075297e-05
-1.0802468215528444e-05   3.1828869300460196e-06   -3.574381913075297e-05
-1.0802468215528444e-05   3.1828869300460196e-06   -3.574381913075297e-05
-1.0802468215528444e-05   3.1828869300460196e-06   -3.574381913075297e-05
-8.4507913471872e-06   -1.2888480460187222e-06   -3.58551267479458e-05
-8.4507913471872e-06   -1.2888480460187222e-06   -3.58551267479458e-05
-8.4507913471872e-06   -1.2888480460187222e-06   -3.58551267479458e-05
-8.4507913471872e-06   -1.2888480460187222e-06   -3.58551267479458e-05
-3.1400949892904816e-06   2.464618334698746e-07   -2.6082780223758185e-05
-3.1400949892904816e-06   2.464618334698746e-07   -2.6082780223758185e-05
-3.1400949892904816e-06   2.464618334698746e-07   -2.6082780223758185e-05
-3.1400949892904816e-06   2.464618334698746e-07   -2.6082780223758185e-05
-2.866574545261962e-06   -1.2465263191986133e-07   -3.4701570804770304e-05
-2.866574545261962e-06   -1.2465263191986133e-07   -3.4701570804770304e-05
-2.866574545261962e-06   -1.2465263191986133e-07   -3.4701570804770304e-05
-2.866574545261962e-06   -1.2465263191986133e-07   -3.4701570804770304e-05
-8.267946767043372e-06   1.3424039701009569e-06   -2.6579517729680027e-05
-8.267946767043372e-06   1.3424039701009569e-06   -2.6579517729680027e-05
-8.267946767043372e-06   1.3424039701009569e-06   -2.6579517729680027e-05
-8.267946767043372e-06   1.3424039701009569e-06   -2.6579517729680027e-05
-5.624012208072178e-06   1.5823867436412075e-07   -3.0275576150523846e-05
-5.624012208072178e-06   1.5823867436412075e-07   -3.0275576150523846e-05
-5.624012208072178e-06   1.5823867436412075e-07   -3.0275576150523846e-05
-5.624012208072178e-06   1.5823867436412075e-07   -3.0275576150523846e-05
-8.267946767043359e-06   -1.2465263191986133e-07   -3.558180476598261e-05
-8.267946767043359e-06   -1.2465263191986133e-07   -3.558180476598261e-05
-8.267946767043359e-06   -1.2465263191986133e-07   -3.558180476598261e-05
-8.267946767043359e-06   -1.2465263191986133e-07   -3.558180476598261e-05
-2.866574545261962e-06   1.3424039701009569e-06   -2.569928376846772e-05
-2.866574545261962e-06   1.3424039701009569e-06   -2.569928376846772e-05
-2.866574545261962e-06   1.3424039701009569e-06   -2.569928376846772e-05
-2.866574545261962e-06   1.3424039701009569e-06   -2.569928376846772e-05
-2.459945809735623e-06   9.951751772084051e-07   -3.516843721256826e-05
-2.459945809735623e-06   9.951751772084051e-07   -3.516843721256826e-05
-2.459945809735623e-06   9.951751772084051e-07   -3.516843721256826e-05
-2.459945809735623e-06   9.951751772084051e-07   -3.516843721256826e-05
-8.062097860193314e-06   2.3749876334067804e-06   -2.6659404602190947e-05
-8.062097860193314e-06   2.3749876334067804e-06   -2.6659404602190947e-05
-8.062097860193314e-06   2.3749876334067804e-06   -2.6659404602190947e-05
-8.062097860193314e-06   2.3749876334067804e-06   -2.6659404602190947e-05
-5.458792682875971e-06   1.0431964407298902e-06   -3.0199171848780445e-05
-5.458792682875971e-06   1.0431964407298902e-06   -3.0199171848780445e-05
-5.458792682875971e-06   1.0431964407298902e-06   -3.0199171848780445e-05
-5.458792682875971e-06   1.0431964407298902e-06   -3.0199171848780445e-05
-8.0620978601933e-06   9.951751772084051e-07   -3.599632468628713e-05
-8.0620978601933e-06   9.951751772084051e-07   -3.599632468628713e-05
-8.0620978601933e-06   9.951751772084051e-07   -3.599632468628713e-05
-8.0620978601933e-06   9.951751772084051e-07   -3.599632468628713e-05
-2.459945809735623e-06   2.3749876334067804e-06   -2.583151712847202e-05
-2.459945809735623e-06   2.3749876334067804e-06   -2.583151712847202e-05
-2.459945809735623e-06   2.3749876334067804e-06   -2.583151712847202e-05
-2.459945809735623e-06   2.3749876334067804e-06   -2.583151712847202e-05
-2.176128033510715e-06   2.278465531200917e-06   -3.615198894372308e-05
-2.176128033510715e-06   2.278465531200917e-06   -3.615198894372308e-05
-2.176128033510715e-06   2.278465531200917e-06   -3.615198894372308e-05
-2.176128033510715e-06   2.278465531200917e-06   -3.615198894372308e-05
-7.877197234750941e-06   3.542339345058605e-06   -2.7408531229970636e-05
-7.877197234750941e-06   3.542339345058605e-06   -2.7408531229970636e-05
-7.877197234750941e-06   3.542339345058605e-06   -2.7408531229970636e-05
-7.877197234750941e-06   3.542339345058605e-06   -2.7408531229970636e-05
-5.285934693193335e-06   1.9704938795117328e-06   -3.0784194853238507e-05
-5.285934693193335e-06   1.9704938795117328e-06   -3.0784194853238507e-05
-5.285934693193335e-06   1.9704938795117328e-06   -3.0784194853238507e-05
-5.285934693193335e-06   1.9704938795117328e-06   -3.0784194853238507e-05
-3.140094989290468e-06   -2.367299672193391e-06   -1.9455516892294953e-05
-3.140094989290468e-06   -2.367299672193391e-06   -1.9455516892294953e-05
-3.140094989290468e-06   -2.367299672193391e-06   -1.9455516892294953e-05
-3.140094989290468e-06   -2.367299672193391e-06   -1.9455516892294953e-05
7.813101601309412e-07   3.4355406100614744e-07   -1.1293329403339568e-05
7.813101601309412e-07   3.4355406100614744e-07   -1.1293329403339568e-05
7.813101601309412e-07   3.4355406100614744e-07   -1.1293329403339568e-05
7.813101601309412e-07   3.4355406100614744e-07   -1.1293329403339568e-05
2.227972862983577e-06   -1.5785291371748491e-06   -1.857691477531948e-05
2.227972862983577e-06   -1.5785291371748491e-06   -1.857691477531948e-05
2.227972862983577e-06   -1.5785291371748491e-06   -1.857691477531948e-05
2.227972862983577e-06   -1.5785291371748491e-06   -1.857691477531948e-05
-2.866574545261962e-06   1.2099964157136732e-06   -1.1759117759976433e-05
-2.866574545261962e-06   1.2099964157136732e-06   -1.1759117759976433e-05
-2.866574545261962e-06   1.2099964157136732e-06   -1.1759117759976433e-05
-2.866574545261962e-06   1.2099964157136732e-06   -1.1759117759976433e-05
-7.29455294073072e-07   -4.813175546506906e-07   -1.4306194796406336e-05
-7.29455294073072e-07   -4.813175546506906e-07   -1.4306194796406336e-05
-7.29455294073072e-07   -4.813175546506906e-07   -1.4306194796406336e-05
-7.29455294073072e-07   -4.813175546506906e-07   -1.4306194796406336e-05
-2.866574545261935e-06   -1.5785291371748491e-06   -2.0250030107052462e-05
-2.866574545261935e-06   -1.5785291371748491e-06   -2.0250030107052462e-05
-2.866574545261935e-06   -1.5785291371748491e-06   -2.0250030107052462e-05
-2.866574545261935e-06   -1.5785291371748491e-06   -2.0250030107052462e-05
2.227972862983577e-06   1.20999641571389e-06   -1.0086002428243341e-05
2.227972862983577e-06   1.20999641571389e-06   -1.0086002428243341e-05
2.227972862983577e-06   1.20999641571389e-06   -1.0086002428243341e-05
2.227972862983577e-06   1.20999641571389e-06   -1.0086002428243341e-05
3.3703321907898665e-06   -1.0341972323599105e-06   -1.9588209028143118e-05
3.3703321907898665e-06   -1.0341972323599105e-06   -1.9588209028143118e-05
3.3703321907898665e-06   -1.0341972323599105e-06   -1.9588209028143118e-05
3.3703321907898665e-06   -1.0341972323599105e-06   -1.9588209028143118e-05
-2.459945809735623e-06   1.6971720436863118e-06   -1.1509900592894735e-05
-2.459945809735623e-06   1.6971720436863118e-06   -1.1509900592894735e-05
-2.459945809735623e-06   1.6971720436863118e-06   -1.1509900592894735e-05
-2.459945809735623e-06   1.6971720436863118e-06   -1.1509900592894735e-05
3.992204601377695e-09   -6.627167966911365e-08   -1.455839771610982e-05
3.992204601377695e-09   -6.627167966911365e-08   -1.455839771610982e-05
3.992204601377695e-09   -6.627167966911365e-08   -1.455839771610982e-05
3.992204601377695e-09   -6.627167966911365e-08   -1.455839771610982e-05
-2.4599458097356096e-06   -1.034197232360019e-06   -2.1227030593770754e-05
-2.4599458097356096e-06   -1.034197232360019e-06   -2.1227030593770754e-05
-2.4599458097356096e-06   -1.034197232360019e-06   -2.1227030593770754e-05
-2.4599458097356096e-06   -1.034197232360019e-06   -2.1227030593770754e-05
3.3703321907898665e-06   1.6971720436863118e-06   -9.871079027267099e-06
3.3703321907898665e-06   1.6971720436863118e-06   -9.871079027267099e-06
3.3703321907898665e-06   1.6971720436863118e-06   -9.871079027267099e-06
3.3703321907898665e-06   1.6971720436863118e-06   -9.871079027267099e-06
4.81224015244091e-06   3.5479937305943517e-08   -2.194193683362043e-05
4.81224015244091e-06   3.5479937305943517e-08   -2.194193683362043e-05
4.81224015244091e-06   3.5479937305943517e-08   -2.194193683362043e-05
4.81224015244091e-06   3.5479937305943517e-08   -2.194193683362043e-05
-2.176128033510715e-06   2.5606034934524523e-06   -1.1809730657388754e-05
-2.176128033510715e-06   2.5606034934524523e-06   -1.1809730657388754e-05
-2.176128033510715e-06   2.5606034934524523e-06   -1.1809730657388754e-05
-2.176128033510715e-06   2.5606034934524523e-06   -1.1809730657388754e-05
6.353968322965931e-07   4.069704277542092e-07   -1.5203425594315496e-05
6.353968322965931e-07   4.069704277542092e-07   -1.5203425594315496e-05
6.353968322965931e-07   4.069704277542092e-07   -1.5203425594315496e-05
6.353968322965931e-07   4.069704277542092e-07   -1.5203425594315496e-05
-9.206871504831619e-06   1.735956600410534e-06   -1.6526981842701486e-05
-9.206871504831619e-06   1.735956600410534e-06   -1.6526981842701486e-05
-9.206871504831619e-06   1.735956600410534e-06   -1.6526981842701486e-05
-9.206871504831619e-06   1.735956600410534e-06   -1.6526981842701486e-05
-9.343248863503327e-06   -8.093037878985354e-07   -1.8281433673473038e-05
-9.343248863503327e-06   -8.093037878985354e-07   -1.8281433673473038e-05
-9.343248863503327e-06   -8.093037878985354e-07   -1.8281433673473038e-05
-9.343248863503327e-06   -8.093037878985354e-07   -1.8281433673473038e-05
-8.875995878194592e-06   2.7042319483512253e-06   -1.5528613584407788e-05
-8.875995878194592e-06   2.7042319483512253e-06   -1.5528613584407788e-05
-8.875995878194592e-06   2.7042319483512253e-06   -1.5528613584407788e-05
-8.875995878194592e-06   2.7042319483512253e-06   -1.5528613584407788e-05
-7.596239862614213e-06   -2.6255234648279308e-08   -1.6023247967242e-05
-7.596239862614213e-06   -2.6255234648279308e-08   -1.6023247967242e-05
-7.596239862614213e-06   -2.6255234648279308e-08   -1.6023247967242e-05
-7.596239862614213e-06   -2.6255234648279308e-08   -1.6023247967242e-05
-8.372948588571713e-06   1.195164759232141e-06   -1.5461585420308292e-05
-8.372948588571713e-06   1.195164759232141e-06   -1.5461585420308292e-05
-8.372948588571713e-06   1.195164759232141e-06   -1.5461585420308292e-05
-8.372948588571713e-06   1.195164759232141e-06   -1.5461585420308292e-05
-7.596239862614213e-06   2.7042319483512253e-06   -1.3890321274608063e-05
-7.596239862614213e-06   2.7042319483512253e-06   -1.3890321274608063e-05
-7.596239862614213e-06   2.7042319483512253e-06   -1.3890321274608063e-05
-7.596239862614213e-06   2.7042319483512253e-06   -1.3890321274608063e-05
-8.87599587819462e-06   -2.6255234648279308e-08   -1.766154027704178e-05
-8.87599587819462e-06   -2.6255234648279308e-08   -1.766154027704178e-05
-8.87599587819462e-06   -2.6255234648279308e-08   -1.766154027704178e-05
-8.87599587819462e-06   -2.6255234648279308e-08   -1.766154027704178e-05
-8.286430339609496e-06   3.193701043460121e-06   -1.4410551968802553e-05
-8.286430339609496e-06   3.193701043460121e-06   -1.4410551968802553e-05
-8.286430339609496e-06   3.193701043460121e-06   -1.4410551968802553e-05
-8.286430339609496e-06   3.193701043460121e-06   -1.4410551968802553e-05
-6.264759943917385e-06   4.169901840166395e-07   -1.6113976112623564e-05
-6.264759943917385e-06   4.169901840166395e-07   -1.6113976112623564e-05
-6.264759943917385e-06   4.169901840166395e-07   -1.6113976112623564e-05
-6.264759943917385e-06   4.169901840166395e-07   -1.6113976112623564e-05
-7.610821378710344e-06   1.5973472440720298e-06   -1.4578754624002373e-05
-7.610821378710344e-06   1.5973472440720298e-06   -1.4578754624002373e-05
-7.610821378710344e-06   1.5973472440720298e-06   -1.4578754624002373e-05
-7.610821378710344e-06   1.5973472440720298e-06   -1.4578754624002373e-05
-6.264759943917385e-06   3.193701043460121e-06   -1.2744525453136702e-05
-6.264759943917385e-06   3.193701043460121e-06   -1.2744525453136702e-05
-6.264759943917385e-06   3.193701043460121e-06   -1.2744525453136702e-05
-6.264759943917385e-06   3.193701043460121e-06   -1.2744525453136702e-05
-8.286430339609523e-06   4.169901840166395e-07   -1.778000262828936e-05
-8.286430339609523e-06   4.169901840166395e-07   -1.778000262828936e-05
-8.286430339609523e-06   4.169901840166395e-07   -1.778000262828936e-05
-8.286430339609523e-06   4.169901840166395e-07   -1.778000262828936e-05
-7.826945967129447e-06   3.969164190458039e-06   -1.337148006596233e-05
-7.826945967129447e-06   3.969164190458039e-06   -1.337148006596233e-05
-7.826945967129447e-06   3.969164190458039e-06   -1.337148006596233e-05
-7.826945967129447e-06   3.969164190458039e-06   -1.337148006596233e-05
-4.62080930169797e-06   1.3009151450850149e-06   -1.7114091747790936e-05
-4.62080930169797e-06   1.3009151450850149e-06   -1.7114091747790936e-05
-4.62080930169797e-06   1.3009151450850149e-06   -1.7114091747790936e-05
-4.62080930169797e-06   1.3009151450850149e-06   -1.7114091747790936e-05
-6.658549779497741e-06   1.983128283978056e-06   -1.4127185501459824e-05
-6.658549779497741e-06   1.983128283978056e-06   -1.4127185501459824e-05
-6.658549779497741e-06   1.983128283978056e-06   -1.4127185501459824e-05
-6.658549779497741e-06   1.983128283978056e-06   -1.4127185501459824e-05
-9.3432488635033e-06   9.979788442428337e-07   -3.0061841291634185e-05
-9.3432488635033e-06   9.979788442428337e-07   -3.0061841291634185e-05
-9.3432488635033e-06   9.979788442428337e-07   -3.0061841291634185e-05
-9.3432488635033e-06   9.979788442428337e-07   -3.0061841291634185e-05
-1.0775105646535375e-05   -1.743838449349243e-07   -3.3151686876861305e-05
-1.0775105646535375e-05   -1.743838449349243e-07   -3.3151686876861305e-05
-1.0775105646535375e-05   -1.743838449349243e-07   -3.3151686876861305e-05
-1.0775105646535375e-05   -1.743838449349243e-07   -3.3151686876861305e-05
-1.039786744854522e-05   2.108392459152647e-06   -3.008405290510813e-05
-1.039786744854522e-05   2.108392459152647e-06   -3.008405290510813e-05
-1.039786744854522e-05   2.108392459152647e-06   -3.008405290510813e-05
-1.039786744854522e-05   2.108392459152647e-06   -3.008405290510813e-05
-8.87599587819462e-06   8.138104485532188e-07   -3.1843756315999235e-05
-8.87599587819462e-06   8.138104485532188e-07   -3.1843756315999235e-05
-8.87599587819462e-06   8.138104485532188e-07   -3.1843756315999235e-05
-8.87599587819462e-06   8.138104485532188e-07   -3.1843756315999235e-05
-9.733369122600808e-06   1.153595325404039e-06   -3.061867183476661e-05
-9.733369122600808e-06   1.153595325404039e-06   -3.061867183476661e-05
-9.733369122600808e-06   1.153595325404039e-06   -3.061867183476661e-05
-9.733369122600808e-06   1.153595325404039e-06   -3.061867183476661e-05
-8.875995878194592e-06   2.108392459152647e-06   -2.9307303698748017e-05
-8.875995878194592e-06   2.108392459152647e-06   -2.9307303698748017e-05
-8.875995878194592e-06   2.108392459152647e-06   -2.9307303698748017e-05
-8.875995878194592e-06   2.108392459152647e-06   -2.9307303698748017e-05
-1.0397867448545207e-05   8.138104485534356e-07   -3.262050552235886e-05
-1.0397867448545207e-05   8.138104485534356e-07   -3.262050552235886e-05
-1.0397867448545207e-05   8.138104485534356e-07   -3.262050552235886e-05
-1.0397867448545207e-05   8.138104485534356e-07   -3.262050552235886e-05
-1.000549680791761e-05   3.1411106586995592e-06   -2.983182437379787e-05
-1.000549680791761e-05   3.1411106586995592e-06   -2.983182437379787e-05
-1.000549680791761e-05   3.1411106586995592e-06   -2.983182437379787e-05
-1.000549680791761e-05   3.1411106586995592e-06   -2.983182437379787e-05
-8.286430339609523e-06   1.7654089880516852e-06   -3.1871514151922474e-05
-8.286430339609523e-06   1.7654089880516852e-06   -3.1871514151922474e-05
-8.286430339609523e-06   1.7654089880516852e-06   -3.1871514151922474e-05
-8.286430339609523e-06   1.7654089880516852e-06   -3.1871514151922474e-05
-9.355381007134325e-06   1.9505250632683834e-06   -3.020099935117801e-05
-9.355381007134325e-06   1.9505250632683834e-06   -3.020099935117801e-05
-9.355381007134325e-06   1.9505250632683834e-06   -3.020099935117801e-05
-9.355381007134325e-06   1.9505250632683834e-06   -3.020099935117801e-05
-8.286430339609496e-06   3.1411106586995592e-06   -2.9006403371409096e-05
-8.286430339609496e-06   3.1411106586995592e-06   -2.9006403371409096e-05
-8.286430339609496e-06   3.1411106586995592e-06   -2.9006403371409096e-05
-8.286430339609496e-06   3.1411106586995592e-06   -2.9006403371409096e-05
-1.0005496807917596e-05   1.7654089880516852e-06   -3.2696935154311274e-05
-1.0005496807917596e-05   1.7654089880516852e-06   -3.2696935154311274e-05
-1.0005496807917596e-05   1.7654089880516852e-06   -3.2696935154311274e-05
-1.0005496807917596e-05   1.7654089880516852e-06   -3.2696935154311274e-05
-9.636056978889177e-06   4.288841649026376e-06   -3.032597714076673e-05
-9.636056978889177e-06   4.288841649026376e-06   -3.032597714076673e-05
-9.636056978889177e-06   4.288841649026376e-06   -3.032597714076673e-05
-9.636056978889177e-06   4.288841649026376e-06   -3.032597714076673e-05
-7.826945967129474e-06   2.8522250952523528e-06   -3.247919222810168e-05
-7.826945967129474e-06   2.8522250952523528e-06   -3.247919222810168e-05
-7.826945967129474e-06   2.8522250952523528e-06   -3.247919222810168e-05
-7.826945967129474e-06   2.8522250952523528e-06   -3.247919222810168e-05
-9.022943205203715e-06   2.7867189737165645e-06   -3.0446559825056158e-05
-9.022943205203715e-06   2.7867189737165645e-06   -3.0446559825056158e-05
-9.022943205203715e-06   2.7867189737165645e-06   -3.0446559825056158e-05
-9.022943205203715e-06   2.7867189737165645e-06   -3.0446559825056158e-05
-1.0775105646535334e-05   5.728485532364731e-07   -3.501199724271254e-05
-1.0775105646535334e-05   5.728485532364731e-07   -3.501199724271254e-05
-1.0775105646535334e-05   5.728485532364731e-07   -3.501199724271254e-05
-1.0775105646535334e-05   5.728485532364731e-07   -3.501199724271254e-05
-1.22815247637997e-05   8.207857206889331e-07   -3.737393347101516e-05
-1.22815247637997e-05   8.207857206889331e-07   -3.737393347101516e-05
-1.22815247637997e-05   8.207857206889331e-07   -3.737393347101516e-05
-1.22815247637997e-05   8.207857206889331e-07   -3.737393347101516e-05
-1.1910859071598383e-05   1.7040584867514079e-06   -3.447198870253944e-05
-1.1910859071598383e-05   1.7040584867514079e-06   -3.447198870253944e-05
-1.1910859071598383e-05   1.7040584867514079e-06   -3.447198870253944e-05
-1.1910859071598383e-05   1.7040584867514079e-06   -3.447198870253944e-05
-1.0397867448545207e-05   1.842408795156526e-06   -3.707665159267102e-05
-1.0397867448545207e-05   1.842408795156526e-06   -3.707665159267102e-05
-1.0397867448545207e-05   1.842408795156526e-06   -3.707665159267102e-05
-1.0397867448545207e-05   1.842408795156526e-06   -3.707665159267102e-05
-1.1273055619114327e-05   1.3942196924917856e-06   -3.534909118012411e-05
-1.1273055619114327e-05   1.3942196924917856e-06   -3.534909118012411e-05
-1.1273055619114327e-05   1.3942196924917856e-06   -3.534909118012411e-05
-1.1273055619114327e-05   1.3942196924917856e-06   -3.534909118012411e-05
-1.0397867448545193e-05   1.7040584867516247e-06   -3.455499888758248e-05
-1.0397867448545193e-05   1.7040584867516247e-06   -3.455499888758248e-05
-1.0397867448545193e-05   1.7040584867516247e-06   -3.455499888758248e-05
-1.0397867448545193e-05   1.7040584867516247e-06   -3.455499888758248e-05
-1.1910859071598383e-05   1.842408795156526e-06   -3.699364140762821e-05
-1.1910859071598383e-05   1.842408795156526e-06   -3.699364140762821e-05
-1.1910859071598383e-05   1.842408795156526e-06   -3.699364140762821e-05
-1.1910859071598383e-05   1.842408795156526e-06   -3.699364140762821e-05
-1.1520895721064352e-05   2.8451676631834847e-06   -3.45718076337271e-05
-1.1520895721064352e-05   2.8451676631834847e-06   -3.45718076337271e-05
-1.1520895721064352e-05   2.8451676631834847e-06   -3.45718076337271e-05
-1.1520895721064352e-05   2.8451676631834847e-06   -3.45718076337271e-05
-1.0005496807917596e-05   2.8864519183344726e-06   -3.712224304206217e-05
-1.0005496807917596e-05   2.8864519183344726e-06   -3.712224304206217e-05
-1.0005496807917596e-05   2.8864519183344726e-06   -3.712224304206217e-05
-1.0005496807917596e-05   2.8864519183344726e-06   -3.712224304206217e-05
-1.0962158598046603e-05   2.2683197121849347e-06   -3.5156927401491214e-05
-1.0962158598046603e-05   2.2683197121849347e-06   -3.5156927401491214e-05
-1.0962158598046603e-05   2.2683197121849347e-06   -3.5156927401491214e-05
-1.0962158598046603e-05   2.2683197121849347e-06   -3.5156927401491214e-05
-1.0005496807917569e-05   2.8451676631834847e-06   -3.459657818681761e-05
-1.0005496807917569e-05   2.8451676631834847e-06   -3.459657818681761e-05
-1.0005496807917569e-05   2.8451676631834847e-06   -3.459657818681761e-05
-1.0005496807917569e-05   2.8451676631834847e-06   -3.459657818681761e-05
-1.152089572106433e-05   2.8864519183344726e-06   -3.709747248897149e-05
-1.152089572106433e-05   2.8864519183344726e-06   -3.709747248897149e-05
-1.152089572106433e-05   2.8864519183344726e-06   -3.709747248897149e-05
-1.152089572106433e-05   2.8864519183344726e-06   -3.709747248897149e-05
-1.115313525092364e-05   4.003510380282994e-06   -3.524284438230041e-05
-1.115313525092364e-05   4.003510380282994e-06   -3.524284438230041e-05
-1.115313525092364e-05   4.003510380282994e-06   -3.524284438230041e-05
-1.115313525092364e-05   4.003510380282994e-06   -3.524284438230041e-05
-9.636056978889191e-06   3.9449627535497085e-06   -3.77361795929846e-05
-9.636056978889191e-06   3.9449627535497085e-06   -3.77361795929846e-05
-9.636056978889191e-06   3.9449627535497085e-06   -3.77361795929846e-05
-9.636056978889191e-06   3.9449627535497085e-06   -3.77361795929846e-05
-1.0676111031117125e-05   3.1546588635441306e-06   -3.552857383860077e-05
-1.0676111031117125e-05   3.1546588635441306e-06   -3.552857383860077e-05
-1.0676111031117125e-05   3.1546588635441306e-06   -3.552857383860077e-05
-1.0676111031117125e-05   3.1546588635441306e-06   -3.552857383860077e-05
-1.2281524763799678e-05   2.4646183347009146e-07   -3.020481432323925e-05
-1.2281524763799678e-05   2.4646183347009146e-07   -3.020481432323925e-05
-1.2281524763799678e-05   2.4646183347009146e-07   -3.020481432323925e-05
-1.2281524763799678e-05   2.4646183347009146e-07   -3.020481432323925e-05
-1.3873173764282674e-05   1.8237779873223232e-06   -3.1911172965066016e-05
-1.3873173764282674e-05   1.8237779873223232e-06   -3.1911172965066016e-05
-1.3873173764282674e-05   1.8237779873223232e-06   -3.1911172965066016e-05
-1.3873173764282674e-05   1.8237779873223232e-06   -3.1911172965066016e-05
-1.3424465148963372e-05   1.3424039701009569e-06   -2.887601707743826e-05
-1.3424465148963372e-05   1.3424039701009569e-06   -2.887601707743826e-05
-1.3424465148963372e-05   1.3424039701009569e-06   -2.887601707743826e-05
-1.3424465148963372e-05   1.3424039701009569e-06   -2.887601707743826e-05
-1.1910859071598383e-05   2.848978257254456e-06   -3.230263844533827e-05
-1.1910859071598383e-05   2.848978257254456e-06   -3.230263844533827e-05
-1.1910859071598383e-05   2.848978257254456e-06   -3.230263844533827e-05
-1.1910859071598383e-05   2.848978257254456e-06   -3.230263844533827e-05
-1.2772986286286799e-05   1.679517634133672e-06   -3.01640833803192e-05
-1.2772986286286799e-05   1.679517634133672e-06   -3.01640833803192e-05
-1.2772986286286799e-05   1.679517634133672e-06   -3.01640833803192e-05
-1.2772986286286799e-05   1.679517634133672e-06   -3.01640833803192e-05
-1.1910859071598363e-05   1.3424039701009569e-06   -2.9779961649730266e-05
-1.1910859071598363e-05   1.3424039701009569e-06   -2.9779961649730266e-05
-1.1910859071598363e-05   1.3424039701009569e-06   -2.9779961649730266e-05
-1.1910859071598363e-05   1.3424039701009569e-06   -2.9779961649730266e-05
-1.3424465148963372e-05   2.848978257254456e-06   -3.1398693873046666e-05
-1.3424465148963372e-05   2.848978257254456e-06   -3.1398693873046666e-05
-1.3424465148963372e-05   2.848978257254456e-06   -3.1398693873046666e-05
-1.3424465148963372e-05   2.848978257254456e-06   -3.1398693873046666e-05
-1.2844108917839809e-05   2.3749876334065636e-06   -2.900028550435849e-05
-1.2844108917839809e-05   2.3749876334065636e-06   -2.900028550435849e-05
-1.2844108917839809e-05   2.3749876334065636e-06   -2.900028550435849e-05
-1.2844108917839809e-05   2.3749876334065636e-06   -2.900028550435849e-05
-1.152089572106433e-05   3.794587577152838e-06   -3.205740079856507e-05
-1.152089572106433e-05   3.794587577152838e-06   -3.205740079856507e-05
-1.152089572106433e-05   3.794587577152838e-06   -3.205740079856507e-05
-1.152089572106433e-05   3.794587577152838e-06   -3.205740079856507e-05
-1.2371940474867428e-05   2.49302725664161e-06   -2.9858056683253697e-05
-1.2371940474867428e-05   2.49302725664161e-06   -2.9858056683253697e-05
-1.2371940474867428e-05   2.49302725664161e-06   -2.9858056683253697e-05
-1.2371940474867428e-05   2.49302725664161e-06   -2.9858056683253697e-05
-1.152089572106431e-05   2.3749876334065636e-06   -2.9852045470606093e-05
-1.152089572106431e-05   2.3749876334065636e-06   -2.9852045470606093e-05
-1.152089572106431e-05   2.3749876334065636e-06   -2.9852045470606093e-05
-1.152089572106431e-05   2.3749876334065636e-06   -2.9852045470606093e-05
-1.2844108917839836e-05   3.794587577152621e-06   -3.120564083231752e-05
-1.2844108917839836e-05   3.794587577152621e-06   -3.120564083231752e-05
-1.2844108917839836e-05   3.794587577152621e-06   -3.120564083231752e-05
-1.2844108917839836e-05   3.794587577152621e-06   -3.120564083231752e-05
-1.2388308386423295e-05   3.542339345058605e-06   -2.9804596505117573e-05
-1.2388308386423295e-05   3.542339345058605e-06   -2.9804596505117573e-05
-1.2388308386423295e-05   3.542339345058605e-06   -2.9804596505117573e-05
-1.2388308386423295e-05   3.542339345058605e-06   -2.9804596505117573e-05
-1.115313525092364e-05   4.854083142125662e-06   -3.265026467585725e-05
-1.115313525092364e-05   4.854083142125662e-06   -3.265026467585725e-05
-1.115313525092364e-05   4.854083142125662e-06   -3.265026467585725e-05
-1.115313525092364e-05   4.854083142125662e-06   -3.265026467585725e-05
-1.2071965224693863e-05   3.32421310200151e-06   -3.0200959362165368e-05
-1.2071965224693863e-05   3.32421310200151e-06   -3.0200959362165368e-05
-1.2071965224693863e-05   3.32421310200151e-06   -3.0200959362165368e-05
-1.2071965224693863e-05   3.32421310200151e-06   -3.0200959362165368e-05
-1.387317376428262e-05   3.4355406100614744e-07   -1.6095486050429005e-05
-1.387317376428262e-05   3.4355406100614744e-07   -1.6095486050429005e-05
-1.387317376428262e-05   3.4355406100614744e-07   -1.6095486050429005e-05
-1.387317376428262e-05   3.4355406100614744e-07   -1.6095486050429005e-05
-1.6810944515941503e-05   3.0656866090411194e-06   -1.935849110770607e-05
-1.6810944515941503e-05   3.0656866090411194e-06   -1.935849110770607e-05
-1.6810944515941503e-05   3.0656866090411194e-06   -1.935849110770607e-05
-1.6810944515941503e-05   3.0656866090411194e-06   -1.935849110770607e-05
-1.5214116000060787e-05   1.2099964157136732e-06   -1.32646440225378e-05
-1.5214116000060787e-05   1.2099964157136732e-06   -1.32646440225378e-05
-1.5214116000060787e-05   1.2099964157136732e-06   -1.32646440225378e-05
-1.5214116000060787e-05   1.2099964157136732e-06   -1.32646440225378e-05
-1.3424465148963345e-05   3.995341493062687e-06   -1.7918602487442545e-05
-1.3424465148963345e-05   3.995341493062687e-06   -1.7918602487442545e-05
-1.3424465148963345e-05   3.995341493062687e-06   -1.7918602487442545e-05
-1.3424465148963345e-05   3.995341493062687e-06   -1.7918602487442545e-05
-1.4230467983679265e-05   2.265874432456341e-06   -1.5537584193219282e-05
-1.4230467983679265e-05   2.265874432456341e-06   -1.5537584193219282e-05
-1.4230467983679265e-05   2.265874432456341e-06   -1.5537584193219282e-05
-1.4230467983679265e-05   2.265874432456341e-06   -1.5537584193219282e-05
-1.3424465148963318e-05   1.2099964157136732e-06   -1.4935851068946862e-05
-1.3424465148963318e-05   1.2099964157136732e-06   -1.4935851068946862e-05
-1.3424465148963318e-05   1.2099964157136732e-06   -1.4935851068946862e-05
-1.3424465148963318e-05   1.2099964157136732e-06   -1.4935851068946862e-05
-1.5214116000060787e-05   3.995341493062687e-06   -1.6247395441033484e-05
-1.5214116000060787e-05   3.995341493062687e-06   -1.6247395441033484e-05
-1.5214116000060787e-05   3.995341493062687e-06   -1.6247395441033484e-05
-1.5214116000060787e-05   3.995341493062687e-06   -1.6247395441033484e-05
-1.3915319738854132e-05   1.6971720436863118e-06   -1.3044381757326522e-05
-1.3915319738854132e-05   1.6971720436863118e-06   -1.3044381757326522e-05
-1.3915319738854132e-05   1.6971720436863118e-06   -1.3044381757326522e-05
-1.3915319738854132e-05   1.6971720436863118e-06   -1.3044381757326522e-05
-1.2844108917839809e-05   4.4209840627776505e-06   -1.6464020337138437e-05
-1.2844108917839809e-05   4.4209840627776505e-06   -1.6464020337138437e-05
-1.2844108917839809e-05   4.4209840627776505e-06   -1.6464020337138437e-05
-1.2844108917839809e-05   4.4209840627776505e-06   -1.6464020337138437e-05
-1.3549913765931344e-05   2.696534550556762e-06   -1.425300921632024e-05
-1.3549913765931344e-05   2.696534550556762e-06   -1.425300921632024e-05
-1.3549913765931344e-05   2.696534550556762e-06   -1.425300921632024e-05
-1.3549913765931344e-05   2.696534550556762e-06   -1.425300921632024e-05
-1.2844108917839796e-05   1.6971720436863118e-06   -1.4678668968781206e-05
-1.2844108917839796e-05   1.6971720436863118e-06   -1.4678668968781206e-05
-1.2844108917839796e-05   1.6971720436863118e-06   -1.4678668968781206e-05
-1.2844108917839796e-05   1.6971720436863118e-06   -1.4678668968781206e-05
-1.3915319738854186e-05   4.4209840627776505e-06   -1.482973312568359e-05
-1.3915319738854186e-05   4.4209840627776505e-06   -1.482973312568359e-05
-1.3915319738854186e-05   4.4209840627776505e-06   -1.482973312568359e-05
-1.3915319738854186e-05   4.4209840627776505e-06   -1.482973312568359e-05
-1.2326290346680594e-05   2.5606034934524523e-06   -1.3452521723574993e-05
-1.2326290346680594e-05   2.5606034934524523e-06   -1.3452521723574993e-05
-1.2326290346680594e-05   2.5606034934524523e-06   -1.3452521723574993e-05
-1.2326290346680594e-05   2.5606034934524523e-06   -1.3452521723574993e-05
-1.2388308386423281e-05   5.079934322245287e-06   -1.4860756821279261e-05
-1.2388308386423281e-05   5.079934322245287e-06   -1.4860756821279261e-05
-1.2388308386423281e-05   5.079934322245287e-06   -1.4860756821279261e-05
-1.2388308386423281e-05   5.079934322245287e-06   -1.4860756821279261e-05
-1.2546904878603198e-05   3.0443028238616963e-06   -1.3375050435282673e-05
-1.2546904878603198e-05   3.0443028238616963e-06   -1.3375050435282673e-05
-1.2546904878603198e-05   3.0443028238616963e-06   -1.3375050435282673e-05
-1.2546904878603198e-05   3.0443028238616963e-06   -1.3375050435282673e-05
8.183374358114047e-06   -8.093037878985354e-07   -8.35621461977654e-06
8.183374358114047e-06   -8.093037878985354e-07   -8.35621461977654e-06
8.183374358114047e-06   -8.093037878985354e-07   -8.35621461977654e-06
8.183374358114047e-06   -8.093037878985354e-07   -8.35621461977654e-06
8.419758801333902e-07   -3.3987595462990627e-06   -2.21455522047845e-05
8.419758801333902e-07   -3.3987595462990627e-06   -2.21455522047845e-05
8.419758801333902e-07   -3.3987595462990627e-06   -2.21455522047845e-05
8.419758801333902e-07   -3.3987595462990627e-06   -2.21455522047845e-05
1.4823917272466388e-06   -2.6255234648062467e-08   -9.23463077419774e-06
1.4823917272466388e-06   -2.6255234648062467e-08   -9.23463077419774e-06
1.4823917272466388e-06   -2.6255234648062467e-08   -9.23463077419774e-06
1.4823917272466388e-06   -2.6255234648062467e-08   -9.23463077419774e-06
9.974843163795236e-06   -2.7933599569425743e-06   -2.1728453668401937e-05
9.974843163795236e-06   -2.7933599569425743e-06   -2.1728453668401937e-05
9.974843163795236e-06   -2.7933599569425743e-06   -2.1728453668401937e-05
9.974843163795236e-06   -2.7933599569425743e-06   -2.1728453668401937e-05
4.9296788171673865e-06   -1.4186701246440272e-06   -1.4144660323401486e-05
4.9296788171673865e-06   -1.4186701246440272e-06   -1.4144660323401486e-05
4.9296788171673865e-06   -1.4186701246440272e-06   -1.4144660323401486e-05
4.9296788171673865e-06   -1.4186701246440272e-06   -1.4144660323401486e-05
9.974843163795236e-06   -2.6255234648062467e-08   -7.5743679408210324e-06
9.974843163795236e-06   -2.6255234648062467e-08   -7.5743679408210324e-06
9.974843163795236e-06   -2.6255234648062467e-08   -7.5743679408210324e-06
9.974843163795236e-06   -2.6255234648062467e-08   -7.5743679408210324e-06
1.4823917272466388e-06   -2.7933599569425743e-06   -2.3388716501778753e-05
1.4823917272466388e-06   -2.7933599569425743e-06   -2.3388716501778753e-05
1.4823917272466388e-06   -2.7933599569425743e-06   -2.3388716501778753e-05
1.4823917272466388e-06   -2.7933599569425743e-06   -2.3388716501778753e-05
2.2374736493814475e-06   4.169901840166395e-07   -9.306320319578745e-06
2.2374736493814475e-06   4.169901840166395e-07   -9.306320319578745e-06
2.2374736493814475e-06   4.169901840166395e-07   -9.306320319578745e-06
2.2374736493814475e-06   4.169901840166395e-07   -9.306320319578745e-06
1.1488637628679548e-05   -2.389427314454214e-06   -2.3041076452659428e-05
1.1488637628679548e-05   -2.389427314454214e-06   -2.3041076452659428e-05
1.1488637628679548e-05   -2.389427314454214e-06   -2.3041076452659428e-05
1.1488637628679548e-05   -2.389427314454214e-06   -2.3041076452659428e-05
6.06571493893404e-06   -1.1355832085746228e-06   -1.4755178433278817e-05
6.06571493893404e-06   -1.1355832085746228e-06   -1.4755178433278817e-05
6.06571493893404e-06   -1.1355832085746228e-06   -1.4755178433278817e-05
6.06571493893404e-06   -1.1355832085746228e-06   -1.4755178433278817e-05
1.1488637628679548e-05   4.169901840166395e-07   -7.622469820496027e-06
1.1488637628679548e-05   4.169901840166395e-07   -7.622469820496027e-06
1.1488637628679548e-05   4.169901840166395e-07   -7.622469820496027e-06
1.1488637628679548e-05   4.169901840166395e-07   -7.622469820496027e-06
2.2374736493814475e-06   -2.389427314454214e-06   -2.4724926951741983e-05
2.2374736493814475e-06   -2.389427314454214e-06   -2.4724926951741983e-05
2.2374736493814475e-06   -2.389427314454214e-06   -2.4724926951741983e-05
2.2374736493814475e-06   -2.389427314454214e-06   -2.4724926951741983e-05
2.8586963267183236e-06   1.3009151450850149e-06   -1.0199823267087764e-05
2.8586963267183236e-06   1.3009151450850149e-06   -1.0199823267087764e-05
2.8586963267183236e-06   1.3009151450850149e-06   -1.0199823267087764e-05
2.8586963267183236e-06   1.3009151450850149e-06   -1.0199823267087764e-05
1.3307125254826313e-05   -1.371933594400583e-06   -2.6010162236909593e-05
1.3307125254826313e-05   -1.371933594400583e-06   -2.6010162236909593e-05
1.3307125254826313e-05   -1.371933594400583e-06   -2.6010162236909593e-05
1.3307125254826313e-05   -1.371933594400583e-06   -2.6010162236909593e-05
6.9687370188549545e-06   -7.195919885974022e-07   -1.5837586807105556e-05
6.9687370188549545e-06   -7.195919885974022e-07   -1.5837586807105556e-05
6.9687370188549545e-06   -7.195919885974022e-07   -1.5837586807105556e-05
6.9687370188549545e-06   -7.195919885974022e-07   -1.5837586807105556e-05
8.419758801333902e-07   -1.743838449349243e-07   -2.4076723664698306e-05
8.419758801333902e-07   -1.743838449349243e-07   -2.4076723664698306e-05
8.419758801333902e-07   -1.743838449349243e-07   -2.4076723664698306e-05
8.419758801333902e-07   -1.743838449349243e-07   -2.4076723664698306e-05
-7.719458115547652e-06   -1.3430486347362162e-06   -3.9046979198047345e-05
-7.719458115547652e-06   -1.3430486347362162e-06   -3.9046979198047345e-05
-7.719458115547652e-06   -1.3430486347362162e-06   -3.9046979198047345e-05
-7.719458115547652e-06   -1.3430486347362162e-06   -3.9046979198047345e-05
-7.157974436062221e-06   8.138104485534356e-07   -2.421273980357584e-05
-7.157974436062221e-06   8.138104485534356e-07   -2.421273980357584e-05
-7.157974436062221e-06   8.138104485534356e-07   -2.421273980357584e-05
-7.157974436062221e-06   8.138104485534356e-07   -2.421273980357584e-05
1.4823917272466388e-06   -5.126778688140706e-07   -3.781745708533691e-05
1.4823917272466388e-06   -5.126778688140706e-07   -3.781745708533691e-05
1.4823917272466388e-06   -5.126778688140706e-07   -3.781745708533691e-05
1.4823917272466388e-06   -5.126778688140706e-07   -3.781745708533691e-05
-3.0658176382002405e-06   -4.9693591044853644e-08   -3.0514898709586825e-05
-3.0658176382002405e-06   -4.9693591044853644e-08   -3.0514898709586825e-05
-3.0658176382002405e-06   -4.9693591044853644e-08   -3.0514898709586825e-05
-3.0658176382002405e-06   -4.9693591044853644e-08   -3.0514898709586825e-05
1.4823917272466659e-06   8.138104485532188e-07   -2.341684681315514e-05
1.4823917272466659e-06   8.138104485532188e-07   -2.341684681315514e-05
1.4823917272466659e-06   8.138104485532188e-07   -2.341684681315514e-05
1.4823917272466659e-06   8.138104485532188e-07   -2.341684681315514e-05
-7.157974436062221e-06   -5.126778688140706e-07   -3.861335007575729e-05
-7.157974436062221e-06   -5.126778688140706e-07   -3.861335007575729e-05
-7.157974436062221e-06   -5.126778688140706e-07   -3.861335007575729e-05
-7.157974436062221e-06   -5.126778688140706e-07   -3.861335007575729e-05
-6.5932768527649795e-06   1.7654089880516852e-06   -2.4249442684156535e-05
-6.5932768527649795e-06   1.7654089880516852e-06   -2.4249442684156535e-05
-6.5932768527649795e-06   1.7654089880516852e-06   -2.4249442684156535e-05
-6.5932768527649795e-06   1.7654089880516852e-06   -2.4249442684156535e-05
2.2374736493814475e-06   3.460575864774971e-07   -3.811574934678929e-05
2.2374736493814475e-06   3.460575864774971e-07   -3.811574934678929e-05
2.2374736493814475e-06   3.460575864774971e-07   -3.811574934678929e-05
2.2374736493814475e-06   3.460575864774971e-07   -3.811574934678929e-05
-2.56867467581613e-06   6.325356954037025e-07   -3.0277389003482416e-05
-2.56867467581613e-06   6.325356954037025e-07   -3.0277389003482416e-05
-2.56867467581613e-06   6.325356954037025e-07   -3.0277389003482416e-05
-2.56867467581613e-06   6.325356954037025e-07   -3.0277389003482416e-05
2.2374736493814475e-06   1.7654089880516852e-06   -2.3397831843211913e-05
2.2374736493814475e-06   1.7654089880516852e-06   -2.3397831843211913e-05
2.2374736493814475e-06   1.7654089880516852e-06   -2.3397831843211913e-05
2.2374736493814475e-06   1.7654089880516852e-06   -2.3397831843211913e-05
-6.5932768527649795e-06   3.460575864774971e-07   -3.89673601877338e-05
-6.5932768527649795e-06   3.460575864774971e-07   -3.89673601877338e-05
-6.5932768527649795e-06   3.460575864774971e-07   -3.89673601877338e-05
-6.5932768527649795e-06   3.460575864774971e-07   -3.89673601877338e-05
-6.0538187122821506e-06   2.8522250952523528e-06   -2.485739328851903e-05
-6.0538187122821506e-06   2.8522250952523528e-06   -2.485739328851903e-05
-6.0538187122821506e-06   2.8522250952523528e-06   -2.485739328851903e-05
-6.0538187122821506e-06   2.8522250952523528e-06   -2.485739328851903e-05
2.8586963267183236e-06   1.3631934813445462e-06   -3.881816605184191e-05
2.8586963267183236e-06   1.3631934813445462e-06   -3.881816605184191e-05
2.8586963267183236e-06   1.3631934813445462e-06   -3.881816605184191e-05
2.8586963267183236e-06   1.3631934813445462e-06   -3.881816605184191e-05
-2.0148943491305046e-06   1.388965330785313e-06   -3.071097803509159e-05
-2.0148943491305046e-06   1.388965330785313e-06   -3.071097803509159e-05
-2.0148943491305046e-06   1.388965330785313e-06   -3.071097803509159e-05
-2.0148943491305046e-06   1.388965330785313e-06   -3.071097803509159e-05
-7.719458115547679e-06   8.207857206889331e-07   -2.9148931433204423e-05
-7.719458115547679e-06   8.207857206889331e-07   -2.9148931433204423e-05
-7.719458115547679e-06   8.207857206889331e-07   -2.9148931433204423e-05
-7.719458115547679e-06   8.207857206889331e-07   -2.9148931433204423e-05
-1.6206045437879645e-05   1.0345803215050606e-06   -4.3164966876601185e-05
-1.6206045437879645e-05   1.0345803215050606e-06   -4.3164966876601185e-05
-1.6206045437879645e-05   1.0345803215050606e-06   -4.3164966876601185e-05
-1.6206045437879645e-05   1.0345803215050606e-06   -4.3164966876601185e-05
-1.5640634751492036e-05   1.8424087951567428e-06   -2.8626316508769192e-05
-1.5640634751492036e-05   1.8424087951567428e-06   -2.8626316508769192e-05
-1.5640634751492036e-05   1.8424087951567428e-06   -2.8626316508769192e-05
-1.5640634751492036e-05   1.8424087951567428e-06   -2.8626316508769192e-05
-7.157974436062235e-06   1.913357737021084e-06   -4.280665306627136e-05
-7.157974436062235e-06   1.913357737021084e-06   -4.280665306627136e-05
-7.157974436062235e-06   1.913357737021084e-06   -4.280665306627136e-05
-7.157974436062235e-06   1.913357737021084e-06   -4.280665306627136e-05
-1.1613405946461734e-05   1.5819972309015452e-06   -3.5182117578600315e-05
-1.1613405946461734e-05   1.5819972309015452e-06   -3.5182117578600315e-05
-1.1613405946461734e-05   1.5819972309015452e-06   -3.5182117578600315e-05
-1.1613405946461734e-05   1.5819972309015452e-06   -3.5182117578600315e-05
-7.157974436062235e-06   1.8424087951567428e-06   -2.8668885873888227e-05
-7.157974436062235e-06   1.8424087951567428e-06   -2.8668885873888227e-05
-7.157974436062235e-06   1.8424087951567428e-06   -2.8668885873888227e-05
-7.157974436062235e-06   1.8424087951567428e-06   -2.8668885873888227e-05
-1.564063475149201e-05   1.913357737021301e-06   -4.2764083701152494e-05
-1.564063475149201e-05   1.913357737021301e-06   -4.2764083701152494e-05
-1.564063475149201e-05   1.913357737021301e-06   -4.2764083701152494e-05
-1.564063475149201e-05   1.913357737021301e-06   -4.2764083701152494e-05
-1.5066049747188663e-05   2.8864519183346895e-06   -2.8700439716056528e-05
-1.5066049747188663e-05   2.8864519183346895e-06   -2.8700439716056528e-05
-1.5066049747188663e-05   2.8864519183346895e-06   -2.8700439716056528e-05
-1.5066049747188663e-05   2.8864519183346895e-06   -2.8700439716056528e-05
-6.593276852764993e-06   2.8436366780856728e-06   -4.27960387292802e-05
-6.593276852764993e-06   2.8436366780856728e-06   -4.27960387292802e-05
-6.593276852764993e-06   2.8436366780856728e-06   -4.27960387292802e-05
-6.593276852764993e-06   2.8436366780856728e-06   -4.27960387292802e-05
-1.1115992749914031e-05   2.349192872406103e-06   -3.496151261729114e-05
-1.1115992749914031e-05   2.349192872406103e-06   -3.496151261729114e-05
-1.1115992749914031e-05   2.349192872406103e-06   -3.496151261729114e-05
-1.1115992749914031e-05   2.349192872406103e-06   -3.496151261729114e-05
-6.593276852764993e-06   2.8864519183346895e-06   -2.8674750571907398e-05
-6.593276852764993e-06   2.8864519183346895e-06   -2.8674750571907398e-05
-6.593276852764993e-06   2.8864519183346895e-06   -2.8674750571907398e-05
-6.593276852764993e-06   2.8864519183346895e-06   -2.8674750571907398e-05
-1.5066049747188642e-05   2.8436366780856728e-06   -4.282172787342924e-05
-1.5066049747188642e-05   2.8436366780856728e-06   -4.282172787342924e-05
-1.5066049747188642e-05   2.8436366780856728e-06   -4.282172787342924e-05
-1.5066049747188642e-05   2.8436366780856728e-06   -4.282172787342924e-05
-1.4518165826842945e-05   3.9449627535497085e-06   -2.9345384336795744e-05
-1.4518165826842945e-05   3.9449627535497085e-06   -2.9345384336795744e-05
-1.4518165826842945e-05   3.9449627535497085e-06   -2.9345384336795744e-05
-1.4518165826842945e-05   3.9449627535497085e-06   -2.9345384336795744e-05
-6.0538187122821506e-06   3.790006727452406e-06   -4.335965591207192e-05
-6.0538187122821506e-06   3.790006727452406e-06   -4.335965591207192e-05
-6.0538187122821506e-06   3.790006727452406e-06   -4.335965591207192e-05
-6.0538187122821506e-06   3.790006727452406e-06   -4.335965591207192e-05
-1.0653356020944341e-05   3.1280533128139358e-06   -3.5296588348851824e-05
-1.0653356020944341e-05   3.1280533128139358e-06   -3.5296588348851824e-05
-1.0653356020944341e-05   3.1280533128139358e-06   -3.5296588348851824e-05
-1.0653356020944341e-05   3.1280533128139358e-06   -3.5296588348851824e-05
-1.620604543787968e-05   1.8237779873223232e-06   -2.4504283859076972e-05
-1.620604543787968e-05   1.8237779873223232e-06   -2.4504283859076972e-05
-1.620604543787968e-05   1.8237779873223232e-06   -2.4504283859076972e-05
-1.620604543787968e-05   1.8237779873223232e-06   -2.4504283859076972e-05
-2.4593633120537672e-05   3.3428622255790574e-06   -3.757214612055298e-05
-2.4593633120537672e-05   3.3428622255790574e-06   -3.757214612055298e-05
-2.4593633120537672e-05   3.3428622255790574e-06   -3.757214612055298e-05
-2.4593633120537672e-05   3.3428622255790574e-06   -3.757214612055298e-05
-2.3947436524861214e-05   2.848978257254456e-06   -2.3076166490779517e-05
-2.3947436524861214e-05   2.848978257254456e-06   -2.3076166490779517e-05
-2.3947436524861214e-05   2.848978257254456e-06   -2.3076166490779517e-05
-2.3947436524861214e-05   2.848978257254456e-06   -2.3076166490779517e-05
-1.564063475149201e-05   4.280890016754475e-06   -3.777998316876162e-05
-1.564063475149201e-05   4.280890016754475e-06   -3.777998316876162e-05
-1.564063475149201e-05   4.280890016754475e-06   -3.777998316876162e-05
-1.564063475149201e-05   4.280890016754475e-06   -3.777998316876162e-05
-1.9957710849716688e-05   3.195836674609151e-06   -2.9933824333099935e-05
-1.9957710849716688e-05   3.195836674609151e-06   -2.9933824333099935e-05
-1.9957710849716688e-05   3.195836674609151e-06   -2.9933824333099935e-05
-1.9957710849716688e-05   3.195836674609151e-06   -2.9933824333099935e-05
-1.5640634751492036e-05   2.848978257254239e-06   -2.3935313546479626e-05
-1.5640634751492036e-05   2.848978257254239e-06   -2.3935313546479626e-05
-1.5640634751492036e-05   2.848978257254239e-06   -2.3935313546479626e-05
-1.5640634751492036e-05   2.848978257254239e-06   -2.3935313546479626e-05
-2.3947436524861247e-05   4.2808900167542584e-06   -3.6920836113062e-05
-2.3947436524861247e-05   4.2808900167542584e-06   -3.6920836113062e-05
-2.3947436524861247e-05   4.2808900167542584e-06   -3.6920836113062e-05
-2.3947436524861247e-05   4.2808900167542584e-06   -3.6920836113062e-05
-2.3173295496758467e-05   3.794587577152621e-06   -2.2861700229138992e-05
-2.3173295496758467e-05   3.794587577152621e-06   -2.2861700229138992e-05
-2.3173295496758467e-05   3.794587577152621e-06   -2.2861700229138992e-05
-2.3173295496758467e-05   3.794587577152621e-06   -2.2861700229138992e-05
-1.5066049747188663e-05   5.125700571338059e-06   -3.717244427493317e-05
-1.5066049747188663e-05   5.125700571338059e-06   -3.717244427493317e-05
-1.5066049747188663e-05   5.125700571338059e-06   -3.717244427493317e-05
-1.5066049747188663e-05   5.125700571338059e-06   -3.717244427493317e-05
-1.9306225163978843e-05   3.936627459024474e-06   -2.9392041379561825e-05
-1.9306225163978843e-05   3.936627459024474e-06   -2.9392041379561825e-05
-1.9306225163978843e-05   3.936627459024474e-06   -2.9392041379561825e-05
-1.9306225163978843e-05   3.936627459024474e-06   -2.9392041379561825e-05
-1.5066049747188663e-05   3.794587577152621e-06   -2.366036802565021e-05
-1.5066049747188663e-05   3.794587577152621e-06   -2.366036802565021e-05
-1.5066049747188663e-05   3.794587577152621e-06   -2.366036802565021e-05
-1.5066049747188663e-05   3.794587577152621e-06   -2.366036802565021e-05
-2.3173295496758467e-05   5.125700571338059e-06   -3.637377647842195e-05
-2.3173295496758467e-05   5.125700571338059e-06   -3.637377647842195e-05
-2.3173295496758467e-05   5.125700571338059e-06   -3.637377647842195e-05
-2.3173295496758467e-05   5.125700571338059e-06   -3.637377647842195e-05
-2.2528452741008276e-05   4.854083142125662e-06   -2.349440375755494e-05
-2.2528452741008276e-05   4.854083142125662e-06   -2.349440375755494e-05
-2.2528452741008276e-05   4.854083142125662e-06   -2.349440375755494e-05
-2.2528452741008276e-05   4.854083142125662e-06   -2.349440375755494e-05
-1.4518165826842945e-05   6.070644952248239e-06   -3.757481903390414e-05
-1.4518165826842945e-05   6.070644952248239e-06   -3.757481903390414e-05
-1.4518165826842945e-05   6.070644952248239e-06   -3.757481903390414e-05
-1.4518165826842945e-05   6.070644952248239e-06   -3.757481903390414e-05
-1.8870594384410604e-05   4.666369861696675e-06   -2.9478206383626976e-05
-1.8870594384410604e-05   4.666369861696675e-06   -2.9478206383626976e-05
-1.8870594384410604e-05   4.666369861696675e-06   -2.9478206383626976e-05
-1.8870594384410604e-05   4.666369861696675e-06   -2.9478206383626976e-05
-2.4593633120537672e-05   3.0656866090411194e-06   -1.2673430987583884e-05
-2.4593633120537672e-05   3.0656866090411194e-06   -1.2673430987583884e-05
-2.4593633120537672e-05   3.0656866090411194e-06   -1.2673430987583884e-05
-2.4593633120537672e-05   3.0656866090411194e-06   -1.2673430987583884e-05
-3.415512998961162e-05   5.747579758409423e-06   -2.7000123213086332e-05
-3.415512998961162e-05   5.747579758409423e-06   -2.7000123213086332e-05
-3.415512998961162e-05   5.747579758409423e-06   -2.7000123213086332e-05
-3.415512998961162e-05   5.747579758409423e-06   -2.7000123213086332e-05
-3.237649890496471e-05   3.995341493062687e-06   -7.960276428777436e-06
-3.237649890496471e-05   3.995341493062687e-06   -7.960276428777436e-06
-3.237649890496471e-05   3.995341493062687e-06   -7.960276428777436e-06
-3.237649890496471e-05   3.995341493062687e-06   -7.960276428777436e-06
-2.3947436524861214e-05   6.721672620393308e-06   -2.364451240534826e-05
-2.3947436524861214e-05   6.721672620393308e-06   -2.364451240534826e-05
-2.3947436524861214e-05   6.721672620393308e-06   -2.364451240534826e-05
-2.3947436524861214e-05   6.721672620393308e-06   -2.364451240534826e-05
-2.7597829163978038e-05   4.993596047909608e-06   -1.6523678729996744e-05
-2.7597829163978038e-05   4.993596047909608e-06   -1.6523678729996744e-05
-2.7597829163978038e-05   4.993596047909608e-06   -1.6523678729996744e-05
-2.7597829163978038e-05   4.993596047909608e-06   -1.6523678729996744e-05
-2.394743652486124e-05   3.995341493062687e-06   -9.59607510517583e-06
-2.394743652486124e-05   3.995341493062687e-06   -9.59607510517583e-06
-2.394743652486124e-05   3.995341493062687e-06   -9.59607510517583e-06
-2.394743652486124e-05   3.995341493062687e-06   -9.59607510517583e-06
-3.237649890496457e-05   6.721672620393308e-06   -2.2008713728950084e-05
-3.237649890496457e-05   6.721672620393308e-06   -2.2008713728950084e-05
-3.237649890496457e-05   6.721672620393308e-06   -2.2008713728950084e-05
-3.237649890496457e-05   6.721672620393308e-06   -2.2008713728950084e-05
-3.090646340845262e-05   4.4209840627776505e-06   -6.530205930674131e-06
-3.090646340845262e-05   4.4209840627776505e-06   -6.530205930674131e-06
-3.090646340845262e-05   4.4209840627776505e-06   -6.530205930674131e-06
-3.090646340845262e-05   4.4209840627776505e-06   -6.530205930674131e-06
-2.3173295496758434e-05   7.0707737349208315e-06   -2.100869292011678e-05
-2.3173295496758434e-05   7.0707737349208315e-06   -2.100869292011678e-05
-2.3173295496758434e-05   7.0707737349208315e-06   -2.100869292011678e-05
-2.3173295496758434e-05   7.0707737349208315e-06   -2.100869292011678e-05
-2.694775127363797e-05   5.431946276062685e-06   -1.3734636816669493e-05
-2.694775127363797e-05   5.431946276062685e-06   -1.3734636816669493e-05
-2.694775127363797e-05   5.431946276062685e-06   -1.3734636816669493e-05
-2.694775127363797e-05   5.431946276062685e-06   -1.3734636816669493e-05
-2.3173295496758467e-05   4.4209840627776505e-06   -8.120079733959964e-06
-2.3173295496758467e-05   4.4209840627776505e-06   -8.120079733959964e-06
-2.3173295496758467e-05   4.4209840627776505e-06   -8.120079733959964e-06
-2.3173295496758467e-05   4.4209840627776505e-06   -8.120079733959964e-06
-3.090646340845257e-05   7.0707737349208315e-06   -1.9418819116831e-05
-3.090646340845257e-05   7.0707737349208315e-06   -1.9418819116831e-05
-3.090646340845257e-05   7.0707737349208315e-06   -1.9418819116831e-05
-3.090646340845257e-05   7.0707737349208315e-06   -1.9418819116831e-05
-2.9167421359305032e-05   5.07993432224507e-06   -5.032185550531837e-06
-2.9167421359305032e-05   5.07993432224507e-06   -5.032185550531837e-06
-2.9167421359305032e-05   5.07993432224507e-06   -5.032185550531837e-06
-2.9167421359305032e-05   5.07993432224507e-06   -5.032185550531837e-06
-2.2528452741008256e-05   7.512862040054457e-06   -1.7556889878378294e-05
-2.2528452741008256e-05   7.512862040054457e-06   -1.7556889878378294e-05
-2.2528452741008256e-05   7.512862040054457e-06   -1.7556889878378294e-05
-2.2528452741008256e-05   7.512862040054457e-06   -1.7556889878378294e-05
-2.5565449243996228e-05   5.643401056380868e-06   -1.1373552449861425e-05
-2.5565449243996228e-05   5.643401056380868e-06   -1.1373552449861425e-05
-2.5565449243996228e-05   5.643401056380868e-06   -1.1373552449861425e-05
-2.5565449243996228e-05   5.643401056380868e-06   -1.1373552449861425e-05
2.59162666391106e-05   -3.3987595462990627e-06   -1.768005795876014e-07
2.59162666391106e-05   -3.3987595462990627e-06   -1.768005795876014e-07
2.59162666391106e-05   -3.3987595462990627e-06   -1.768005795876014e-07
2.59162666391106e-05   -3.3987595462990627e-06   -1.768005795876014e-07
1.1041770778852573e-05   -6.1284202601476385e-06   -2.660542344165985e-05
1.1041770778852573e-05   -6.1284202601476385e-06   -2.660542344165985e-05
1.1041770778852573e-05   -6.1284202601476385e-06   -2.660542344165985e-05
1.1041770778852573e-05   -6.1284202601476385e-06   -2.660542344165985e-05
1.1822753827945334e-05   -2.7933599569425743e-06   -2.9050428434207465e-06
1.1822753827945334e-05   -2.7933599569425743e-06   -2.9050428434207465e-06
1.1822753827945334e-05   -2.7933599569425743e-06   -2.9050428434207465e-06
1.1822753827945334e-05   -2.7933599569425743e-06   -2.9050428434207465e-06
2.7874234852458984e-05   -5.699742989508094e-06   -2.791368139807085e-05
2.7874234852458984e-05   -5.699742989508094e-06   -2.791368139807085e-05
2.7874234852458984e-05   -5.699742989508094e-06   -2.791368139807085e-05
2.7874234852458984e-05   -5.699742989508094e-06   -2.791368139807085e-05
1.8390779528731e-05   -4.039787458156902e-06   -1.3103895844001397e-05
1.8390779528731e-05   -4.039787458156902e-06   -1.3103895844001397e-05
1.8390779528731e-05   -4.039787458156902e-06   -1.3103895844001397e-05
1.8390779528731e-05   -4.039787458156902e-06   -1.3103895844001397e-05
2.7874234852459092e-05   -2.7933599569425743e-06   -1.1612130238813695e-06
2.7874234852459092e-05   -2.7933599569425743e-06   -1.1612130238813695e-06
2.7874234852459092e-05   -2.7933599569425743e-06   -1.1612130238813695e-06
2.7874234852459092e-05   -2.7933599569425743e-06   -1.1612130238813695e-06
1.1822753827945307e-05   -5.699742989508094e-06   -2.9657511217610227e-05
1.1822753827945307e-05   -5.699742989508094e-06   -2.9657511217610227e-05
1.1822753827945307e-05   -5.699742989508094e-06   -2.9657511217610227e-05
1.1822753827945307e-05   -5.699742989508094e-06   -2.9657511217610227e-05
1.2687990675935027e-05   -2.389427314454214e-06   -4.1016325433333115e-06
1.2687990675935027e-05   -2.389427314454214e-06   -4.1016325433333115e-06
1.2687990675935027e-05   -2.389427314454214e-06   -4.1016325433333115e-06
1.2687990675935027e-05   -2.389427314454214e-06   -4.1016325433333115e-06
2.951873409755653e-05   -5.331004710295434e-06   -3.03879251418648e-05
2.951873409755653e-05   -5.331004710295434e-06   -3.03879251418648e-05
2.951873409755653e-05   -5.331004710295434e-06   -3.03879251418648e-05
2.951873409755653e-05   -5.331004710295434e-06   -3.03879251418648e-05
1.986131302516791e-05   -3.875632849049829e-06   -1.5165446471297685e-05
1.986131302516791e-05   -3.875632849049829e-06   -1.5165446471297685e-05
1.986131302516791e-05   -3.875632849049829e-06   -1.5165446471297685e-05
1.986131302516791e-05   -3.875632849049829e-06   -1.5165446471297685e-05
2.9518734097556585e-05   -2.389427314454214e-06   -2.33668610582897e-06
2.9518734097556585e-05   -2.389427314454214e-06   -2.33668610582897e-06
2.9518734097556585e-05   -2.389427314454214e-06   -2.33668610582897e-06
2.9518734097556585e-05   -2.389427314454214e-06   -2.33668610582897e-06
1.2687990675935e-05   -5.331004710295434e-06   -3.215287157936925e-05
1.2687990675935e-05   -5.331004710295434e-06   -3.215287157936925e-05
1.2687990675935e-05   -5.331004710295434e-06   -3.215287157936925e-05
1.2687990675935e-05   -5.331004710295434e-06   -3.215287157936925e-05
1.3402959996382577e-05   -1.371933594400583e-06   -6.862260816196605e-06
1.3402959996382577e-05   -1.371933594400583e-06   -6.862260816196605e-06
1.3402959996382577e-05   -1.371933594400583e-06   -6.862260816196605e-06
1.3402959996382577e-05   -1.371933594400583e-06   -6.862260816196605e-06
3.1428224836668175e-05   -4.165272161028508e-06   -3.5228365743362675e-05
3.1428224836668175e-05   -4.165272161028508e-06   -3.5228365743362675e-05
3.1428224836668175e-05   -4.165272161028508e-06   -3.5228365743362675e-05
3.1428224836668175e-05   -4.165272161028508e-06   -3.5228365743362675e-05
2.06572846137206e-05   -3.41987484293242e-06   -1.7724037095975158e-05
2.06572846137206e-05   -3.41987484293242e-06   -1.7724037095975158e-05
2.06572846137206e-05   -3.41987484293242e-06   -1.7724037095975158e-05
2.06572846137206e-05   -3.41987484293242e-06   -1.7724037095975158e-05
1.10417707788526e-05   -1.3430486347362162e-06   -1.8014825127278685e-05
1.10417707788526e-05   -1.3430486347362162e-06   -1.8014825127278685e-05
1.10417707788526e-05   -1.3430486347362162e-06   -1.8014825127278685e-05
1.10417707788526e-05   -1.3430486347362162e-06   -1.8014825127278685e-05
-4.700143308477409e-06   -2.8682810223590836e-06   -4.516648803873575e-05
-4.700143308477409e-06   -2.8682810223590836e-06   -4.516648803873575e-05
-4.700143308477409e-06   -2.8682810223590836e-06   -4.516648803873575e-05
-4.700143308477409e-06   -2.8682810223590836e-06   -4.516648803873575e-05
-3.973670748891363e-06   -5.126778688140706e-07   -1.8389569487616084e-05
-3.973670748891363e-06   -5.126778688140706e-07   -1.8389569487616084e-05
-3.973670748891363e-06   -5.126778688140706e-07   -1.8389569487616084e-05
-3.973670748891363e-06   -5.126778688140706e-07   -1.8389569487616084e-05
1.1822753827945334e-05   -2.2723213032095103e-06   -4.3661157721706966e-05
1.1822753827945334e-05   -2.2723213032095103e-06   -4.3661157721706966e-05
1.1822753827945334e-05   -2.2723213032095103e-06   -4.3661157721706966e-05
1.1822753827945334e-05   -2.2723213032095103e-06   -4.3661157721706966e-05
3.586765570930898e-06   -1.3865823185848754e-06   -3.046595401745751e-05
3.586765570930898e-06   -1.3865823185848754e-06   -3.046595401745751e-05
3.586765570930898e-06   -1.3865823185848754e-06   -3.046595401745751e-05
3.586765570930898e-06   -1.3865823185848754e-06   -3.046595401745751e-05
1.1822753827945334e-05   -5.126778688140706e-07   -1.733378342697869e-05
1.1822753827945334e-05   -5.126778688140706e-07   -1.733378342697869e-05
1.1822753827945334e-05   -5.126778688140706e-07   -1.733378342697869e-05
1.1822753827945334e-05   -5.126778688140706e-07   -1.733378342697869e-05
-3.97367074889135e-06   -2.272321303209944e-06   -4.4716943782343926e-05
-3.97367074889135e-06   -2.272321303209944e-06   -4.4716943782343926e-05
-3.97367074889135e-06   -2.272321303209944e-06   -4.4716943782343926e-05
-3.97367074889135e-06   -2.272321303209944e-06   -4.4716943782343926e-05
-3.28004560698181e-06   3.460575864774971e-07   -1.862642533936301e-05
-3.28004560698181e-06   3.460575864774971e-07   -1.862642533936301e-05
-3.28004560698181e-06   3.460575864774971e-07   -1.862642533936301e-05
-3.28004560698181e-06   3.460575864774971e-07   -1.862642533936301e-05
1.2687990675935e-05   -1.5438930818269248e-06   -4.4105848743241716e-05
1.2687990675935e-05   -1.5438930818269248e-06   -4.4105848743241716e-05
1.2687990675935e-05   -1.5438930818269248e-06   -4.4105848743241716e-05
1.2687990675935e-05   -1.5438930818269248e-06   -4.4105848743241716e-05
4.162929828006032e-06   -8.593331723891727e-07   -3.0308149942355348e-05
4.162929828006032e-06   -8.593331723891727e-07   -3.0308149942355348e-05
4.162929828006032e-06   -8.593331723891727e-07   -3.0308149942355348e-05
4.162929828006032e-06   -8.593331723891727e-07   -3.0308149942355348e-05
1.2687990675935027e-05   3.460575864774971e-07   -1.7492454938380263e-05
1.2687990675935027e-05   3.460575864774971e-07   -1.7492454938380263e-05
1.2687990675935027e-05   3.460575864774971e-07   -1.7492454938380263e-05
1.2687990675935027e-05   3.460575864774971e-07   -1.7492454938380263e-05
-3.28004560698181e-06   -1.5438930818269248e-06   -4.5239819144224434e-05
-3.28004560698181e-06   -1.5438930818269248e-06   -4.5239819144224434e-05
-3.28004560698181e-06   -1.5438930818269248e-06   -4.5239819144224434e-05
-3.28004560698181e-06   -1.5438930818269248e-06   -4.5239819144224434e-05
-2.6285839908381936e-06   1.3631934813445462e-06   -1.9260818890082156e-05
-2.6285839908381936e-06   1.3631934813445462e-06   -1.9260818890082156e-05
-2.6285839908381936e-06   1.3631934813445462e-06   -1.9260818890082156e-05
-2.6285839908381936e-06   1.3631934813445462e-06   -1.9260818890082156e-05
1.3402959996382577e-05   -6.272456897294179e-07   -4.4785795366139363e-05
1.3402959996382577e-05   -6.272456897294179e-07   -4.4785795366139363e-05
1.3402959996382577e-05   -6.272456897294179e-07   -4.4785795366139363e-05
1.3402959996382577e-05   -6.272456897294179e-07   -4.4785795366139363e-05
4.882099256441226e-06   -2.0899974221015496e-07   -3.083530836808221e-05
4.882099256441226e-06   -2.0899974221015496e-07   -3.083530836808221e-05
4.882099256441226e-06   -2.0899974221015496e-07   -3.083530836808221e-05
4.882099256441226e-06   -2.0899974221015496e-07   -3.083530836808221e-05
-4.700143308477409e-06   1.0345803215050606e-06   -2.3176228998896312e-05
-4.700143308477409e-06   1.0345803215050606e-06   -2.3176228998896312e-05
-4.700143308477409e-06   1.0345803215050606e-06   -2.3176228998896312e-05
-4.700143308477409e-06   1.0345803215050606e-06   -2.3176228998896312e-05
-2.0164769280735737e-05   5.254300980894397e-07   -4.9256095753376274e-05
-2.0164769280735737e-05   5.254300980894397e-07   -4.9256095753376274e-05
-2.0164769280735737e-05   5.254300980894397e-07   -4.9256095753376274e-05
-2.0164769280735737e-05   5.254300980894397e-07   -4.9256095753376274e-05
-1.9382853299468233e-05   1.913357737021084e-06   -2.3013930741273012e-05
-1.9382853299468233e-05   1.913357737021084e-06   -2.3013930741273012e-05
-1.9382853299468233e-05   1.913357737021084e-06   -2.3013930741273012e-05
-1.9382853299468233e-05   1.913357737021084e-06   -2.3013930741273012e-05
-3.97367074889135e-06   1.194927298449333e-06   -4.826484339575808e-05
-3.97367074889135e-06   1.194927298449333e-06   -4.826484339575808e-05
-3.97367074889135e-06   1.194927298449333e-06   -4.826484339575808e-05
-3.97367074889135e-06   1.194927298449333e-06   -4.826484339575808e-05
-1.1972894313463602e-05   1.4186509369788986e-06   -3.506703830458884e-05
-1.1972894313463602e-05   1.4186509369788986e-06   -3.506703830458884e-05
-1.1972894313463602e-05   1.4186509369788986e-06   -3.506703830458884e-05
-1.1972894313463602e-05   1.4186509369788986e-06   -3.506703830458884e-05
-3.973670748891363e-06   1.913357737021084e-06   -2.258287247812994e-05
-3.973670748891363e-06   1.913357737021084e-06   -2.258287247812994e-05
-3.973670748891363e-06   1.913357737021084e-06   -2.258287247812994e-05
-3.973670748891363e-06   1.913357737021084e-06   -2.258287247812994e-05
-1.9382853299468233e-05   1.194927298449333e-06   -4.869590165890126e-05
-1.9382853299468233e-05   1.194927298449333e-06   -4.869590165890126e-05
-1.9382853299468233e-05   1.194927298449333e-06   -4.869590165890126e-05
-1.9382853299468233e-05   1.194927298449333e-06   -4.869590165890126e-05
-1.862863438682041e-05   2.8436366780856728e-06   -2.297928129055358e-05
-1.862863438682041e-05   2.8436366780856728e-06   -2.297928129055358e-05
-1.862863438682041e-05   2.8436366780856728e-06   -2.297928129055358e-05
-1.862863438682041e-05   2.8436366780856728e-06   -2.297928129055358e-05
-3.28004560698181e-06   1.9700076620120938e-06   -4.80360851806401e-05
-3.28004560698181e-06   1.9700076620120938e-06   -4.80360851806401e-05
-3.28004560698181e-06   1.9700076620120938e-06   -4.80360851806401e-05
-3.28004560698181e-06   1.9700076620120938e-06   -4.80360851806401e-05
-1.130018951564141e-05   2.0454813854936396e-06   -3.471446290029658e-05
-1.130018951564141e-05   2.0454813854936396e-06   -3.471446290029658e-05
-1.130018951564141e-05   2.0454813854936396e-06   -3.471446290029658e-05
-1.130018951564141e-05   2.0454813854936396e-06   -3.471446290029658e-05
-3.28004560698181e-06   2.8436366780856728e-06   -2.245510388090926e-05
-3.28004560698181e-06   2.8436366780856728e-06   -2.245510388090926e-05
-3.28004560698181e-06   2.8436366780856728e-06   -2.245510388090926e-05
-3.28004560698181e-06   2.8436366780856728e-06   -2.245510388090926e-05
-1.862863438682041e-05   1.97000766201166e-06   -4.856026259028481e-05
-1.862863438682041e-05   1.97000766201166e-06   -4.856026259028481e-05
-1.862863438682041e-05   1.97000766201166e-06   -4.856026259028481e-05
-1.862863438682041e-05   1.97000766201166e-06   -4.856026259028481e-05
-1.7931703537977084e-05   3.790006727452406e-06   -2.3520301252636733e-05
-1.7931703537977084e-05   3.790006727452406e-06   -2.3520301252636733e-05
-1.7931703537977084e-05   3.790006727452406e-06   -2.3520301252636733e-05
-1.7931703537977084e-05   3.790006727452406e-06   -2.3520301252636733e-05
-2.6285839908381936e-06   2.7709876096707227e-06   -4.841408902719912e-05
-2.6285839908381936e-06   2.7709876096707227e-06   -4.841408902719912e-05
-2.6285839908381936e-06   2.7709876096707227e-06   -4.841408902719912e-05
-2.6285839908381936e-06   2.7709876096707227e-06   -4.841408902719912e-05
-1.0699296363688378e-05   2.688662201909232e-06   -3.491350649445919e-05
-1.0699296363688378e-05   2.688662201909232e-06   -3.491350649445919e-05
-1.0699296363688378e-05   2.688662201909232e-06   -3.491350649445919e-05
-1.0699296363688378e-05   2.688662201909232e-06   -3.491350649445919e-05
-2.0164769280735764e-05   3.3428622255790574e-06   -1.8800348919851274e-05
-2.0164769280735764e-05   3.3428622255790574e-06   -1.8800348919851274e-05
-2.0164769280735764e-05   3.3428622255790574e-06   -1.8800348919851274e-05
-2.0164769280735764e-05   3.3428622255790574e-06   -1.8800348919851274e-05
-3.5344933631102136e-05   4.040641275961879e-06   -4.368195540689905e-05
-3.5344933631102136e-05   4.040641275961879e-06   -4.368195540689905e-05
-3.5344933631102136e-05   4.040641275961879e-06   -4.368195540689905e-05
-3.5344933631102136e-05   4.040641275961879e-06   -4.368195540689905e-05
-3.440235258520784e-05   4.280890016754475e-06   -1.7664025714987132e-05
-3.440235258520784e-05   4.280890016754475e-06   -1.7664025714987132e-05
-3.440235258520784e-05   4.280890016754475e-06   -1.7664025714987132e-05
-3.440235258520784e-05   4.280890016754475e-06   -1.7664025714987132e-05
-1.9382853299468273e-05   4.890564173245897e-06   -4.30623290184483e-05
-1.9382853299468273e-05   4.890564173245897e-06   -4.30623290184483e-05
-1.9382853299468273e-05   4.890564173245897e-06   -4.30623290184483e-05
-1.9382853299468273e-05   4.890564173245897e-06   -4.30623290184483e-05
-2.7124137846673668e-05   4.315970218836331e-06   -2.9815431733793557e-05
-2.7124137846673668e-05   4.315970218836331e-06   -2.9815431733793557e-05
-2.7124137846673668e-05   4.315970218836331e-06   -2.9815431733793557e-05
-2.7124137846673668e-05   4.315970218836331e-06   -2.9815431733793557e-05
-1.9382853299468273e-05   4.280890016754475e-06   -1.8029830208882326e-05
-1.9382853299468273e-05   4.280890016754475e-06   -1.8029830208882326e-05
-1.9382853299468273e-05   4.280890016754475e-06   -1.8029830208882326e-05
-1.9382853299468273e-05   4.280890016754475e-06   -1.8029830208882326e-05
-3.440235258520784e-05   4.890564173245897e-06   -4.2696524524553185e-05
-3.440235258520784e-05   4.890564173245897e-06   -4.2696524524553185e-05
-3.440235258520784e-05   4.890564173245897e-06   -4.2696524524553185e-05
-3.440235258520784e-05   4.890564173245897e-06   -4.2696524524553185e-05
-3.33590610175095e-05   5.125700571338059e-06   -1.7031931981226602e-05
-3.33590610175095e-05   5.125700571338059e-06   -1.7031931981226602e-05
-3.33590610175095e-05   5.125700571338059e-06   -1.7031931981226602e-05
-3.33590610175095e-05   5.125700571338059e-06   -1.7031931981226602e-05
-1.8628634386820444e-05   5.62247675605634e-06   -4.188070874320605e-05
-1.8628634386820444e-05   5.62247675605634e-06   -4.188070874320605e-05
-1.8628634386820444e-05   5.62247675605634e-06   -4.188070874320605e-05
-1.8628634386820444e-05   5.62247675605634e-06   -4.188070874320605e-05
-2.6170439186442773e-05   4.977882783631328e-06   -2.8924277693713777e-05
-2.6170439186442773e-05   4.977882783631328e-06   -2.8924277693713777e-05
-2.6170439186442773e-05   4.977882783631328e-06   -2.8924277693713777e-05
-2.6170439186442773e-05   4.977882783631328e-06   -2.8924277693713777e-05
-1.8628634386820444e-05   5.125700571338059e-06   -1.7329997692057492e-05
-1.8628634386820444e-05   5.125700571338059e-06   -1.7329997692057492e-05
-1.8628634386820444e-05   5.125700571338059e-06   -1.7329997692057492e-05
-1.8628634386820444e-05   5.125700571338059e-06   -1.7329997692057492e-05
-3.33590610175095e-05   5.62247675605634e-06   -4.1582643032375254e-05
-3.33590610175095e-05   5.62247675605634e-06   -4.1582643032375254e-05
-3.33590610175095e-05   5.62247675605634e-06   -4.1582643032375254e-05
-3.33590610175095e-05   5.62247675605634e-06   -4.1582643032375254e-05
-3.247755556031224e-05   6.070644952248239e-06   -1.7425696455523627e-05
-3.247755556031224e-05   6.070644952248239e-06   -1.7425696455523627e-05
-3.247755556031224e-05   6.070644952248239e-06   -1.7425696455523627e-05
-3.247755556031224e-05   6.070644952248239e-06   -1.7425696455523627e-05
-1.7931703537977118e-05   6.431968791059846e-06   -4.188557746270241e-05
-1.7931703537977118e-05   6.431968791059846e-06   -4.188557746270241e-05
-1.7931703537977118e-05   6.431968791059846e-06   -4.188557746270241e-05
-1.7931703537977118e-05   6.431968791059846e-06   -4.188557746270241e-05
-2.5577958696176267e-05   5.5874896883759346e-06   -2.863513140409393e-05
-2.5577958696176267e-05   5.5874896883759346e-06   -2.863513140409393e-05
-2.5577958696176267e-05   5.5874896883759346e-06   -2.863513140409393e-05
-2.5577958696176267e-05   5.5874896883759346e-06   -2.863513140409393e-05
-3.5344933631102136e-05   5.74757975840964e-06   -9.418794471776015e-06
-3.5344933631102136e-05   5.74757975840964e-06   -9.418794471776015e-06
-3.5344933631102136e-05   5.74757975840964e-06   -9.418794471776015e-06
-3.5344933631102136e-05   5.74757975840964e-06   -9.418794471776015e-06
-5.133721330284511e-05   7.938645827088508e-06   -3.475795428347392e-05
-5.133721330284511e-05   7.938645827088508e-06   -3.475795428347392e-05
-5.133721330284511e-05   7.938645827088508e-06   -3.475795428347392e-05
-5.133721330284511e-05   7.938645827088508e-06   -3.475795428347392e-05
-4.917023755218866e-05   6.721672620393308e-06   -2.979929994898433e-06
-4.917023755218866e-05   6.721672620393308e-06   -2.979929994898433e-06
-4.917023755218866e-05   6.721672620393308e-06   -2.979929994898433e-06
-4.917023755218866e-05   6.721672620393308e-06   -2.979929994898433e-06
-3.4402352585207775e-05   9.067959307686212e-06   -2.900084361890905e-05
-3.4402352585207775e-05   9.067959307686212e-06   -2.900084361890905e-05
-3.4402352585207775e-05   9.067959307686212e-06   -2.900084361890905e-05
-3.4402352585207775e-05   9.067959307686212e-06   -2.900084361890905e-05
-4.080413149838691e-05   7.562974105525754e-06   -1.74282209756475e-05
-4.080413149838691e-05   7.562974105525754e-06   -1.74282209756475e-05
-4.080413149838691e-05   7.562974105525754e-06   -1.74282209756475e-05
-4.080413149838691e-05   7.562974105525754e-06   -1.74282209756475e-05
-3.44023525852078e-05   6.721672620393308e-06   -4.387702007274045e-06
-3.44023525852078e-05   6.721672620393308e-06   -4.387702007274045e-06
-3.44023525852078e-05   6.721672620393308e-06   -4.387702007274045e-06
-3.44023525852078e-05   6.721672620393308e-06   -4.387702007274045e-06
-4.917023755218858e-05   9.067959307685995e-06   -2.759307160653322e-05
-4.917023755218858e-05   9.067959307685995e-06   -2.759307160653322e-05
-4.917023755218858e-05   9.067959307685995e-06   -2.759307160653322e-05
-4.917023755218858e-05   9.067959307685995e-06   -2.759307160653322e-05
-4.7387091908847285e-05   7.0707737349208315e-06   -2.90236992980049e-07
-4.7387091908847285e-05   7.0707737349208315e-06   -2.90236992980049e-07
-4.7387091908847285e-05   7.0707737349208315e-06   -2.90236992980049e-07
-4.7387091908847285e-05   7.0707737349208315e-06   -2.90236992980049e-07
-3.33590610175095e-05   9.365126118156394e-06   -2.504689990848446e-05
-3.33590610175095e-05   9.365126118156394e-06   -2.504689990848446e-05
-3.33590610175095e-05   9.365126118156394e-06   -2.504689990848446e-05
-3.33590610175095e-05   9.365126118156394e-06   -2.504689990848446e-05
-4.006757631980394e-05   8.0131497806142e-06   -1.3054855268801284e-05
-4.006757631980394e-05   8.0131497806142e-06   -1.3054855268801284e-05
-4.006757631980394e-05   8.0131497806142e-06   -1.3054855268801284e-05
-4.006757631980394e-05   8.0131497806142e-06   -1.3054855268801284e-05
-3.33590610175095e-05   7.0707737349208315e-06   -1.666848422921701e-06
-3.33590610175095e-05   7.0707737349208315e-06   -1.666848422921701e-06
-3.33590610175095e-05   7.0707737349208315e-06   -1.666848422921701e-06
-3.33590610175095e-05   7.0707737349208315e-06   -1.666848422921701e-06
-4.738709190884711e-05   9.365126118156177e-06   -2.3670288478543078e-05
-4.738709190884711e-05   9.365126118156177e-06   -2.3670288478543078e-05
-4.738709190884711e-05   9.365126118156177e-06   -2.3670288478543078e-05
-4.738709190884711e-05   9.365126118156177e-06   -2.3670288478543078e-05
-4.546286701325384e-05   7.512862040054457e-06   3.1268516148023288e-06
-4.546286701325384e-05   7.512862040054457e-06   3.1268516148023288e-06
-4.546286701325384e-05   7.512862040054457e-06   3.1268516148023288e-06
-4.546286701325384e-05   7.512862040054457e-06   3.1268516148023288e-06
-3.247755556031221e-05   9.620455374844067e-06   -1.9779890140974102e-05
-3.247755556031221e-05   9.620455374844067e-06   -1.9779890140974102e-05
-3.247755556031221e-05   9.620455374844067e-06   -1.9779890140974102e-05
-3.247755556031221e-05   9.620455374844067e-06   -1.9779890140974102e-05
-3.82589551846474e-05   8.086543389106203e-06   -9.22387690897343e-06
-3.82589551846474e-05   8.086543389106203e-06   -9.22387690897343e-06
-3.82589551846474e-05   8.086543389106203e-06   -9.22387690897343e-06
-3.82589551846474e-05   8.086543389106203e-06   -9.22387690897343e-06
4.395689336862758e-05   -6.128420260147205e-06   8.731986660730922e-06
4.395689336862758e-05   -6.128420260147205e-06   8.731986660730922e-06
4.395689336862758e-05   -6.128420260147205e-06   8.731986660730922e-06
4.395689336862758e-05   -6.128420260147205e-06   8.731986660730922e-06
2.1179628490442003e-05   -9.071795085089599e-06   -3.0996146364543355e-05
2.1179628490442003e-05   -9.071795085089599e-06   -3.0996146364543355e-05
2.1179628490442003e-05   -9.071795085089599e-06   -3.0996146364543355e-05
2.1179628490442003e-05   -9.071795085089599e-06   -3.0996146364543355e-05
2.2045051234051584e-05   -5.699742989508094e-06   4.219998207976531e-06
2.2045051234051584e-05   -5.699742989508094e-06   4.219998207976531e-06
2.2045051234051584e-05   -5.699742989508094e-06   4.219998207976531e-06
2.2045051234051584e-05   -5.699742989508094e-06   4.219998207976531e-06
4.5967531951267326e-05   -8.860241586342368e-06   -3.375450382928254e-05
4.5967531951267326e-05   -8.860241586342368e-06   -3.375450382928254e-05
4.5967531951267326e-05   -8.860241586342368e-06   -3.375450382928254e-05
4.5967531951267326e-05   -8.860241586342368e-06   -3.375450382928254e-05
3.193374901441472e-05   -6.709562871776457e-06   -1.1655272829934435e-05
3.193374901441472e-05   -6.709562871776457e-06   -1.1655272829934435e-05
3.193374901441472e-05   -6.709562871776457e-06   -1.1655272829934435e-05
3.193374901441472e-05   -6.709562871776457e-06   -1.1655272829934435e-05
4.5967531951267434e-05   -5.699742989508094e-06   6.1162973660770954e-06
4.5967531951267434e-05   -5.699742989508094e-06   6.1162973660770954e-06
4.5967531951267434e-05   -5.699742989508094e-06   6.1162973660770954e-06
4.5967531951267434e-05   -5.699742989508094e-06   6.1162973660770954e-06
2.2045051234051557e-05   -8.860241586342368e-06   -3.565080298738332e-05
2.2045051234051557e-05   -8.860241586342368e-06   -3.565080298738332e-05
2.2045051234051557e-05   -8.860241586342368e-06   -3.565080298738332e-05
2.2045051234051557e-05   -8.860241586342368e-06   -3.565080298738332e-05
2.2906000180781877e-05   -5.331004710295e-06   2.011838753708528e-06
2.2906000180781877e-05   -5.331004710295e-06   2.011838753708528e-06
2.2906000180781877e-05   -5.331004710295e-06   2.011838753708528e-06
2.2906000180781877e-05   -5.331004710295e-06   2.011838753708528e-06
4.7510621873381794e-05   -8.5525364451511e-06   -3.706294502637793e-05
4.7510621873381794e-05   -8.5525364451511e-06   -3.706294502637793e-05
4.7510621873381794e-05   -8.5525364451511e-06   -3.706294502637793e-05
4.7510621873381794e-05   -8.5525364451511e-06   -3.706294502637793e-05
3.362733512844157e-05   -6.6873367558114e-06   -1.504325359841447e-05
3.362733512844157e-05   -6.6873367558114e-06   -1.504325359841447e-05
3.362733512844157e-05   -6.6873367558114e-06   -1.504325359841447e-05
3.362733512844157e-05   -6.6873367558114e-06   -1.504325359841447e-05
4.7510621873381794e-05   -5.331004710295e-06   3.944757794621895e-06
4.7510621873381794e-05   -5.331004710295e-06   3.944757794621895e-06
4.7510621873381794e-05   -5.331004710295e-06   3.944757794621895e-06
4.7510621873381794e-05   -5.331004710295e-06   3.944757794621895e-06
2.2906000180781877e-05   -8.552536445150666e-06   -3.899586406729135e-05
2.2906000180781877e-05   -8.552536445150666e-06   -3.899586406729135e-05
2.2906000180781877e-05   -8.552536445150666e-06   -3.899586406729135e-05
2.2906000180781877e-05   -8.552536445150666e-06   -3.899586406729135e-05
2.3490502381872113e-05   -4.165272161028508e-06   -2.434674926359102e-06
2.3490502381872113e-05   -4.165272161028508e-06   -2.434674926359102e-06
2.3490502381872113e-05   -4.165272161028508e-06   -2.434674926359102e-06
2.3490502381872113e-05   -4.165272161028508e-06   -2.434674926359102e-06
4.914242341335707e-05   -7.352714047567134e-06   -4.327541151357751e-05
4.914242341335707e-05   -7.352714047567134e-06   -4.327541151357751e-05
4.914242341335707e-05   -7.352714047567134e-06   -4.327541151357751e-05
4.914242341335707e-05   -7.352714047567134e-06   -4.327541151357751e-05
3.409973898504601e-05   -6.173156973755334e-06   -1.8912005044013436e-05
3.409973898504601e-05   -6.173156973755334e-06   -1.8912005044013436e-05
3.409973898504601e-05   -6.173156973755334e-06   -1.8912005044013436e-05
3.409973898504601e-05   -6.173156973755334e-06   -1.8912005044013436e-05
2.117962849044203e-05   -2.8682810223595173e-06   -1.0679963398736313e-05
2.117962849044203e-05   -2.8682810223595173e-06   -1.0679963398736313e-05
2.117962849044203e-05   -2.8682810223595173e-06   -1.0679963398736313e-05
2.117962849044203e-05   -2.8682810223595173e-06   -1.0679963398736313e-05
-1.2882878173324454e-06   -5.8752058256076635e-06   -4.993064546030923e-05
-1.2882878173324454e-06   -5.8752058256076635e-06   -4.993064546030923e-05
-1.2882878173324454e-06   -5.8752058256076635e-06   -4.993064546030923e-05
-1.2882878173324454e-06   -5.8752058256076635e-06   -4.993064546030923e-05
-4.0007645123601727e-07   -2.2723213032095103e-06   -1.1776309233876587e-05
-4.0007645123601727e-07   -2.2723213032095103e-06   -1.1776309233876587e-05
-4.0007645123601727e-07   -2.2723213032095103e-06   -1.1776309233876587e-05
-4.0007645123601727e-07   -2.2723213032095103e-06   -1.1776309233876587e-05
2.2045051234051584e-05   -5.593422866136989e-06   -4.7192194438266206e-05
2.2045051234051584e-05   -5.593422866136989e-06   -4.7192194438266206e-05
2.2045051234051584e-05   -5.593422866136989e-06   -4.7192194438266206e-05
2.2045051234051584e-05   -5.593422866136989e-06   -4.7192194438266206e-05
1.0415236330799956e-05   -3.5546457787260805e-06   -2.9032435851959954e-05
1.0415236330799956e-05   -3.5546457787260805e-06   -2.9032435851959954e-05
1.0415236330799956e-05   -3.5546457787260805e-06   -2.9032435851959954e-05
1.0415236330799956e-05   -3.5546457787260805e-06   -2.9032435851959954e-05
2.2045051234051557e-05   -2.2723213032095103e-06   -9.783648296119856e-06
2.2045051234051557e-05   -2.2723213032095103e-06   -9.783648296119856e-06
2.2045051234051557e-05   -2.2723213032095103e-06   -9.783648296119856e-06
2.2045051234051557e-05   -2.2723213032095103e-06   -9.783648296119856e-06
-4.0007645123601727e-07   -5.593422866136989e-06   -4.9184855376022585e-05
-4.0007645123601727e-07   -5.593422866136989e-06   -4.9184855376022585e-05
-4.0007645123601727e-07   -5.593422866136989e-06   -4.9184855376022585e-05
-4.0007645123601727e-07   -5.593422866136989e-06   -4.9184855376022585e-05
3.8246678668167914e-07   -1.5438930818269248e-06   -1.2056311063967208e-05
3.8246678668167914e-07   -1.5438930818269248e-06   -1.2056311063967208e-05
3.8246678668167914e-07   -1.5438930818269248e-06   -1.2056311063967208e-05
3.8246678668167914e-07   -1.5438930818269248e-06   -1.2056311063967208e-05
2.2906000180781877e-05   -5.069180838165963e-06   -4.748036073366421e-05
2.2906000180781877e-05   -5.069180838165963e-06   -4.748036073366421e-05
2.2906000180781877e-05   -5.069180838165963e-06   -4.748036073366421e-05
2.2906000180781877e-05   -5.069180838165963e-06   -4.748036073366421e-05
1.1019528874850866e-05   -3.2624646781804524e-06   -2.8753604919769943e-05
1.1019528874850866e-05   -3.2624646781804524e-06   -2.8753604919769943e-05
1.1019528874850866e-05   -3.2624646781804524e-06   -2.8753604919769943e-05
1.1019528874850866e-05   -3.2624646781804524e-06   -2.8753604919769943e-05
2.2906000180781877e-05   -1.5438930818273584e-06   -9.941138410163829e-06
2.2906000180781877e-05   -1.5438930818273584e-06   -9.941138410163829e-06
2.2906000180781877e-05   -1.5438930818273584e-06   -9.941138410163829e-06
2.2906000180781877e-05   -1.5438930818273584e-06   -9.941138410163829e-06
3.824667866816927e-07   -5.069180838166397e-06   -4.959553338746781e-05
3.824667866816927e-07   -5.069180838166397e-06   -4.959553338746781e-05
3.824667866816927e-07   -5.069180838166397e-06   -4.959553338746781e-05
3.824667866816927e-07   -5.069180838166397e-06   -4.959553338746781e-05
9.395193245001233e-07   -6.272456897289842e-07   -1.2533718309041706e-05
9.395193245001233e-07   -6.272456897289842e-07   -1.2533718309041706e-05
9.395193245001233e-07   -6.272456897289842e-07   -1.2533718309041706e-05
9.395193245001233e-07   -6.272456897289842e-07   -1.2533718309041706e-05
2.3490502381872167e-05   -4.3232738562008245e-06   -4.790107317144583e-05
2.3490502381872167e-05   -4.3232738562008245e-06   -4.790107317144583e-05
2.3490502381872167e-05   -4.3232738562008245e-06   -4.790107317144583e-05
2.3490502381872167e-05   -4.3232738562008245e-06   -4.790107317144583e-05
1.1743401814381829e-05   -2.747836139679622e-06   -2.9267834855541608e-05
1.1743401814381829e-05   -2.747836139679622e-06   -2.9267834855541608e-05
1.1743401814381829e-05   -2.747836139679622e-06   -2.9267834855541608e-05
1.1743401814381829e-05   -2.747836139679622e-06   -2.9267834855541608e-05
-1.2882878173324454e-06   5.254300980894397e-07   -1.6268235861276054e-05
-1.2882878173324454e-06   5.254300980894397e-07   -1.6268235861276054e-05
-1.2882878173324454e-06   5.254300980894397e-07   -1.6268235861276054e-05
-1.2882878173324454e-06   5.254300980894397e-07   -1.6268235861276054e-05
-2.3424319225730876e-05   -3.079414973699516e-06   -5.5324528585013475e-05
-2.3424319225730876e-05   -3.079414973699516e-06   -5.5324528585013475e-05
-2.3424319225730876e-05   -3.079414973699516e-06   -5.5324528585013475e-05
-2.3424319225730876e-05   -3.079414973699516e-06   -5.5324528585013475e-05
-2.235858165533824e-05   1.194927298449333e-06   -1.7689511784423203e-05
-2.235858165533824e-05   1.194927298449333e-06   -1.7689511784423203e-05
-2.235858165533824e-05   1.194927298449333e-06   -1.7689511784423203e-05
-2.235858165533824e-05   1.194927298449333e-06   -1.7689511784423203e-05
-4.0007645123601727e-07   -2.747244263438895e-06   -5.192171752079421e-05
-4.0007645123601727e-07   -2.747244263438895e-06   -5.192171752079421e-05
-4.0007645123601727e-07   -2.747244263438895e-06   -5.192171752079421e-05
-4.0007645123601727e-07   -2.747244263438895e-06   -5.192171752079421e-05
-1.1727109034985391e-05   -5.917892969922213e-07   -3.4336602861079896e-05
-1.1727109034985391e-05   -5.917892969922213e-07   -3.4336602861079896e-05
-1.1727109034985391e-05   -5.917892969922213e-07   -3.4336602861079896e-05
-1.1727109034985391e-05   -5.917892969922213e-07   -3.4336602861079896e-05
-4.0007645123601727e-07   1.194927298449333e-06   -1.532420884729062e-05
-4.0007645123601727e-07   1.194927298449333e-06   -1.532420884729062e-05
-4.0007645123601727e-07   1.194927298449333e-06   -1.532420884729062e-05
-4.0007645123601727e-07   1.194927298449333e-06   -1.532420884729062e-05
-2.235858165533824e-05   -2.747244263438895e-06   -5.428702045792689e-05
-2.235858165533824e-05   -2.747244263438895e-06   -5.428702045792689e-05
-2.235858165533824e-05   -2.747244263438895e-06   -5.428702045792689e-05
-2.235858165533824e-05   -2.747244263438895e-06   -5.428702045792689e-05
-2.1380828041228773e-05   1.9700076620120938e-06   -1.7372986250930623e-05
-2.1380828041228773e-05   1.9700076620120938e-06   -1.7372986250930623e-05
-2.1380828041228773e-05   1.9700076620120938e-06   -1.7372986250930623e-05
-2.1380828041228773e-05   1.9700076620120938e-06   -1.7372986250930623e-05
3.824667866816927e-07   -2.2306742555669445e-06   -5.112473514690087e-05
3.824667866816927e-07   -2.2306742555669445e-06   -5.112473514690087e-05
3.824667866816927e-07   -2.2306742555669445e-06   -5.112473514690087e-05
3.824667866816927e-07   -2.2306742555669445e-06   -5.112473514690087e-05
-1.0859192308648795e-05   -2.1168018275708432e-07   -3.3600033098369155e-05
-1.0859192308648795e-05   -2.1168018275708432e-07   -3.3600033098369155e-05
-1.0859192308648795e-05   -2.1168018275708432e-07   -3.3600033098369155e-05
-1.0859192308648795e-05   -2.1168018275708432e-07   -3.3600033098369155e-05
3.824667866816927e-07   1.9700076620120938e-06   -1.4852577100383404e-05
3.824667866816927e-07   1.9700076620120938e-06   -1.4852577100383404e-05
3.824667866816927e-07   1.9700076620120938e-06   -1.4852577100383404e-05
3.824667866816927e-07   1.9700076620120938e-06   -1.4852577100383404e-05
-2.1380828041228773e-05   -2.2306742555669445e-06   -5.3645144297448074e-05
-2.1380828041228773e-05   -2.2306742555669445e-06   -5.3645144297448074e-05
-2.1380828041228773e-05   -2.2306742555669445e-06   -5.3645144297448074e-05
-2.1380828041228773e-05   -2.2306742555669445e-06   -5.3645144297448074e-05
-2.0721618729631868e-05   2.7709876096707227e-06   -1.76747845947445e-05
-2.0721618729631868e-05   2.7709876096707227e-06   -1.76747845947445e-05
-2.0721618729631868e-05   2.7709876096707227e-06   -1.76747845947445e-05
-2.0721618729631868e-05   2.7709876096707227e-06   -1.76747845947445e-05
9.395193245001097e-07   -1.7407392691407703e-06   -5.10696452243446e-05
9.395193245001097e-07   -1.7407392691407703e-06   -5.10696452243446e-05
9.395193245001097e-07   -1.7407392691407703e-06   -5.10696452243446e-05
9.395193245001097e-07   -1.7407392691407703e-06   -5.10696452243446e-05
-1.0240263146334174e-05   2.1501132070351342e-07   -3.361012479352783e-05
-1.0240263146334174e-05   2.1501132070351342e-07   -3.361012479352783e-05
-1.0240263146334174e-05   2.1501132070351342e-07   -3.361012479352783e-05
-1.0240263146334174e-05   2.1501132070351342e-07   -3.361012479352783e-05
-2.3424319225730876e-05   4.040641275961879e-06   -1.3275669988101783e-05
-2.3424319225730876e-05   4.040641275961879e-06   -1.3275669988101783e-05
-2.3424319225730876e-05   4.040641275961879e-06   -1.3275669988101783e-05
-2.3424319225730876e-05   4.040641275961879e-06   -1.3275669988101783e-05
-4.5869740487196046e-05   7.937043235125077e-07   -5.263286759534663e-05
-4.5869740487196046e-05   7.937043235125077e-07   -5.263286759534663e-05
-4.5869740487196046e-05   7.937043235125077e-07   -5.263286759534663e-05
-4.5869740487196046e-05   7.937043235125077e-07   -5.263286759534663e-05
-4.435248296329734e-05   4.890564173245897e-06   -1.4145965931197787e-05
-4.435248296329734e-05   4.890564173245897e-06   -1.4145965931197787e-05
-4.435248296329734e-05   4.890564173245897e-06   -1.4145965931197787e-05
-4.435248296329734e-05   4.890564173245897e-06   -1.4145965931197787e-05
-2.235858165533824e-05   1.4071861945338937e-06   -4.871244132390235e-05
-2.235858165533824e-05   1.4071861945338937e-06   -4.871244132390235e-05
-2.235858165533824e-05   1.4071861945338937e-06   -4.871244132390235e-05
-2.235858165533824e-05   1.4071861945338937e-06   -4.871244132390235e-05
-3.364864547590258e-05   3.0743682758807567e-06   -3.0895977538436667e-05
-3.364864547590258e-05   3.0743682758807567e-06   -3.0895977538436667e-05
-3.364864547590258e-05   3.0743682758807567e-06   -3.0895977538436667e-05
-3.364864547590258e-05   3.0743682758807567e-06   -3.0895977538436667e-05
-2.235858165533824e-05   4.890564173245897e-06   -1.2055939143970513e-05
-2.235858165533824e-05   4.890564173245897e-06   -1.2055939143970513e-05
-2.235858165533824e-05   4.890564173245897e-06   -1.2055939143970513e-05
-2.235858165533824e-05   4.890564173245897e-06   -1.2055939143970513e-05
-4.435248296329742e-05   1.4071861945338937e-06   -5.0802468111129685e-05
-4.435248296329742e-05   1.4071861945338937e-06   -5.0802468111129685e-05
-4.435248296329742e-05   1.4071861945338937e-06   -5.0802468111129685e-05
-4.435248296329742e-05   1.4071861945338937e-06   -5.0802468111129685e-05
-4.288550594128651e-05   5.62247675605634e-06   -1.2883803001057566e-05
-4.288550594128651e-05   5.62247675605634e-06   -1.2883803001057566e-05
-4.288550594128651e-05   5.62247675605634e-06   -1.2883803001057566e-05
-4.288550594128651e-05   5.62247675605634e-06   -1.2883803001057566e-05
-2.1380828041228807e-05   1.97185909404712e-06   -4.653456223728167e-05
-2.1380828041228807e-05   1.97185909404712e-06   -4.653456223728167e-05
-2.1380828041228807e-05   1.97185909404712e-06   -4.653456223728167e-05
-2.1380828041228807e-05   1.97185909404712e-06   -4.653456223728167e-05
-3.2276989498741e-05   3.608149751602608e-06   -2.9356067535961112e-05
-3.2276989498741e-05   3.608149751602608e-06   -2.9356067535961112e-05
-3.2276989498741e-05   3.608149751602608e-06   -2.9356067535961112e-05
-3.2276989498741e-05   3.608149751602608e-06   -2.9356067535961112e-05
-2.1380828041228773e-05   5.62247675605634e-06   -1.0693432403851861e-05
-2.1380828041228773e-05   5.62247675605634e-06   -1.0693432403851861e-05
-2.1380828041228773e-05   5.62247675605634e-06   -1.0693432403851861e-05
-2.1380828041228773e-05   5.62247675605634e-06   -1.0693432403851861e-05
-4.288550594128658e-05   1.97185909404712e-06   -4.872493283448716e-05
-4.288550594128658e-05   1.97185909404712e-06   -4.872493283448716e-05
-4.288550594128658e-05   1.97185909404712e-06   -4.872493283448716e-05
-4.288550594128658e-05   1.97185909404712e-06   -4.872493283448716e-05
-4.177306902496288e-05   6.431968791059846e-06   -1.2924432671837256e-05
-4.177306902496288e-05   6.431968791059846e-06   -1.2924432671837256e-05
-4.177306902496288e-05   6.431968791059846e-06   -1.2924432671837256e-05
-4.177306902496288e-05   6.431968791059846e-06   -1.2924432671837256e-05
-2.0721618729631915e-05   2.4493502706283282e-06   -4.562061205179717e-05
-2.0721618729631915e-05   2.4493502706283282e-06   -4.562061205179717e-05
-2.0721618729631915e-05   2.4493502706283282e-06   -4.562061205179717e-05
-2.0721618729631915e-05   2.4493502706283282e-06   -4.562061205179717e-05
-3.1509524951528786e-05   3.980768156993959e-06   -2.855961908045546e-05
-3.1509524951528786e-05   3.980768156993959e-06   -2.855961908045546e-05
-3.1509524951528786e-05   3.980768156993959e-06   -2.855961908045546e-05
-3.1509524951528786e-05   3.980768156993959e-06   -2.855961908045546e-05
-4.5869740487196046e-05   7.938645827088725e-06   -7.614470677353672e-06
-4.5869740487196046e-05   7.938645827088725e-06   -7.614470677353672e-06
-4.5869740487196046e-05   7.938645827088725e-06   -7.614470677353672e-06
-4.5869740487196046e-05   7.938645827088725e-06   -7.614470677353672e-06
-6.932262488099783e-05   7.497060934614965e-06   -4.6967562269174335e-05
-6.932262488099783e-05   7.497060934614965e-06   -4.6967562269174335e-05
-6.932262488099783e-05   7.497060934614965e-06   -4.6967562269174335e-05
-6.932262488099783e-05   7.497060934614965e-06   -4.6967562269174335e-05
-6.632741570340275e-05   9.067959307685995e-06   -1.9859764108340512e-07
-6.632741570340275e-05   9.067959307685995e-06   -1.9859764108340512e-07
-6.632741570340275e-05   9.067959307685995e-06   -1.9859764108340512e-07
-6.632741570340275e-05   9.067959307685995e-06   -1.9859764108340512e-07
-4.435248296329726e-05   9.487438281802641e-06   -3.707517292572855e-05
-4.435248296329726e-05   9.487438281802641e-06   -3.707517292572855e-05
-4.435248296329726e-05   9.487438281802641e-06   -3.707517292572855e-05
-4.435248296329726e-05   9.487438281802641e-06   -3.707517292572855e-05
-5.403292664965977e-05   8.945276081946912e-06   -2.061580279521158e-05
-5.403292664965977e-05   8.945276081946912e-06   -2.061580279521158e-05
-5.403292664965977e-05   8.945276081946912e-06   -2.061580279521158e-05
-5.403292664965977e-05   8.945276081946912e-06   -2.061580279521158e-05
-4.435248296329738e-05   9.067959307686212e-06   -4.5028502555311076e-07
-4.435248296329738e-05   9.067959307686212e-06   -4.5028502555311076e-07
-4.435248296329738e-05   9.067959307686212e-06   -4.5028502555311076e-07
-4.435248296329738e-05   9.067959307686212e-06   -4.5028502555311076e-07
-6.632741570340263e-05   9.487438281802641e-06   -3.682348554125874e-05
-6.632741570340263e-05   9.487438281802641e-06   -3.682348554125874e-05
-6.632741570340263e-05   9.487438281802641e-06   -3.682348554125874e-05
-6.632741570340263e-05   9.487438281802641e-06   -3.682348554125874e-05
-6.384351773446078e-05   9.365126118156394e-06   3.9938075060432475e-06
-6.384351773446078e-05   9.365126118156394e-06   3.9938075060432475e-06
-6.384351773446078e-05   9.365126118156394e-06   3.9938075060432475e-06
-6.384351773446078e-05   9.365126118156394e-06   3.9938075060432475e-06
-4.288550594128651e-05   9.934905090173453e-06   -3.127807953245726e-05
-4.288550594128651e-05   9.934905090173453e-06   -3.127807953245726e-05
-4.288550594128651e-05   9.934905090173453e-06   -3.127807953245726e-05
-4.288550594128651e-05   9.934905090173453e-06   -3.127807953245726e-05
-5.2900927383833855e-05   9.594750475237215e-06   -1.4381617692582897e-05
-5.2900927383833855e-05   9.594750475237215e-06   -1.4381617692582897e-05
-5.2900927383833855e-05   9.594750475237215e-06   -1.4381617692582897e-05
-5.2900927383833855e-05   9.594750475237215e-06   -1.4381617692582897e-05
-4.288550594128658e-05   9.365126118156611e-06   3.6519401228333104e-06
-4.288550594128658e-05   9.365126118156611e-06   3.6519401228333104e-06
-4.288550594128658e-05   9.365126118156611e-06   3.6519401228333104e-06
-4.288550594128658e-05   9.365126118156611e-06   3.6519401228333104e-06
-6.384351773446087e-05   9.934905090173453e-06   -3.093621214924724e-05
-6.384351773446087e-05   9.934905090173453e-06   -3.093621214924724e-05
-6.384351773446087e-05   9.934905090173453e-06   -3.093621214924724e-05
-6.384351773446087e-05   9.934905090173453e-06   -3.093621214924724e-05
-6.124538847557658e-05   9.620455374844067e-06   9.61363231552579e-06
-6.124538847557658e-05   9.620455374844067e-06   9.61363231552579e-06
-6.124538847557658e-05   9.620455374844067e-06   9.61363231552579e-06
-6.124538847557658e-05   9.620455374844067e-06   9.61363231552579e-06
-4.1773069024962905e-05   1.070240865638089e-05   -2.3489405404419255e-05
-4.1773069024962905e-05   1.070240865638089e-05   -2.3489405404419255e-05
-4.1773069024962905e-05   1.070240865638089e-05   -2.3489405404419255e-05
-4.1773069024962905e-05   1.070240865638089e-05   -2.3489405404419255e-05
-5.0392078658499325e-05   9.812621601709552e-06   -8.590517115723124e-06
-5.0392078658499325e-05   9.812621601709552e-06   -8.590517115723124e-06
-5.0392078658499325e-05   9.812621601709552e-06   -8.590517115723124e-06
-5.0392078658499325e-05   9.812621601709552e-06   -8.590517115723124e-06
6.0411749377704626e-05   -9.071795085089599e-06   2.062297135375083e-05
6.0411749377704626e-05   -9.071795085089599e-06   2.062297135375083e-05
6.0411749377704626e-05   -9.071795085089599e-06   2.062297135375083e-05
6.0411749377704626e-05   -9.071795085089599e-06   2.062297135375083e-05
3.0362563615770894e-05   -1.1470736483213794e-05   -3.0898369755013406e-05
3.0362563615770894e-05   -1.1470736483213794e-05   -3.0898369755013406e-05
3.0362563615770894e-05   -1.1470736483213794e-05   -3.0898369755013406e-05
3.0362563615770894e-05   -1.1470736483213794e-05   -3.0898369755013406e-05
3.110308520889706e-05   -8.860241586342802e-06   1.4796236032151803e-05
3.110308520889706e-05   -8.860241586342802e-06   1.4796236032151803e-05
3.110308520889706e-05   -8.860241586342802e-06   1.4796236032151803e-05
3.110308520889706e-05   -8.860241586342802e-06   1.4796236032151803e-05
6.191541990937472e-05   -1.175770284842859e-05   -3.481917837805924e-05
6.191541990937472e-05   -1.175770284842859e-05   -3.481917837805924e-05
6.191541990937472e-05   -1.175770284842859e-05   -3.481917837805924e-05
6.191541990937472e-05   -1.175770284842859e-05   -3.481917837805924e-05
4.411758608686091e-05   -9.266544419159889e-06   -6.6508170647644515e-06
4.411758608686091e-05   -9.266544419159889e-06   -6.6508170647644515e-06
4.411758608686091e-05   -9.266544419159889e-06   -6.6508170647644515e-06
4.411758608686091e-05   -9.266544419159889e-06   -6.6508170647644515e-06
6.191541990937472e-05   -8.860241586342802e-06   1.6534712789403525e-05
6.191541990937472e-05   -8.860241586342802e-06   1.6534712789403525e-05
6.191541990937472e-05   -8.860241586342802e-06   1.6534712789403525e-05
6.191541990937472e-05   -8.860241586342802e-06   1.6534712789403525e-05
3.110308520889706e-05   -1.175770284842859e-05   -3.6557655135311014e-05
3.110308520889706e-05   -1.175770284842859e-05   -3.6557655135311014e-05
3.110308520889706e-05   -1.175770284842859e-05   -3.6557655135311014e-05
3.110308520889706e-05   -1.175770284842859e-05   -3.6557655135311014e-05
3.1728977474177844e-05   -8.552536445150666e-06   1.167667415082757e-05
3.1728977474177844e-05   -8.552536445150666e-06   1.167667415082757e-05
3.1728977474177844e-05   -8.552536445150666e-06   1.167667415082757e-05
3.1728977474177844e-05   -8.552536445150666e-06   1.167667415082757e-05
6.285238762731627e-05   -1.1650926263789396e-05   -3.833664221322003e-05
6.285238762731627e-05   -1.1650926263789396e-05   -3.833664221322003e-05
6.285238762731627e-05   -1.1650926263789396e-05   -3.833664221322003e-05
6.285238762731627e-05   -1.1650926263789396e-05   -3.833664221322003e-05
4.5671697266501214e-05   -9.558917255462563e-06   -1.0957363683524292e-05
4.5671697266501214e-05   -9.558917255462563e-06   -1.0957363683524292e-05
4.5671697266501214e-05   -9.558917255462563e-06   -1.0957363683524292e-05
4.5671697266501214e-05   -9.558917255462563e-06   -1.0957363683524292e-05
6.285238762731627e-05   -8.552536445150666e-06   1.353570804201083e-05
6.285238762731627e-05   -8.552536445150666e-06   1.353570804201083e-05
6.285238762731627e-05   -8.552536445150666e-06   1.353570804201083e-05
6.285238762731627e-05   -8.552536445150666e-06   1.353570804201083e-05
3.1728977474177844e-05   -1.1650926263789396e-05   -4.019567610440318e-05
3.1728977474177844e-05   -1.1650926263789396e-05   -4.019567610440318e-05
3.1728977474177844e-05   -1.1650926263789396e-05   -4.019567610440318e-05
3.1728977474177844e-05   -1.1650926263789396e-05   -4.019567610440318e-05
3.238269607859433e-05   -7.352714047567134e-06   5.625140610700154e-06
3.238269607859433e-05   -7.352714047567134e-06   5.625140610700154e-06
3.238269607859433e-05   -7.352714047567134e-06   5.625140610700154e-06
3.238269607859433e-05   -7.352714047567134e-06   5.625140610700154e-06
6.377499424308649e-05   -1.1002023218458813e-05   -4.450577082758516e-05
6.377499424308649e-05   -1.1002023218458813e-05   -4.450577082758516e-05
6.377499424308649e-05   -1.1002023218458813e-05   -4.450577082758516e-05
6.377499424308649e-05   -1.1002023218458813e-05   -4.450577082758516e-05
4.569306904093177e-05   -9.199006961274755e-06   -1.5451038578304598e-05
4.569306904093177e-05   -9.199006961274755e-06   -1.5451038578304598e-05
4.569306904093177e-05   -9.199006961274755e-06   -1.5451038578304598e-05
4.569306904093177e-05   -9.199006961274755e-06   -1.5451038578304598e-05
3.0362563615770894e-05   -5.8752058256076635e-06   2.053262301059171e-06
3.0362563615770894e-05   -5.8752058256076635e-06   2.053262301059171e-06
3.0362563615770894e-05   -5.8752058256076635e-06   2.053262301059171e-06
3.0362563615770894e-05   -5.8752058256076635e-06   2.053262301059171e-06
3.5920525310300245e-06   -1.1499465032083472e-05   -4.5938811697394336e-05
3.5920525310300245e-06   -1.1499465032083472e-05   -4.5938811697394336e-05
3.5920525310300245e-06   -1.1499465032083472e-05   -4.5938811697394336e-05
3.5920525310300245e-06   -1.1499465032083472e-05   -4.5938811697394336e-05
4.455002809995208e-06   -5.593422866136989e-06   -2.5300931769198926e-07
4.455002809995208e-06   -5.593422866136989e-06   -2.5300931769198926e-07
4.455002809995208e-06   -5.593422866136989e-06   -2.5300931769198926e-07
4.455002809995208e-06   -5.593422866136989e-06   -2.5300931769198926e-07
3.110308520889711e-05   -1.1439846031072263e-05   -4.1158626083567275e-05
3.110308520889711e-05   -1.1439846031072263e-05   -4.1158626083567275e-05
3.110308520889711e-05   -1.1439846031072263e-05   -4.1158626083567275e-05
3.110308520889711e-05   -1.1439846031072263e-05   -4.1158626083567275e-05
1.7445637835323397e-05   -7.758581312721554e-06   -2.0604972625288273e-05
1.7445637835323397e-05   -7.758581312721554e-06   -2.0604972625288273e-05
1.7445637835323397e-05   -7.758581312721554e-06   -2.0604972625288273e-05
1.7445637835323397e-05   -7.758581312721554e-06   -2.0604972625288273e-05
3.110308520889706e-05   -5.593422866136989e-06   3.254844581269186e-06
3.110308520889706e-05   -5.593422866136989e-06   3.254844581269186e-06
3.110308520889706e-05   -5.593422866136989e-06   3.254844581269186e-06
3.110308520889706e-05   -5.593422866136989e-06   3.254844581269186e-06
4.455002809995208e-06   -1.1439846031072263e-05   -4.466647998252818e-05
4.455002809995208e-06   -1.1439846031072263e-05   -4.466647998252818e-05
4.455002809995208e-06   -1.1439846031072263e-05   -4.466647998252818e-05
4.455002809995208e-06   -1.1439846031072263e-05   -4.466647998252818e-05
5.233942023867178e-06   -5.069180838166397e-06   -5.375801409581663e-07
5.233942023867178e-06   -5.069180838166397e-06   -5.375801409581663e-07
5.233942023867178e-06   -5.069180838166397e-06   -5.375801409581663e-07
5.233942023867178e-06   -5.069180838166397e-06   -5.375801409581663e-07
3.1728977474177844e-05   -1.1285443547187895e-05   -4.0966214932729736e-05
3.1728977474177844e-05   -1.1285443547187895e-05   -4.0966214932729736e-05
3.1728977474177844e-05   -1.1285443547187895e-05   -4.0966214932729736e-05
3.1728977474177844e-05   -1.1285443547187895e-05   -4.0966214932729736e-05
1.7935080626460027e-05   -7.84323081533516e-06   -2.0041714492311066e-05
1.7935080626460027e-05   -7.84323081533516e-06   -2.0041714492311066e-05
1.7935080626460027e-05   -7.84323081533516e-06   -2.0041714492311066e-05
1.7935080626460027e-05   -7.84323081533516e-06   -2.0041714492311066e-05
3.1728977474177844e-05   -5.069180838166397e-06   3.1921774844548463e-06
3.1728977474177844e-05   -5.069180838166397e-06   3.1921774844548463e-06
3.1728977474177844e-05   -5.069180838166397e-06   3.1921774844548463e-06
3.1728977474177844e-05   -5.069180838166397e-06   3.1921774844548463e-06
5.233942023867165e-06   -1.1285443547187895e-05   -4.469597255814272e-05
5.233942023867165e-06   -1.1285443547187895e-05   -4.469597255814272e-05
5.233942023867165e-06   -1.1285443547187895e-05   -4.469597255814272e-05
5.233942023867165e-06   -1.1285443547187895e-05   -4.469597255814272e-05
6.3965944578499e-06   -4.3232738562008245e-06   -1.0806028769517941e-06
6.3965944578499e-06   -4.3232738562008245e-06   -1.0806028769517941e-06
6.3965944578499e-06   -4.3232738562008245e-06   -1.0806028769517941e-06
6.3965944578499e-06   -4.3232738562008245e-06   -1.0806028769517941e-06
3.2382696078594276e-05   -1.097751879237897e-05   -4.0398225283152026e-05
3.2382696078594276e-05   -1.097751879237897e-05   -4.0398225283152026e-05
3.2382696078594276e-05   -1.097751879237897e-05   -4.0398225283152026e-05
3.2382696078594276e-05   -1.097751879237897e-05   -4.0398225283152026e-05
1.8869703196118764e-05   -7.720536620868957e-06   -1.9830759781932225e-05
1.8869703196118764e-05   -7.720536620868957e-06   -1.9830759781932225e-05
1.8869703196118764e-05   -7.720536620868957e-06   -1.9830759781932225e-05
1.8869703196118764e-05   -7.720536620868957e-06   -1.9830759781932225e-05
3.5920525310300245e-06   -3.079414973699516e-06   -4.55226930445724e-06
3.5920525310300245e-06   -3.079414973699516e-06   -4.55226930445724e-06
3.5920525310300245e-06   -3.079414973699516e-06   -4.55226930445724e-06
3.5920525310300245e-06   -3.079414973699516e-06   -4.55226930445724e-06
-2.2901218108047956e-05   -1.386373444736905e-05   -5.517831205378832e-05
-2.2901218108047956e-05   -1.386373444736905e-05   -5.517831205378832e-05
-2.2901218108047956e-05   -1.386373444736905e-05   -5.517831205378832e-05
-2.2901218108047956e-05   -1.386373444736905e-05   -5.517831205378832e-05
-2.1556892988574424e-05   -2.747244263438895e-06   -9.843189624526415e-06
-2.1556892988574424e-05   -2.747244263438895e-06   -9.843189624526415e-06
-2.1556892988574424e-05   -2.747244263438895e-06   -9.843189624526415e-06
-2.1556892988574424e-05   -2.747244263438895e-06   -9.843189624526415e-06
4.455002809995208e-06   -1.4169441200209687e-05   -4.6343031126746485e-05
4.455002809995208e-06   -1.4169441200209687e-05   -4.6343031126746485e-05
4.455002809995208e-06   -1.4169441200209687e-05   -4.6343031126746485e-05
4.455002809995208e-06   -1.4169441200209687e-05   -4.6343031126746485e-05
-8.797331425274151e-06   -7.836565450565925e-06   -2.8055532851083815e-05
-8.797331425274151e-06   -7.836565450565925e-06   -2.8055532851083815e-05
-8.797331425274151e-06   -7.836565450565925e-06   -2.8055532851083815e-05
-8.797331425274151e-06   -7.836565450565925e-06   -2.8055532851083815e-05
4.455002809995208e-06   -2.747244263438895e-06   -2.989871462463669e-06
4.455002809995208e-06   -2.747244263438895e-06   -2.989871462463669e-06
4.455002809995208e-06   -2.747244263438895e-06   -2.989871462463669e-06
4.455002809995208e-06   -2.747244263438895e-06   -2.989871462463669e-06
-2.1556892988574465e-05   -1.4169441200209687e-05   -5.319634928880896e-05
-2.1556892988574465e-05   -1.4169441200209687e-05   -5.319634928880896e-05
-2.1556892988574465e-05   -1.4169441200209687e-05   -5.319634928880896e-05
-2.1556892988574465e-05   -1.4169441200209687e-05   -5.319634928880896e-05
-2.039832602725915e-05   -2.2306742555669445e-06   -9.189622641839722e-06
-2.039832602725915e-05   -2.2306742555669445e-06   -9.189622641839722e-06
-2.039832602725915e-05   -2.2306742555669445e-06   -9.189622641839722e-06
-2.039832602725915e-05   -2.2306742555669445e-06   -9.189622641839722e-06
5.233942023867165e-06   -1.4102075491314366e-05   -4.478722865226847e-05
5.233942023867165e-06   -1.4102075491314366e-05   -4.478722865226847e-05
5.233942023867165e-06   -1.4102075491314366e-05   -4.478722865226847e-05
5.233942023867165e-06   -1.4102075491314366e-05   -4.478722865226847e-05
-7.842796482952492e-06   -8.013377258092678e-06   -2.6645883414168803e-05
-7.842796482952492e-06   -8.013377258092678e-06   -2.6645883414168803e-05
-7.842796482952492e-06   -8.013377258092678e-06   -2.6645883414168803e-05
-7.842796482952492e-06   -8.013377258092678e-06   -2.6645883414168803e-05
5.233942023867165e-06   -2.2306742555669445e-06   -2.0667819003912795e-06
5.233942023867165e-06   -2.2306742555669445e-06   -2.0667819003912795e-06
5.233942023867165e-06   -2.2306742555669445e-06   -2.0667819003912795e-06
5.233942023867165e-06   -2.2306742555669445e-06   -2.0667819003912795e-06
-2.0398326027259216e-05   -1.4102075491314366e-05   -5.1910069393716965e-05
-2.0398326027259216e-05   -1.4102075491314366e-05   -5.1910069393716965e-05
-2.0398326027259216e-05   -1.4102075491314366e-05   -5.1910069393716965e-05
-2.0398326027259216e-05   -1.4102075491314366e-05   -5.1910069393716965e-05
-1.839929025864138e-05   -1.7407392691407703e-06   -9.150905805683151e-06
-1.839929025864138e-05   -1.7407392691407703e-06   -9.150905805683151e-06
-1.839929025864138e-05   -1.7407392691407703e-06   -9.150905805683151e-06
-1.839929025864138e-05   -1.7407392691407703e-06   -9.150905805683151e-06
6.396594457849913e-06   -1.3606318895334393e-05   -4.335803255745311e-05
6.396594457849913e-06   -1.3606318895334393e-05   -4.335803255745311e-05
6.396594457849913e-06   -1.3606318895334393e-05   -4.335803255745311e-05
6.396594457849913e-06   -1.3606318895334393e-05   -4.335803255745311e-05
-6.602282905356953e-06   -7.8346744946257e-06   -2.5156223592533514e-05
-6.602282905356953e-06   -7.8346744946257e-06   -2.5156223592533514e-05
-6.602282905356953e-06   -7.8346744946257e-06   -2.5156223592533514e-05
-6.602282905356953e-06   -7.8346744946257e-06   -2.5156223592533514e-05
-2.2901218108047915e-05   7.937043235129414e-07   -6.383037827521988e-06
-2.2901218108047915e-05   7.937043235129414e-07   -6.383037827521988e-06
-2.2901218108047915e-05   7.937043235129414e-07   -6.383037827521988e-06
-2.2901218108047915e-05   7.937043235129414e-07   -6.383037827521988e-06
-5.245561960414303e-05   -1.7277534505802904e-05   -6.648311695193663e-05
-5.245561960414303e-05   -1.7277534505802904e-05   -6.648311695193663e-05
-5.245561960414303e-05   -1.7277534505802904e-05   -6.648311695193663e-05
-5.245561960414303e-05   -1.7277534505802904e-05   -6.648311695193663e-05
-5.08494740218282e-05   1.4071861945338937e-06   -1.6690250165047075e-05
-5.08494740218282e-05   1.4071861945338937e-06   -1.6690250165047075e-05
-5.08494740218282e-05   1.4071861945338937e-06   -1.6690250165047075e-05
-5.08494740218282e-05   1.4071861945338937e-06   -1.6690250165047075e-05
-2.1556892988574424e-05   -1.929554659637527e-05   -5.3089578879257984e-05
-2.1556892988574424e-05   -1.929554659637527e-05   -5.3089578879257984e-05
-2.1556892988574424e-05   -1.929554659637527e-05   -5.3089578879257984e-05
-2.1556892988574424e-05   -1.929554659637527e-05   -5.3089578879257984e-05
-3.640983046957353e-05   -8.781997231593333e-06   -3.464281269646176e-05
-3.640983046957353e-05   -8.781997231593333e-06   -3.464281269646176e-05
-3.640983046957353e-05   -8.781997231593333e-06   -3.464281269646176e-05
-3.640983046957353e-05   -8.781997231593333e-06   -3.464281269646176e-05
-2.1556892988574424e-05   1.4071861945338937e-06   -4.268610490501617e-06
-2.1556892988574424e-05   1.4071861945338937e-06   -4.268610490501617e-06
-2.1556892988574424e-05   1.4071861945338937e-06   -4.268610490501617e-06
-2.1556892988574424e-05   1.4071861945338937e-06   -4.268610490501617e-06
-5.084947402182829e-05   -1.929554659637527e-05   -6.551121855380361e-05
-5.084947402182829e-05   -1.929554659637527e-05   -6.551121855380361e-05
-5.084947402182829e-05   -1.929554659637527e-05   -6.551121855380361e-05
-5.084947402182829e-05   -1.929554659637527e-05   -6.551121855380361e-05
-4.930991289402418e-05   1.9718590940466865e-06   -1.4903425506136974e-05
-4.930991289402418e-05   1.9718590940466865e-06   -1.4903425506136974e-05
-4.930991289402418e-05   1.9718590940466865e-06   -1.4903425506136974e-05
-4.930991289402418e-05   1.9718590940466865e-06   -1.4903425506136974e-05
-2.0398326027259176e-05   -1.9402115780059112e-05   -5.026501869294809e-05
-2.0398326027259176e-05   -1.9402115780059112e-05   -5.026501869294809e-05
-2.0398326027259176e-05   -1.9402115780059112e-05   -5.026501869294809e-05
-2.0398326027259176e-05   -1.9402115780059112e-05   -5.026501869294809e-05
-3.484373693777726e-05   -8.810784322966971e-06   -3.254413271634011e-05
-3.484373693777726e-05   -8.810784322966971e-06   -3.254413271634011e-05
-3.484373693777726e-05   -8.810784322966971e-06   -3.254413271634011e-05
-3.484373693777726e-05   -8.810784322966971e-06   -3.254413271634011e-05
-2.0398326027259176e-05   1.9718590940466865e-06   -2.0790405816732197e-06
-2.0398326027259176e-05   1.9718590940466865e-06   -2.0790405816732197e-06
-2.0398326027259176e-05   1.9718590940466865e-06   -2.0790405816732197e-06
-2.0398326027259176e-05   1.9718590940466865e-06   -2.0790405816732197e-06
-4.930991289402426e-05   -1.9402115780059112e-05   -6.308940361741196e-05
-4.930991289402426e-05   -1.9402115780059112e-05   -6.308940361741196e-05
-4.930991289402426e-05   -1.9402115780059112e-05   -6.308940361741196e-05
-4.930991289402426e-05   -1.9402115780059112e-05   -6.308940361741196e-05
-4.678588927339156e-05   2.449350270628762e-06   -1.3084503431481194e-05
-4.678588927339156e-05   2.449350270628762e-06   -1.3084503431481194e-05
-4.678588927339156e-05   2.449350270628762e-06   -1.3084503431481194e-05
-4.678588927339156e-05   2.449350270628762e-06   -1.3084503431481194e-05
-1.8399290258641434e-05   -1.770009460542489e-05   -4.830583486376623e-05
-1.8399290258641434e-05   -1.770009460542489e-05   -4.830583486376623e-05
-1.8399290258641434e-05   -1.770009460542489e-05   -4.830583486376623e-05
-1.8399290258641434e-05   -1.770009460542489e-05   -4.830583486376623e-05
-3.329807026639497e-05   -7.7773848700868e-06   -2.9428160692046438e-05
-3.329807026639497e-05   -7.7773848700868e-06   -2.9428160692046438e-05
-3.329807026639497e-05   -7.7773848700868e-06   -2.9428160692046438e-05
-3.329807026639497e-05   -7.7773848700868e-06   -2.9428160692046438e-05
-5.245561960414303e-05   7.497060934615399e-06   -1.1295524863455286e-05
-5.245561960414303e-05   7.497060934615399e-06   -1.1295524863455286e-05
-5.245561960414303e-05   7.497060934615399e-06   -1.1295524863455286e-05
-5.245561960414303e-05   7.497060934615399e-06   -1.1295524863455286e-05
-9.02929871284732e-05   0.0   -7.885604063144133e-05
-9.02929871284732e-05   0.0   -7.885604063144133e-05
-9.02929871284732e-05   0.0   -7.885604063144133e-05
-9.02929871284732e-05   0.0   -7.885604063144133e-05
-8.794359616897464e-05   9.487438281802641e-06   -8.655417948728135e-06
-8.794359616897464e-05   9.487438281802641e-06   -8.655417948728135e-06
-8.794359616897464e-05   9.487438281802641e-06   -8.655417948728135e-06
-8.794359616897464e-05   9.487438281802641e-06   -8.655417948728135e-06
-5.08494740218282e-05   0.0   -6.478649189155727e-05
-5.08494740218282e-05   0.0   -6.478649189155727e-05
-5.08494740218282e-05   0.0   -6.478649189155727e-05
-5.08494740218282e-05   0.0   -6.478649189155727e-05
-6.739498061407091e-05   2.9017073913486548e-06   -3.8951672005961904e-05
-6.739498061407091e-05   2.9017073913486548e-06   -3.8951672005961904e-05
-6.739498061407091e-05   2.9017073913486548e-06   -3.8951672005961904e-05
-6.739498061407091e-05   2.9017073913486548e-06   -3.8951672005961904e-05
-5.0849474021828246e-05   9.487438281802641e-06   -2.962954979646336e-06
-5.0849474021828246e-05   9.487438281802641e-06   -2.962954979646336e-06
-5.0849474021828246e-05   9.487438281802641e-06   -2.962954979646336e-06
-5.0849474021828246e-05   9.487438281802641e-06   -2.962954979646336e-06
-8.794359616897449e-05   0.0   -7.04789548606386e-05
-8.794359616897449e-05   0.0   -7.04789548606386e-05
-8.794359616897449e-05   0.0   -7.04789548606386e-05
-8.794359616897449e-05   0.0   -7.04789548606386e-05
-8.595566646248191e-05   9.934905090173453e-06   -3.4175152582112314e-06
-8.595566646248191e-05   9.934905090173453e-06   -3.4175152582112314e-06
-8.595566646248191e-05   9.934905090173453e-06   -3.4175152582112314e-06
-8.595566646248191e-05   9.934905090173453e-06   -3.4175152582112314e-06
-4.930991289402426e-05   0.0   -5.853282815153674e-05
-4.930991289402426e-05   0.0   -5.853282815153674e-05
-4.930991289402426e-05   0.0   -5.853282815153674e-05
-4.930991289402426e-05   0.0   -5.853282815153674e-05
-6.669703680364424e-05   4.5947785690986405e-06   -3.2311155443628383e-05
-6.669703680364424e-05   4.5947785690986405e-06   -3.2311155443628383e-05
-6.669703680364424e-05   4.5947785690986405e-06   -3.2311155443628383e-05
-6.669703680364424e-05   4.5947785690986405e-06   -3.2311155443628383e-05
-4.930991289402426e-05   9.934905090173453e-06   2.5434277958928797e-06
-4.930991289402426e-05   9.934905090173453e-06   2.5434277958928797e-06
-4.930991289402426e-05   9.934905090173453e-06   2.5434277958928797e-06
-4.930991289402426e-05   9.934905090173453e-06   2.5434277958928797e-06
-8.595566646248175e-05   0.0   -6.449377120564047e-05
-8.595566646248175e-05   0.0   -6.449377120564047e-05
-8.595566646248175e-05   0.0   -6.449377120564047e-05
-8.595566646248175e-05   0.0   -6.449377120564047e-05
-8.198887033697183e-05   1.070240865638089e-05   5.0148291343265344e-06
-8.198887033697183e-05   1.070240865638089e-05   5.0148291343265344e-06
-8.198887033697183e-05   1.070240865638089e-05   5.0148291343265344e-06
-8.198887033697183e-05   1.070240865638089e-05   5.0148291343265344e-06
-4.678588927339161e-05   0.0   -4.723536077781178e-05
-4.678588927339161e-05   0.0   -4.723536077781178e-05
-4.678588927339161e-05   0.0   -4.723536077781178e-05
-4.678588927339161e-05   0.0   -4.723536077781178e-05
-6.323317689428555e-05   5.666450429715102e-06   -2.32230850008184e-05
-6.323317689428555e-05   5.666450429715102e-06   -2.32230850008184e-05
-6.323317689428555e-05   5.666450429715102e-06   -2.32230850008184e-05
-6.323317689428555e-05   5.666450429715102e-06   -2.32230850008184e-05
6.683553834737893e-05   -1.1470736483213794e-05   3.9884788254862736e-05
6.683553834737893e-05   -1.1470736483213794e-05   3.9884788254862736e-05
6.683553834737893e-05   -1.1470736483213794e-05   3.9884788254862736e-05
6.683553834737893e-05   -1.1470736483213794e-05   3.9884788254862736e-05
3.467000212931168e-05   -8.844241742989381e-06   -1.2148541931114804e-05
3.467000212931168e-05   -8.844241742989381e-06   -1.2148541931114804e-05
3.467000212931168e-05   -8.844241742989381e-06   -1.2148541931114804e-05
3.467000212931168e-05   -8.844241742989381e-06   -1.2148541931114804e-05
3.379912690330459e-05   -1.175770284842859e-05   3.521967892707945e-05
3.379912690330459e-05   -1.175770284842859e-05   3.521967892707945e-05
3.379912690330459e-05   -1.175770284842859e-05   3.521967892707945e-05
3.379912690330459e-05   -1.175770284842859e-05   3.521967892707945e-05
6.612256385945566e-05   -9.72295905293536e-06   -1.9873562277135338e-05
6.612256385945566e-05   -9.72295905293536e-06   -1.9873562277135338e-05
6.612256385945566e-05   -9.72295905293536e-06   -1.9873562277135338e-05
6.612256385945566e-05   -9.72295905293536e-06   -1.9873562277135338e-05
4.829592694962986e-05   -9.886795006440853e-06   9.935800811344516e-06
4.829592694962986e-05   -9.886795006440853e-06   9.935800811344516e-06
4.829592694962986e-05   -9.886795006440853e-06   9.935800811344516e-06
4.829592694962986e-05   -9.886795006440853e-06   9.935800811344516e-06
6.612256385945566e-05   -1.175770284842859e-05   3.399883264978328e-05
6.612256385945566e-05   -1.175770284842859e-05   3.399883264978328e-05
6.612256385945566e-05   -1.175770284842859e-05   3.399883264978328e-05
6.612256385945566e-05   -1.175770284842859e-05   3.399883264978328e-05
3.379912690330459e-05   -9.72295905293536e-06   -1.865271599983914e-05
3.379912690330459e-05   -9.72295905293536e-06   -1.865271599983914e-05
3.379912690330459e-05   -9.72295905293536e-06   -1.865271599983914e-05
3.379912690330459e-05   -9.72295905293536e-06   -1.865271599983914e-05
3.3011184997204336e-05   -1.1650926263789396e-05   3.161830123445488e-05
3.3011184997204336e-05   -1.1650926263789396e-05   3.161830123445488e-05
3.3011184997204336e-05   -1.1650926263789396e-05   3.161830123445488e-05
3.3011184997204336e-05   -1.1650926263789396e-05   3.161830123445488e-05
6.529749956868866e-05   -9.803408744587724e-06   -2.3300733562873393e-05
6.529749956868866e-05   -9.803408744587724e-06   -2.3300733562873393e-05
6.529749956868866e-05   -9.803408744587724e-06   -2.3300733562873393e-05
6.529749956868866e-05   -9.803408744587724e-06   -2.3300733562873393e-05
4.8260835276724525e-05   -1.0060204203311916e-05   5.247784198968023e-06
4.8260835276724525e-05   -1.0060204203311916e-05   5.247784198968023e-06
4.8260835276724525e-05   -1.0060204203311916e-05   5.247784198968023e-06
4.8260835276724525e-05   -1.0060204203311916e-05   5.247784198968023e-06
6.529749956868875e-05   -1.1650926263789396e-05   3.0509790722933815e-05
6.529749956868875e-05   -1.1650926263789396e-05   3.0509790722933815e-05
6.529749956868875e-05   -1.1650926263789396e-05   3.0509790722933815e-05
6.529749956868875e-05   -1.1650926263789396e-05   3.0509790722933815e-05
3.3011184997204336e-05   -9.803408744587724e-06   -2.2192223051352216e-05
3.3011184997204336e-05   -9.803408744587724e-06   -2.2192223051352216e-05
3.3011184997204336e-05   -9.803408744587724e-06   -2.2192223051352216e-05
3.3011184997204336e-05   -9.803408744587724e-06   -2.2192223051352216e-05
3.204980596438997e-05   -1.1002023218458813e-05   2.5759165371889775e-05
3.204980596438997e-05   -1.1002023218458813e-05   2.5759165371889775e-05
3.204980596438997e-05   -1.1002023218458813e-05   2.5759165371889775e-05
3.204980596438997e-05   -1.1002023218458813e-05   2.5759165371889775e-05
6.400472459622707e-05   -9.597468120368068e-06   -2.834176540669319e-05
6.400472459622707e-05   -9.597468120368068e-06   -2.834176540669319e-05
6.400472459622707e-05   -9.597468120368068e-06   -2.834176540669319e-05
6.400472459622707e-05   -9.597468120368068e-06   -2.834176540669319e-05
4.661473594883895e-05   -9.566115817827032e-06   6.227376240954116e-07
4.661473594883895e-05   -9.566115817827032e-06   6.227376240954116e-07
4.661473594883895e-05   -9.566115817827032e-06   6.227376240954116e-07
4.661473594883895e-05   -9.566115817827032e-06   6.227376240954116e-07
3.467000212931168e-05   -1.1499465032083472e-05   2.9794798680501705e-05
3.467000212931168e-05   -1.1499465032083472e-05   2.9794798680501705e-05
3.467000212931168e-05   -1.1499465032083472e-05   2.9794798680501705e-05
3.467000212931168e-05   -1.1499465032083472e-05   2.9794798680501705e-05
7.3662400154667404e-06   -5.462694486061889e-06   -1.2089409181627016e-05
7.3662400154667404e-06   -5.462694486061889e-06   -1.2089409181627016e-05
7.3662400154667404e-06   -5.462694486061889e-06   -1.2089409181627016e-05
7.3662400154667404e-06   -5.462694486061889e-06   -1.2089409181627016e-05
5.987991559773832e-06   -1.1439846031072263e-05   3.400649055196976e-05
5.987991559773832e-06   -1.1439846031072263e-05   3.400649055196976e-05
5.987991559773832e-06   -1.1439846031072263e-05   3.400649055196976e-05
5.987991559773832e-06   -1.1439846031072263e-05   3.400649055196976e-05
3.379912690330459e-05   -5.793541742494645e-06   -1.5733184260394682e-05
3.379912690330459e-05   -5.793541742494645e-06   -1.5733184260394682e-05
3.379912690330459e-05   -5.793541742494645e-06   -1.5733184260394682e-05
3.379912690330459e-05   -5.793541742494645e-06   -1.5733184260394682e-05
2.042706580990264e-05   -8.232326098020926e-06   8.016854841924256e-06
2.042706580990264e-05   -8.232326098020926e-06   8.016854841924256e-06
2.042706580990264e-05   -8.232326098020926e-06   8.016854841924256e-06
2.042706580990264e-05   -8.232326098020926e-06   8.016854841924256e-06
3.379912690330455e-05   -1.1439846031072263e-05   3.0618707978823106e-05
3.379912690330455e-05   -1.1439846031072263e-05   3.0618707978823106e-05
3.379912690330455e-05   -1.1439846031072263e-05   3.0618707978823106e-05
3.379912690330455e-05   -1.1439846031072263e-05   3.0618707978823106e-05
5.9879915597738456e-06   -5.793541742494645e-06   -1.2345401687248328e-05
5.9879915597738456e-06   -5.793541742494645e-06   -1.2345401687248328e-05
5.9879915597738456e-06   -5.793541742494645e-06   -1.2345401687248328e-05
5.9879915597738456e-06   -5.793541742494645e-06   -1.2345401687248328e-05
5.004940107592259e-06   -1.1285443547187895e-05   3.405496845703673e-05
5.004940107592259e-06   -1.1285443547187895e-05   3.405496845703673e-05
5.004940107592259e-06   -1.1285443547187895e-05   3.405496845703673e-05
5.004940107592259e-06   -1.1285443547187895e-05   3.405496845703673e-05
3.3011184997204336e-05   -5.9401001290073675e-06   -1.5829312409891766e-05
3.3011184997204336e-05   -5.9401001290073675e-06   -1.5829312409891766e-05
3.3011184997204336e-05   -5.9401001290073675e-06   -1.5829312409891766e-05
3.3011184997204336e-05   -5.9401001290073675e-06   -1.5829312409891766e-05
1.924512398982192e-05   -8.063234624989353e-06   8.388003300002105e-06
1.924512398982192e-05   -8.063234624989353e-06   8.388003300002105e-06
1.924512398982192e-05   -8.063234624989353e-06   8.388003300002105e-06
1.924512398982192e-05   -8.063234624989353e-06   8.388003300002105e-06
3.301118499720438e-05   -1.1285443547187895e-05   3.08477624061283e-05
3.301118499720438e-05   -1.1285443547187895e-05   3.08477624061283e-05
3.301118499720438e-05   -1.1285443547187895e-05   3.08477624061283e-05
3.301118499720438e-05   -1.1285443547187895e-05   3.08477624061283e-05
5.004940107592259e-06   -5.9401001290073675e-06   -1.2622106358983363e-05
5.004940107592259e-06   -5.9401001290073675e-06   -1.2622106358983363e-05
5.004940107592259e-06   -5.9401001290073675e-06   -1.2622106358983363e-05
5.004940107592259e-06   -5.9401001290073675e-06   -1.2622106358983363e-05
3.9114755381760945e-06   -1.097751879237897e-05   3.515970880464095e-05
3.9114755381760945e-06   -1.097751879237897e-05   3.515970880464095e-05
3.9114755381760945e-06   -1.097751879237897e-05   3.515970880464095e-05
3.9114755381760945e-06   -1.097751879237897e-05   3.515970880464095e-05
3.2049805964389945e-05   -5.8051648160733355e-06   -1.4840920958165537e-05
3.2049805964389945e-05   -5.8051648160733355e-06   -1.4840920958165537e-05
3.2049805964389945e-05   -5.8051648160733355e-06   -1.4840920958165537e-05
3.2049805964389945e-05   -5.8051648160733355e-06   -1.4840920958165537e-05
1.8522714412578286e-05   -7.708704017934161e-06   8.846355149304133e-06
1.8522714412578286e-05   -7.708704017934161e-06   8.846355149304133e-06
1.8522714412578286e-05   -7.708704017934161e-06   8.846355149304133e-06
1.8522714412578286e-05   -7.708704017934161e-06   8.846355149304133e-06
7.366240015466754e-06   -1.386373444736905e-05   3.0647952335922e-05
7.366240015466754e-06   -1.386373444736905e-05   3.0647952335922e-05
7.366240015466754e-06   -1.386373444736905e-05   3.0647952335922e-05
7.366240015466754e-06   -1.386373444736905e-05   3.0647952335922e-05
-1.886380373573553e-05   -2.2879659400095245e-06   -6.123326144999485e-06
-1.886380373573553e-05   -2.2879659400095245e-06   -6.123326144999485e-06
-1.886380373573553e-05   -2.2879659400095245e-06   -6.123326144999485e-06
-1.886380373573553e-05   -2.2879659400095245e-06   -6.123326144999485e-06
-2.1007674111603544e-05   -1.4169441200209687e-05   3.9382197461585626e-05
-2.1007674111603544e-05   -1.4169441200209687e-05   3.9382197461585626e-05
-2.1007674111603544e-05   -1.4169441200209687e-05   3.9382197461585626e-05
-2.1007674111603544e-05   -1.4169441200209687e-05   3.9382197461585626e-05
5.9879915597738456e-06   -2.4156777771529477e-06   -1.2662836711210823e-05
5.9879915597738456e-06   -2.4156777771529477e-06   -1.2662836711210823e-05
5.9879915597738456e-06   -2.4156777771529477e-06   -1.2662836711210823e-05
5.9879915597738456e-06   -2.4156777771529477e-06   -1.2662836711210823e-05
-6.3949408243161655e-06   -7.920761951714633e-06   1.1278434433676082e-05
-6.3949408243161655e-06   -7.920761951714633e-06   1.1278434433676082e-05
-6.3949408243161655e-06   -7.920761951714633e-06   1.1278434433676082e-05
-6.3949408243161655e-06   -7.920761951714633e-06   1.1278434433676082e-05
5.987991559773832e-06   -1.4169441200209687e-05   3.23299394077514e-05
5.987991559773832e-06   -1.4169441200209687e-05   3.23299394077514e-05
5.987991559773832e-06   -1.4169441200209687e-05   3.23299394077514e-05
5.987991559773832e-06   -1.4169441200209687e-05   3.23299394077514e-05
-2.1007674111603517e-05   -2.4156777771529477e-06   -5.610578657376866e-06
-2.1007674111603517e-05   -2.4156777771529477e-06   -5.610578657376866e-06
-2.1007674111603517e-05   -2.4156777771529477e-06   -5.610578657376866e-06
-2.1007674111603517e-05   -2.4156777771529477e-06   -5.610578657376866e-06
-2.2318369574938848e-05   -1.4102075491314366e-05   4.088160654958724e-05
-2.2318369574938848e-05   -1.4102075491314366e-05   4.088160654958724e-05
-2.2318369574938848e-05   -1.4102075491314366e-05   4.088160654958724e-05
-2.2318369574938848e-05   -1.4102075491314366e-05   4.088160654958724e-05
5.004940107592259e-06   -2.572251846853866e-06   -1.157513710797406e-05
5.004940107592259e-06   -2.572251846853866e-06   -1.157513710797406e-05
5.004940107592259e-06   -2.572251846853866e-06   -1.157513710797406e-05
5.004940107592259e-06   -2.572251846853866e-06   -1.157513710797406e-05
-7.84651000818135e-06   -7.89458850367986e-06   1.3037348412410824e-05
-7.84651000818135e-06   -7.89458850367986e-06   1.3037348412410824e-05
-7.84651000818135e-06   -7.89458850367986e-06   1.3037348412410824e-05
-7.84651000818135e-06   -7.89458850367986e-06   1.3037348412410824e-05
5.0049401075922455e-06   -1.4102075491314366e-05   3.3963712362910874e-05
5.0049401075922455e-06   -1.4102075491314366e-05   3.3963712362910874e-05
5.0049401075922455e-06   -1.4102075491314366e-05   3.3963712362910874e-05
5.0049401075922455e-06   -1.4102075491314366e-05   3.3963712362910874e-05
-2.2318369574938807e-05   -2.572251846853866e-06   -4.657242921297803e-06
-2.2318369574938807e-05   -2.572251846853866e-06   -4.657242921297803e-06
-2.2318369574938807e-05   -2.572251846853866e-06   -4.657242921297803e-06
-2.2318369574938807e-05   -2.572251846853866e-06   -4.657242921297803e-06
-2.385951685760392e-05   -1.3606318895334393e-05   4.282246878398264e-05
-2.385951685760392e-05   -1.3606318895334393e-05   4.282246878398264e-05
-2.385951685760392e-05   -1.3606318895334393e-05   4.282246878398264e-05
-2.385951685760392e-05   -1.3606318895334393e-05   4.282246878398264e-05
3.9114755381760945e-06   -2.556285075442765e-06   -1.0092538834252564e-05
3.9114755381760945e-06   -2.556285075442765e-06   -1.0092538834252564e-05
3.9114755381760945e-06   -2.556285075442765e-06   -1.0092538834252564e-05
3.9114755381760945e-06   -2.556285075442765e-06   -1.0092538834252564e-05
-9.028705495658132e-06   -7.579074840619558e-06   1.448810341457725e-05
-9.028705495658132e-06   -7.579074840619558e-06   1.448810341457725e-05
-9.028705495658132e-06   -7.579074840619558e-06   1.448810341457725e-05
-9.028705495658132e-06   -7.579074840619558e-06   1.448810341457725e-05
-1.886380373573557e-05   -1.7277534505802904e-05   3.713135183977897e-05
-1.886380373573557e-05   -1.7277534505802904e-05   3.713135183977897e-05
-1.886380373573557e-05   -1.7277534505802904e-05   3.713135183977897e-05
-1.886380373573557e-05   -1.7277534505802904e-05   3.713135183977897e-05
-4.8722503765007816e-05   2.486446213335273e-06   -7.747597775252264e-07
-4.8722503765007816e-05   2.486446213335273e-06   -7.747597775252264e-07
-4.8722503765007816e-05   2.486446213335273e-06   -7.747597775252264e-07
-4.8722503765007816e-05   2.486446213335273e-06   -7.747597775252264e-07
-5.130006784543916e-05   -1.929554659637527e-05   5.247051014562669e-05
-5.130006784543916e-05   -1.929554659637527e-05   5.247051014562669e-05
-5.130006784543916e-05   -1.929554659637527e-05   5.247051014562669e-05
-5.130006784543916e-05   -1.929554659637527e-05   5.247051014562669e-05
-2.1007674111603517e-05   2.3403571944415405e-06   -1.0998355018589307e-05
-2.1007674111603517e-05   2.3403571944415405e-06   -1.0998355018589307e-05
-2.1007674111603517e-05   2.3403571944415405e-06   -1.0998355018589307e-05
-2.1007674111603517e-05   2.3403571944415405e-06   -1.0998355018589307e-05
-3.4485509963802204e-05   -7.160647037285708e-06   1.7165307274111512e-05
-3.4485509963802204e-05   -7.160647037285708e-06   1.7165307274111512e-05
-3.4485509963802204e-05   -7.160647037285708e-06   1.7165307274111512e-05
-3.4485509963802204e-05   -7.160647037285708e-06   1.7165307274111512e-05
-2.1007674111603517e-05   -1.929554659637527e-05   3.94889678711366e-05
-2.1007674111603517e-05   -1.929554659637527e-05   3.94889678711366e-05
-2.1007674111603517e-05   -1.929554659637527e-05   3.94889678711366e-05
-2.1007674111603517e-05   -1.929554659637527e-05   3.94889678711366e-05
-5.130006784543908e-05   2.3403571944415405e-06   1.983187255900779e-06
-5.130006784543908e-05   2.3403571944415405e-06   1.983187255900779e-06
-5.130006784543908e-05   2.3403571944415405e-06   1.983187255900779e-06
-5.130006784543908e-05   2.3403571944415405e-06   1.983187255900779e-06
-5.2870861278795476e-05   -1.9402115780059112e-05   5.5409581020400165e-05
-5.2870861278795476e-05   -1.9402115780059112e-05   5.5409581020400165e-05
-5.2870861278795476e-05   -1.9402115780059112e-05   5.5409581020400165e-05
-5.2870861278795476e-05   -1.9402115780059112e-05   5.5409581020400165e-05
-2.2318369574938807e-05   2.069423836680972e-06   -8.394162256071536e-06
-2.2318369574938807e-05   2.069423836680972e-06   -8.394162256071536e-06
-2.2318369574938807e-05   2.069423836680972e-06   -8.394162256071536e-06
-2.2318369574938807e-05   2.069423836680972e-06   -8.394162256071536e-06
-3.615910460843299e-05   -8.24877324929335e-06   2.086464771800336e-05
-3.615910460843299e-05   -8.24877324929335e-06   2.086464771800336e-05
-3.615910460843299e-05   -8.24877324929335e-06   2.086464771800336e-05
-3.615910460843299e-05   -8.24877324929335e-06   2.086464771800336e-05
-2.2318369574938807e-05   -1.9402115780059112e-05   4.252665725035606e-05
-2.2318369574938807e-05   -1.9402115780059112e-05   4.252665725035606e-05
-2.2318369574938807e-05   -1.9402115780059112e-05   4.252665725035606e-05
-2.2318369574938807e-05   -1.9402115780059112e-05   4.252665725035606e-05
-5.2870861278795354e-05   2.069423836680972e-06   4.488761513972515e-06
-5.2870861278795354e-05   2.069423836680972e-06   4.488761513972515e-06
-5.2870861278795354e-05   2.069423836680972e-06   4.488761513972515e-06
-5.2870861278795354e-05   2.069423836680972e-06   4.488761513972515e-06
-5.456362051118306e-05   -1.770009460542489e-05   5.667154355958959e-05
-5.456362051118306e-05   -1.770009460542489e-05   5.667154355958959e-05
-5.456362051118306e-05   -1.770009460542489e-05   5.667154355958959e-05
-5.456362051118306e-05   -1.770009460542489e-05   5.667154355958959e-05
-2.385951685760392e-05   1.7624542382492156e-06   -6.179491835913396e-06
-2.385951685760392e-05   1.7624542382492156e-06   -6.179491835913396e-06
-2.385951685760392e-05   1.7624542382492156e-06   -6.179491835913396e-06
-2.385951685760392e-05   1.7624542382492156e-06   -6.179491835913396e-06
-3.788446373312306e-05   -8.30962024043016e-06   2.3238664310493086e-05
-3.788446373312306e-05   -8.30962024043016e-06   2.3238664310493086e-05
-3.788446373312306e-05   -8.30962024043016e-06   2.3238664310493086e-05
-3.788446373312306e-05   -8.30962024043016e-06   2.3238664310493086e-05
-4.8722503765007654e-05   0.0   4.1115053152525284e-05
-4.8722503765007654e-05   0.0   4.1115053152525284e-05
-4.8722503765007654e-05   0.0   4.1115053152525284e-05
-4.8722503765007654e-05   0.0   4.1115053152525284e-05
-8.578031096220687e-05   1.1251042025116342e-05   -1.3897333627736676e-05
-8.578031096220687e-05   1.1251042025116342e-05   -1.3897333627736676e-05
-8.578031096220687e-05   1.1251042025116342e-05   -1.3897333627736676e-05
-8.578031096220687e-05   1.1251042025116342e-05   -1.3897333627736676e-05
-8.93325842570879e-05   0.0   5.9712458652970814e-05
-8.93325842570879e-05   0.0   5.9712458652970814e-05
-8.93325842570879e-05   0.0   5.9712458652970814e-05
-8.93325842570879e-05   0.0   5.9712458652970814e-05
-5.130006784543908e-05   1.0862036408496815e-05   -1.0192290544875499e-05
-5.130006784543908e-05   1.0862036408496815e-05   -1.0192290544875499e-05
-5.130006784543908e-05   1.0862036408496815e-05   -1.0192290544875499e-05
-5.130006784543908e-05   1.0862036408496815e-05   -1.0192290544875499e-05
-6.585129404996801e-05   6.674921358482697e-06   1.6572022159347995e-05
-6.585129404996801e-05   6.674921358482697e-06   1.6572022159347995e-05
-6.585129404996801e-05   6.674921358482697e-06   1.6572022159347995e-05
-6.585129404996801e-05   6.674921358482697e-06   1.6572022159347995e-05
-5.130006784543905e-05   0.0   5.3195236807872866e-05
-5.130006784543905e-05   0.0   5.3195236807872866e-05
-5.130006784543905e-05   0.0   5.3195236807872866e-05
-5.130006784543905e-05   0.0   5.3195236807872866e-05
-8.933258425708804e-05   1.0862036408496815e-05   -3.6750686997772796e-06
-8.933258425708804e-05   1.0862036408496815e-05   -3.6750686997772796e-06
-8.933258425708804e-05   1.0862036408496815e-05   -3.6750686997772796e-06
-8.933258425708804e-05   1.0862036408496815e-05   -3.6750686997772796e-06
-9.112132064625851e-05   0.0   6.631690893105203e-05
-9.112132064625851e-05   0.0   6.631690893105203e-05
-9.112132064625851e-05   0.0   6.631690893105203e-05
-9.112132064625851e-05   0.0   6.631690893105203e-05
-5.2870861278795354e-05   1.0584587407961796e-05   -3.78460912616352e-06
-5.2870861278795354e-05   1.0584587407961796e-05   -3.78460912616352e-06
-5.2870861278795354e-05   1.0584587407961796e-05   -3.78460912616352e-06
-5.2870861278795354e-05   1.0584587407961796e-05   -3.78460912616352e-06
-6.928097651799367e-05   5.574399747496333e-06   2.657169553544681e-05
-6.928097651799367e-05   5.574399747496333e-06   2.657169553544681e-05
-6.928097651799367e-05   5.574399747496333e-06   2.657169553544681e-05
-6.928097651799367e-05   5.574399747496333e-06   2.657169553544681e-05
-5.2870861278795354e-05   0.0   5.996615648627522e-05
-5.2870861278795354e-05   0.0   5.996615648627522e-05
-5.2870861278795354e-05   0.0   5.996615648627522e-05
-5.2870861278795354e-05   0.0   5.996615648627522e-05
-9.112132064625866e-05   1.0584587407961796e-05   2.5661433186135573e-06
-9.112132064625866e-05   1.0584587407961796e-05   2.5661433186135573e-06
-9.112132064625866e-05   1.0584587407961796e-05   2.5661433186135573e-06
-9.112132064625866e-05   1.0584587407961796e-05   2.5661433186135573e-06
-9.311203285561202e-05   0.0   7.512322361059821e-05
-9.311203285561202e-05   0.0   7.512322361059821e-05
-9.311203285561202e-05   0.0   7.512322361059821e-05
-9.311203285561202e-05   0.0   7.512322361059821e-05
-5.4563620511183e-05   8.81923173237176e-06   5.584330663793756e-06
-5.4563620511183e-05   8.81923173237176e-06   5.584330663793756e-06
-5.4563620511183e-05   8.81923173237176e-06   5.584330663793756e-06
-5.4563620511183e-05   8.81923173237176e-06   5.584330663793756e-06
-6.985384609355264e-05   3.915331010127246e-06   3.401038040108889e-05
-6.985384609355264e-05   3.915331010127246e-06   3.401038040108889e-05
-6.985384609355264e-05   3.915331010127246e-06   3.401038040108889e-05
-6.985384609355264e-05   3.915331010127246e-06   3.401038040108889e-05
5.88077760957336e-05   -8.844241742989381e-06   4.17314118496791e-05
5.88077760957336e-05   -8.844241742989381e-06   4.17314118496791e-05
5.88077760957336e-05   -8.844241742989381e-06   4.17314118496791e-05
5.88077760957336e-05   -8.844241742989381e-06   4.17314118496791e-05
2.973789710156105e-05   -6.674564033697268e-06   -5.4165798483666455e-06
2.973789710156105e-05   -6.674564033697268e-06   -5.4165798483666455e-06
2.973789710156105e-05   -6.674564033697268e-06   -5.4165798483666455e-06
2.973789710156105e-05   -6.674564033697268e-06   -5.4165798483666455e-06
2.8954423656158773e-05   -9.722959052934927e-06   3.642186465913056e-05
2.8954423656158773e-05   -9.722959052934927e-06   3.642186465913056e-05
2.8954423656158773e-05   -9.722959052934927e-06   3.642186465913056e-05
2.8954423656158773e-05   -9.722959052934927e-06   3.642186465913056e-05
5.740956444411302e-05   -7.563718908476513e-06   -1.2298914074134956e-05
5.740956444411302e-05   -7.563718908476513e-06   -1.2298914074134956e-05
5.740956444411302e-05   -7.563718908476513e-06   -1.2298914074134956e-05
5.740956444411302e-05   -7.563718908476513e-06   -1.2298914074134956e-05
4.17807438311924e-05   -7.873900710214134e-06   1.3935229361775525e-05
4.17807438311924e-05   -7.873900710214134e-06   1.3935229361775525e-05
4.17807438311924e-05   -7.873900710214134e-06   1.3935229361775525e-05
4.17807438311924e-05   -7.873900710214134e-06   1.3935229361775525e-05
5.740956444411292e-05   -9.722959052934927e-06   3.512632057245548e-05
5.740956444411292e-05   -9.722959052934927e-06   3.512632057245548e-05
5.740956444411292e-05   -9.722959052934927e-06   3.512632057245548e-05
5.740956444411292e-05   -9.722959052934927e-06   3.512632057245548e-05
2.8954423656158814e-05   -7.563718908476513e-06   -1.1003369987459604e-05
2.8954423656158814e-05   -7.563718908476513e-06   -1.1003369987459604e-05
2.8954423656158814e-05   -7.563718908476513e-06   -1.1003369987459604e-05
2.8954423656158814e-05   -7.563718908476513e-06   -1.1003369987459604e-05
2.7944896044015626e-05   -9.80340874458729e-06   3.268959667268091e-05
2.7944896044015626e-05   -9.80340874458729e-06   3.268959667268091e-05
2.7944896044015626e-05   -9.80340874458729e-06   3.268959667268091e-05
2.7944896044015626e-05   -9.80340874458729e-06   3.268959667268091e-05
5.5995192549751644e-05   -7.695619018310406e-06   -1.5325571339312076e-05
5.5995192549751644e-05   -7.695619018310406e-06   -1.5325571339312076e-05
5.5995192549751644e-05   -7.695619018310406e-06   -1.5325571339312076e-05
5.5995192549751644e-05   -7.695619018310406e-06   -1.5325571339312076e-05
4.138975228479218e-05   -8.217459483928803e-06   9.329933381657966e-06
4.138975228479218e-05   -8.217459483928803e-06   9.329933381657966e-06
4.138975228479218e-05   -8.217459483928803e-06   9.329933381657966e-06
4.138975228479218e-05   -8.217459483928803e-06   9.329933381657966e-06
5.5995192549751644e-05   -9.803408744587724e-06   3.14249228369148e-05
5.5995192549751644e-05   -9.803408744587724e-06   3.14249228369148e-05
5.5995192549751644e-05   -9.803408744587724e-06   3.14249228369148e-05
5.5995192549751644e-05   -9.803408744587724e-06   3.14249228369148e-05
2.7944896044015626e-05   -7.695619018310406e-06   -1.4060897503545859e-05
2.7944896044015626e-05   -7.695619018310406e-06   -1.4060897503545859e-05
2.7944896044015626e-05   -7.695619018310406e-06   -1.4060897503545859e-05
2.7944896044015626e-05   -7.695619018310406e-06   -1.4060897503545859e-05
2.6885623594941497e-05   -9.597468120368068e-06   2.7152373879532274e-05
2.6885623594941497e-05   -9.597468120368068e-06   2.7152373879532274e-05
2.6885623594941497e-05   -9.597468120368068e-06   2.7152373879532274e-05
2.6885623594941497e-05   -9.597468120368068e-06   2.7152373879532274e-05
5.422461945309635e-05   -7.645769558539423e-06   -1.9583638354489594e-05
5.422461945309635e-05   -7.645769558539423e-06   -1.9583638354489594e-05
5.422461945309635e-05   -7.645769558539423e-06   -1.9583638354489594e-05
5.422461945309635e-05   -7.645769558539423e-06   -1.9583638354489594e-05
3.954718922446988e-05   -8.00195465286012e-06   5.092456416481051e-06
3.954718922446988e-05   -8.00195465286012e-06   5.092456416481051e-06
3.954718922446988e-05   -8.00195465286012e-06   5.092456416481051e-06
3.954718922446988e-05   -8.00195465286012e-06   5.092456416481051e-06
2.973789710156105e-05   -5.462694486061889e-06   3.947028889712931e-05
2.973789710156105e-05   -5.462694486061889e-06   3.947028889712931e-05
2.973789710156105e-05   -5.462694486061889e-06   3.947028889712931e-05
2.973789710156105e-05   -5.462694486061889e-06   3.947028889712931e-05
3.2490479357913317e-06   -2.353598543543365e-06   -2.8123354803091544e-06
3.2490479357913317e-06   -2.353598543543365e-06   -2.8123354803091544e-06
3.2490479357913317e-06   -2.353598543543365e-06   -2.8123354803091544e-06
3.2490479357913317e-06   -2.353598543543365e-06   -2.8123354803091544e-06
2.4706242471128045e-06   -5.793541742494645e-06   4.111883852384404e-05
2.4706242471128045e-06   -5.793541742494645e-06   4.111883852384404e-05
2.4706242471128045e-06   -5.793541742494645e-06   4.111883852384404e-05
2.4706242471128045e-06   -5.793541742494645e-06   4.111883852384404e-05
2.8954423656158814e-05   -2.8311382003795398e-06   -4.798269283168332e-06
2.8954423656158814e-05   -2.8311382003795398e-06   -4.798269283168332e-06
2.8954423656158814e-05   -2.8311382003795398e-06   -4.798269283168332e-06
2.8954423656158814e-05   -2.8311382003795398e-06   -4.798269283168332e-06
1.594864302485388e-05   -3.822055510118751e-06   1.747258215485008e-05
1.594864302485388e-05   -3.822055510118751e-06   1.747258215485008e-05
1.594864302485388e-05   -3.822055510118751e-06   1.747258215485008e-05
1.594864302485388e-05   -3.822055510118751e-06   1.747258215485008e-05
2.8954423656158787e-05   -5.793541742494645e-06   3.9341396398574773e-05
2.8954423656158787e-05   -5.793541742494645e-06   3.9341396398574773e-05
2.8954423656158787e-05   -5.793541742494645e-06   3.9341396398574773e-05
2.8954423656158787e-05   -5.793541742494645e-06   3.9341396398574773e-05
2.4706242471128045e-06   -2.8311382003795398e-06   -3.020827157899312e-06
2.4706242471128045e-06   -2.8311382003795398e-06   -3.020827157899312e-06
2.4706242471128045e-06   -2.8311382003795398e-06   -3.020827157899312e-06
2.4706242471128045e-06   -2.8311382003795398e-06   -3.020827157899312e-06
1.4770846001202438e-06   -5.940100129007801e-06   4.073022171495184e-05
1.4770846001202438e-06   -5.940100129007801e-06   4.073022171495184e-05
1.4770846001202438e-06   -5.940100129007801e-06   4.073022171495184e-05
1.4770846001202438e-06   -5.940100129007801e-06   4.073022171495184e-05
2.7944896044015626e-05   -3.1439094609897467e-06   -5.060511759017632e-06
2.7944896044015626e-05   -3.1439094609897467e-06   -5.060511759017632e-06
2.7944896044015626e-05   -3.1439094609897467e-06   -5.060511759017632e-06
2.7944896044015626e-05   -3.1439094609897467e-06   -5.060511759017632e-06
1.496128983947235e-05   -4.002621259139097e-06   1.7094058994111404e-05
1.496128983947235e-05   -4.002621259139097e-06   1.7094058994111404e-05
1.496128983947235e-05   -4.002621259139097e-06   1.7094058994111404e-05
1.496128983947235e-05   -4.002621259139097e-06   1.7094058994111404e-05
2.7944896044015586e-05   -5.9401001290073675e-06   3.905250731414136e-05
2.7944896044015586e-05   -5.9401001290073675e-06   3.905250731414136e-05
2.7944896044015586e-05   -5.9401001290073675e-06   3.905250731414136e-05
2.7944896044015586e-05   -5.9401001290073675e-06   3.905250731414136e-05
1.4770846001202438e-06   -3.1439094609897467e-06   -3.382797358207146e-06
1.4770846001202438e-06   -3.1439094609897467e-06   -3.382797358207146e-06
1.4770846001202438e-06   -3.1439094609897467e-06   -3.382797358207146e-06
1.4770846001202438e-06   -3.1439094609897467e-06   -3.382797358207146e-06
3.7955058771859665e-07   -5.8051648160733355e-06   4.132716596582102e-05
3.7955058771859665e-07   -5.8051648160733355e-06   4.132716596582102e-05
3.7955058771859665e-07   -5.8051648160733355e-06   4.132716596582102e-05
3.7955058771859665e-07   -5.8051648160733355e-06   4.132716596582102e-05
2.6885623594941456e-05   -3.2773636550477957e-06   -4.366303076165732e-06
2.6885623594941456e-05   -3.2773636550477957e-06   -4.366303076165732e-06
2.6885623594941456e-05   -3.2773636550477957e-06   -4.366303076165732e-06
2.6885623594941456e-05   -3.2773636550477957e-06   -4.366303076165732e-06
1.4157564692454276e-05   -3.964142975548682e-06   1.7259196020280674e-05
1.4157564692454276e-05   -3.964142975548682e-06   1.7259196020280674e-05
1.4157564692454276e-05   -3.964142975548682e-06   1.7259196020280674e-05
1.4157564692454276e-05   -3.964142975548682e-06   1.7259196020280674e-05
3.2490479357913453e-06   -2.2879659400095245e-06   4.035636839485232e-05
3.2490479357913453e-06   -2.2879659400095245e-06   4.035636839485232e-05
3.2490479357913453e-06   -2.2879659400095245e-06   4.035636839485232e-05
3.2490479357913453e-06   -2.2879659400095245e-06   4.035636839485232e-05
-2.2413944960847896e-05   2.094994321588401e-06   2.1448972407911437e-07
-2.2413944960847896e-05   2.094994321588401e-06   2.1448972407911437e-07
-2.2413944960847896e-05   2.094994321588401e-06   2.1448972407911437e-07
-2.2413944960847896e-05   2.094994321588401e-06   2.1448972407911437e-07
-2.329106310815018e-05   -2.4156777771529477e-06   4.3288827567070694e-05
-2.329106310815018e-05   -2.4156777771529477e-06   4.3288827567070694e-05
-2.329106310815018e-05   -2.4156777771529477e-06   4.3288827567070694e-05
-2.329106310815018e-05   -2.4156777771529477e-06   4.3288827567070694e-05
2.4706242471128045e-06   1.73002900149535e-06   -2.134742092223382e-06
2.4706242471128045e-06   1.73002900149535e-06   -2.134742092223382e-06
2.4706242471128045e-06   1.73002900149535e-06   -2.134742092223382e-06
2.4706242471128045e-06   1.73002900149535e-06   -2.134742092223382e-06
-9.97804232251476e-06   -2.7453836356616107e-08   1.966752522653372e-05
-9.97804232251476e-06   -2.7453836356616107e-08   1.966752522653372e-05
-9.97804232251476e-06   -2.7453836356616107e-08   1.966752522653372e-05
-9.97804232251476e-06   -2.7453836356616107e-08   1.966752522653372e-05
2.4706242471128045e-06   -2.4156777771529477e-06   4.080140349988168e-05
2.4706242471128045e-06   -2.4156777771529477e-06   4.080140349988168e-05
2.4706242471128045e-06   -2.4156777771529477e-06   4.080140349988168e-05
2.4706242471128045e-06   -2.4156777771529477e-06   4.080140349988168e-05
-2.329106310815018e-05   1.73002900149535e-06   3.526819749657701e-07
-2.329106310815018e-05   1.73002900149535e-06   3.526819749657701e-07
-2.329106310815018e-05   1.73002900149535e-06   3.526819749657701e-07
-2.329106310815018e-05   1.73002900149535e-06   3.526819749657701e-07
-2.446663679334961e-05   -2.5722518468534322e-06   4.415471753067791e-05
-2.446663679334961e-05   -2.5722518468534322e-06   4.415471753067791e-05
-2.446663679334961e-05   -2.5722518468534322e-06   4.415471753067791e-05
-2.446663679334961e-05   -2.5722518468534322e-06   4.415471753067791e-05
1.4770846001202438e-06   1.3902924276745082e-06   -1.4623446898220753e-06
1.4770846001202438e-06   1.3902924276745082e-06   -1.4623446898220753e-06
1.4770846001202438e-06   1.3902924276745082e-06   -1.4623446898220753e-06
1.4770846001202438e-06   1.3902924276745082e-06   -1.4623446898220753e-06
-1.084314927929413e-05   -1.2969476918464617e-07   1.9983370760650807e-05
-1.084314927929413e-05   -1.2969476918464617e-07   1.9983370760650807e-05
-1.084314927929413e-05   -1.2969476918464617e-07   1.9983370760650807e-05
-1.084314927929413e-05   -1.2969476918464617e-07   1.9983370760650807e-05
1.4770846001202438e-06   -2.572251846853866e-06   4.177719096596112e-05
1.4770846001202438e-06   -2.572251846853866e-06   4.177719096596112e-05
1.4770846001202438e-06   -2.572251846853866e-06   4.177719096596112e-05
1.4770846001202438e-06   -2.572251846853866e-06   4.177719096596112e-05
-2.446663679334961e-05   1.3902924276745082e-06   9.151818748949058e-07
-2.446663679334961e-05   1.3902924276745082e-06   9.151818748949058e-07
-2.446663679334961e-05   1.3902924276745082e-06   9.151818748949058e-07
-2.446663679334961e-05   1.3902924276745082e-06   9.151818748949058e-07
-2.5719117247860362e-05   -2.556285075442765e-06   4.5193335905739e-05
-2.5719117247860362e-05   -2.556285075442765e-06   4.5193335905739e-05
-2.5719117247860362e-05   -2.556285075442765e-06   4.5193335905739e-05
-2.5719117247860362e-05   -2.556285075442765e-06   4.5193335905739e-05
3.7955058771859665e-07   1.1457152608719372e-06   -5.256440220146718e-07
3.7955058771859665e-07   1.1457152608719372e-06   -5.256440220146718e-07
3.7955058771859665e-07   1.1457152608719372e-06   -5.256440220146718e-07
3.7955058771859665e-07   1.1457152608719372e-06   -5.256440220146718e-07
-1.1946274801146828e-05   -2.028741300078886e-07   2.0826551927289618e-05
-1.1946274801146828e-05   -2.028741300078886e-07   2.0826551927289618e-05
-1.1946274801146828e-05   -2.028741300078886e-07   2.0826551927289618e-05
-1.1946274801146828e-05   -2.028741300078886e-07   2.0826551927289618e-05
-2.2413944960847815e-05   2.486446213334839e-06   3.647632248780235e-05
-2.2413944960847815e-05   2.486446213334839e-06   3.647632248780235e-05
-2.2413944960847815e-05   2.486446213334839e-06   3.647632248780235e-05
-2.2413944960847815e-05   2.486446213334839e-06   3.647632248780235e-05
-4.755913611044431e-05   6.820569676458613e-06   -2.8318553503177153e-06
-4.755913611044431e-05   6.820569676458613e-06   -2.8318553503177153e-06
-4.755913611044431e-05   6.820569676458613e-06   -2.8318553503177153e-06
-4.755913611044431e-05   6.820569676458613e-06   -2.8318553503177153e-06
-4.883587367847782e-05   2.3403571944415405e-06   4.03698274158786e-05
-4.883587367847782e-05   2.3403571944415405e-06   4.03698274158786e-05
-4.883587367847782e-05   2.3403571944415405e-06   4.03698274158786e-05
-4.883587367847782e-05   2.3403571944415405e-06   4.03698274158786e-05
-2.329106310815014e-05   6.454984211142194e-06   -4.673633078021173e-06
-2.329106310815014e-05   6.454984211142194e-06   -4.673633078021173e-06
-2.329106310815014e-05   6.454984211142194e-06   -4.673633078021173e-06
-2.329106310815014e-05   6.454984211142194e-06   -4.673633078021173e-06
-3.5245330345159314e-05   4.603603103664174e-06   1.636097431481447e-05
-3.5245330345159314e-05   4.603603103664174e-06   1.636097431481447e-05
-3.5245330345159314e-05   4.603603103664174e-06   1.636097431481447e-05
-3.5245330345159314e-05   4.603603103664174e-06   1.636097431481447e-05
-2.329106310815018e-05   2.340357194441107e-06   3.790105120585828e-05
-2.329106310815018e-05   2.340357194441107e-06   3.790105120585828e-05
-2.329106310815018e-05   2.340357194441107e-06   3.790105120585828e-05
-2.329106310815018e-05   2.340357194441107e-06   3.790105120585828e-05
-4.883587367847774e-05   6.454984211142628e-06   -2.20485686800039e-06
-4.883587367847774e-05   6.454984211142628e-06   -2.20485686800039e-06
-4.883587367847774e-05   6.454984211142628e-06   -2.20485686800039e-06
-4.883587367847774e-05   6.454984211142628e-06   -2.20485686800039e-06
-5.040077074374024e-05   2.069423836680972e-06   4.284610385341266e-05
-5.040077074374024e-05   2.069423836680972e-06   4.284610385341266e-05
-5.040077074374024e-05   2.069423836680972e-06   4.284610385341266e-05
-5.040077074374024e-05   2.069423836680972e-06   4.284610385341266e-05
-2.446663679334961e-05   6.116599932528156e-06   -2.8057583880800215e-06
-2.446663679334961e-05   6.116599932528156e-06   -2.8057583880800215e-06
-2.446663679334961e-05   6.116599932528156e-06   -2.8057583880800215e-06
-2.446663679334961e-05   6.116599932528156e-06   -2.8057583880800215e-06
-3.6195802824189304e-05   4.519895216979026e-06   1.770087449264892e-05
-3.6195802824189304e-05   4.519895216979026e-06   1.770087449264892e-05
-3.6195802824189304e-05   4.519895216979026e-06   1.770087449264892e-05
-3.6195802824189304e-05   4.519895216979026e-06   1.770087449264892e-05
-2.446663679334961e-05   2.069423836680972e-06   4.041779819590437e-05
-2.446663679334961e-05   2.069423836680972e-06   4.041779819590437e-05
-2.446663679334961e-05   2.069423836680972e-06   4.041779819590437e-05
-2.446663679334961e-05   2.069423836680972e-06   4.041779819590437e-05
-5.0400770743740185e-05   6.116599932528156e-06   -3.7745273057153764e-07
-5.0400770743740185e-05   6.116599932528156e-06   -3.7745273057153764e-07
-5.0400770743740185e-05   6.116599932528156e-06   -3.7745273057153764e-07
-5.0400770743740185e-05   6.116599932528156e-06   -3.7745273057153764e-07
-5.2056282282140836e-05   1.7624542382492156e-06   4.481572740832598e-05
-5.2056282282140836e-05   1.7624542382492156e-06   4.481572740832598e-05
-5.2056282282140836e-05   1.7624542382492156e-06   4.481572740832598e-05
-5.2056282282140836e-05   1.7624542382492156e-06   4.481572740832598e-05
-2.5719117247860308e-05   5.6613955652208905e-06   -1.4189124449910835e-06
-2.5719117247860308e-05   5.6613955652208905e-06   -1.4189124449910835e-06
-2.5719117247860308e-05   5.6613955652208905e-06   -1.4189124449910835e-06
-2.5719117247860308e-05   5.6613955652208905e-06   -1.4189124449910835e-06
-3.778073420266861e-05   4.245531894827171e-06   1.9533300681926586e-05
-3.778073420266861e-05   4.245531894827171e-06   1.9533300681926586e-05
-3.778073420266861e-05   4.245531894827171e-06   1.9533300681926586e-05
-3.778073420266861e-05   4.245531894827171e-06   1.9533300681926586e-05
-4.755913611044431e-05   1.1251042025116342e-05   1.920359750039516e-05
-4.755913611044431e-05   1.1251042025116342e-05   1.920359750039516e-05
-4.755913611044431e-05   1.1251042025116342e-05   1.920359750039516e-05
-4.755913611044431e-05   1.1251042025116342e-05   1.920359750039516e-05
-7.164571026554222e-05   1.1092470126815822e-05   -2.1035835897081348e-05
-7.164571026554222e-05   1.1092470126815822e-05   -2.1035835897081348e-05
-7.164571026554222e-05   1.1092470126815822e-05   -2.1035835897081348e-05
-7.164571026554222e-05   1.1092470126815822e-05   -2.1035835897081348e-05
-7.393801664948865e-05   1.0862036408497248e-05   2.846111111202217e-05
-7.393801664948865e-05   1.0862036408497248e-05   2.846111111202217e-05
-7.393801664948865e-05   1.0862036408497248e-05   2.846111111202217e-05
-7.393801664948865e-05   1.0862036408497248e-05   2.846111111202217e-05
-4.883587367847774e-05   1.130663890336293e-05   -1.3642555336582617e-05
-4.883587367847774e-05   1.130663890336293e-05   -1.3642555336582617e-05
-4.883587367847774e-05   1.130663890336293e-05   -1.3642555336582617e-05
-4.883587367847774e-05   1.130663890336293e-05   -1.3642555336582617e-05
-5.80596810261116e-05   1.1301980132454167e-05   1.7332521720191249e-06
-5.80596810261116e-05   1.1301980132454167e-05   1.7332521720191249e-06
-5.80596810261116e-05   1.1301980132454167e-05   1.7332521720191249e-06
-5.80596810261116e-05   1.1301980132454167e-05   1.7332521720191249e-06
-4.8835873678477684e-05   1.0862036408497248e-05   2.8194349615102434e-05
-4.8835873678477684e-05   1.0862036408497248e-05   2.8194349615102434e-05
-4.8835873678477684e-05   1.0862036408497248e-05   2.8194349615102434e-05
-4.8835873678477684e-05   1.0862036408497248e-05   2.8194349615102434e-05
-7.393801664948865e-05   1.130663890336293e-05   -1.3375793839662774e-05
-7.393801664948865e-05   1.130663890336293e-05   -1.3375793839662774e-05
-7.393801664948865e-05   1.130663890336293e-05   -1.3375793839662774e-05
-7.393801664948865e-05   1.130663890336293e-05   -1.3375793839662774e-05
-7.618593732108586e-05   1.0584587407961796e-05   3.495736211399109e-05
-7.618593732108586e-05   1.0584587407961796e-05   3.495736211399109e-05
-7.618593732108586e-05   1.0584587407961796e-05   3.495736211399109e-05
-7.618593732108586e-05   1.0584587407961796e-05   3.495736211399109e-05
-5.0400770743740185e-05   1.1225635575819095e-05   -8.40254441563282e-06
-5.0400770743740185e-05   1.1225635575819095e-05   -8.40254441563282e-06
-5.0400770743740185e-05   1.1225635575819095e-05   -8.40254441563282e-06
-5.0400770743740185e-05   1.1225635575819095e-05   -8.40254441563282e-06
-6.069015924983377e-05   1.1301527185225398e-05   8.70090146221341e-06
-6.069015924983377e-05   1.1301527185225398e-05   8.70090146221341e-06
-6.069015924983377e-05   1.1301527185225398e-05   8.70090146221341e-06
-6.069015924983377e-05   1.1301527185225398e-05   8.70090146221341e-06
-5.0400770743740185e-05   1.0584587407961796e-05   3.457273321327679e-05
-5.0400770743740185e-05   1.0584587407961796e-05   3.457273321327679e-05
-5.0400770743740185e-05   1.0584587407961796e-05   3.457273321327679e-05
-5.0400770743740185e-05   1.0584587407961796e-05   3.457273321327679e-05
-7.6185937321086e-05   1.1225635575819095e-05   -8.017915514918353e-06
-7.6185937321086e-05   1.1225635575819095e-05   -8.017915514918353e-06
-7.6185937321086e-05   1.1225635575819095e-05   -8.017915514918353e-06
-7.6185937321086e-05   1.1225635575819095e-05   -8.017915514918353e-06
-7.883726069306656e-05   8.819231732371327e-06   4.581168603294528e-05
-7.883726069306656e-05   8.819231732371327e-06   4.581168603294528e-05
-7.883726069306656e-05   8.819231732371327e-06   4.581168603294528e-05
-7.883726069306656e-05   8.819231732371327e-06   4.581168603294528e-05
-5.205628228214078e-05   1.0335340784232202e-05   2.670565836190592e-07
-5.205628228214078e-05   1.0335340784232202e-05   2.670565836190592e-07
-5.205628228214078e-05   1.0335340784232202e-05   2.670565836190592e-07
-5.205628228214078e-05   1.0335340784232202e-05   2.670565836190592e-07
-6.163039123323525e-05   1.0765968905534834e-05   1.596552796266149e-05
-6.163039123323525e-05   1.0765968905534834e-05   1.596552796266149e-05
-6.163039123323525e-05   1.0765968905534834e-05   1.596552796266149e-05
-6.163039123323525e-05   1.0765968905534834e-05   1.596552796266149e-05
4.771887134799907e-05   -6.674564033696834e-06   3.680241260413679e-05
4.771887134799907e-05   -6.674564033696834e-06   3.680241260413679e-05
4.771887134799907e-05   -6.674564033696834e-06   3.680241260413679e-05
4.771887134799907e-05   -6.674564033696834e-06   3.680241260413679e-05
2.3621549765350726e-05   -4.896830727185719e-06   -2.293150049703565e-06
2.3621549765350726e-05   -4.896830727185719e-06   -2.293150049703565e-06
2.3621549765350726e-05   -4.896830727185719e-06   -2.293150049703565e-06
2.3621549765350726e-05   -4.896830727185719e-06   -2.293150049703565e-06
2.271898371937743e-05   -7.563718908476513e-06   3.200028659345916e-05
2.271898371937743e-05   -7.563718908476513e-06   3.200028659345916e-05
2.271898371937743e-05   -7.563718908476513e-06   3.200028659345916e-05
2.271898371937743e-05   -7.563718908476513e-06   3.200028659345916e-05
4.605912887127705e-05   -5.680695510080179e-06   -8.029769365411549e-06
4.605912887127705e-05   -5.680695510080179e-06   -8.029769365411549e-06
4.605912887127705e-05   -5.680695510080179e-06   -8.029769365411549e-06
4.605912887127705e-05   -5.680695510080179e-06   -8.029769365411549e-06
3.342594059204358e-05   -6.1403938643052845e-06   1.3301363445846186e-05
3.342594059204358e-05   -6.1403938643052845e-06   1.3301363445846186e-05
3.342594059204358e-05   -6.1403938643052845e-06   1.3301363445846186e-05
3.342594059204358e-05   -6.1403938643052845e-06   1.3301363445846186e-05
4.605912887127697e-05   -7.563718908476513e-06   3.087047255442122e-05
4.605912887127697e-05   -7.563718908476513e-06   3.087047255442122e-05
4.605912887127697e-05   -7.563718908476513e-06   3.087047255442122e-05
4.605912887127697e-05   -7.563718908476513e-06   3.087047255442122e-05
2.271898371937751e-05   -5.680695510080179e-06   -6.899955326373445e-06
2.271898371937751e-05   -5.680695510080179e-06   -6.899955326373445e-06
2.271898371937751e-05   -5.680695510080179e-06   -6.899955326373445e-06
2.271898371937751e-05   -5.680695510080179e-06   -6.899955326373445e-06
2.171595642069996e-05   -7.695619018310406e-06   2.867611550054017e-05
2.171595642069996e-05   -7.695619018310406e-06   2.867611550054017e-05
2.171595642069996e-05   -7.695619018310406e-06   2.867611550054017e-05
2.171595642069996e-05   -7.695619018310406e-06   2.867611550054017e-05
4.45559623209549e-05   -5.83799966242908e-06   -1.0505132613413369e-05
4.45559623209549e-05   -5.83799966242908e-06   -1.0505132613413369e-05
4.45559623209549e-05   -5.83799966242908e-06   -1.0505132613413369e-05
4.45559623209549e-05   -5.83799966242908e-06   -1.0505132613413369e-05
3.2802486827825484e-05   -6.444255902285888e-06   9.447746952382968e-06
3.2802486827825484e-05   -6.444255902285888e-06   9.447746952382968e-06
3.2802486827825484e-05   -6.444255902285888e-06   9.447746952382968e-06
3.2802486827825484e-05   -6.444255902285888e-06   9.447746952382968e-06
4.4555962320954744e-05   -7.695619018310406e-06   2.756154388701136e-05
4.4555962320954744e-05   -7.695619018310406e-06   2.756154388701136e-05
4.4555962320954744e-05   -7.695619018310406e-06   2.756154388701136e-05
4.4555962320954744e-05   -7.695619018310406e-06   2.756154388701136e-05
2.1715956420699994e-05   -5.83799966242908e-06   -9.390560999884747e-06
2.1715956420699994e-05   -5.83799966242908e-06   -9.390560999884747e-06
2.1715956420699994e-05   -5.83799966242908e-06   -9.390560999884747e-06
2.1715956420699994e-05   -5.83799966242908e-06   -9.390560999884747e-06
2.0751147357415507e-05   -7.64576955853899e-06   2.403915489448201e-05
2.0751147357415507e-05   -7.64576955853899e-06   2.403915489448201e-05
2.0751147357415507e-05   -7.64576955853899e-06   2.403915489448201e-05
2.0751147357415507e-05   -7.64576955853899e-06   2.403915489448201e-05
4.285329615108016e-05   -5.9007139138833944e-06   -1.3844793148419174e-05
4.285329615108016e-05   -5.9007139138833944e-06   -1.3844793148419174e-05
4.285329615108016e-05   -5.9007139138833944e-06   -1.3844793148419174e-05
4.285329615108016e-05   -5.9007139138833944e-06   -1.3844793148419174e-05
3.1115986315099035e-05   -6.334994770847927e-06   5.9779584257287554e-06
3.1115986315099035e-05   -6.334994770847927e-06   5.9779584257287554e-06
3.1115986315099035e-05   -6.334994770847927e-06   5.9779584257287554e-06
3.1115986315099035e-05   -6.334994770847927e-06   5.9779584257287554e-06
2.3621549765350726e-05   -2.353598543543365e-06   3.860783939059001e-05
2.3621549765350726e-05   -2.353598543543365e-06   3.860783939059001e-05
2.3621549765350726e-05   -2.353598543543365e-06   3.860783939059001e-05
2.3621549765350726e-05   -2.353598543543365e-06   3.860783939059001e-05
1.0023862111714437e-06   -9.369554096268391e-07   1.7592193473075102e-06
1.0023862111714437e-06   -9.369554096268391e-07   1.7592193473075102e-06
1.0023862111714437e-06   -9.369554096268391e-07   1.7592193473075102e-06
1.0023862111714437e-06   -9.369554096268391e-07   1.7592193473075102e-06
1.3583894744579976e-07   -2.8311382003795398e-06   3.900853036685448e-05
1.3583894744579976e-07   -2.8311382003795398e-06   3.900853036685448e-05
1.3583894744579976e-07   -2.8311382003795398e-06   3.900853036685448e-05
1.3583894744579976e-07   -2.8311382003795398e-06   3.900853036685448e-05
2.271898371937751e-05   -1.4925664185388814e-06   5.668126778642611e-07
2.271898371937751e-05   -1.4925664185388814e-06   5.668126778642611e-07
2.271898371937751e-05   -1.4925664185388814e-06   5.668126778642611e-07
2.271898371937751e-05   -1.4925664185388814e-06   5.668126778642611e-07
1.1725601585277064e-05   -1.8332015275152914e-06   1.909349730008379e-05
1.1725601585277064e-05   -1.8332015275152914e-06   1.909349730008379e-05
1.1725601585277064e-05   -1.8332015275152914e-06   1.909349730008379e-05
1.1725601585277064e-05   -1.8332015275152914e-06   1.909349730008379e-05
2.2718983719377504e-05   -2.831138200379106e-06   3.820538729775035e-05
2.2718983719377504e-05   -2.831138200379106e-06   3.820538729775035e-05
2.2718983719377504e-05   -2.831138200379106e-06   3.820538729775035e-05
2.2718983719377504e-05   -2.831138200379106e-06   3.820538729775035e-05
1.3583894744579976e-07   -1.4925664185388814e-06   1.369955746968526e-06
1.3583894744579976e-07   -1.4925664185388814e-06   1.369955746968526e-06
1.3583894744579976e-07   -1.4925664185388814e-06   1.369955746968526e-06
1.3583894744579976e-07   -1.4925664185388814e-06   1.369955746968526e-06
-7.648899507980273e-07   -3.1439094609897467e-06   3.8419833365424235e-05
-7.648899507980273e-07   -3.1439094609897467e-06   3.8419833365424235e-05
-7.648899507980273e-07   -3.1439094609897467e-06   3.8419833365424235e-05
-7.648899507980273e-07   -3.1439094609897467e-06   3.8419833365424235e-05
2.1715956420699994e-05   -1.9050225937298007e-06   2.0842395923839803e-07
2.1715956420699994e-05   -1.9050225937298007e-06   2.0842395923839803e-07
2.1715956420699994e-05   -1.9050225937298007e-06   2.0842395923839803e-07
2.1715956420699994e-05   -1.9050225937298007e-06   2.0842395923839803e-07
1.0730576578197866e-05   -2.1241790351454824e-06   1.8648884228258337e-05
1.0730576578197866e-05   -2.1241790351454824e-06   1.8648884228258337e-05
1.0730576578197866e-05   -2.1241790351454824e-06   1.8648884228258337e-05
1.0730576578197866e-05   -2.1241790351454824e-06   1.8648884228258337e-05
2.171595642069996e-05   -3.1439094609897467e-06   3.7676501245068316e-05
2.171595642069996e-05   -3.1439094609897467e-06   3.7676501245068316e-05
2.171595642069996e-05   -3.1439094609897467e-06   3.7676501245068316e-05
2.171595642069996e-05   -3.1439094609897467e-06   3.7676501245068316e-05
-7.648899507980273e-07   -1.9050225937298007e-06   9.517560795942355e-07
-7.648899507980273e-07   -1.9050225937298007e-06   9.517560795942355e-07
-7.648899507980273e-07   -1.9050225937298007e-06   9.517560795942355e-07
-7.648899507980273e-07   -1.9050225937298007e-06   9.517560795942355e-07
-1.7026149144718991e-06   -3.2773636550477957e-06   3.871385636988072e-05
-1.7026149144718991e-06   -3.2773636550477957e-06   3.871385636988072e-05
-1.7026149144718991e-06   -3.2773636550477957e-06   3.871385636988072e-05
-1.7026149144718991e-06   -3.2773636550477957e-06   3.871385636988072e-05
2.0751147357415568e-05   -2.230054764761069e-06   6.625339158961019e-07
2.0751147357415568e-05   -2.230054764761069e-06   6.625339158961019e-07
2.0751147357415568e-05   -2.230054764761069e-06   6.625339158961019e-07
2.0751147357415568e-05   -2.230054764761069e-06   6.625339158961019e-07
9.982881348037398e-06   -2.2800922732390833e-06   1.8639666436613667e-05
9.982881348037398e-06   -2.2800922732390833e-06   1.8639666436613667e-05
9.982881348037398e-06   -2.2800922732390833e-06   1.8639666436613667e-05
9.982881348037398e-06   -2.2800922732390833e-06   1.8639666436613667e-05
1.0023862111714437e-06   2.0949943215888348e-06   3.985487431836914e-05
1.0023862111714437e-06   2.0949943215888348e-06   3.985487431836914e-05
1.0023862111714437e-06   2.0949943215888348e-06   3.985487431836914e-05
1.0023862111714437e-06   2.0949943215888348e-06   3.985487431836914e-05
-2.0956877707485123e-05   3.038683126269006e-06   3.8223144034163926e-06
-2.0956877707485123e-05   3.038683126269006e-06   3.8223144034163926e-06
-2.0956877707485123e-05   3.038683126269006e-06   3.8223144034163926e-06
-2.0956877707485123e-05   3.038683126269006e-06   3.8223144034163926e-06
-2.186235012708481e-05   1.7300290014957836e-06   4.040259897660674e-05
-2.186235012708481e-05   1.7300290014957836e-06   4.040259897660674e-05
-2.186235012708481e-05   1.7300290014957836e-06   4.040259897660674e-05
-2.186235012708481e-05   1.7300290014957836e-06   4.040259897660674e-05
1.3583894744579976e-07   2.5766682416228544e-06   3.2309669749795884e-06
1.3583894744579976e-07   2.5766682416228544e-06   3.2309669749795884e-06
1.3583894744579976e-07   2.5766682416228544e-06   3.2309669749795884e-06
1.3583894744579976e-07   2.5766682416228544e-06   3.2309669749795884e-06
-1.0436363923603905e-05   2.3866765590937426e-06   2.0965300102913182e-05
-1.0436363923603905e-05   2.3866765590937426e-06   2.0965300102913182e-05
-1.0436363923603905e-05   2.3866765590937426e-06   2.0965300102913182e-05
-1.0436363923603905e-05   2.3866765590937426e-06   2.0965300102913182e-05
1.3583894744579976e-07   1.7300290014957836e-06   3.989461543253044e-05
1.3583894744579976e-07   1.7300290014957836e-06   3.989461543253044e-05
1.3583894744579976e-07   1.7300290014957836e-06   3.989461543253044e-05
1.3583894744579976e-07   1.7300290014957836e-06   3.989461543253044e-05
-2.186235012708481e-05   2.5766682416228544e-06   3.7389505190559176e-06
-2.186235012708481e-05   2.5766682416228544e-06   3.7389505190559176e-06
-2.186235012708481e-05   2.5766682416228544e-06   3.7389505190559176e-06
-2.186235012708481e-05   2.5766682416228544e-06   3.7389505190559176e-06
-2.281841804959391e-05   1.3902924276745082e-06   4.078295064010315e-05
-2.281841804959391e-05   1.3902924276745082e-06   4.078295064010315e-05
-2.281841804959391e-05   1.3902924276745082e-06   4.078295064010315e-05
-2.281841804959391e-05   1.3902924276745082e-06   4.078295064010315e-05
-7.648899507980408e-07   2.128066771497298e-06   3.5844058691493225e-06
-7.648899507980408e-07   2.128066771497298e-06   3.5844058691493225e-06
-7.648899507980408e-07   2.128066771497298e-06   3.5844058691493225e-06
-7.648899507980408e-07   2.128066771497298e-06   3.5844058691493225e-06
-1.1277449576353217e-05   2.1231067911153725e-06   2.110831456663743e-05
-1.1277449576353217e-05   2.1231067911153725e-06   2.110831456663743e-05
-1.1277449576353217e-05   2.1231067911153725e-06   2.110831456663743e-05
-1.1277449576353217e-05   2.1231067911153725e-06   2.110831456663743e-05
-7.648899507980273e-07   1.3902924276745082e-06   4.034028603380928e-05
-7.648899507980273e-07   1.3902924276745082e-06   4.034028603380928e-05
-7.648899507980273e-07   1.3902924276745082e-06   4.034028603380928e-05
-7.648899507980273e-07   1.3902924276745082e-06   4.034028603380928e-05
-2.281841804959391e-05   2.128066771497298e-06   4.027070475443387e-06
-2.281841804959391e-05   2.128066771497298e-06   4.027070475443387e-06
-2.281841804959391e-05   2.128066771497298e-06   4.027070475443387e-06
-2.281841804959391e-05   2.128066771497298e-06   4.027070475443387e-06
-2.380494996236465e-05   1.1457152608715035e-06   4.1387672482394574e-05
-2.380494996236465e-05   1.1457152608715035e-06   4.1387672482394574e-05
-2.380494996236465e-05   1.1457152608715035e-06   4.1387672482394574e-05
-2.380494996236465e-05   1.1457152608715035e-06   4.1387672482394574e-05
-1.7026149144718991e-06   1.7287781858346674e-06   4.200609647595638e-06
-1.7026149144718991e-06   1.7287781858346674e-06   4.200609647595638e-06
-1.7026149144718991e-06   1.7287781858346674e-06   4.200609647595638e-06
-1.7026149144718991e-06   1.7287781858346674e-06   4.200609647595638e-06
-1.2187651654912659e-05   1.8706361579040858e-06   2.1590556098422344e-05
-1.2187651654912659e-05   1.8706361579040858e-06   2.1590556098422344e-05
-1.2187651654912659e-05   1.8706361579040858e-06   2.1590556098422344e-05
-1.2187651654912659e-05   1.8706361579040858e-06   2.1590556098422344e-05
-2.0956877707485177e-05   6.82056967645818e-06   3.477426844890666e-05
-2.0956877707485177e-05   6.82056967645818e-06   3.477426844890666e-05
-2.0956877707485177e-05   6.82056967645818e-06   3.477426844890666e-05
-2.0956877707485177e-05   6.82056967645818e-06   3.477426844890666e-05
-4.2227811032742715e-05   6.906973106304837e-06   -6.254450352811709e-07
-4.2227811032742715e-05   6.906973106304837e-06   -6.254450352811709e-07
-4.2227811032742715e-05   6.906973106304837e-06   -6.254450352811709e-07
-4.2227811032742715e-05   6.906973106304837e-06   -6.254450352811709e-07
-4.327896139125014e-05   6.454984211142628e-06   3.53829318082506e-05
-4.327896139125014e-05   6.454984211142628e-06   3.53829318082506e-05
-4.327896139125014e-05   6.454984211142628e-06   3.53829318082506e-05
-4.327896139125014e-05   6.454984211142628e-06   3.53829318082506e-05
-2.1862350127084865e-05   6.466064018859335e-06   -3.1806818332185544e-07
-2.1862350127084865e-05   6.466064018859335e-06   -3.1806818332185544e-07
-2.1862350127084865e-05   6.466064018859335e-06   -3.1806818332185544e-07
-2.1862350127084865e-05   6.466064018859335e-06   -3.1806818332185544e-07
-3.1938150285229646e-05   6.645637342870105e-06   1.6367188085846364e-05
-3.1938150285229646e-05   6.645637342870105e-06   1.6367188085846364e-05
-3.1938150285229646e-05   6.645637342870105e-06   1.6367188085846364e-05
-3.1938150285229646e-05   6.645637342870105e-06   1.6367188085846364e-05
-2.1862350127084865e-05   6.454984211142628e-06   3.537628392362034e-05
-2.1862350127084865e-05   6.454984211142628e-06   3.537628392362034e-05
-2.1862350127084865e-05   6.454984211142628e-06   3.537628392362034e-05
-2.1862350127084865e-05   6.454984211142628e-06   3.537628392362034e-05
-4.327896139125014e-05   6.466064018859335e-06   -3.1142029869170133e-07
-4.327896139125014e-05   6.466064018859335e-06   -3.1142029869170133e-07
-4.327896139125014e-05   6.466064018859335e-06   -3.1142029869170133e-07
-4.327896139125014e-05   6.466064018859335e-06   -3.1142029869170133e-07
-4.4443807320666774e-05   6.116599932528589e-06   3.7027663081092444e-05
-4.4443807320666774e-05   6.116599932528589e-06   3.7027663081092444e-05
-4.4443807320666774e-05   6.116599932528589e-06   3.7027663081092444e-05
-4.4443807320666774e-05   6.116599932528589e-06   3.7027663081092444e-05
-2.2818418049593936e-05   6.059354439135259e-06   1.0196949253402521e-06
-2.2818418049593936e-05   6.059354439135259e-06   1.0196949253402521e-06
-2.2818418049593936e-05   6.059354439135259e-06   1.0196949253402521e-06
-2.2818418049593936e-05   6.059354439135259e-06   1.0196949253402521e-06
-3.26976263121513e-05   6.396795781605418e-06   1.7282577224120364e-05
-3.26976263121513e-05   6.396795781605418e-06   1.7282577224120364e-05
-3.26976263121513e-05   6.396795781605418e-06   1.7282577224120364e-05
-3.26976263121513e-05   6.396795781605418e-06   1.7282577224120364e-05
-2.2818418049593936e-05   6.116599932528156e-06   3.7062010377128334e-05
-2.2818418049593936e-05   6.116599932528156e-06   3.7062010377128334e-05
-2.2818418049593936e-05   6.116599932528156e-06   3.7062010377128334e-05
-2.2818418049593936e-05   6.116599932528156e-06   3.7062010377128334e-05
-4.4443807320666774e-05   6.059354439135259e-06   9.853476293044706e-07
-4.4443807320666774e-05   6.059354439135259e-06   9.853476293044706e-07
-4.4443807320666774e-05   6.059354439135259e-06   9.853476293044706e-07
-4.4443807320666774e-05   6.059354439135259e-06   9.853476293044706e-07
-4.5553860095619904e-05   5.6613955652208905e-06   3.821383580727262e-05
-4.5553860095619904e-05   5.6613955652208905e-06   3.821383580727262e-05
-4.5553860095619904e-05   5.6613955652208905e-06   3.821383580727262e-05
-4.5553860095619904e-05   5.6613955652208905e-06   3.821383580727262e-05
-2.380494996236465e-05   5.5624488146258436e-06   2.0250203022042623e-06
-2.380494996236465e-05   5.5624488146258436e-06   2.0250203022042623e-06
-2.380494996236465e-05   5.5624488146258436e-06   2.0250203022042623e-06
-2.380494996236465e-05   5.5624488146258436e-06   2.0250203022042623e-06
-3.390692927947528e-05   6.0732695152969016e-06   1.8555160076986783e-05
-3.390692927947528e-05   6.0732695152969016e-06   1.8555160076986783e-05
-3.390692927947528e-05   6.0732695152969016e-06   1.8555160076986783e-05
-3.390692927947528e-05   6.0732695152969016e-06   1.8555160076986783e-05
-4.222781103274266e-05   1.1092470126816256e-05   1.6717273099030663e-05
-4.222781103274266e-05   1.1092470126816256e-05   1.6717273099030663e-05
-4.222781103274266e-05   1.1092470126816256e-05   1.6717273099030663e-05
-4.222781103274266e-05   1.1092470126816256e-05   1.6717273099030663e-05
-6.244526426349634e-05   9.947025241875598e-06   -1.7665749216523173e-05
-6.244526426349634e-05   9.947025241875598e-06   -1.7665749216523173e-05
-6.244526426349634e-05   9.947025241875598e-06   -1.7665749216523173e-05
-6.244526426349634e-05   9.947025241875598e-06   -1.7665749216523173e-05
-6.410065552705344e-05   1.1306638903362497e-05   2.3193268748757318e-05
-6.410065552705344e-05   1.1306638903362497e-05   2.3193268748757318e-05
-6.410065552705344e-05   1.1306638903362497e-05   2.3193268748757318e-05
-6.410065552705344e-05   1.1306638903362497e-05   2.3193268748757318e-05
-4.327896139125014e-05   1.0053364585178338e-05   -1.0757590220004292e-05
-4.327896139125014e-05   1.0053364585178338e-05   -1.0757590220004292e-05
-4.327896139125014e-05   1.0053364585178338e-05   -1.0757590220004292e-05
-4.327896139125014e-05   1.0053364585178338e-05   -1.0757590220004292e-05
-5.098312233399967e-05   1.0537576040143886e-05   1.7921511449322082e-06
-5.098312233399967e-05   1.0537576040143886e-05   1.7921511449322082e-06
-5.098312233399967e-05   1.0537576040143886e-05   1.7921511449322082e-06
-5.098312233399967e-05   1.0537576040143886e-05   1.7921511449322082e-06
-4.327896139125003e-05   1.130663890336293e-05   2.3945233339668322e-05
-4.327896139125003e-05   1.130663890336293e-05   2.3945233339668322e-05
-4.327896139125003e-05   1.130663890336293e-05   2.3945233339668322e-05
-4.327896139125003e-05   1.130663890336293e-05   2.3945233339668322e-05
-6.41006555270536e-05   1.0053364585178338e-05   -1.1509554810915025e-05
-6.41006555270536e-05   1.0053364585178338e-05   -1.1509554810915025e-05
-6.41006555270536e-05   1.0053364585178338e-05   -1.1509554810915025e-05
-6.41006555270536e-05   1.0053364585178338e-05   -1.1509554810915025e-05
-6.571682006935184e-05   1.1225635575819529e-05   2.8232959639697347e-05
-6.571682006935184e-05   1.1225635575819529e-05   2.8232959639697347e-05
-6.571682006935184e-05   1.1225635575819529e-05   2.8232959639697347e-05
-6.571682006935184e-05   1.1225635575819529e-05   2.8232959639697347e-05
-4.4443807320666774e-05   9.942949315263315e-06   -6.452449851777897e-06
-4.4443807320666774e-05   9.942949315263315e-06   -6.452449851777897e-06
-4.4443807320666774e-05   9.942949315263315e-06   -6.452449851777897e-06
-4.4443807320666774e-05   9.942949315263315e-06   -6.452449851777897e-06
-5.301865628352018e-05   1.0730257915224578e-05   7.366579926335439e-06
-5.301865628352018e-05   1.0730257915224578e-05   7.366579926335439e-06
-5.301865628352018e-05   1.0730257915224578e-05   7.366579926335439e-06
-5.301865628352018e-05   1.0730257915224578e-05   7.366579926335439e-06
-4.4443807320666774e-05   1.1225635575819095e-05   2.9002571396031054e-05
-4.4443807320666774e-05   1.1225635575819095e-05   2.9002571396031054e-05
-4.4443807320666774e-05   1.1225635575819095e-05   2.9002571396031054e-05
-4.4443807320666774e-05   1.1225635575819095e-05   2.9002571396031054e-05
-6.571682006935195e-05   9.942949315263315e-06   -7.222061608111387e-06
-6.571682006935195e-05   9.942949315263315e-06   -7.222061608111387e-06
-6.571682006935195e-05   9.942949315263315e-06   -7.222061608111387e-06
-6.571682006935195e-05   9.942949315263315e-06   -7.222061608111387e-06
-6.760406430906369e-05   1.0335340784232202e-05   3.6865353664919474e-05
-6.760406430906369e-05   1.0335340784232202e-05   3.6865353664919474e-05
-6.760406430906369e-05   1.0335340784232202e-05   3.6865353664919474e-05
-6.760406430906369e-05   1.0335340784232202e-05   3.6865353664919474e-05
-4.555386009561988e-05   9.176863492932168e-06   8.100996839591808e-07
-4.555386009561988e-05   9.176863492932168e-06   8.100996839591808e-07
-4.555386009561988e-05   9.176863492932168e-06   8.100996839591808e-07
-4.555386009561988e-05   9.176863492932168e-06   8.100996839591808e-07
-5.3533217246487134e-05   1.0414144047494025e-05   1.3366659936001144e-05
-5.3533217246487134e-05   1.0414144047494025e-05   1.3366659936001144e-05
-5.3533217246487134e-05   1.0414144047494025e-05   1.3366659936001144e-05
-5.3533217246487134e-05   1.0414144047494025e-05   1.3366659936001144e-05
3.6246359502878474e-05   -4.896830727185719e-06   3.074219047838808e-05
3.6246359502878474e-05   -4.896830727185719e-06   3.074219047838808e-05
3.6246359502878474e-05   -4.896830727185719e-06   3.074219047838808e-05
3.6246359502878474e-05   -4.896830727185719e-06   3.074219047838808e-05
1.7062038702384844e-05   -3.2387739747454306e-06   -2.3684347097039857e-07
1.7062038702384844e-05   -3.2387739747454306e-06   -2.3684347097039857e-07
1.7062038702384844e-05   -3.2387739747454306e-06   -2.3684347097039857e-07
1.7062038702384844e-05   -3.2387739747454306e-06   -2.3684347097039857e-07
1.6255755377312227e-05   -5.680695510079745e-06   2.7009779152757e-05
1.6255755377312227e-05   -5.680695510079745e-06   2.7009779152757e-05
1.6255755377312227e-05   -5.680695510079745e-06   2.7009779152757e-05
1.6255755377312227e-05   -5.680695510079745e-06   2.7009779152757e-05
3.468623759314272e-05   -3.930089097101304e-06   -4.758055054747325e-06
3.468623759314272e-05   -3.930089097101304e-06   -4.758055054747325e-06
3.468623759314272e-05   -3.930089097101304e-06   -4.758055054747325e-06
3.468623759314272e-05   -3.930089097101304e-06   -4.758055054747325e-06
2.4836658713825125e-05   -4.470220539241291e-06   1.198198860939909e-05
2.4836658713825125e-05   -4.470220539241291e-06   1.198198860939909e-05
2.4836658713825125e-05   -4.470220539241291e-06   1.198198860939909e-05
2.4836658713825125e-05   -4.470220539241291e-06   1.198198860939909e-05
3.4686237593142656e-05   -5.680695510079745e-06   2.595941530497006e-05
3.4686237593142656e-05   -5.680695510079745e-06   2.595941530497006e-05
3.4686237593142656e-05   -5.680695510079745e-06   2.595941530497006e-05
3.4686237593142656e-05   -5.680695510079745e-06   2.595941530497006e-05
1.6255755377312254e-05   -3.930089097101304e-06   -3.707691206960304e-06
1.6255755377312254e-05   -3.930089097101304e-06   -3.707691206960304e-06
1.6255755377312254e-05   -3.930089097101304e-06   -3.707691206960304e-06
1.6255755377312254e-05   -3.930089097101304e-06   -3.707691206960304e-06
1.5365696357973657e-05   -5.83799966242908e-06   2.438641140557838e-05
1.5365696357973657e-05   -5.83799966242908e-06   2.438641140557838e-05
1.5365696357973657e-05   -5.83799966242908e-06   2.438641140557838e-05
1.5365696357973657e-05   -5.83799966242908e-06   2.438641140557838e-05
3.331880493355338e-05   -4.114640097822343e-06   -6.56945195915185e-06
3.331880493355338e-05   -4.114640097822343e-06   -6.56945195915185e-06
3.331880493355338e-05   -4.114640097822343e-06   -6.56945195915185e-06
3.331880493355338e-05   -4.114640097822343e-06   -6.56945195915185e-06
2.4190980783217493e-05   -4.7507780792446774e-06   9.025271080261824e-06
2.4190980783217493e-05   -4.7507780792446774e-06   9.025271080261824e-06
2.4190980783217493e-05   -4.7507780792446774e-06   9.025271080261824e-06
2.4190980783217493e-05   -4.7507780792446774e-06   9.025271080261824e-06
3.331880493355332e-05   -5.83799966242908e-06   2.3352395666814135e-05
3.331880493355332e-05   -5.83799966242908e-06   2.3352395666814135e-05
3.331880493355332e-05   -5.83799966242908e-06   2.3352395666814135e-05
3.331880493355332e-05   -5.83799966242908e-06   2.3352395666814135e-05
1.5365696357973684e-05   -4.114640097822343e-06   -5.535436220387808e-06
1.5365696357973684e-05   -4.114640097822343e-06   -5.535436220387808e-06
1.5365696357973684e-05   -4.114640097822343e-06   -5.535436220387808e-06
1.5365696357973684e-05   -4.114640097822343e-06   -5.535436220387808e-06
1.4543779693690796e-05   -5.9007139138833944e-06   2.0832220081828988e-05
1.4543779693690796e-05   -5.9007139138833944e-06   2.0832220081828988e-05
1.4543779693690796e-05   -5.9007139138833944e-06   2.0832220081828988e-05
1.4543779693690796e-05   -5.9007139138833944e-06   2.0832220081828988e-05
3.179075873467018e-05   -4.286496130044646e-06   -8.881275656773095e-06
3.179075873467018e-05   -4.286496130044646e-06   -8.881275656773095e-06
3.179075873467018e-05   -4.286496130044646e-06   -8.881275656773095e-06
3.179075873467018e-05   -4.286496130044646e-06   -8.881275656773095e-06
2.2762652342831066e-05   -4.7232809678913025e-06   6.427639232333229e-06
2.2762652342831066e-05   -4.7232809678913025e-06   6.427639232333229e-06
2.2762652342831066e-05   -4.7232809678913025e-06   6.427639232333229e-06
2.2762652342831066e-05   -4.7232809678913025e-06   6.427639232333229e-06
1.7062038702384783e-05   -9.369554096268391e-07   3.4939408046513433e-05
1.7062038702384783e-05   -9.369554096268391e-07   3.4939408046513433e-05
1.7062038702384783e-05   -9.369554096268391e-07   3.4939408046513433e-05
1.7062038702384783e-05   -9.369554096268391e-07   3.4939408046513433e-05
-1.0952319758072044e-06   -1.7934603012978792e-08   5.228702733494793e-06
-1.0952319758072044e-06   -1.7934603012978792e-08   5.228702733494793e-06
-1.0952319758072044e-06   -1.7934603012978792e-08   5.228702733494793e-06
-1.0952319758072044e-06   -1.7934603012978792e-08   5.228702733494793e-06
-1.8533170525696747e-06   -1.4925664185388814e-06   3.500066934752802e-05
-1.8533170525696747e-06   -1.4925664185388814e-06   3.500066934752802e-05
-1.8533170525696747e-06   -1.4925664185388814e-06   3.500066934752802e-05
-1.8533170525696747e-06   -1.4925664185388814e-06   3.500066934752802e-05
1.6255755377312254e-05   -6.190294343161925e-07   4.29475977385815e-06
1.6255755377312254e-05   -6.190294343161925e-07   4.29475977385815e-06
1.6255755377312254e-05   -6.190294343161925e-07   4.29475977385815e-06
1.6255755377312254e-05   -6.190294343161925e-07   4.29475977385815e-06
7.4692774449101646e-06   -7.88478218800002e-07   1.904055893188494e-05
7.4692774449101646e-06   -7.88478218800002e-07   1.904055893188494e-05
7.4692774449101646e-06   -7.88478218800002e-07   1.904055893188494e-05
7.4692774449101646e-06   -7.88478218800002e-07   1.904055893188494e-05
1.625575537731218e-05   -1.4925664185388814e-06   3.447654715699441e-05
1.625575537731218e-05   -1.4925664185388814e-06   3.447654715699441e-05
1.625575537731218e-05   -1.4925664185388814e-06   3.447654715699441e-05
1.625575537731218e-05   -1.4925664185388814e-06   3.447654715699441e-05
-1.8533170525696747e-06   -6.190294343161925e-07   4.81888196439146e-06
-1.8533170525696747e-06   -6.190294343161925e-07   4.81888196439146e-06
-1.8533170525696747e-06   -6.190294343161925e-07   4.81888196439146e-06
-1.8533170525696747e-06   -6.190294343161925e-07   4.81888196439146e-06
-2.6275582987002262e-06   -1.9050225937298007e-06   3.447282856357129e-05
-2.6275582987002262e-06   -1.9050225937298007e-06   3.447282856357129e-05
-2.6275582987002262e-06   -1.9050225937298007e-06   3.447282856357129e-05
-2.6275582987002262e-06   -1.9050225937298007e-06   3.447282856357129e-05
1.5365696357973684e-05   -1.0926355956133137e-06   3.996638603578255e-06
1.5365696357973684e-05   -1.0926355956133137e-06   3.996638603578255e-06
1.5365696357973684e-05   -1.0926355956133137e-06   3.996638603578255e-06
1.5365696357973684e-05   -1.0926355956133137e-06   3.996638603578255e-06
6.61877743343101e-06   -1.1593347065554744e-06   1.8614856277715855e-05
6.61877743343101e-06   -1.1593347065554744e-06   1.8614856277715855e-05
6.61877743343101e-06   -1.1593347065554744e-06   1.8614856277715855e-05
6.61877743343101e-06   -1.1593347065554744e-06   1.8614856277715855e-05
1.5365696357973657e-05   -1.9050225937298007e-06   3.398539636470136e-05
1.5365696357973657e-05   -1.9050225937298007e-06   3.398539636470136e-05
1.5365696357973657e-05   -1.9050225937298007e-06   3.398539636470136e-05
1.5365696357973657e-05   -1.9050225937298007e-06   3.398539636470136e-05
-2.6275582987002262e-06   -1.0926355956133137e-06   4.4840708024480175e-06
-2.6275582987002262e-06   -1.0926355956133137e-06   4.4840708024480175e-06
-2.6275582987002262e-06   -1.0926355956133137e-06   4.4840708024480175e-06
-2.6275582987002262e-06   -1.0926355956133137e-06   4.4840708024480175e-06
-3.4060164822651386e-06   -2.230054764761069e-06   3.471194191979952e-05
-3.4060164822651386e-06   -2.230054764761069e-06   3.471194191979952e-05
-3.4060164822651386e-06   -2.230054764761069e-06   3.471194191979952e-05
-3.4060164822651386e-06   -2.230054764761069e-06   3.471194191979952e-05
1.4543779693690816e-05   -1.5310078306798262e-06   4.376186799424182e-06
1.4543779693690816e-05   -1.5310078306798262e-06   4.376186799424182e-06
1.4543779693690816e-05   -1.5310078306798262e-06   4.376186799424182e-06
1.4543779693690816e-05   -1.5310078306798262e-06   4.376186799424182e-06
5.969592582582894e-06   -1.4336191742432471e-06   1.8608065457408627e-05
5.969592582582894e-06   -1.4336191742432471e-06   1.8608065457408627e-05
5.969592582582894e-06   -1.4336191742432471e-06   1.8608065457408627e-05
5.969592582582894e-06   -1.4336191742432471e-06   1.8608065457408627e-05
-1.0952319758072044e-06   3.038683126269006e-06   3.698770230378218e-05
-1.0952319758072044e-06   3.038683126269006e-06   3.698770230378218e-05
-1.0952319758072044e-06   3.038683126269006e-06   3.698770230378218e-05
-1.0952319758072044e-06   3.038683126269006e-06   3.698770230378218e-05
-1.8871529407836664e-05   3.1281785165396866e-06   7.414237151228743e-06
-1.8871529407836664e-05   3.1281785165396866e-06   7.414237151228743e-06
-1.8871529407836664e-05   3.1281785165396866e-06   7.414237151228743e-06
-1.8871529407836664e-05   3.1281785165396866e-06   7.414237151228743e-06
-1.963376340338423e-05   2.5766682416228544e-06   3.68758211026336e-05
-1.963376340338423e-05   2.5766682416228544e-06   3.68758211026336e-05
-1.963376340338423e-05   2.5766682416228544e-06   3.68758211026336e-05
-1.963376340338423e-05   2.5766682416228544e-06   3.68758211026336e-05
-1.8533170525696747e-06   2.6002357867795957e-06   7.2276033241816875e-06
-1.8533170525696747e-06   2.6002357867795957e-06   7.2276033241816875e-06
-1.8533170525696747e-06   2.6002357867795957e-06   7.2276033241816875e-06
-1.8533170525696747e-06   2.6002357867795957e-06   7.2276033241816875e-06
-1.039034223317996e-05   2.7862317485003374e-06   2.134438104816629e-05
-1.039034223317996e-05   2.7862317485003374e-06   2.134438104816629e-05
-1.039034223317996e-05   2.7862317485003374e-06   2.134438104816629e-05
-1.039034223317996e-05   2.7862317485003374e-06   2.134438104816629e-05
-1.8533170525696747e-06   2.5766682416228544e-06   3.686168057553951e-05
-1.8533170525696747e-06   2.5766682416228544e-06   3.686168057553951e-05
-1.8533170525696747e-06   2.5766682416228544e-06   3.686168057553951e-05
-1.8533170525696747e-06   2.5766682416228544e-06   3.686168057553951e-05
-1.963376340338423e-05   2.6002357867795957e-06   7.241743851275776e-06
-1.963376340338423e-05   2.6002357867795957e-06   7.241743851275776e-06
-1.963376340338423e-05   2.6002357867795957e-06   7.241743851275776e-06
-1.963376340338423e-05   2.6002357867795957e-06   7.241743851275776e-06
-2.0414994860673102e-05   2.128066771497298e-06   3.707704800152024e-05
-2.0414994860673102e-05   2.128066771497298e-06   3.707704800152024e-05
-2.0414994860673102e-05   2.128066771497298e-06   3.707704800152024e-05
-2.0414994860673102e-05   2.128066771497298e-06   3.707704800152024e-05
-2.6275582987002262e-06   2.0806828521535183e-06   7.459750749838406e-06
-2.6275582987002262e-06   2.0806828521535183e-06   7.459750749838406e-06
-2.6275582987002262e-06   2.0806828521535183e-06   7.459750749838406e-06
-2.6275582987002262e-06   2.0806828521535183e-06   7.459750749838406e-06
-1.1097985494033173e-05   2.4313668543557085e-06   2.1366719007406007e-05
-1.1097985494033173e-05   2.4313668543557085e-06   2.1366719007406007e-05
-1.1097985494033173e-05   2.4313668543557085e-06   2.1366719007406007e-05
-1.1097985494033173e-05   2.4313668543557085e-06   2.1366719007406007e-05
-2.6275582987002262e-06   2.128066771497298e-06   3.7105478353126645e-05
-2.6275582987002262e-06   2.128066771497298e-06   3.7105478353126645e-05
-2.6275582987002262e-06   2.128066771497298e-06   3.7105478353126645e-05
-2.6275582987002262e-06   2.128066771497298e-06   3.7105478353126645e-05
-2.0414994860673156e-05   2.0806828521535183e-06   7.4313203982320514e-06
-2.0414994860673156e-05   2.0806828521535183e-06   7.4313203982320514e-06
-2.0414994860673156e-05   2.0806828521535183e-06   7.4313203982320514e-06
-2.0414994860673156e-05   2.0806828521535183e-06   7.4313203982320514e-06
-2.1195881594806898e-05   1.7287781858346674e-06   3.753697831754949e-05
-2.1195881594806898e-05   1.7287781858346674e-06   3.753697831754949e-05
-2.1195881594806898e-05   1.7287781858346674e-06   3.753697831754949e-05
-2.1195881594806898e-05   1.7287781858346674e-06   3.753697831754949e-05
-3.4060164822651386e-06   1.5876881862063146e-06   7.97185712975699e-06
-3.4060164822651386e-06   1.5876881862063146e-06   7.97185712975699e-06
-3.4060164822651386e-06   1.5876881862063146e-06   7.97185712975699e-06
-3.4060164822651386e-06   1.5876881862063146e-06   7.97185712975699e-06
-1.1838855119633351e-05   2.0856034847957505e-06   2.1727839012883722e-05
-1.1838855119633351e-05   2.0856034847957505e-06   2.1727839012883722e-05
-1.1838855119633351e-05   2.0856034847957505e-06   2.1727839012883722e-05
-1.1838855119633351e-05   2.0856034847957505e-06   2.1727839012883722e-05
-1.887152940783661e-05   6.906973106304837e-06   3.254179804133904e-05
-1.887152940783661e-05   6.906973106304837e-06   3.254179804133904e-05
-1.887152940783661e-05   6.906973106304837e-06   3.254179804133904e-05
-1.887152940783661e-05   6.906973106304837e-06   3.254179804133904e-05
-3.6257112026447e-05   6.156104723003056e-06   3.115305980340606e-06
-3.6257112026447e-05   6.156104723003056e-06   3.115305980340606e-06
-3.6257112026447e-05   6.156104723003056e-06   3.115305980340606e-06
-3.6257112026447e-05   6.156104723003056e-06   3.115305980340606e-06
-3.707734887347332e-05   6.466064018859335e-06   3.2329575910599586e-05
-3.707734887347332e-05   6.466064018859335e-06   3.2329575910599586e-05
-3.707734887347332e-05   6.466064018859335e-06   3.2329575910599586e-05
-3.707734887347332e-05   6.466064018859335e-06   3.2329575910599586e-05
-1.9633763403384256e-05   5.650686536099727e-06   3.7461599501071967e-06
-1.9633763403384256e-05   5.650686536099727e-06   3.7461599501071967e-06
-1.9633763403384256e-05   5.650686536099727e-06   3.7461599501071967e-06
-1.9633763403384256e-05   5.650686536099727e-06   3.7461599501071967e-06
-2.7867508845970862e-05   6.212638190621349e-06   1.7131898028371916e-05
-2.7867508845970862e-05   6.212638190621349e-06   1.7131898028371916e-05
-2.7867508845970862e-05   6.212638190621349e-06   1.7131898028371916e-05
-2.7867508845970862e-05   6.212638190621349e-06   1.7131898028371916e-05
-1.963376340338423e-05   6.466064018859335e-06   3.2818802400255665e-05
-1.963376340338423e-05   6.466064018859335e-06   3.2818802400255665e-05
-1.963376340338423e-05   6.466064018859335e-06   3.2818802400255665e-05
-1.963376340338423e-05   6.466064018859335e-06   3.2818802400255665e-05
-3.7077348873473267e-05   5.650686536099727e-06   3.256933460451172e-06
-3.7077348873473267e-05   5.650686536099727e-06   3.256933460451172e-06
-3.7077348873473267e-05   5.650686536099727e-06   3.256933460451172e-06
-3.7077348873473267e-05   5.650686536099727e-06   3.256933460451172e-06
-3.798021549539552e-05   6.059354439135259e-06   3.354181223189285e-05
-3.798021549539552e-05   6.059354439135259e-06   3.354181223189285e-05
-3.798021549539552e-05   6.059354439135259e-06   3.354181223189285e-05
-3.798021549539552e-05   6.059354439135259e-06   3.354181223189285e-05
-2.0414994860673156e-05   5.17958740659419e-06   4.794304726880036e-06
-2.0414994860673156e-05   5.17958740659419e-06   4.794304726880036e-06
-2.0414994860673156e-05   5.17958740659419e-06   4.794304726880036e-06
-2.0414994860673156e-05   5.17958740659419e-06   4.794304726880036e-06
-2.8455926041119178e-05   5.890041287944024e-06   1.7769584365480862e-05
-2.8455926041119178e-05   5.890041287944024e-06   1.7769584365480862e-05
-2.8455926041119178e-05   5.890041287944024e-06   1.7769584365480862e-05
-2.8455926041119178e-05   5.890041287944024e-06   1.7769584365480862e-05
-2.0414994860673156e-05   6.059354439135259e-06   3.406967245141732e-05
-2.0414994860673156e-05   6.059354439135259e-06   3.406967245141732e-05
-2.0414994860673156e-05   6.059354439135259e-06   3.406967245141732e-05
-2.0414994860673156e-05   6.059354439135259e-06   3.406967245141732e-05
-3.7980215495395466e-05   5.17958740659419e-06   4.2664445073555685e-06
-3.7980215495395466e-05   5.17958740659419e-06   4.2664445073555685e-06
-3.7980215495395466e-05   5.17958740659419e-06   4.2664445073555685e-06
-3.7980215495395466e-05   5.17958740659419e-06   4.2664445073555685e-06
-3.880565463376296e-05   5.5624488146258436e-06   3.4452578996026174e-05
-3.880565463376296e-05   5.5624488146258436e-06   3.4452578996026174e-05
-3.880565463376296e-05   5.5624488146258436e-06   3.4452578996026174e-05
-3.880565463376296e-05   5.5624488146258436e-06   3.4452578996026174e-05
-2.1195881594806952e-05   4.630828446035122e-06   5.66192948558736e-06
-2.1195881594806952e-05   4.630828446035122e-06   5.66192948558736e-06
-2.1195881594806952e-05   4.630828446035122e-06   5.66192948558736e-06
-2.1195881594806952e-05   4.630828446035122e-06   5.66192948558736e-06
-2.939287538517756e-05   5.52596440838674e-06   1.8786504225460612e-05
-2.939287538517756e-05   5.52596440838674e-06   1.8786504225460612e-05
-2.939287538517756e-05   5.52596440838674e-06   1.8786504225460612e-05
-2.939287538517756e-05   5.52596440838674e-06   1.8786504225460612e-05
-3.6257112026447e-05   9.947025241875598e-06   1.5738239761080622e-05
-3.6257112026447e-05   9.947025241875598e-06   1.5738239761080622e-05
-3.6257112026447e-05   9.947025241875598e-06   1.5738239761080622e-05
-3.6257112026447e-05   9.947025241875598e-06   1.5738239761080622e-05
-5.277078468150727e-05   8.486325151811549e-06   -1.2660968051391493e-05
-5.277078468150727e-05   8.486325151811549e-06   -1.2660968051391493e-05
-5.277078468150727e-05   8.486325151811549e-06   -1.2660968051391493e-05
-5.277078468150727e-05   8.486325151811549e-06   -1.2660968051391493e-05
-5.424509951889629e-05   1.0053364585177905e-05   2.091810856272823e-05
-5.424509951889629e-05   1.0053364585177905e-05   2.091810856272823e-05
-5.424509951889629e-05   1.0053364585177905e-05   2.091810856272823e-05
-5.424509951889629e-05   1.0053364585177905e-05   2.091810856272823e-05
-3.707734887347332e-05   8.444535540913511e-06   -6.7295117530845935e-06
-3.707734887347332e-05   8.444535540913511e-06   -6.7295117530845935e-06
-3.707734887347332e-05   8.444535540913511e-06   -6.7295117530845935e-06
-3.707734887347332e-05   8.444535540913511e-06   -6.7295117530845935e-06
-4.3372115279298115e-05   9.097334211084708e-06   3.3700863878542166e-06
-4.3372115279298115e-05   9.097334211084708e-06   3.3700863878542166e-06
-4.3372115279298115e-05   9.097334211084708e-06   3.3700863878542166e-06
-4.3372115279298115e-05   9.097334211084708e-06   3.3700863878542166e-06
-3.7077348873473185e-05   1.0053364585177905e-05   2.1883405989286996e-05
-3.7077348873473185e-05   1.0053364585177905e-05   2.1883405989286996e-05
-3.7077348873473185e-05   1.0053364585177905e-05   2.1883405989286996e-05
-3.7077348873473185e-05   1.0053364585177905e-05   2.1883405989286996e-05
-5.4245099518896345e-05   8.444535540913511e-06   -7.694809179643251e-06
-5.4245099518896345e-05   8.444535540913511e-06   -7.694809179643251e-06
-5.4245099518896345e-05   8.444535540913511e-06   -7.694809179643251e-06
-5.4245099518896345e-05   8.444535540913511e-06   -7.694809179643251e-06
-5.556494572918222e-05   9.942949315262881e-06   2.5101844632336974e-05
-5.556494572918222e-05   9.942949315262881e-06   2.5101844632336974e-05
-5.556494572918222e-05   9.942949315262881e-06   2.5101844632336974e-05
-5.556494572918222e-05   9.942949315262881e-06   2.5101844632336974e-05
-3.798021549539552e-05   8.272665784474567e-06   -3.2038689721674597e-06
-3.798021549539552e-05   8.272665784474567e-06   -3.2038689721674597e-06
-3.798021549539552e-05   8.272665784474567e-06   -3.2038689721674597e-06
-3.798021549539552e-05   8.272665784474567e-06   -3.2038689721674597e-06
-4.506757216098795e-05   9.198035985152875e-06   8.053170016747641e-06
-4.506757216098795e-05   9.198035985152875e-06   8.053170016747641e-06
-4.506757216098795e-05   9.198035985152875e-06   8.053170016747641e-06
-4.506757216098795e-05   9.198035985152875e-06   8.053170016747641e-06
-3.798021549539552e-05   9.942949315263315e-06   2.6104014750810537e-05
-3.798021549539552e-05   9.942949315263315e-06   2.6104014750810537e-05
-3.798021549539552e-05   9.942949315263315e-06   2.6104014750810537e-05
-3.798021549539552e-05   9.942949315263315e-06   2.6104014750810537e-05
-5.556494572918233e-05   8.272665784474567e-06   -4.20603909064086e-06
-5.556494572918233e-05   8.272665784474567e-06   -4.20603909064086e-06
-5.556494572918233e-05   8.272665784474567e-06   -4.20603909064086e-06
-5.556494572918233e-05   8.272665784474567e-06   -4.20603909064086e-06
-5.70813378541624e-05   9.176863492931734e-06   3.229931063851899e-05
-5.70813378541624e-05   9.176863492931734e-06   3.229931063851899e-05
-5.70813378541624e-05   9.176863492931734e-06   3.229931063851899e-05
-5.70813378541624e-05   9.176863492931734e-06   3.229931063851899e-05
-3.8805654633762934e-05   7.514003843566222e-06   2.837554394138995e-06
-3.8805654633762934e-05   7.514003843566222e-06   2.837554394138995e-06
-3.8805654633762934e-05   7.514003843566222e-06   2.837554394138995e-06
-3.8805654633762934e-05   7.514003843566222e-06   2.837554394138995e-06
-4.5428653838780345e-05   8.8834228771916e-06   1.3054234982325726e-05
-4.5428653838780345e-05   8.8834228771916e-06   1.3054234982325726e-05
-4.5428653838780345e-05   8.8834228771916e-06   1.3054234982325726e-05
-4.5428653838780345e-05   8.8834228771916e-06   1.3054234982325726e-05
2.4992211630162173e-05   -3.2387739747456474e-06   2.5039748436844823e-05
2.4992211630162173e-05   -3.2387739747456474e-06   2.5039748436844823e-05
2.4992211630162173e-05   -3.2387739747456474e-06   2.5039748436844823e-05
2.4992211630162173e-05   -3.2387739747456474e-06   2.5039748436844823e-05
1.0371469186795677e-05   -1.5948805292184936e-06   1.6581804318837115e-06
1.0371469186795677e-05   -1.5948805292184936e-06   1.6581804318837115e-06
1.0371469186795677e-05   -1.5948805292184936e-06   1.6581804318837115e-06
1.0371469186795677e-05   -1.5948805292184936e-06   1.6581804318837115e-06
9.722749780760376e-06   -3.930089097101304e-06   2.2510709641259275e-05
9.722749780760376e-06   -3.930089097101304e-06   2.2510709641259275e-05
9.722749780760376e-06   -3.930089097101304e-06   2.2510709641259275e-05
9.722749780760376e-06   -3.930089097101304e-06   2.2510709641259275e-05
2.3611042044672487e-05   -2.213496056064322e-06   -1.6663999565498609e-06
2.3611042044672487e-05   -2.213496056064322e-06   -1.6663999565498609e-06
2.3611042044672487e-05   -2.213496056064322e-06   -1.6663999565498609e-06
2.3611042044672487e-05   -2.213496056064322e-06   -1.6663999565498609e-06
1.6320001271522634e-05   -2.8100765490811017e-06   1.0843282961177023e-05
1.6320001271522634e-05   -2.8100765490811017e-06   1.0843282961177023e-05
1.6320001271522634e-05   -2.8100765490811017e-06   1.0843282961177023e-05
1.6320001271522634e-05   -2.8100765490811017e-06   1.0843282961177023e-05
2.3611042044672527e-05   -3.930089097101304e-06   2.1480753816637073e-05
2.3611042044672527e-05   -3.930089097101304e-06   2.1480753816637073e-05
2.3611042044672527e-05   -3.930089097101304e-06   2.1480753816637073e-05
2.3611042044672527e-05   -3.930089097101304e-06   2.1480753816637073e-05
9.722749780760342e-06   -2.213496056064322e-06   -6.364441319276718e-07
9.722749780760342e-06   -2.213496056064322e-06   -6.364441319276718e-07
9.722749780760342e-06   -2.213496056064322e-06   -6.364441319276718e-07
9.722749780760342e-06   -2.213496056064322e-06   -6.364441319276718e-07
8.994010573776462e-06   -4.114640097822343e-06   2.0632907494666465e-05
8.994010573776462e-06   -4.114640097822343e-06   2.0632907494666465e-05
8.994010573776462e-06   -4.114640097822343e-06   2.0632907494666465e-05
8.994010573776462e-06   -4.114640097822343e-06   2.0632907494666465e-05
2.2425266222066266e-05   -2.4263264120302514e-06   -2.765506797291692e-06
2.2425266222066266e-05   -2.4263264120302514e-06   -2.765506797291692e-06
2.2425266222066266e-05   -2.4263264120302514e-06   -2.765506797291692e-06
2.2425266222066266e-05   -2.4263264120302514e-06   -2.765506797291692e-06
1.5706226937009212e-05   -3.0725160540607177e-06   8.82060579635534e-06
1.5706226937009212e-05   -3.0725160540607177e-06   8.82060579635534e-06
1.5706226937009212e-05   -3.0725160540607177e-06   8.82060579635534e-06
1.5706226937009212e-05   -3.0725160540607177e-06   8.82060579635534e-06
2.2425266222066306e-05   -4.114640097822343e-06   1.9619919283191165e-05
2.2425266222066306e-05   -4.114640097822343e-06   1.9619919283191165e-05
2.2425266222066306e-05   -4.114640097822343e-06   1.9619919283191165e-05
2.2425266222066306e-05   -4.114640097822343e-06   1.9619919283191165e-05
8.994010573776452e-06   -2.4263264120302514e-06   -1.752518585816697e-06
8.994010573776452e-06   -2.4263264120302514e-06   -1.752518585816697e-06
8.994010573776452e-06   -2.4263264120302514e-06   -1.752518585816697e-06
8.994010573776452e-06   -2.4263264120302514e-06   -1.752518585816697e-06
8.34071516614218e-06   -4.286496130044429e-06   1.8193618597911075e-05
8.34071516614218e-06   -4.286496130044429e-06   1.8193618597911075e-05
8.34071516614218e-06   -4.286496130044429e-06   1.8193618597911075e-05
8.34071516614218e-06   -4.286496130044429e-06   1.8193618597911075e-05
2.1080114658855667e-05   -2.707262028897508e-06   -3.986254350633097e-06
2.1080114658855667e-05   -2.707262028897508e-06   -3.986254350633097e-06
2.1080114658855667e-05   -2.707262028897508e-06   -3.986254350633097e-06
2.1080114658855667e-05   -2.707262028897508e-06   -3.986254350633097e-06
1.4567415490613416e-05   -3.123665341971029e-06   7.118086250947758e-06
1.4567415490613416e-05   -3.123665341971029e-06   7.118086250947758e-06
1.4567415490613416e-05   -3.123665341971029e-06   7.118086250947758e-06
1.4567415490613416e-05   -3.123665341971029e-06   7.118086250947758e-06
1.037146918679571e-05   -1.7934603012978792e-08   3.094021822465853e-05
1.037146918679571e-05   -1.7934603012978792e-08   3.094021822465853e-05
1.037146918679571e-05   -1.7934603012978792e-08   3.094021822465853e-05
1.037146918679571e-05   -1.7934603012978792e-08   3.094021822465853e-05
-3.3472273395638885e-06   8.169850290592421e-07   8.57667579330266e-06
-3.3472273395638885e-06   8.169850290592421e-07   8.57667579330266e-06
-3.3472273395638885e-06   8.169850290592421e-07   8.57667579330266e-06
-3.3472273395638885e-06   8.169850290592421e-07   8.57667579330266e-06
-3.9433680341095215e-06   -6.190294343161925e-07   3.099914746683722e-05
-3.9433680341095215e-06   -6.190294343161925e-07   3.099914746683722e-05
-3.9433680341095215e-06   -6.190294343161925e-07   3.099914746683722e-05
-3.9433680341095215e-06   -6.190294343161925e-07   3.099914746683722e-05
9.722749780760342e-06   1.9094864028347015e-07   7.736297597294405e-06
9.722749780760342e-06   1.9094864028347015e-07   7.736297597294405e-06
9.722749780760342e-06   1.9094864028347015e-07   7.736297597294405e-06
9.722749780760342e-06   1.9094864028347015e-07   7.736297597294405e-06
3.103066320500741e-06   3.891528271393434e-08   1.886032337893609e-05
3.103066320500741e-06   3.891528271393434e-08   1.886032337893609e-05
3.103066320500741e-06   3.891528271393434e-08   1.886032337893609e-05
3.103066320500741e-06   3.891528271393434e-08   1.886032337893609e-05
9.722749780760373e-06   -6.190294343159757e-07   3.0513160622077593e-05
9.722749780760373e-06   -6.190294343159757e-07   3.0513160622077593e-05
9.722749780760373e-06   -6.190294343159757e-07   3.0513160622077593e-05
9.722749780760373e-06   -6.190294343159757e-07   3.0513160622077593e-05
-3.943368034109535e-06   1.9094864028347015e-07   8.222284442054224e-06
-3.943368034109535e-06   1.9094864028347015e-07   8.222284442054224e-06
-3.943368034109535e-06   1.9094864028347015e-07   8.222284442054224e-06
-3.943368034109535e-06   1.9094864028347015e-07   8.222284442054224e-06
-4.5529074767088426e-06   -1.0926355956133137e-06   3.0627880755448476e-05
-4.5529074767088426e-06   -1.0926355956133137e-06   3.0627880755448476e-05
-4.5529074767088426e-06   -1.0926355956133137e-06   3.0627880755448476e-05
-4.5529074767088426e-06   -1.0926355956133137e-06   3.0627880755448476e-05
8.994010573776452e-06   -3.2113820091941685e-07   7.586785567823646e-06
8.994010573776452e-06   -3.2113820091941685e-07   7.586785567823646e-06
8.994010573776452e-06   -3.2113820091941685e-07   7.586785567823646e-06
8.994010573776452e-06   -3.2113820091941685e-07   7.586785567823646e-06
2.447508932754757e-06   -3.785317947350812e-07   1.853205779248345e-05
2.447508932754757e-06   -3.785317947350812e-07   1.853205779248345e-05
2.447508932754757e-06   -3.785317947350812e-07   1.853205779248345e-05
2.447508932754757e-06   -3.785317947350812e-07   1.853205779248345e-05
8.99401057377648e-06   -1.0926355956133137e-06   3.016498231863231e-05
8.99401057377648e-06   -1.0926355956133137e-06   3.016498231863231e-05
8.99401057377648e-06   -1.0926355956133137e-06   3.016498231863231e-05
8.99401057377648e-06   -1.0926355956133137e-06   3.016498231863231e-05
-4.552907476708856e-06   -3.2113820091941685e-07   8.04968400463992e-06
-4.552907476708856e-06   -3.2113820091941685e-07   8.04968400463992e-06
-4.552907476708856e-06   -3.2113820091941685e-07   8.04968400463992e-06
-4.552907476708856e-06   -3.2113820091941685e-07   8.04968400463992e-06
-5.157347785727807e-06   -1.5310078306798262e-06   3.090582487784237e-05
-5.157347785727807e-06   -1.5310078306798262e-06   3.090582487784237e-05
-5.157347785727807e-06   -1.5310078306798262e-06   3.090582487784237e-05
-5.157347785727807e-06   -1.5310078306798262e-06   3.090582487784237e-05
8.340715166142135e-06   -8.255503406177835e-07   7.985778797355231e-06
8.340715166142135e-06   -8.255503406177835e-07   7.985778797355231e-06
8.340715166142135e-06   -8.255503406177835e-07   7.985778797355231e-06
8.340715166142135e-06   -8.255503406177835e-07   7.985778797355231e-06
1.9298132791119305e-06   -7.26347039049129e-07   1.8611093294797047e-05
1.9298132791119305e-06   -7.26347039049129e-07   1.8611093294797047e-05
1.9298132791119305e-06   -7.26347039049129e-07   1.8611093294797047e-05
1.9298132791119305e-06   -7.26347039049129e-07   1.8611093294797047e-05
-3.347227339563875e-06   3.1281785165396866e-06   3.35730071874735e-05
-3.347227339563875e-06   3.1281785165396866e-06   3.35730071874735e-05
-3.347227339563875e-06   3.1281785165396866e-06   3.35730071874735e-05
-3.347227339563875e-06   3.1281785165396866e-06   3.35730071874735e-05
-1.6839480268344373e-05   3.0790047849816714e-06   1.105641473390451e-05
-1.6839480268344373e-05   3.0790047849816714e-06   1.105641473390451e-05
-1.6839480268344373e-05   3.0790047849816714e-06   1.105641473390451e-05
-1.6839480268344373e-05   3.0790047849816714e-06   1.105641473390451e-05
-1.742768415573362e-05   2.6002357867795957e-06   3.335392339433351e-05
-1.742768415573362e-05   2.6002357867795957e-06   3.335392339433351e-05
-1.742768415573362e-05   2.6002357867795957e-06   3.335392339433351e-05
-1.742768415573362e-05   2.6002357867795957e-06   3.335392339433351e-05
-3.9433680341095215e-06   2.510326732956718e-06   1.0934008623920575e-05
-3.9433680341095215e-06   2.510326732956718e-06   1.0934008623920575e-05
-3.9433680341095215e-06   2.510326732956718e-06   1.0934008623920575e-05
-3.9433680341095215e-06   2.510326732956718e-06   1.0934008623920575e-05
-1.0415374750625552e-05   2.759190110090612e-06   2.1571368458500866e-05
-1.0415374750625552e-05   2.759190110090612e-06   2.1571368458500866e-05
-1.0415374750625552e-05   2.759190110090612e-06   2.1571368458500866e-05
-1.0415374750625552e-05   2.759190110090612e-06   2.1571368458500866e-05
-3.9433680341095215e-06   2.6002357867795957e-06   3.3407868826627505e-05
-3.9433680341095215e-06   2.6002357867795957e-06   3.3407868826627505e-05
-3.9433680341095215e-06   2.6002357867795957e-06   3.3407868826627505e-05
-3.9433680341095215e-06   2.6002357867795957e-06   3.3407868826627505e-05
-1.7427684155733647e-05   2.510326732956718e-06   1.088006319162674e-05
-1.7427684155733647e-05   2.510326732956718e-06   1.088006319162674e-05
-1.7427684155733647e-05   2.510326732956718e-06   1.088006319162674e-05
-1.7427684155733647e-05   2.510326732956718e-06   1.088006319162674e-05
-1.803001124810305e-05   2.0806828521535183e-06   3.352405792538199e-05
-1.803001124810305e-05   2.0806828521535183e-06   3.352405792538199e-05
-1.803001124810305e-05   2.0806828521535183e-06   3.352405792538199e-05
-1.803001124810305e-05   2.0806828521535183e-06   3.352405792538199e-05
-4.552907476708829e-06   1.9481782230585873e-06   1.114172108384855e-05
-4.552907476708829e-06   1.9481782230585873e-06   1.114172108384855e-05
-4.552907476708829e-06   1.9481782230585873e-06   1.114172108384855e-05
-4.552907476708829e-06   1.9481782230585873e-06   1.114172108384855e-05
-1.0954014284097265e-05   2.346518687848932e-06   2.1571228150622324e-05
-1.0954014284097265e-05   2.346518687848932e-06   2.1571228150622324e-05
-1.0954014284097265e-05   2.346518687848932e-06   2.1571228150622324e-05
-1.0954014284097265e-05   2.346518687848932e-06   2.1571228150622324e-05
-4.552907476708856e-06   2.0806828521535183e-06   3.360356070283892e-05
-4.552907476708856e-06   2.0806828521535183e-06   3.360356070283892e-05
-4.552907476708856e-06   2.0806828521535183e-06   3.360356070283892e-05
-4.552907476708856e-06   2.0806828521535183e-06   3.360356070283892e-05
-1.803001124810305e-05   1.9481782230585873e-06   1.1062218306391678e-05
-1.803001124810305e-05   1.9481782230585873e-06   1.1062218306391678e-05
-1.803001124810305e-05   1.9481782230585873e-06   1.1062218306391678e-05
-1.803001124810305e-05   1.9481782230585873e-06   1.1062218306391678e-05
-1.8625302908833276e-05   1.5876881862063146e-06   3.397365918700627e-05
-1.8625302908833276e-05   1.5876881862063146e-06   3.397365918700627e-05
-1.8625302908833276e-05   1.5876881862063146e-06   3.397365918700627e-05
-1.8625302908833276e-05   1.5876881862063146e-06   3.397365918700627e-05
-5.157347785727793e-06   1.4070084183393037e-06   1.1635475175884175e-05
-5.157347785727793e-06   1.4070084183393037e-06   1.1635475175884175e-05
-5.157347785727793e-06   1.4070084183393037e-06   1.1635475175884175e-05
-5.157347785727793e-06   1.4070084183393037e-06   1.1635475175884175e-05
-1.1517454640935229e-05   1.943571611996795e-06   2.1913715351701193e-05
-1.1517454640935229e-05   1.943571611996795e-06   2.1913715351701193e-05
-1.1517454640935229e-05   1.943571611996795e-06   2.1913715351701193e-05
-1.1517454640935229e-05   1.943571611996795e-06   2.1913715351701193e-05
-1.6839480268344373e-05   6.156104723003056e-06   2.9695092807631473e-05
-1.6839480268344373e-05   6.156104723003056e-06   2.9695092807631473e-05
-1.6839480268344373e-05   6.156104723003056e-06   2.9695092807631473e-05
-1.6839480268344373e-05   6.156104723003056e-06   2.9695092807631473e-05
-3.0106183145841333e-05   5.279731035223853e-06   7.058097132469059e-06
-3.0106183145841333e-05   5.279731035223853e-06   7.058097132469059e-06
-3.0106183145841333e-05   5.279731035223853e-06   7.058097132469059e-06
-3.0106183145841333e-05   5.279731035223853e-06   7.058097132469059e-06
-3.073720458968832e-05   5.650686536099727e-06   2.9302520168869497e-05
-3.073720458968832e-05   5.650686536099727e-06   2.9302520168869497e-05
-3.073720458968832e-05   5.650686536099727e-06   2.9302520168869497e-05
-3.073720458968832e-05   5.650686536099727e-06   2.9302520168869497e-05
-1.7427684155733593e-05   4.724320995607052e-06   7.675805436573946e-06
-1.7427684155733593e-05   4.724320995607052e-06   7.675805436573946e-06
-1.7427684155733593e-05   4.724320995607052e-06   7.675805436573946e-06
-1.7427684155733593e-05   4.724320995607052e-06   7.675805436573946e-06
-2.3710413560071552e-05   5.359782683515032e-06   1.776574409772635e-05
-2.3710413560071552e-05   5.359782683515032e-06   1.776574409772635e-05
-2.3710413560071552e-05   5.359782683515032e-06   1.776574409772635e-05
-2.3710413560071552e-05   5.359782683515032e-06   1.776574409772635e-05
-1.7427684155733647e-05   5.650686536099727e-06   2.985833949316482e-05
-1.7427684155733647e-05   5.650686536099727e-06   2.985833949316482e-05
-1.7427684155733647e-05   5.650686536099727e-06   2.985833949316482e-05
-1.7427684155733647e-05   5.650686536099727e-06   2.985833949316482e-05
-3.073720458968821e-05   4.724320995607052e-06   7.119986112278406e-06
-3.073720458968821e-05   4.724320995607052e-06   7.119986112278406e-06
-3.073720458968821e-05   4.724320995607052e-06   7.119986112278406e-06
-3.073720458968821e-05   4.724320995607052e-06   7.119986112278406e-06
-3.144731275346374e-05   5.17958740659419e-06   3.0305453789376737e-05
-3.144731275346374e-05   5.17958740659419e-06   3.0305453789376737e-05
-3.144731275346374e-05   5.17958740659419e-06   3.0305453789376737e-05
-3.144731275346374e-05   5.17958740659419e-06   3.0305453789376737e-05
-1.8030011248102996e-05   4.210273298839223e-06   8.524873078428986e-06
-1.8030011248102996e-05   4.210273298839223e-06   8.524873078428986e-06
-1.8030011248102996e-05   4.210273298839223e-06   8.524873078428986e-06
-1.8030011248102996e-05   4.210273298839223e-06   8.524873078428986e-06
-2.4147252628644645e-05   4.981493812763289e-06   1.8257543070977875e-05
-2.4147252628644645e-05   4.981493812763289e-06   1.8257543070977875e-05
-2.4147252628644645e-05   4.981493812763289e-06   1.8257543070977875e-05
-2.4147252628644645e-05   4.981493812763289e-06   1.8257543070977875e-05
-1.803001124810305e-05   5.17958740659419e-06   3.088704225402987e-05
-1.803001124810305e-05   5.17958740659419e-06   3.088704225402987e-05
-1.803001124810305e-05   5.17958740659419e-06   3.088704225402987e-05
-1.803001124810305e-05   5.17958740659419e-06   3.088704225402987e-05
-3.144731275346363e-05   4.210273298839223e-06   7.943284613775746e-06
-3.144731275346363e-05   4.210273298839223e-06   7.943284613775746e-06
-3.144731275346363e-05   4.210273298839223e-06   7.943284613775746e-06
-3.144731275346363e-05   4.210273298839223e-06   7.943284613775746e-06
-3.2078566471715564e-05   4.630828446034905e-06   3.115119325054305e-05
-3.2078566471715564e-05   4.630828446034905e-06   3.115119325054305e-05
-3.2078566471715564e-05   4.630828446034905e-06   3.115119325054305e-05
-3.2078566471715564e-05   4.630828446034905e-06   3.115119325054305e-05
-1.862530290883322e-05   3.635507959250713e-06   9.326279604476547e-06
-1.862530290883322e-05   3.635507959250713e-06   9.326279604476547e-06
-1.862530290883322e-05   3.635507959250713e-06   9.326279604476547e-06
-1.862530290883322e-05   3.635507959250713e-06   9.326279604476547e-06
-2.485911569998563e-05   4.583186090286904e-06   1.914736071110813e-05
-2.485911569998563e-05   4.583186090286904e-06   1.914736071110813e-05
-2.485911569998563e-05   4.583186090286904e-06   1.914736071110813e-05
-2.485911569998563e-05   4.583186090286904e-06   1.914736071110813e-05
-3.0106183145841333e-05   8.486325151811332e-06   1.4269414617270118e-05
-3.0106183145841333e-05   8.486325151811332e-06   1.4269414617270118e-05
-3.0106183145841333e-05   8.486325151811332e-06   1.4269414617270118e-05
-3.0106183145841333e-05   8.486325151811332e-06   1.4269414617270118e-05
-4.254897764636686e-05   6.927255296248873e-06   -7.404018130276874e-06
-4.254897764636686e-05   6.927255296248873e-06   -7.404018130276874e-06
-4.254897764636686e-05   6.927255296248873e-06   -7.404018130276874e-06
-4.254897764636686e-05   6.927255296248873e-06   -7.404018130276874e-06
-4.386858473327083e-05   8.444535540913511e-06   1.8298982321660138e-05
-4.386858473327083e-05   8.444535540913511e-06   1.8298982321660138e-05
-4.386858473327083e-05   8.444535540913511e-06   1.8298982321660138e-05
-4.386858473327083e-05   8.444535540913511e-06   1.8298982321660138e-05
-3.0737204589688155e-05   6.749381151457956e-06   -2.5695586173041154e-06
-3.0737204589688155e-05   6.749381151457956e-06   -2.5695586173041154e-06
-3.0737204589688155e-05   6.749381151457956e-06   -2.5695586173041154e-06
-3.0737204589688155e-05   6.749381151457956e-06   -2.5695586173041154e-06
-3.543543244136386e-05   7.512427049487995e-06   4.80299359667145e-06
-3.543543244136386e-05   7.512427049487995e-06   4.80299359667145e-06
-3.543543244136386e-05   7.512427049487995e-06   4.80299359667145e-06
-3.543543244136386e-05   7.512427049487995e-06   4.80299359667145e-06
-3.073720458968826e-05   8.444535540913511e-06   1.9316074955333406e-05
-3.073720458968826e-05   8.444535540913511e-06   1.9316074955333406e-05
-3.073720458968826e-05   8.444535540913511e-06   1.9316074955333406e-05
-3.073720458968826e-05   8.444535540913511e-06   1.9316074955333406e-05
-4.3868584733270776e-05   6.749381151457956e-06   -3.5866512509773836e-06
-4.3868584733270776e-05   6.749381151457956e-06   -3.5866512509773836e-06
-4.3868584733270776e-05   6.749381151457956e-06   -3.5866512509773836e-06
-4.3868584733270776e-05   6.749381151457956e-06   -3.5866512509773836e-06
-4.5019766940468636e-05   8.272665784474567e-06   2.1790399712827337e-05
-4.5019766940468636e-05   8.272665784474567e-06   2.1790399712827337e-05
-4.5019766940468636e-05   8.272665784474567e-06   2.1790399712827337e-05
-4.5019766940468636e-05   8.272665784474567e-06   2.1790399712827337e-05
-3.1447312753463575e-05   6.531431456096703e-06   2.1438333151248268e-07
-3.1447312753463575e-05   6.531431456096703e-06   2.1438333151248268e-07
-3.1447312753463575e-05   6.531431456096703e-06   2.1438333151248268e-07
-3.1447312753463575e-05   6.531431456096703e-06   2.1438333151248268e-07
-3.6833400418920356e-05   7.517523110167883e-06   8.599541114832335e-06
-3.6833400418920356e-05   7.517523110167883e-06   8.599541114832335e-06
-3.6833400418920356e-05   7.517523110167883e-06   8.599541114832335e-06
-3.6833400418920356e-05   7.517523110167883e-06   8.599541114832335e-06
-3.144731275346363e-05   8.272665784474567e-06   2.28351403098536e-05
-3.144731275346363e-05   8.272665784474567e-06   2.28351403098536e-05
-3.144731275346363e-05   8.272665784474567e-06   2.28351403098536e-05
-3.144731275346363e-05   8.272665784474567e-06   2.28351403098536e-05
-4.501976694046847e-05   6.53143145609692e-06   -8.303572655142684e-07
-4.501976694046847e-05   6.53143145609692e-06   -8.303572655142684e-07
-4.501976694046847e-05   6.53143145609692e-06   -8.303572655142684e-07
-4.501976694046847e-05   6.53143145609692e-06   -8.303572655142684e-07
-4.635500349292051e-05   7.514003843566439e-06   2.785716816913514e-05
-4.635500349292051e-05   7.514003843566439e-06   2.785716816913514e-05
-4.635500349292051e-05   7.514003843566439e-06   2.785716816913514e-05
-4.635500349292051e-05   7.514003843566439e-06   2.785716816913514e-05
-3.2078566471715456e-05   5.799633491709302e-06   5.09172867824083e-06
-3.2078566471715456e-05   5.799633491709302e-06   5.09172867824083e-06
-3.2078566471715456e-05   5.799633491709302e-06   5.09172867824083e-06
-3.2078566471715456e-05   5.799633491709302e-06   5.09172867824083e-06
-3.714451178049978e-05   7.198784855941666e-06   1.269548004100723e-05
-3.714451178049978e-05   7.198784855941666e-06   1.269548004100723e-05
-3.714451178049978e-05   7.198784855941666e-06   1.269548004100723e-05
-3.714451178049978e-05   7.198784855941666e-06   1.269548004100723e-05
1.3898173852123488e-05   -1.5948805292184936e-06   1.971245943697317e-05
1.3898173852123488e-05   -1.5948805292184936e-06   1.971245943697317e-05
1.3898173852123488e-05   -1.5948805292184936e-06   1.971245943697317e-05
1.3898173852123488e-05   -1.5948805292184936e-06   1.971245943697317e-05
3.641431490156852e-06   3.2880621344578975e-08   3.5945455240330576e-06
3.641431490156852e-06   3.2880621344578975e-08   3.5945455240330576e-06
3.641431490156852e-06   3.2880621344578975e-08   3.5945455240330576e-06
3.641431490156852e-06   3.2880621344578975e-08   3.5945455240330576e-06
3.1559018396617794e-06   -2.213496056064322e-06   1.8376647694507255e-05
3.1559018396617794e-06   -2.213496056064322e-06   1.8376647694507255e-05
3.1559018396617794e-06   -2.213496056064322e-06   1.8376647694507255e-05
3.1559018396617794e-06   -2.213496056064322e-06   1.8376647694507255e-05
1.2697825535861883e-05   -5.216239628827359e-07   1.4583182782651515e-06
1.2697825535861883e-05   -5.216239628827359e-07   1.4583182782651515e-06
1.2697825535861883e-05   -5.216239628827359e-07   1.4583182782651515e-06
1.2697825535861883e-05   -5.216239628827359e-07   1.4583182782651515e-06
7.855783501681162e-06   -1.1527693441073334e-06   9.907075563968357e-06
7.855783501681162e-06   -1.1527693441073334e-06   9.907075563968357e-06
7.855783501681162e-06   -1.1527693441073334e-06   9.907075563968357e-06
7.855783501681162e-06   -1.1527693441073334e-06   9.907075563968357e-06
1.269782553586191e-05   -2.213496056064322e-06   1.736152443859851e-05
1.269782553586191e-05   -2.213496056064322e-06   1.736152443859851e-05
1.269782553586191e-05   -2.213496056064322e-06   1.736152443859851e-05
1.269782553586191e-05   -2.213496056064322e-06   1.736152443859851e-05
3.1559018396617726e-06   -5.216239628827359e-07   2.473441534174038e-06
3.1559018396617726e-06   -5.216239628827359e-07   2.473441534174038e-06
3.1559018396617726e-06   -5.216239628827359e-07   2.473441534174038e-06
3.1559018396617726e-06   -5.216239628827359e-07   2.473441534174038e-06
2.589962362027479e-06   -2.4263264120304683e-06   1.7245685402654813e-05
2.589962362027479e-06   -2.4263264120304683e-06   1.7245685402654813e-05
2.589962362027479e-06   -2.4263264120304683e-06   1.7245685402654813e-05
2.589962362027479e-06   -2.4263264120304683e-06   1.7245685402654813e-05
1.1681398052816198e-05   -7.605326599652209e-07   1.09381633343474e-06
1.1681398052816198e-05   -7.605326599652209e-07   1.09381633343474e-06
1.1681398052816198e-05   -7.605326599652209e-07   1.09381633343474e-06
1.1681398052816198e-05   -7.605326599652209e-07   1.09381633343474e-06
7.276112884540572e-06   -1.3948296962111974e-06   8.816536502308215e-06
7.276112884540572e-06   -1.3948296962111974e-06   8.816536502308215e-06
7.276112884540572e-06   -1.3948296962111974e-06   8.816536502308215e-06
7.276112884540572e-06   -1.3948296962111974e-06   8.816536502308215e-06
1.1681398052816225e-05   -2.4263264120302514e-06   1.624620915141571e-05
1.1681398052816225e-05   -2.4263264120302514e-06   1.624620915141571e-05
1.1681398052816225e-05   -2.4263264120302514e-06   1.624620915141571e-05
1.1681398052816225e-05   -2.4263264120302514e-06   1.624620915141571e-05
2.5899623620274687e-06   -7.605326599652209e-07   2.093292584673715e-06
2.5899623620274687e-06   -7.605326599652209e-07   2.093292584673715e-06
2.5899623620274687e-06   -7.605326599652209e-07   2.093292584673715e-06
2.5899623620274687e-06   -7.605326599652209e-07   2.093292584673715e-06
2.0995755056334017e-06   -2.707262028897291e-06   1.5937602717908724e-05
2.0995755056334017e-06   -2.707262028897291e-06   1.5937602717908724e-05
2.0995755056334017e-06   -2.707262028897291e-06   1.5937602717908724e-05
2.0995755056334017e-06   -2.707262028897291e-06   1.5937602717908724e-05
1.049101021722784e-05   -1.1581635170833555e-06   1.022419091496144e-06
1.049101021722784e-05   -1.1581635170833555e-06   1.022419091496144e-06
1.049101021722784e-05   -1.1581635170833555e-06   1.022419091496144e-06
1.049101021722784e-05   -1.1581635170833555e-06   1.022419091496144e-06
6.420839653522139e-06   -1.5193908992122609e-06   8.022773126949774e-06
6.420839653522139e-06   -1.5193908992122609e-06   8.022773126949774e-06
6.420839653522139e-06   -1.5193908992122609e-06   8.022773126949774e-06
6.420839653522139e-06   -1.5193908992122609e-06   8.022773126949774e-06
3.6414314901568587e-06   8.169850290592421e-07   2.7106659709486496e-05
3.6414314901568587e-06   8.169850290592421e-07   2.7106659709486496e-05
3.6414314901568587e-06   8.169850290592421e-07   2.7106659709486496e-05
3.6414314901568587e-06   8.169850290592421e-07   2.7106659709486496e-05
-5.701682205686289e-06   1.55438566195004e-06   1.1977243929482554e-05
-5.701682205686289e-06   1.55438566195004e-06   1.1977243929482554e-05
-5.701682205686289e-06   1.55438566195004e-06   1.1977243929482554e-05
-5.701682205686289e-06   1.55438566195004e-06   1.1977243929482554e-05
-6.1282561245636216e-06   1.909486402832533e-07   2.7191632452683192e-05
-6.1282561245636216e-06   1.909486402832533e-07   2.7191632452683192e-05
-6.1282561245636216e-06   1.909486402832533e-07   2.7191632452683192e-05
-6.1282561245636216e-06   1.909486402832533e-07   2.7191632452683192e-05
3.1559018396617726e-06   9.280203552058854e-07   1.1275792816687453e-05
3.1559018396617726e-06   9.280203552058854e-07   1.1275792816687453e-05
3.1559018396617726e-06   9.280203552058854e-07   1.1275792816687453e-05
3.1559018396617726e-06   9.280203552058854e-07   1.1275792816687453e-05
-1.3281072173008723e-06   8.100410653849935e-07   1.8819928818851852e-05
-1.3281072173008723e-06   8.100410653849935e-07   1.8819928818851852e-05
-1.3281072173008723e-06   8.100410653849935e-07   1.8819928818851852e-05
-1.3281072173008723e-06   8.100410653849935e-07   1.8819928818851852e-05
3.155901839661776e-06   1.909486402832533e-07   2.6749389423729494e-05
3.155901839661776e-06   1.909486402832533e-07   2.6749389423729494e-05
3.155901839661776e-06   1.909486402832533e-07   2.6749389423729494e-05
3.155901839661776e-06   1.909486402832533e-07   2.6749389423729494e-05
-6.128256124563608e-06   9.280203552058854e-07   1.1718035845641097e-05
-6.128256124563608e-06   9.280203552058854e-07   1.1718035845641097e-05
-6.128256124563608e-06   9.280203552058854e-07   1.1718035845641097e-05
-6.128256124563608e-06   9.280203552058854e-07   1.1718035845641097e-05
-6.567306601106801e-06   -3.2113820091941685e-07   2.701608180373776e-05
-6.567306601106801e-06   -3.2113820091941685e-07   2.701608180373776e-05
-6.567306601106801e-06   -3.2113820091941685e-07   2.701608180373776e-05
-6.567306601106801e-06   -3.2113820091941685e-07   2.701608180373776e-05
2.5899623620274687e-06   3.9734887815191626e-07   1.1322874617737959e-05
2.5899623620274687e-06   3.9734887815191626e-07   1.1322874617737959e-05
2.5899623620274687e-06   3.9734887815191626e-07   1.1322874617737959e-05
2.5899623620274687e-06   3.9734887815191626e-07   1.1322874617737959e-05
-1.7835147178012244e-06   3.7329425046298947e-07   1.8626435860732754e-05
-1.7835147178012244e-06   3.7329425046298947e-07   1.8626435860732754e-05
-1.7835147178012244e-06   3.7329425046298947e-07   1.8626435860732754e-05
-1.7835147178012244e-06   3.7329425046298947e-07   1.8626435860732754e-05
2.589962362027479e-06   -3.211382009192e-07   2.658498955629494e-05
2.589962362027479e-06   -3.211382009192e-07   2.658498955629494e-05
2.589962362027479e-06   -3.211382009192e-07   2.658498955629494e-05
2.589962362027479e-06   -3.211382009192e-07   2.658498955629494e-05
-6.5673066011068146e-06   3.973488781521331e-07   1.1753966865180672e-05
-6.5673066011068146e-06   3.973488781521331e-07   1.1753966865180672e-05
-6.5673066011068146e-06   3.973488781521331e-07   1.1753966865180672e-05
-6.5673066011068146e-06   3.973488781521331e-07   1.1753966865180672e-05
-6.999829741748879e-06   -8.255503406177835e-07   2.7370578274166267e-05
-6.999829741748879e-06   -8.255503406177835e-07   2.7370578274166267e-05
-6.999829741748879e-06   -8.255503406177835e-07   2.7370578274166267e-05
-6.999829741748879e-06   -8.255503406177835e-07   2.7370578274166267e-05
2.099575505633395e-06   -1.4474555902173683e-07   1.1796419992904828e-05
2.099575505633395e-06   -1.4474555902173683e-07   1.1796419992904828e-05
2.099575505633395e-06   -1.4474555902173683e-07   1.1796419992904828e-05
2.099575505633395e-06   -1.4474555902173683e-07   1.1796419992904828e-05
-2.1690242554654195e-06   -1.8435434751581763e-08   1.883496685350743e-05
-2.1690242554654195e-06   -1.8435434751581763e-08   1.883496685350743e-05
-2.1690242554654195e-06   -1.8435434751581763e-08   1.883496685350743e-05
-2.1690242554654195e-06   -1.8435434751581763e-08   1.883496685350743e-05
-5.701682205686289e-06   3.0790047849816714e-06   3.005834326875778e-05
-5.701682205686289e-06   3.0790047849816714e-06   3.005834326875778e-05
-5.701682205686289e-06   3.0790047849816714e-06   3.005834326875778e-05
-5.701682205686289e-06   3.0790047849816714e-06   3.005834326875778e-05
-1.4885816419053582e-05   2.9030401993625655e-06   1.4645874161774088e-05
-1.4885816419053582e-05   2.9030401993625655e-06   1.4645874161774088e-05
-1.4885816419053582e-05   2.9030401993625655e-06   1.4645874161774088e-05
-1.4885816419053582e-05   2.9030401993625655e-06   1.4645874161774088e-05
-1.5295151031069238e-05   2.510326732956718e-06   2.9792611193567168e-05
-1.5295151031069238e-05   2.510326732956718e-06   2.9792611193567168e-05
-1.5295151031069238e-05   2.510326732956718e-06   2.9792611193567168e-05
-1.5295151031069238e-05   2.510326732956718e-06   2.9792611193567168e-05
-6.1282561245635945e-06   2.325750997986308e-06   1.4625198457040179e-05
-6.1282561245635945e-06   2.325750997986308e-06   1.4625198457040179e-05
-6.1282561245635945e-06   2.325750997986308e-06   1.4625198457040179e-05
-6.1282561245635945e-06   2.325750997986308e-06   1.4625198457040179e-05
-1.0522367217776375e-05   2.639751805752228e-06   2.176031646106938e-05
-1.0522367217776375e-05   2.639751805752228e-06   2.176031646106938e-05
-1.0522367217776375e-05   2.639751805752228e-06   2.176031646106938e-05
-1.0522367217776375e-05   2.639751805752228e-06   2.176031646106938e-05
-6.128256124563608e-06   2.510326732956718e-06   2.990335663454949e-05
-6.128256124563608e-06   2.510326732956718e-06   2.990335663454949e-05
-6.128256124563608e-06   2.510326732956718e-06   2.990335663454949e-05
-6.128256124563608e-06   2.510326732956718e-06   2.990335663454949e-05
-1.5295151031069238e-05   2.325750997986308e-06   1.451445301605802e-05
-1.5295151031069238e-05   2.325750997986308e-06   1.451445301605802e-05
-1.5295151031069238e-05   2.325750997986308e-06   1.451445301605802e-05
-1.5295151031069238e-05   2.325750997986308e-06   1.451445301605802e-05
-1.571789073398925e-05   1.9481782230585873e-06   2.999006566879324e-05
-1.571789073398925e-05   1.9481782230585873e-06   2.999006566879324e-05
-1.571789073398925e-05   1.9481782230585873e-06   2.999006566879324e-05
-1.571789073398925e-05   1.9481782230585873e-06   2.999006566879324e-05
-6.567306601106801e-06   1.7514228661365608e-06   1.4857145328142597e-05
-6.567306601106801e-06   1.7514228661365608e-06   1.4857145328142597e-05
-6.567306601106801e-06   1.7514228661365608e-06   1.4857145328142597e-05
-6.567306601106801e-06   1.7514228661365608e-06   1.4857145328142597e-05
-1.0886791897152443e-05   2.2007279728663946e-06   2.1786704424180592e-05
-1.0886791897152443e-05   2.2007279728663946e-06   2.1786704424180592e-05
-1.0886791897152443e-05   2.2007279728663946e-06   2.1786704424180592e-05
-1.0886791897152443e-05   2.2007279728663946e-06   2.1786704424180592e-05
-6.5673066011068146e-06   1.9481782230583704e-06   3.01081188829465e-05
-6.5673066011068146e-06   1.9481782230583704e-06   3.01081188829465e-05
-6.5673066011068146e-06   1.9481782230583704e-06   3.01081188829465e-05
-6.5673066011068146e-06   1.9481782230583704e-06   3.01081188829465e-05
-1.571789073398925e-05   1.7514228661367776e-06   1.4739092113989446e-05
-1.571789073398925e-05   1.7514228661367776e-06   1.4739092113989446e-05
-1.571789073398925e-05   1.7514228661367776e-06   1.4739092113989446e-05
-1.571789073398925e-05   1.7514228661367776e-06   1.4739092113989446e-05
-1.6134017166500106e-05   1.4070084183390869e-06   3.047371395942136e-05
-1.6134017166500106e-05   1.4070084183390869e-06   3.047371395942136e-05
-1.6134017166500106e-05   1.4070084183390869e-06   3.047371395942136e-05
-1.6134017166500106e-05   1.4070084183390869e-06   3.047371395942136e-05
-6.999829741748852e-06   1.2015314196113774e-06   1.5373354450739542e-05
-6.999829741748852e-06   1.2015314196113774e-06   1.5373354450739542e-05
-6.999829741748852e-06   1.2015314196113774e-06   1.5373354450739542e-05
-6.999829741748852e-06   1.2015314196113774e-06   1.5373354450739542e-05
-1.127443700782324e-05   1.7705201178163342e-06   2.2156306675273727e-05
-1.127443700782324e-05   1.7705201178163342e-06   2.2156306675273727e-05
-1.127443700782324e-05   1.7705201178163342e-06   2.2156306675273727e-05
-1.127443700782324e-05   1.7705201178163342e-06   2.2156306675273727e-05
-1.4885816419053582e-05   5.279731035223853e-06   2.648027112861826e-05
-1.4885816419053582e-05   5.279731035223853e-06   2.648027112861826e-05
-1.4885816419053582e-05   5.279731035223853e-06   2.648027112861826e-05
-1.4885816419053582e-05   5.279731035223853e-06   2.648027112861826e-05
-2.390376460092281e-05   4.313393901602238e-06   1.0870555211996613e-05
-2.390376460092281e-05   4.313393901602238e-06   1.0870555211996613e-05
-2.390376460092281e-05   4.313393901602238e-06   1.0870555211996613e-05
-2.390376460092281e-05   4.313393901602238e-06   1.0870555211996613e-05
-2.434997257977291e-05   4.724320995607052e-06   2.599252765417043e-05
-2.434997257977291e-05   4.724320995607052e-06   2.599252765417043e-05
-2.434997257977291e-05   4.724320995607052e-06   2.599252765417043e-05
-2.434997257977291e-05   4.724320995607052e-06   2.599252765417043e-05
-1.529515103106921e-05   3.73127802170037e-06   1.1496984190675083e-05
-1.529515103106921e-05   3.73127802170037e-06   1.1496984190675083e-05
-1.529515103106921e-05   3.73127802170037e-06   1.1496984190675083e-05
-1.529515103106921e-05   3.73127802170037e-06   1.1496984190675083e-05
-1.956137440869732e-05   4.438572868054806e-06   1.8182979578910415e-05
-1.956137440869732e-05   4.438572868054806e-06   1.8182979578910415e-05
-1.956137440869732e-05   4.438572868054806e-06   1.8182979578910415e-05
-1.956137440869732e-05   4.438572868054806e-06   1.8182979578910415e-05
-1.5295151031069265e-05   4.724320995607052e-06   2.6588353438514374e-05
-1.5295151031069265e-05   4.724320995607052e-06   2.6588353438514374e-05
-1.5295151031069265e-05   4.724320995607052e-06   2.6588353438514374e-05
-1.5295151031069265e-05   4.724320995607052e-06   2.6588353438514374e-05
-2.4349972579772855e-05   3.731278021700587e-06   1.0901158406331193e-05
-2.4349972579772855e-05   3.731278021700587e-06   1.0901158406331193e-05
-2.4349972579772855e-05   3.731278021700587e-06   1.0901158406331193e-05
-2.4349972579772855e-05   3.731278021700587e-06   1.0901158406331193e-05
-2.4878359467523227e-05   4.210273298839223e-06   2.6847727880613187e-05
-2.4878359467523227e-05   4.210273298839223e-06   2.6847727880613187e-05
-2.4878359467523227e-05   4.210273298839223e-06   2.6847727880613187e-05
-2.4878359467523227e-05   4.210273298839223e-06   2.6847727880613187e-05
-1.5717890733989224e-05   3.2019523651437634e-06   1.2185272551607429e-05
-1.5717890733989224e-05   3.2019523651437634e-06   1.2185272551607429e-05
-1.5717890733989224e-05   3.2019523651437634e-06   1.2185272551607429e-05
-1.5717890733989224e-05   3.2019523651437634e-06   1.2185272551607429e-05
-1.9850399959045234e-05   4.026900042719463e-06   1.8577819320155132e-05
-1.9850399959045234e-05   4.026900042719463e-06   1.8577819320155132e-05
-1.9850399959045234e-05   4.026900042719463e-06   1.8577819320155132e-05
-1.9850399959045234e-05   4.026900042719463e-06   1.8577819320155132e-05
-1.571789073398925e-05   4.210273298839223e-06   2.7452720440830495e-05
-1.571789073398925e-05   4.210273298839223e-06   2.7452720440830495e-05
-1.571789073398925e-05   4.210273298839223e-06   2.7452720440830495e-05
-1.571789073398925e-05   4.210273298839223e-06   2.7452720440830495e-05
-2.4878359467523227e-05   3.2019523651437634e-06   1.1580279991390175e-05
-2.4878359467523227e-05   3.2019523651437634e-06   1.1580279991390175e-05
-2.4878359467523227e-05   3.2019523651437634e-06   1.1580279991390175e-05
-2.4878359467523227e-05   3.2019523651437634e-06   1.1580279991390175e-05
-2.5331719050557342e-05   3.63550795925093e-06   2.7673337253449537e-05
-2.5331719050557342e-05   3.63550795925093e-06   2.7673337253449537e-05
-2.5331719050557342e-05   3.63550795925093e-06   2.7673337253449537e-05
-2.5331719050557342e-05   3.63550795925093e-06   2.7673337253449537e-05
-1.613401716650005e-05   2.6361929671102607e-06   1.2943423108638798e-05
-1.613401716650005e-05   2.6361929671102607e-06   1.2943423108638798e-05
-1.613401716650005e-05   2.6361929671102607e-06   1.2943423108638798e-05
-1.613401716650005e-05   2.6361929671102607e-06   1.2943423108638798e-05
-2.0347612761110502e-05   3.6145376085531438e-06   1.9379075648123486e-05
-2.0347612761110502e-05   3.6145376085531438e-06   1.9379075648123486e-05
-2.0347612761110502e-05   3.6145376085531438e-06   1.9379075648123486e-05
-2.0347612761110502e-05   3.6145376085531438e-06   1.9379075648123486e-05
-2.3903764600922864e-05   6.927255296248873e-06   1.2373795499037287e-05
-2.3903764600922864e-05   6.927255296248873e-06   1.2373795499037287e-05
-2.3903764600922864e-05   6.927255296248873e-06   1.2373795499037287e-05
-2.3903764600922864e-05   6.927255296248873e-06   1.2373795499037287e-05
-3.203921305690679e-05   5.308170960145438e-06   -2.1567358625977553e-06
-3.203921305690679e-05   5.308170960145438e-06   -2.1567358625977553e-06
-3.203921305690679e-05   5.308170960145438e-06   -2.1567358625977553e-06
-3.203921305690679e-05   5.308170960145438e-06   -2.1567358625977553e-06
-3.318321806424678e-05   6.749381151457956e-06   1.5259290259614193e-05
-3.318321806424678e-05   6.749381151457956e-06   1.5259290259614193e-05
-3.318321806424678e-05   6.749381151457956e-06   1.5259290259614193e-05
-3.318321806424678e-05   6.749381151457956e-06   1.5259290259614193e-05
-2.43499725797728e-05   5.009893376501946e-06   1.5809071171314594e-06
-2.43499725797728e-05   5.009893376501946e-06   1.5809071171314594e-06
-2.43499725797728e-05   5.009893376501946e-06   1.5809071171314594e-06
-2.43499725797728e-05   5.009893376501946e-06   1.5809071171314594e-06
-2.733583265592123e-05   5.88828975582557e-06   6.030302749785712e-06
-2.733583265592123e-05   5.88828975582557e-06   6.030302749785712e-06
-2.733583265592123e-05   5.88828975582557e-06   6.030302749785712e-06
-2.733583265592123e-05   5.88828975582557e-06   6.030302749785712e-06
-2.43499725797728e-05   6.749381151457956e-06   1.63029829245878e-05
-2.43499725797728e-05   6.749381151457956e-06   1.63029829245878e-05
-2.43499725797728e-05   6.749381151457956e-06   1.63029829245878e-05
-2.43499725797728e-05   6.749381151457956e-06   1.63029829245878e-05
-3.318321806424683e-05   5.009893376501946e-06   5.37214452157826e-07
-3.318321806424683e-05   5.009893376501946e-06   5.37214452157826e-07
-3.318321806424683e-05   5.009893376501946e-06   5.37214452157826e-07
-3.318321806424683e-05   5.009893376501946e-06   5.37214452157826e-07
-3.416806837941433e-05   6.531431456096703e-06   1.8056275354181098e-05
-3.416806837941433e-05   6.531431456096703e-06   1.8056275354181098e-05
-3.416806837941433e-05   6.531431456096703e-06   1.8056275354181098e-05
-3.416806837941433e-05   6.531431456096703e-06   1.8056275354181098e-05
-2.487835946752312e-05   4.760512715815688e-06   3.635978411864536e-06
-2.487835946752312e-05   4.760512715815688e-06   3.635978411864536e-06
-2.487835946752312e-05   4.760512715815688e-06   3.635978411864536e-06
-2.487835946752312e-05   4.760512715815688e-06   3.635978411864536e-06
-2.843447215514672e-05   5.811071316086272e-06   8.932497731075338e-06
-2.843447215514672e-05   5.811071316086272e-06   8.932497731075338e-06
-2.843447215514672e-05   5.811071316086272e-06   8.932497731075338e-06
-2.843447215514672e-05   5.811071316086272e-06   8.932497731075338e-06
-2.4878359467523227e-05   6.53143145609692e-06   1.9118826598349815e-05
-2.4878359467523227e-05   6.53143145609692e-06   1.9118826598349815e-05
-2.4878359467523227e-05   6.53143145609692e-06   1.9118826598349815e-05
-2.4878359467523227e-05   6.53143145609692e-06   1.9118826598349815e-05
-3.416806837941438e-05   4.760512715815471e-06   2.573427167695846e-06
-3.416806837941438e-05   4.760512715815471e-06   2.573427167695846e-06
-3.416806837941438e-05   4.760512715815471e-06   2.573427167695846e-06
-3.416806837941438e-05   4.760512715815471e-06   2.573427167695846e-06
-3.5346641121171895e-05   5.799633491709302e-06   2.3005372899773547e-05
-3.5346641121171895e-05   5.799633491709302e-06   2.3005372899773547e-05
-3.5346641121171895e-05   5.799633491709302e-06   2.3005372899773547e-05
-3.5346641121171895e-05   5.799633491709302e-06   2.3005372899773547e-05
-2.533171905055718e-05   4.081957292524294e-06   7.344441834926884e-06
-2.533171905055718e-05   4.081957292524294e-06   7.344441834926884e-06
-2.533171905055718e-05   4.081957292524294e-06   7.344441834926884e-06
-2.533171905055718e-05   4.081957292524294e-06   7.344441834926884e-06
-2.8707845368755407e-05   5.502501820666404e-06   1.2118992315037711e-05
-2.8707845368755407e-05   5.502501820666404e-06   1.2118992315037711e-05
-2.8707845368755407e-05   5.502501820666404e-06   1.2118992315037711e-05
-2.8707845368755407e-05   5.502501820666404e-06   1.2118992315037711e-05
2.8038485564008657e-06   3.2880621344578975e-08   1.4717856207434333e-05
2.8038485564008657e-06   3.2880621344578975e-08   1.4717856207434333e-05
2.8038485564008657e-06   3.2880621344578975e-08   1.4717856207434333e-05
2.8038485564008657e-06   3.2880621344578975e-08   1.4717856207434333e-05
-3.070884610936663e-06   1.5961537521349146e-06   5.86459814034602e-06
-3.070884610936663e-06   1.5961537521349146e-06   5.86459814034602e-06
-3.070884610936663e-06   1.5961537521349146e-06   5.86459814034602e-06
-3.070884610936663e-06   1.5961537521349146e-06   5.86459814034602e-06
-3.4150353745304333e-06   -5.216239628827359e-07   1.4514476961603219e-05
-3.4150353745304333e-06   -5.216239628827359e-07   1.4514476961603219e-05
-3.4150353745304333e-06   -5.216239628827359e-07   1.4514476961603219e-05
-3.4150353745304333e-06   -5.216239628827359e-07   1.4514476961603219e-05
1.7566949763352574e-06   1.0788518994687794e-06   4.9346408594160484e-06
1.7566949763352574e-06   1.0788518994687794e-06   4.9346408594160484e-06
1.7566949763352574e-06   1.0788518994687794e-06   4.9346408594160484e-06
1.7566949763352574e-06   1.0788518994687794e-06   4.9346408594160484e-06
-6.194384203930025e-07   4.5793732250551345e-07   9.267411933474505e-06
-6.194384203930025e-07   4.5793732250551345e-07   9.267411933474505e-06
-6.194384203930025e-07   4.5793732250551345e-07   9.267411933474505e-06
-6.194384203930025e-07   4.5793732250551345e-07   9.267411933474505e-06
1.7566949763352574e-06   -5.216239628827359e-07   1.3554191444192238e-05
1.7566949763352574e-06   -5.216239628827359e-07   1.3554191444192238e-05
1.7566949763352574e-06   -5.216239628827359e-07   1.3554191444192238e-05
1.7566949763352574e-06   -5.216239628827359e-07   1.3554191444192238e-05
-3.4150353745304333e-06   1.0788518994687794e-06   5.894926376827023e-06
-3.4150353745304333e-06   1.0788518994687794e-06   5.894926376827023e-06
-3.4150353745304333e-06   1.0788518994687794e-06   5.894926376827023e-06
-3.4150353745304333e-06   1.0788518994687794e-06   5.894926376827023e-06
-3.840219153827786e-06   -7.605326599654377e-07   1.4133399376946277e-05
-3.840219153827786e-06   -7.605326599654377e-07   1.4133399376946277e-05
-3.840219153827786e-06   -7.605326599654377e-07   1.4133399376946277e-05
-3.840219153827786e-06   -7.605326599654377e-07   1.4133399376946277e-05
8.479087105967063e-07   7.943307863883314e-07   5.386934868426615e-06
8.479087105967063e-07   7.943307863883314e-07   5.386934868426615e-06
8.479087105967063e-07   7.943307863883314e-07   5.386934868426615e-06
8.479087105967063e-07   7.943307863883314e-07   5.386934868426615e-06
-1.1842991504446918e-06   2.3753124836663198e-07   9.108027692975322e-06
-1.1842991504446918e-06   2.3753124836663198e-07   9.108027692975322e-06
-1.1842991504446918e-06   2.3753124836663198e-07   9.108027692975322e-06
-1.1842991504446918e-06   2.3753124836663198e-07   9.108027692975322e-06
8.479087105967199e-07   -7.605326599654377e-07   1.3200481309134023e-05
8.479087105967199e-07   -7.605326599654377e-07   1.3200481309134023e-05
8.479087105967199e-07   -7.605326599654377e-07   1.3200481309134023e-05
8.479087105967199e-07   -7.605326599654377e-07   1.3200481309134023e-05
-3.840219153827776e-06   7.943307863883314e-07   6.319852936238746e-06
-3.840219153827776e-06   7.943307863883314e-07   6.319852936238746e-06
-3.840219153827776e-06   7.943307863883314e-07   6.319852936238746e-06
-3.840219153827776e-06   7.943307863883314e-07   6.319852936238746e-06
-4.195651288988191e-06   -1.1581635170831387e-06   1.399588457303921e-05
-4.195651288988191e-06   -1.1581635170831387e-06   1.399588457303921e-05
-4.195651288988191e-06   -1.1581635170831387e-06   1.399588457303921e-05
-4.195651288988191e-06   -1.1581635170831387e-06   1.399588457303921e-05
-2.9232129342906686e-07   1.9110060543215974e-07   6.680776106931662e-06
-2.9232129342906686e-07   1.9110060543215974e-07   6.680776106931662e-06
-2.9232129342906686e-07   1.9110060543215974e-07   6.680776106931662e-06
-2.9232129342906686e-07   1.9110060543215974e-07   6.680776106931662e-06
-1.7935179253012705e-06   3.5839731689954035e-08   9.275927017630568e-06
-1.7935179253012705e-06   3.5839731689954035e-08   9.275927017630568e-06
-1.7935179253012705e-06   3.5839731689954035e-08   9.275927017630568e-06
-1.7935179253012705e-06   3.5839731689954035e-08   9.275927017630568e-06
-3.070884610936663e-06   1.554385661950257e-06   2.359607811162342e-05
-3.070884610936663e-06   1.554385661950257e-06   2.359607811162342e-05
-3.070884610936663e-06   1.554385661950257e-06   2.359607811162342e-05
-3.070884610936663e-06   1.554385661950257e-06   2.359607811162342e-05
-7.987646706481217e-06   1.8632637200130097e-06   1.5586801453886814e-05
-7.987646706481217e-06   1.8632637200130097e-06   1.5586801453886814e-05
-7.987646706481217e-06   1.8632637200130097e-06   1.5586801453886814e-05
-7.987646706481217e-06   1.8632637200130097e-06   1.5586801453886814e-05
-8.247288990158468e-06   9.280203552058854e-07   2.353143409835766e-05
-8.247288990158468e-06   9.280203552058854e-07   2.353143409835766e-05
-8.247288990158468e-06   9.280203552058854e-07   2.353143409835766e-05
-8.247288990158468e-06   9.280203552058854e-07   2.353143409835766e-05
-3.4150353745304333e-06   1.2856967789409268e-06   1.526307221806991e-05
-3.4150353745304333e-06   1.2856967789409268e-06   1.526307221806991e-05
-3.4150353745304333e-06   1.2856967789409268e-06   1.526307221806991e-05
-3.4150353745304333e-06   1.2856967789409268e-06   1.526307221806991e-05
-5.714303834836176e-06   1.340713648325016e-06   1.906217619694904e-05
-5.714303834836176e-06   1.340713648325016e-06   1.906217619694904e-05
-5.714303834836176e-06   1.340713648325016e-06   1.906217619694904e-05
-5.714303834836176e-06   1.340713648325016e-06   1.906217619694904e-05
-3.415035374530423e-06   9.280203552058854e-07   2.331682824411647e-05
-3.415035374530423e-06   9.280203552058854e-07   2.331682824411647e-05
-3.415035374530423e-06   9.280203552058854e-07   2.331682824411647e-05
-3.415035374530423e-06   9.280203552058854e-07   2.331682824411647e-05
-8.247288990158481e-06   1.2856967789409268e-06   1.5477678072310934e-05
-8.247288990158481e-06   1.2856967789409268e-06   1.5477678072310934e-05
-8.247288990158481e-06   1.2856967789409268e-06   1.5477678072310934e-05
-8.247288990158481e-06   1.2856967789409268e-06   1.5477678072310934e-05
-8.515109536743332e-06   3.9734887815191626e-07   2.3576220788205514e-05
-8.515109536743332e-06   3.9734887815191626e-07   2.3576220788205514e-05
-8.515109536743332e-06   3.9734887815191626e-07   2.3576220788205514e-05
-8.515109536743332e-06   3.9734887815191626e-07   2.3576220788205514e-05
-3.840219153827776e-06   7.527478418104189e-07   1.557149743848464e-05
-3.840219153827776e-06   7.527478418104189e-07   1.557149743848464e-05
-3.840219153827776e-06   7.527478418104189e-07   1.557149743848464e-05
-3.840219153827776e-06   7.527478418104189e-07   1.557149743848464e-05
-5.9794402921700375e-06   9.187557271230049e-07   1.9037261271201086e-05
-5.9794402921700375e-06   9.187557271230049e-07   1.9037261271201086e-05
-5.9794402921700375e-06   9.187557271230049e-07   1.9037261271201086e-05
-5.9794402921700375e-06   9.187557271230049e-07   1.9037261271201086e-05
-3.840219153827776e-06   3.9734887815191626e-07   2.3362981410010412e-05
-3.840219153827776e-06   3.9734887815191626e-07   2.3362981410010412e-05
-3.840219153827776e-06   3.9734887815191626e-07   2.3362981410010412e-05
-3.840219153827776e-06   3.9734887815191626e-07   2.3362981410010412e-05
-8.515109536743332e-06   7.527478418104189e-07   1.5784736816679742e-05
-8.515109536743332e-06   7.527478418104189e-07   1.5784736816679742e-05
-8.515109536743332e-06   7.527478418104189e-07   1.5784736816679742e-05
-8.515109536743332e-06   7.527478418104189e-07   1.5784736816679742e-05
-8.77786431698635e-06   -1.4474555902173683e-07   2.4032616471638605e-05
-8.77786431698635e-06   -1.4474555902173683e-07   2.4032616471638605e-05
-8.77786431698635e-06   -1.4474555902173683e-07   2.4032616471638605e-05
-8.77786431698635e-06   -1.4474555902173683e-07   2.4032616471638605e-05
-4.195651288988187e-06   1.7557128144342002e-07   1.6203404654029367e-05
-4.195651288988187e-06   1.7557128144342002e-07   1.6203404654029367e-05
-4.195651288988187e-06   1.7557128144342002e-07   1.6203404654029367e-05
-4.195651288988187e-06   1.7557128144342002e-07   1.6203404654029367e-05
-6.244200443135766e-06   5.042161768350258e-07   1.9420466307040263e-05
-6.244200443135766e-06   5.042161768350258e-07   1.9420466307040263e-05
-6.244200443135766e-06   5.042161768350258e-07   1.9420466307040263e-05
-6.244200443135766e-06   5.042161768350258e-07   1.9420466307040263e-05
-7.987646706481217e-06   2.9030401993625655e-06   2.655561393012407e-05
-7.987646706481217e-06   2.9030401993625655e-06   2.655561393012407e-05
-7.987646706481217e-06   2.9030401993625655e-06   2.655561393012407e-05
-7.987646706481217e-06   2.9030401993625655e-06   2.655561393012407e-05
-1.2886447419820145e-05   2.235737520387272e-06   1.799056446717413e-05
-1.2886447419820145e-05   2.235737520387272e-06   1.799056446717413e-05
-1.2886447419820145e-05   2.235737520387272e-06   1.799056446717413e-05
-1.2886447419820145e-05   2.235737520387272e-06   1.799056446717413e-05
-1.310626025444742e-05   2.325750997986308e-06   2.6063545305364663e-05
-1.310626025444742e-05   2.325750997986308e-06   2.6063545305364663e-05
-1.310626025444742e-05   2.325750997986308e-06   2.6063545305364663e-05
-1.310626025444742e-05   2.325750997986308e-06   2.6063545305364663e-05
-8.247288990158481e-06   1.700665323999223e-06   1.8340311269275265e-05
-8.247288990158481e-06   1.700665323999223e-06   1.8340311269275265e-05
-8.247288990158481e-06   1.700665323999223e-06   1.8340311269275265e-05
-8.247288990158481e-06   1.700665323999223e-06   1.8340311269275265e-05
-1.0562284426432098e-05   2.2469243723964626e-06   2.1870881567359726e-05
-1.0562284426432098e-05   2.2469243723964626e-06   2.1870881567359726e-05
-1.0562284426432098e-05   2.2469243723964626e-06   2.1870881567359726e-05
-1.0562284426432098e-05   2.2469243723964626e-06   2.1870881567359726e-05
-8.247288990158481e-06   2.325750997986308e-06   2.643859670975685e-05
-8.247288990158481e-06   2.325750997986308e-06   2.643859670975685e-05
-8.247288990158481e-06   2.325750997986308e-06   2.643859670975685e-05
-8.247288990158481e-06   2.325750997986308e-06   2.643859670975685e-05
-1.310626025444742e-05   1.700665323999223e-06   1.796525986488308e-05
-1.310626025444742e-05   1.700665323999223e-06   1.796525986488308e-05
-1.310626025444742e-05   1.700665323999223e-06   1.796525986488308e-05
-1.310626025444742e-05   1.700665323999223e-06   1.796525986488308e-05
-1.3341779044525687e-05   1.7514228661365608e-06   2.632266303835009e-05
-1.3341779044525687e-05   1.7514228661365608e-06   2.632266303835009e-05
-1.3341779044525687e-05   1.7514228661365608e-06   2.632266303835009e-05
-1.3341779044525687e-05   1.7514228661365608e-06   2.632266303835009e-05
-8.515109536743332e-06   1.1568625114410534e-06   1.863495007153014e-05
-8.515109536743332e-06   1.1568625114410534e-06   1.863495007153014e-05
-8.515109536743332e-06   1.1568625114410534e-06   1.863495007153014e-05
-8.515109536743332e-06   1.1568625114410534e-06   1.863495007153014e-05
-1.0750097098406481e-05   1.818539653290264e-06   2.1962923055859196e-05
-1.0750097098406481e-05   1.818539653290264e-06   2.1962923055859196e-05
-1.0750097098406481e-05   1.818539653290264e-06   2.1962923055859196e-05
-1.0750097098406481e-05   1.818539653290264e-06   2.1962923055859196e-05
-8.515109536743332e-06   1.7514228661367776e-06   2.6679399251167276e-05
-8.515109536743332e-06   1.7514228661367776e-06   2.6679399251167276e-05
-8.515109536743332e-06   1.7514228661367776e-06   2.6679399251167276e-05
-8.515109536743332e-06   1.7514228661367776e-06   2.6679399251167276e-05
-1.3341779044525687e-05   1.1568625114410534e-06   1.8278213858712738e-05
-1.3341779044525687e-05   1.1568625114410534e-06   1.8278213858712738e-05
-1.3341779044525687e-05   1.1568625114410534e-06   1.8278213858712738e-05
-1.3341779044525687e-05   1.1568625114410534e-06   1.8278213858712738e-05
-1.3572436438760022e-05   1.2015314196111605e-06   2.686499900260756e-05
-1.3572436438760022e-05   1.2015314196111605e-06   2.686499900260756e-05
-1.3572436438760022e-05   1.2015314196111605e-06   2.686499900260756e-05
-1.3572436438760022e-05   1.2015314196111605e-06   2.686499900260756e-05
-8.777864316986323e-06   6.414163230980758e-07   1.9210114524226122e-05
-8.777864316986323e-06   6.414163230980758e-07   1.9210114524226122e-05
-8.777864316986323e-06   6.414163230980758e-07   1.9210114524226122e-05
-8.777864316986323e-06   6.414163230980758e-07   1.9210114524226122e-05
-1.0959349757705872e-05   1.3966346300579489e-06   2.2392792607915917e-05
-1.0959349757705872e-05   1.3966346300579489e-06   2.2392792607915917e-05
-1.0959349757705872e-05   1.3966346300579489e-06   2.2392792607915917e-05
-1.0959349757705872e-05   1.3966346300579489e-06   2.2392792607915917e-05
-1.2886447419820145e-05   4.313393901602238e-06   2.295971565313454e-05
-1.2886447419820145e-05   4.313393901602238e-06   2.295971565313454e-05
-1.2886447419820145e-05   4.313393901602238e-06   2.295971565313454e-05
-1.2886447419820145e-05   4.313393901602238e-06   2.295971565313454e-05
-1.7705127371246546e-05   3.0233531630489367e-06   1.4154557957625225e-05
-1.7705127371246546e-05   3.0233531630489367e-06   1.4154557957625225e-05
-1.7705127371246546e-05   3.0233531630489367e-06   1.4154557957625225e-05
-1.7705127371246546e-05   3.0233531630489367e-06   1.4154557957625225e-05
-1.794667510868881e-05   3.731278021700587e-06   2.228356842232473e-05
-1.794667510868881e-05   3.731278021700587e-06   2.228356842232473e-05
-1.794667510868881e-05   3.731278021700587e-06   2.228356842232473e-05
-1.794667510868881e-05   3.731278021700587e-06   2.228356842232473e-05
-1.310626025444742e-05   2.4604312589385268e-06   1.4978718389579504e-05
-1.310626025444742e-05   2.4604312589385268e-06   1.4978718389579504e-05
-1.310626025444742e-05   2.4604312589385268e-06   1.4978718389579504e-05
-1.310626025444742e-05   2.4604312589385268e-06   1.4978718389579504e-05
-1.5378477856955693e-05   3.3530926934800006e-06   1.823015086636845e-05
-1.5378477856955693e-05   3.3530926934800006e-06   1.823015086636845e-05
-1.5378477856955693e-05   3.3530926934800006e-06   1.823015086636845e-05
-1.5378477856955693e-05   3.3530926934800006e-06   1.823015086636845e-05
-1.310626025444742e-05   3.731278021700587e-06   2.3046076479981835e-05
-1.310626025444742e-05   3.731278021700587e-06   2.3046076479981835e-05
-1.310626025444742e-05   3.731278021700587e-06   2.3046076479981835e-05
-1.310626025444742e-05   3.731278021700587e-06   2.3046076479981835e-05
-1.794667510868881e-05   2.4604312589384184e-06   1.4216210331922317e-05
-1.794667510868881e-05   2.4604312589384184e-06   1.4216210331922317e-05
-1.794667510868881e-05   2.4604312589384184e-06   1.4216210331922317e-05
-1.794667510868881e-05   2.4604312589384184e-06   1.4216210331922317e-05
-1.8280340418226615e-05   3.2019523651437634e-06   2.302341457434279e-05
-1.8280340418226615e-05   3.2019523651437634e-06   2.302341457434279e-05
-1.8280340418226615e-05   3.2019523651437634e-06   2.302341457434279e-05
-1.8280340418226615e-05   3.2019523651437634e-06   2.302341457434279e-05
-1.3341779044525687e-05   1.959570862434851e-06   1.5537907853133202e-05
-1.3341779044525687e-05   1.959570862434851e-06   1.5537907853133202e-05
-1.3341779044525687e-05   1.959570862434851e-06   1.5537907853133202e-05
-1.3341779044525687e-05   1.959570862434851e-06   1.5537907853133202e-05
-1.5509768638501185e-05   2.937920000290091e-06   1.8564214360379335e-05
-1.5509768638501185e-05   2.937920000290091e-06   1.8564214360379335e-05
-1.5509768638501185e-05   2.937920000290091e-06   1.8564214360379335e-05
-1.5509768638501185e-05   2.937920000290091e-06   1.8564214360379335e-05
-1.3341779044525687e-05   3.2019523651437634e-06   2.3768843475967965e-05
-1.3341779044525687e-05   3.2019523651437634e-06   2.3768843475967965e-05
-1.3341779044525687e-05   3.2019523651437634e-06   2.3768843475967965e-05
-1.3341779044525687e-05   3.2019523651437634e-06   2.3768843475967965e-05
-1.8280340418226615e-05   1.959570862434851e-06   1.4792478951507866e-05
-1.8280340418226615e-05   1.959570862434851e-06   1.4792478951507866e-05
-1.8280340418226615e-05   1.959570862434851e-06   1.4792478951507866e-05
-1.8280340418226615e-05   1.959570862434851e-06   1.4792478951507866e-05
-1.854779741076822e-05   2.636192967110044e-06   2.38462008847098e-05
-1.854779741076822e-05   2.636192967110044e-06   2.38462008847098e-05
-1.854779741076822e-05   2.636192967110044e-06   2.38462008847098e-05
-1.854779741076822e-05   2.636192967110044e-06   2.38462008847098e-05
-1.3572436438760022e-05   1.4492713420539071e-06   1.6266085573063416e-05
-1.3572436438760022e-05   1.4492713420539071e-06   1.6266085573063416e-05
-1.3572436438760022e-05   1.4492713420539071e-06   1.6266085573063416e-05
-1.3572436438760022e-05   1.4492713420539071e-06   1.6266085573063416e-05
-1.578621267174583e-05   2.5430495181307314e-06   1.929944572239349e-05
-1.578621267174583e-05   2.5430495181307314e-06   1.929944572239349e-05
-1.578621267174583e-05   2.5430495181307314e-06   1.929944572239349e-05
-1.578621267174583e-05   2.5430495181307314e-06   1.929944572239349e-05
-1.7705127371246546e-05   5.308170960145655e-06   1.0129850737069872e-05
-1.7705127371246546e-05   5.308170960145655e-06   1.0129850737069872e-05
-1.7705127371246546e-05   5.308170960145655e-06   1.0129850737069872e-05
-1.7705127371246546e-05   5.308170960145655e-06   1.0129850737069872e-05
-2.1491502976074962e-05   3.573483893230052e-06   2.7784124888732274e-06
-2.1491502976074962e-05   3.573483893230052e-06   2.7784124888732274e-06
-2.1491502976074962e-05   3.573483893230052e-06   2.7784124888732274e-06
-2.1491502976074962e-05   3.573483893230052e-06   2.7784124888732274e-06
-2.2407623672889595e-05   5.009893376502162e-06   1.1876734262989677e-05
-2.2407623672889595e-05   5.009893376502162e-06   1.1876734262989677e-05
-2.2407623672889595e-05   5.009893376502162e-06   1.1876734262989677e-05
-2.2407623672889595e-05   5.009893376502162e-06   1.1876734262989677e-05
-1.794667510868881e-05   3.1989219262765775e-06   5.528402859456818e-06
-1.794667510868881e-05   3.1989219262765775e-06   5.528402859456818e-06
-1.794667510868881e-05   3.1989219262765775e-06   5.528402859456818e-06
-1.794667510868881e-05   3.1989219262765775e-06   5.528402859456818e-06
-1.9197615359649507e-05   4.229323544316355e-06   6.995062306900955e-06
-1.9197615359649507e-05   4.229323544316355e-06   6.995062306900955e-06
-1.9197615359649507e-05   4.229323544316355e-06   6.995062306900955e-06
-1.9197615359649507e-05   4.229323544316355e-06   6.995062306900955e-06
-1.794667510868881e-05   5.009893376501946e-06   1.2963317133124724e-05
-1.794667510868881e-05   5.009893376501946e-06   1.2963317133124724e-05
-1.794667510868881e-05   5.009893376501946e-06   1.2963317133124724e-05
-1.794667510868881e-05   5.009893376501946e-06   1.2963317133124724e-05
-2.2407623672889595e-05   3.1989219262765775e-06   4.441819989321761e-06
-2.2407623672889595e-05   3.1989219262765775e-06   4.441819989321761e-06
-2.2407623672889595e-05   3.1989219262765775e-06   4.441819989321761e-06
-2.2407623672889595e-05   3.1989219262765775e-06   4.441819989321761e-06
-2.3194045126177407e-05   4.760512715815471e-06   1.3987795705892262e-05
-2.3194045126177407e-05   4.760512715815471e-06   1.3987795705892262e-05
-2.3194045126177407e-05   4.760512715815471e-06   1.3987795705892262e-05
-2.3194045126177407e-05   4.760512715815471e-06   1.3987795705892262e-05
-1.8280340418226615e-05   2.9416505676075006e-06   6.889605148232571e-06
-1.8280340418226615e-05   2.9416505676075006e-06   6.889605148232571e-06
-1.8280340418226615e-05   2.9416505676075006e-06   6.889605148232571e-06
-1.8280340418226615e-05   2.9416505676075006e-06   6.889605148232571e-06
-1.9974043506694797e-05   4.0825001603035605e-06   9.027933873395698e-06
-1.9974043506694797e-05   4.0825001603035605e-06   9.027933873395698e-06
-1.9974043506694797e-05   4.0825001603035605e-06   9.027933873395698e-06
-1.9974043506694797e-05   4.0825001603035605e-06   9.027933873395698e-06
-1.8280340418226615e-05   4.760512715815471e-06   1.5079112994817044e-05
-1.8280340418226615e-05   4.760512715815471e-06   1.5079112994817044e-05
-1.8280340418226615e-05   4.760512715815471e-06   1.5079112994817044e-05
-1.8280340418226615e-05   4.760512715815471e-06   1.5079112994817044e-05
-2.319404512617746e-05   2.9416505676075006e-06   5.7982878593075654e-06
-2.319404512617746e-05   2.9416505676075006e-06   5.7982878593075654e-06
-2.319404512617746e-05   2.9416505676075006e-06   5.7982878593075654e-06
-2.319404512617746e-05   2.9416505676075006e-06   5.7982878593075654e-06
-2.4195186655326308e-05   4.081957292524294e-06   1.780806638940766e-05
-2.4195186655326308e-05   4.081957292524294e-06   1.780806638940766e-05
-2.4195186655326308e-05   4.081957292524294e-06   1.780806638940766e-05
-2.4195186655326308e-05   4.081957292524294e-06   1.780806638940766e-05
-1.8547797410768164e-05   2.3507202643999105e-06   9.434493198685456e-06
-1.8547797410768164e-05   2.3507202643999105e-06   9.434493198685456e-06
-1.8547797410768164e-05   2.3507202643999105e-06   9.434493198685456e-06
-1.8547797410768164e-05   2.3507202643999105e-06   9.434493198685456e-06
-2.0195715190546033e-05   3.8007840934659205e-06   1.1310984534208217e-05
-2.0195715190546033e-05   3.8007840934659205e-06   1.1310984534208217e-05
-2.0195715190546033e-05   3.8007840934659205e-06   1.1310984534208217e-05
-2.0195715190546033e-05   3.8007840934659205e-06   1.1310984534208217e-05
-8.774855050342305e-06   1.5961537521349146e-06   1.0506837249041863e-05
-8.774855050342305e-06   1.5961537521349146e-06   1.0506837249041863e-05
-8.774855050342305e-06   1.5961537521349146e-06   1.0506837249041863e-05
-8.774855050342305e-06   1.5961537521349146e-06   1.0506837249041863e-05
-9.606261436317235e-06   3.0166317788389877e-06   9.973446755106143e-06
-9.606261436317235e-06   3.0166317788389877e-06   9.973446755106143e-06
-9.606261436317235e-06   3.0166317788389877e-06   9.973446755106143e-06
-9.606261436317235e-06   3.0166317788389877e-06   9.973446755106143e-06
-9.853828458902529e-06   1.0788518994687794e-06   1.128387410407049e-05
-9.853828458902529e-06   1.0788518994687794e-06   1.128387410407049e-05
-9.853828458902529e-06   1.0788518994687794e-06   1.128387410407049e-05
-9.853828458902529e-06   1.0788518994687794e-06   1.128387410407049e-05
-9.81571189653124e-06   2.3564266225092542e-06   1.0453801666294115e-05
-9.81571189653124e-06   2.3564266225092542e-06   1.0453801666294115e-05
-9.81571189653124e-06   2.3564266225092542e-06   1.0453801666294115e-05
-9.81571189653124e-06   2.3564266225092542e-06   1.0453801666294115e-05
-9.276685357714717e-06   1.8804324358042898e-06   9.841020613622831e-06
-9.276685357714717e-06   1.8804324358042898e-06   9.841020613622831e-06
-9.276685357714717e-06   1.8804324358042898e-06   9.841020613622831e-06
-9.276685357714717e-06   1.8804324358042898e-06   9.841020613622831e-06
-9.815711896531267e-06   1.0788518994687794e-06   1.0517329270246181e-05
-9.815711896531267e-06   1.0788518994687794e-06   1.0517329270246181e-05
-9.815711896531267e-06   1.0788518994687794e-06   1.0517329270246181e-05
-9.815711896531267e-06   1.0788518994687794e-06   1.0517329270246181e-05
-9.853828458902529e-06   2.3564266225092542e-06   1.1220346500118356e-05
-9.853828458902529e-06   2.3564266225092542e-06   1.1220346500118356e-05
-9.853828458902529e-06   2.3564266225092542e-06   1.1220346500118356e-05
-9.853828458902529e-06   2.3564266225092542e-06   1.1220346500118356e-05
-1.0175126212439835e-05   7.943307863883314e-07   1.1639158117245237e-05
-1.0175126212439835e-05   7.943307863883314e-07   1.1639158117245237e-05
-1.0175126212439835e-05   7.943307863883314e-07   1.1639158117245237e-05
-1.0175126212439835e-05   7.943307863883314e-07   1.1639158117245237e-05
-1.0828159848137275e-05   1.9001755312545625e-06   1.2064040663154591e-05
-1.0828159848137275e-05   1.9001755312545625e-06   1.2064040663154591e-05
-1.0828159848137275e-05   1.9001755312545625e-06   1.2064040663154591e-05
-1.0828159848137275e-05   1.9001755312545625e-06   1.2064040663154591e-05
-9.89615487296339e-06   1.5957148778662279e-06   1.0693375429897769e-05
-9.89615487296339e-06   1.5957148778662279e-06   1.0693375429897769e-05
-9.89615487296339e-06   1.5957148778662279e-06   1.0693375429897769e-05
-9.89615487296339e-06   1.5957148778662279e-06   1.0693375429897769e-05
-1.0828159848137289e-05   7.943307863883314e-07   1.0975651270325412e-05
-1.0828159848137289e-05   7.943307863883314e-07   1.0975651270325412e-05
-1.0828159848137289e-05   7.943307863883314e-07   1.0975651270325412e-05
-1.0828159848137289e-05   7.943307863883314e-07   1.0975651270325412e-05
-1.0175126212439835e-05   1.9001755312545625e-06   1.2727547510074308e-05
-1.0175126212439835e-05   1.9001755312545625e-06   1.2727547510074308e-05
-1.0175126212439835e-05   1.9001755312545625e-06   1.2727547510074308e-05
-1.0175126212439835e-05   1.9001755312545625e-06   1.2727547510074308e-05
-1.037980656014333e-05   1.9110060543215974e-07   1.2789331670513728e-05
-1.037980656014333e-05   1.9110060543215974e-07   1.2789331670513728e-05
-1.037980656014333e-05   1.9110060543215974e-07   1.2789331670513728e-05
-1.037980656014333e-05   1.9110060543215974e-07   1.2789331670513728e-05
-1.1906213037620589e-05   7.780658586466595e-07   1.4981163314380205e-05
-1.1906213037620589e-05   7.780658586466595e-07   1.4981163314380205e-05
-1.1906213037620589e-05   7.780658586466595e-07   1.4981163314380205e-05
-1.1906213037620589e-05   7.780658586466595e-07   1.4981163314380205e-05
-1.0331230905813136e-05   1.246470756268651e-06   1.2075150156127694e-05
-1.0331230905813136e-05   1.246470756268651e-06   1.2075150156127694e-05
-1.0331230905813136e-05   1.246470756268651e-06   1.2075150156127694e-05
-1.0331230905813136e-05   1.246470756268651e-06   1.2075150156127694e-05
-9.606261436317235e-06   1.8632637200130097e-06   2.0896000543767408e-05
-9.606261436317235e-06   1.8632637200130097e-06   2.0896000543767408e-05
-9.606261436317235e-06   1.8632637200130097e-06   2.0896000543767408e-05
-9.606261436317235e-06   1.8632637200130097e-06   2.0896000543767408e-05
-9.743487800975602e-06   7.809194846656285e-07   2.0017883394794864e-05
-9.743487800975602e-06   7.809194846656285e-07   2.0017883394794864e-05
-9.743487800975602e-06   7.809194846656285e-07   2.0017883394794864e-05
-9.743487800975602e-06   7.809194846656285e-07   2.0017883394794864e-05
-9.820289365384638e-06   1.2856967789409268e-06   2.010498833772249e-05
-9.820289365384638e-06   1.2856967789409268e-06   2.010498833772249e-05
-9.820289365384638e-06   1.2856967789409268e-06   2.010498833772249e-05
-9.820289365384638e-06   1.2856967789409268e-06   2.010498833772249e-05
-9.853828458902529e-06   3.739774329563142e-07   2.0707918434509885e-05
-9.853828458902529e-06   3.739774329563142e-07   2.0707918434509885e-05
-9.853828458902529e-06   3.739774329563142e-07   2.0707918434509885e-05
-9.853828458902529e-06   3.739774329563142e-07   2.0707918434509885e-05
-9.726238195181306e-06   9.513111731351224e-07   2.0148867750867226e-05
-9.726238195181306e-06   9.513111731351224e-07   2.0148867750867226e-05
-9.726238195181306e-06   9.513111731351224e-07   2.0148867750867226e-05
-9.726238195181306e-06   9.513111731351224e-07   2.0148867750867226e-05
-9.853828458902536e-06   1.2856967789409268e-06   2.0652019945313188e-05
-9.853828458902536e-06   1.2856967789409268e-06   2.0652019945313188e-05
-9.853828458902536e-06   1.2856967789409268e-06   2.0652019945313188e-05
-9.853828458902536e-06   1.2856967789409268e-06   2.0652019945313188e-05
-9.820289365384638e-06   3.739774329563142e-07   2.0160886826919e-05
-9.820289365384638e-06   3.739774329563142e-07   2.0160886826919e-05
-9.820289365384638e-06   3.739774329563142e-07   2.0160886826919e-05
-9.820289365384638e-06   3.739774329563142e-07   2.0160886826919e-05
-9.915396223944323e-06   7.527478418104189e-07   2.038065953072427e-05
-9.915396223944323e-06   7.527478418104189e-07   2.038065953072427e-05
-9.915396223944323e-06   7.527478418104189e-07   2.038065953072427e-05
-9.915396223944323e-06   7.527478418104189e-07   2.038065953072427e-05
-1.0175126212439835e-05   -9.749063946775695e-08   2.1323685933650333e-05
-1.0175126212439835e-05   -9.749063946775695e-08   2.1323685933650333e-05
-1.0175126212439835e-05   -9.749063946775695e-08   2.1323685933650333e-05
-1.0175126212439835e-05   -9.749063946775695e-08   2.1323685933650333e-05
-9.820298561600313e-06   6.1443924315402e-07   2.0305148586011634e-05
-9.820298561600313e-06   6.1443924315402e-07   2.0305148586011634e-05
-9.820298561600313e-06   6.1443924315402e-07   2.0305148586011634e-05
-9.820298561600313e-06   6.1443924315402e-07   2.0305148586011634e-05
-1.0175126212439835e-05   7.527478418104189e-07   2.089080261949097e-05
-1.0175126212439835e-05   7.527478418104189e-07   2.089080261949097e-05
-1.0175126212439835e-05   7.527478418104189e-07   2.089080261949097e-05
-1.0175126212439835e-05   7.527478418104189e-07   2.089080261949097e-05
-9.915396223944296e-06   -9.749063946775695e-08   2.0813542844883362e-05
-9.915396223944296e-06   -9.749063946775695e-08   2.0813542844883362e-05
-9.915396223944296e-06   -9.749063946775695e-08   2.0813542844883362e-05
-9.915396223944296e-06   -9.749063946775695e-08   2.0813542844883362e-05
-9.984739752940427e-06   1.7557128144342002e-07   2.0966986832196663e-05
-9.984739752940427e-06   1.7557128144342002e-07   2.0966986832196663e-05
-9.984739752940427e-06   1.7557128144342002e-07   2.0966986832196663e-05
-9.984739752940427e-06   1.7557128144342002e-07   2.0966986832196663e-05
-1.0379806560143303e-05   -7.167869050658457e-07   2.216084642277347e-05
-1.0379806560143303e-05   -7.167869050658457e-07   2.216084642277347e-05
-1.0379806560143303e-05   -7.167869050658457e-07   2.216084642277347e-05
-1.0379806560143303e-05   -7.167869050658457e-07   2.216084642277347e-05
-9.968753012960156e-06   2.1881315629757644e-07   2.091439714064979e-05
-9.968753012960156e-06   2.1881315629757644e-07   2.091439714064979e-05
-9.968753012960156e-06   2.1881315629757644e-07   2.091439714064979e-05
-9.968753012960156e-06   2.1881315629757644e-07   2.091439714064979e-05
-9.74348780097563e-06   2.2357375203873806e-06   2.3050738623231308e-05
-9.74348780097563e-06   2.2357375203873806e-06   2.3050738623231308e-05
-9.74348780097563e-06   2.2357375203873806e-06   2.3050738623231308e-05
-9.74348780097563e-06   2.2357375203873806e-06   2.3050738623231308e-05
-1.0497950216218282e-05   2.1740545291326976e-07   2.058230202400921e-05
-1.0497950216218282e-05   2.1740545291326976e-07   2.058230202400921e-05
-1.0497950216218282e-05   2.1740545291326976e-07   2.058230202400921e-05
-1.0497950216218282e-05   2.1740545291326976e-07   2.058230202400921e-05
-1.0523974774932803e-05   1.700665323999223e-06   2.187157018251006e-05
-1.0523974774932803e-05   1.700665323999223e-06   2.187157018251006e-05
-1.0523974774932803e-05   1.700665323999223e-06   2.187157018251006e-05
-1.0523974774932803e-05   1.700665323999223e-06   2.187157018251006e-05
-9.820289365384638e-06   -1.2608692962878375e-07   2.1794812518773294e-05
-9.820289365384638e-06   -1.2608692962878375e-07   2.1794812518773294e-05
-9.820289365384638e-06   -1.2608692962878375e-07   2.1794812518773294e-05
-9.820289365384638e-06   -1.2608692962878375e-07   2.1794812518773294e-05
-1.0129147509397001e-05   9.72828336711089e-07   2.1650226932323354e-05
-1.0129147509397001e-05   9.72828336711089e-07   2.1650226932323354e-05
-1.0129147509397001e-05   9.72828336711089e-07   2.1650226932323354e-05
-1.0129147509397001e-05   9.72828336711089e-07   2.1650226932323354e-05
-9.820289365384638e-06   1.700665323999223e-06   2.2967621534686876e-05
-9.820289365384638e-06   1.700665323999223e-06   2.2967621534686876e-05
-9.820289365384638e-06   1.700665323999223e-06   2.2967621534686876e-05
-9.820289365384638e-06   1.700665323999223e-06   2.2967621534686876e-05
-1.0523974774932803e-05   -1.2608692962878375e-07   2.0698761166596506e-05
-1.0523974774932803e-05   -1.2608692962878375e-07   2.0698761166596506e-05
-1.0523974774932803e-05   -1.2608692962878375e-07   2.0698761166596506e-05
-1.0523974774932803e-05   -1.2608692962878375e-07   2.0698761166596506e-05
-1.0571028890447588e-05   1.1568625114410534e-06   2.2214321784636806e-05
-1.0571028890447588e-05   1.1568625114410534e-06   2.2214321784636806e-05
-1.0571028890447588e-05   1.1568625114410534e-06   2.2214321784636806e-05
-1.0571028890447588e-05   1.1568625114410534e-06   2.2214321784636806e-05
-9.915396223944296e-06   -5.373891567884981e-07   2.213815167473581e-05
-9.915396223944296e-06   -5.373891567884981e-07   2.213815167473581e-05
-9.915396223944296e-06   -5.373891567884981e-07   2.213815167473581e-05
-9.915396223944296e-06   -5.373891567884981e-07   2.213815167473581e-05
-1.0135071330727278e-05   6.327146893760158e-07   2.1802214545008623e-05
-1.0135071330727278e-05   6.327146893760158e-07   2.1802214545008623e-05
-1.0135071330727278e-05   6.327146893760158e-07   2.1802214545008623e-05
-1.0135071330727278e-05   6.327146893760158e-07   2.1802214545008623e-05
-9.915396223944296e-06   1.156862511440945e-06   2.3230872785574396e-05
-9.915396223944296e-06   1.156862511440945e-06   2.3230872785574396e-05
-9.915396223944296e-06   1.156862511440945e-06   2.3230872785574396e-05
-9.915396223944296e-06   1.156862511440945e-06   2.3230872785574396e-05
-1.0571028890447588e-05   -5.373891567884981e-07   2.112160067379803e-05
-1.0571028890447588e-05   -5.373891567884981e-07   2.112160067379803e-05
-1.0571028890447588e-05   -5.373891567884981e-07   2.112160067379803e-05
-1.0571028890447588e-05   -5.373891567884981e-07   2.112160067379803e-05
-1.0601265225329467e-05   6.414163230980758e-07   2.2826512111022738e-05
-1.0601265225329467e-05   6.414163230980758e-07   2.2826512111022738e-05
-1.0601265225329467e-05   6.414163230980758e-07   2.2826512111022738e-05
-1.0601265225329467e-05   6.414163230980758e-07   2.2826512111022738e-05
-9.984739752940427e-06   -9.502411553879726e-07   2.275396414413251e-05
-9.984739752940427e-06   -9.502411553879726e-07   2.275396414413251e-05
-9.984739752940427e-06   -9.502411553879726e-07   2.275396414413251e-05
-9.984739752940427e-06   -9.502411553879726e-07   2.275396414413251e-05
-1.0157858801586734e-05   2.830835133362853e-07   2.2302501090641085e-05
-1.0157858801586734e-05   2.830835133362853e-07   2.2302501090641085e-05
-1.0157858801586734e-05   2.830835133362853e-07   2.2302501090641085e-05
-1.0157858801586734e-05   2.830835133362853e-07   2.2302501090641085e-05
-1.0497950216218282e-05   3.0233531630489367e-06   1.8777757316329967e-05
-1.0497950216218282e-05   3.0233531630489367e-06   1.8777757316329967e-05
-1.0497950216218282e-05   3.0233531630489367e-06   1.8777757316329967e-05
-1.0497950216218282e-05   3.0233531630489367e-06   1.8777757316329967e-05
-1.1585833650887625e-05   9.932409353874405e-07   1.574655092195075e-05
-1.1585833650887625e-05   9.932409353874405e-07   1.574655092195075e-05
-1.1585833650887625e-05   9.932409353874405e-07   1.574655092195075e-05
-1.1585833650887625e-05   9.932409353874405e-07   1.574655092195075e-05
-1.1605198618618007e-05   2.4604312589385268e-06   1.7733136876026275e-05
-1.1605198618618007e-05   2.4604312589385268e-06   1.7733136876026275e-05
-1.1605198618618007e-05   2.4604312589385268e-06   1.7733136876026275e-05
-1.1605198618618007e-05   2.4604312589385268e-06   1.7733136876026275e-05
-1.0523974774932803e-05   5.406115403046611e-07   1.7082988967731245e-05
-1.0523974774932803e-05   5.406115403046611e-07   1.7082988967731245e-05
-1.0523974774932803e-05   5.406115403046611e-07   1.7082988967731245e-05
-1.0523974774932803e-05   5.406115403046611e-07   1.7082988967731245e-05
-1.102435846152695e-05   1.7957752999316415e-06   1.7163863522945218e-05
-1.102435846152695e-05   1.7957752999316415e-06   1.7163863522945218e-05
-1.102435846152695e-05   1.7957752999316415e-06   1.7163863522945218e-05
-1.102435846152695e-05   1.7957752999316415e-06   1.7163863522945218e-05
-1.0523974774932803e-05   2.4604312589385268e-06   1.8885028707206594e-05
-1.0523974774932803e-05   2.4604312589385268e-06   1.8885028707206594e-05
-1.0523974774932803e-05   2.4604312589385268e-06   1.8885028707206594e-05
-1.0523974774932803e-05   2.4604312589385268e-06   1.8885028707206594e-05
-1.1605198618618007e-05   5.406115403046611e-07   1.5931097136550984e-05
-1.1605198618618007e-05   5.406115403046611e-07   1.5931097136550984e-05
-1.1605198618618007e-05   5.406115403046611e-07   1.5931097136550984e-05
-1.1605198618618007e-05   5.406115403046611e-07   1.5931097136550984e-05
-1.1731312042388578e-05   1.959570862434851e-06   1.8390067629015308e-05
-1.1731312042388578e-05   1.959570862434851e-06   1.8390067629015308e-05
-1.1731312042388578e-05   1.959570862434851e-06   1.8390067629015308e-05
-1.1731312042388578e-05   1.959570862434851e-06   1.8390067629015308e-05
-1.0571028890447588e-05   1.5299061236482333e-07   1.7540210525822386e-05
-1.0571028890447588e-05   1.5299061236482333e-07   1.7540210525822386e-05
-1.0571028890447588e-05   1.5299061236482333e-07   1.7540210525822386e-05
-1.0571028890447588e-05   1.5299061236482333e-07   1.7540210525822386e-05
-1.0993184970554601e-05   1.424037834121556e-06   1.748117565961343e-05
-1.0993184970554601e-05   1.424037834121556e-06   1.748117565961343e-05
-1.0993184970554601e-05   1.424037834121556e-06   1.748117565961343e-05
-1.0993184970554601e-05   1.424037834121556e-06   1.748117565961343e-05
-1.0571028890447588e-05   1.9595708624349593e-06   1.9474015779057108e-05
-1.0571028890447588e-05   1.9595708624349593e-06   1.9474015779057108e-05
-1.0571028890447588e-05   1.9595708624349593e-06   1.9474015779057108e-05
-1.0571028890447588e-05   1.9595708624349593e-06   1.9474015779057108e-05
-1.1731312042388578e-05   1.5299061236482333e-07   1.6456262375780376e-05
-1.1731312042388578e-05   1.5299061236482333e-07   1.6456262375780376e-05
-1.1731312042388578e-05   1.5299061236482333e-07   1.6456262375780376e-05
-1.1731312042388578e-05   1.5299061236482333e-07   1.6456262375780376e-05
-1.1806587941000574e-05   1.4492713420539071e-06   1.9206318833738943e-05
-1.1806587941000574e-05   1.4492713420539071e-06   1.9206318833738943e-05
-1.1806587941000574e-05   1.4492713420539071e-06   1.9206318833738943e-05
-1.1806587941000574e-05   1.4492713420539071e-06   1.9206318833738943e-05
-1.060126522532944e-05   -2.3778429799432496e-07   1.8209681024982543e-05
-1.060126522532944e-05   -2.3778429799432496e-07   1.8209681024982543e-05
-1.060126522532944e-05   -2.3778429799432496e-07   1.8209681024982543e-05
-1.060126522532944e-05   -2.3778429799432496e-07   1.8209681024982543e-05
-1.1048632658976578e-05   1.0919632124017594e-06   1.8157444908155845e-05
-1.1048632658976578e-05   1.0919632124017594e-06   1.8157444908155845e-05
-1.1048632658976578e-05   1.0919632124017594e-06   1.8157444908155845e-05
-1.1048632658976578e-05   1.0919632124017594e-06   1.8157444908155845e-05
-1.1585833650887625e-05   3.573483893230052e-06   7.224356751130384e-06
-1.1585833650887625e-05   3.573483893230052e-06   7.224356751130384e-06
-1.1585833650887625e-05   3.573483893230052e-06   7.224356751130384e-06
-1.1585833650887625e-05   3.573483893230052e-06   7.224356751130384e-06
-1.1447485164056324e-05   1.6376616636237101e-06   6.293444224752051e-06
-1.1447485164056324e-05   1.6376616636237101e-06   6.293444224752051e-06
-1.1447485164056324e-05   1.6376616636237101e-06   6.293444224752051e-06
-1.1447485164056324e-05   1.6376616636237101e-06   6.293444224752051e-06
-1.2036163891772703e-05   3.1989219262765775e-06   7.916331118264274e-06
-1.2036163891772703e-05   3.1989219262765775e-06   7.916331118264274e-06
-1.2036163891772703e-05   3.1989219262765775e-06   7.916331118264274e-06
-1.2036163891772703e-05   3.1989219262765775e-06   7.916331118264274e-06
-1.1605198618618007e-05   1.3172581174491008e-06   8.327053948302778e-06
-1.1605198618618007e-05   1.3172581174491008e-06   8.327053948302778e-06
-1.1605198618618007e-05   1.3172581174491008e-06   8.327053948302778e-06
-1.1605198618618007e-05   1.3172581174491008e-06   8.327053948302778e-06
-1.1289525088597758e-05   2.5143102081082343e-06   7.082700143873756e-06
-1.1289525088597758e-05   2.5143102081082343e-06   7.082700143873756e-06
-1.1289525088597758e-05   2.5143102081082343e-06   7.082700143873756e-06
-1.1289525088597758e-05   2.5143102081082343e-06   7.082700143873756e-06
-1.1605198618617953e-05   3.1989219262765775e-06   9.045329403560586e-06
-1.1605198618617953e-05   3.1989219262765775e-06   9.045329403560586e-06
-1.1605198618617953e-05   3.1989219262765775e-06   9.045329403560586e-06
-1.1605198618617953e-05   3.1989219262765775e-06   9.045329403560586e-06
-1.2036163891772703e-05   1.3172581174491008e-06   7.198055663006357e-06
-1.2036163891772703e-05   1.3172581174491008e-06   7.198055663006357e-06
-1.2036163891772703e-05   1.3172581174491008e-06   7.198055663006357e-06
-1.2036163891772703e-05   1.3172581174491008e-06   7.198055663006357e-06
-1.2553037313250254e-05   2.9416505676075006e-06   9.386867723948584e-06
-1.2553037313250254e-05   2.9416505676075006e-06   9.386867723948584e-06
-1.2553037313250254e-05   2.9416505676075006e-06   9.386867723948584e-06
-1.2553037313250254e-05   2.9416505676075006e-06   9.386867723948584e-06
-1.1731312042388524e-05   1.1077737312883236e-06   9.117651707637076e-06
-1.1731312042388524e-05   1.1077737312883236e-06   9.117651707637076e-06
-1.1731312042388524e-05   1.1077737312883236e-06   9.117651707637076e-06
-1.1731312042388524e-05   1.1077737312883236e-06   9.117651707637076e-06
-1.1709179427070796e-05   2.3272944615342506e-06   8.349051577293798e-06
-1.1709179427070796e-05   2.3272944615342506e-06   8.349051577293798e-06
-1.1709179427070796e-05   2.3272944615342506e-06   8.349051577293798e-06
-1.1709179427070796e-05   2.3272944615342506e-06   8.349051577293798e-06
-1.1731312042388524e-05   2.941650567607392e-06   1.0487193825739851e-05
-1.1731312042388524e-05   2.941650567607392e-06   1.0487193825739851e-05
-1.1731312042388524e-05   2.941650567607392e-06   1.0487193825739851e-05
-1.1731312042388524e-05   2.941650567607392e-06   1.0487193825739851e-05
-1.2553037313250254e-05   1.1077737312883236e-06   8.017325605845645e-06
-1.2553037313250254e-05   1.1077737312883236e-06   8.017325605845645e-06
-1.2553037313250254e-05   1.1077737312883236e-06   8.017325605845645e-06
-1.2553037313250254e-05   1.1077737312883236e-06   8.017325605845645e-06
-1.3321275748268894e-05   2.350720264399802e-06   1.2088174755606196e-05
-1.3321275748268894e-05   2.350720264399802e-06   1.2088174755606196e-05
-1.3321275748268894e-05   2.350720264399802e-06   1.2088174755606196e-05
-1.3321275748268894e-05   2.350720264399802e-06   1.2088174755606196e-05
-1.1806587941000574e-05   6.862124664192004e-07   1.0562399755613796e-05
-1.1806587941000574e-05   6.862124664192004e-07   1.0562399755613796e-05
-1.1806587941000574e-05   6.862124664192004e-07   1.0562399755613796e-05
-1.1806587941000574e-05   6.862124664192004e-07   1.0562399755613796e-05
-1.185108781740201e-05   2.1047637522057447e-06   9.785435444809701e-06
-1.185108781740201e-05   2.1047637522057447e-06   9.785435444809701e-06
-1.185108781740201e-05   2.1047637522057447e-06   9.785435444809701e-06
-1.185108781740201e-05   2.1047637522057447e-06   9.785435444809701e-06
-2.2780657165686142e-05   3.0166317788389877e-06   8.791862694261294e-06
-2.2780657165686142e-05   3.0166317788389877e-06   8.791862694261294e-06
-2.2780657165686142e-05   3.0166317788389877e-06   8.791862694261294e-06
-2.2780657165686142e-05   3.0166317788389877e-06   8.791862694261294e-06
-1.5381494344454302e-05   4.176846536636629e-06   2.181992958432625e-05
-1.5381494344454302e-05   4.176846536636629e-06   2.181992958432625e-05
-1.5381494344454302e-05   4.176846536636629e-06   2.181992958432625e-05
-1.5381494344454302e-05   4.176846536636629e-06   2.181992958432625e-05
-1.5374247372398626e-05   2.3564266225092542e-06   9.985731795171234e-06
-1.5374247372398626e-05   2.3564266225092542e-06   9.985731795171234e-06
-1.5374247372398626e-05   2.3564266225092542e-06   9.985731795171234e-06
-1.5374247372398626e-05   2.3564266225092542e-06   9.985731795171234e-06
-2.509386334903723e-05   1.6916090037556904e-06   2.6583982327487853e-05
-2.509386334903723e-05   1.6916090037556904e-06   2.6583982327487853e-05
-2.509386334903723e-05   1.6916090037556904e-06   2.6583982327487853e-05
-2.509386334903723e-05   1.6916090037556904e-06   2.6583982327487853e-05
-1.8643150960332885e-05   2.475027593906021e-06   1.5362743858890357e-05
-1.8643150960332885e-05   2.475027593906021e-06   1.5362743858890357e-05
-1.8643150960332885e-05   2.475027593906021e-06   1.5362743858890357e-05
-1.8643150960332885e-05   2.475027593906021e-06   1.5362743858890357e-05
-2.509386334903728e-05   2.3564266225093626e-06   1.0384622366423318e-05
-2.509386334903728e-05   2.3564266225093626e-06   1.0384622366423318e-05
-2.509386334903728e-05   2.3564266225093626e-06   1.0384622366423318e-05
-2.509386334903728e-05   2.3564266225093626e-06   1.0384622366423318e-05
-1.53742473723986e-05   1.6916090037556904e-06   2.6185091756235714e-05
-1.53742473723986e-05   1.6916090037556904e-06   2.6185091756235714e-05
-1.53742473723986e-05   1.6916090037556904e-06   2.6185091756235714e-05
-1.53742473723986e-05   1.6916090037556904e-06   2.6185091756235714e-05
-1.5584237254709157e-05   1.900175531254454e-06   1.1168765605798687e-05
-1.5584237254709157e-05   1.900175531254454e-06   1.1168765605798687e-05
-1.5584237254709157e-05   1.900175531254454e-06   1.1168765605798687e-05
-1.5584237254709157e-05   1.900175531254454e-06   1.1168765605798687e-05
-2.518242091973318e-05   1.2137010320942623e-06   2.7577623080334924e-05
-2.518242091973318e-05   1.2137010320942623e-06   2.7577623080334924e-05
-2.518242091973318e-05   1.2137010320942623e-06   2.7577623080334924e-05
-2.518242091973318e-05   1.2137010320942623e-06   2.7577623080334924e-05
-1.9894211021316682e-05   1.5460891081484876e-06   1.8564507070674695e-05
-1.9894211021316682e-05   1.5460891081484876e-06   1.8564507070674695e-05
-1.9894211021316682e-05   1.5460891081484876e-06   1.8564507070674695e-05
-1.9894211021316682e-05   1.5460891081484876e-06   1.8564507070674695e-05
-2.5182420919733222e-05   1.9001755312545625e-06   1.1580650305294919e-05
-2.5182420919733222e-05   1.9001755312545625e-06   1.1580650305294919e-05
-2.5182420919733222e-05   1.9001755312545625e-06   1.1580650305294919e-05
-2.5182420919733222e-05   1.9001755312545625e-06   1.1580650305294919e-05
-1.558423725470913e-05   1.2137010320942623e-06   2.7165738380838787e-05
-1.558423725470913e-05   1.2137010320942623e-06   2.7165738380838787e-05
-1.558423725470913e-05   1.2137010320942623e-06   2.7165738380838787e-05
-1.558423725470913e-05   1.2137010320942623e-06   2.7165738380838787e-05
-1.5418140651779002e-05   7.780658586466595e-07   1.3237953263219157e-05
-1.5418140651779002e-05   7.780658586466595e-07   1.3237953263219157e-05
-1.5418140651779002e-05   7.780658586466595e-07   1.3237953263219157e-05
-1.5418140651779002e-05   7.780658586466595e-07   1.3237953263219157e-05
-2.5455376835677882e-05   -8.187584015027631e-07   3.092477479247355e-05
-2.5455376835677882e-05   -8.187584015027631e-07   3.092477479247355e-05
-2.5455376835677882e-05   -8.187584015027631e-07   3.092477479247355e-05
-2.5455376835677882e-05   -8.187584015027631e-07   3.092477479247355e-05
-1.9590842066539036e-05   7.495433842843752e-07   2.0209569105769816e-05
-1.9590842066539036e-05   7.495433842843752e-07   2.0209569105769816e-05
-1.9590842066539036e-05   7.495433842843752e-07   2.0209569105769816e-05
-1.9590842066539036e-05   7.495433842843752e-07   2.0209569105769816e-05
-1.5381494344454322e-05   7.809194846656285e-07   2.0181834729837174e-05
-1.5381494344454322e-05   7.809194846656285e-07   2.0181834729837174e-05
-1.5381494344454322e-05   7.809194846656285e-07   2.0181834729837174e-05
-1.5381494344454322e-05   7.809194846656285e-07   2.0181834729837174e-05
-9.438861844251415e-06   -4.718045748754087e-06   2.678684309012363e-05
-9.438861844251415e-06   -4.718045748754087e-06   2.678684309012363e-05
-9.438861844251415e-06   -4.718045748754087e-06   2.678684309012363e-05
-9.438861844251415e-06   -4.718045748754087e-06   2.678684309012363e-05
-9.45820837200043e-06   3.739774329563142e-07   1.6930371312559437e-05
-9.45820837200043e-06   3.739774329563142e-07   1.6930371312559437e-05
-9.45820837200043e-06   3.739774329563142e-07   1.6930371312559437e-05
-9.45820837200043e-06   3.739774329563142e-07   1.6930371312559437e-05
-1.53742473723986e-05   -3.864243262049355e-06   2.933336873022646e-05
-1.53742473723986e-05   -3.864243262049355e-06   2.933336873022646e-05
-1.53742473723986e-05   -3.864243262049355e-06   2.933336873022646e-05
-1.53742473723986e-05   -3.864243262049355e-06   2.933336873022646e-05
-1.234743142346959e-05   -2.333270874358784e-06   2.3370092049397105e-05
-1.234743142346959e-05   -2.333270874358784e-06   2.3370092049397105e-05
-1.234743142346959e-05   -2.333270874358784e-06   2.3370092049397105e-05
-1.234743142346959e-05   -2.333270874358784e-06   2.3370092049397105e-05
-1.537424737239862e-05   3.7397743295620577e-07   1.947330372956252e-05
-1.537424737239862e-05   3.7397743295620577e-07   1.947330372956252e-05
-1.537424737239862e-05   3.7397743295620577e-07   1.947330372956252e-05
-1.537424737239862e-05   3.7397743295620577e-07   1.947330372956252e-05
-9.458208372000403e-06   -3.864243262049355e-06   2.6790436313223092e-05
-9.458208372000403e-06   -3.864243262049355e-06   2.6790436313223092e-05
-9.458208372000403e-06   -3.864243262049355e-06   2.6790436313223092e-05
-9.458208372000403e-06   -3.864243262049355e-06   2.6790436313223092e-05
-9.495698928226889e-06   -9.749063946775695e-08   1.7452472460103316e-05
-9.495698928226889e-06   -9.749063946775695e-08   1.7452472460103316e-05
-9.495698928226889e-06   -9.749063946775695e-08   1.7452472460103316e-05
-9.495698928226889e-06   -9.749063946775695e-08   1.7452472460103316e-05
-1.558423725470913e-05   -3.951543254920029e-06   2.99124679068451e-05
-1.558423725470913e-05   -3.951543254920029e-06   2.99124679068451e-05
-1.558423725470913e-05   -3.951543254920029e-06   2.99124679068451e-05
-1.558423725470913e-05   -3.951543254920029e-06   2.99124679068451e-05
-1.2257563923000827e-05   -2.038586070338469e-06   2.3220238043248915e-05
-1.2257563923000827e-05   -2.038586070338469e-06   2.3220238043248915e-05
-1.2257563923000827e-05   -2.038586070338469e-06   2.3220238043248915e-05
-1.2257563923000827e-05   -2.038586070338469e-06   2.3220238043248915e-05
-1.5584237254709157e-05   -9.749063946775695e-08   1.9764904029374766e-05
-1.5584237254709157e-05   -9.749063946775695e-08   1.9764904029374766e-05
-1.5584237254709157e-05   -9.749063946775695e-08   1.9764904029374766e-05
-1.5584237254709157e-05   -9.749063946775695e-08   1.9764904029374766e-05
-9.495698928226889e-06   -3.951543254920029e-06   2.7600036337573677e-05
-9.495698928226889e-06   -3.951543254920029e-06   2.7600036337573677e-05
-9.495698928226889e-06   -3.951543254920029e-06   2.7600036337573677e-05
-9.495698928226889e-06   -3.951543254920029e-06   2.7600036337573677e-05
-9.403415870292255e-06   -7.167869050658457e-07   1.810363660771641e-05
-9.403415870292255e-06   -7.167869050658457e-07   1.810363660771641e-05
-9.403415870292255e-06   -7.167869050658457e-07   1.810363660771641e-05
-9.403415870292255e-06   -7.167869050658457e-07   1.810363660771641e-05
-1.541814065177896e-05   -3.9864879250111436e-06   3.00899985221614e-05
-1.541814065177896e-05   -3.9864879250111436e-06   3.00899985221614e-05
-1.541814065177896e-05   -3.9864879250111436e-06   3.00899985221614e-05
-1.541814065177896e-05   -3.9864879250111436e-06   3.00899985221614e-05
-1.2314978183417043e-05   -2.288329343325536e-06   2.3899165925880223e-05
-1.2314978183417043e-05   -2.288329343325536e-06   2.3899165925880223e-05
-1.2314978183417043e-05   -2.288329343325536e-06   2.3899165925880223e-05
-1.2314978183417043e-05   -2.288329343325536e-06   2.3899165925880223e-05
-9.438861844251415e-06   2.1740545291326976e-07   1.8657873459484043e-05
-9.438861844251415e-06   2.1740545291326976e-07   1.8657873459484043e-05
-9.438861844251415e-06   2.1740545291326976e-07   1.8657873459484043e-05
-9.438861844251415e-06   2.1740545291326976e-07   1.8657873459484043e-05
-6.947683971172275e-06   -3.685824117006045e-06   2.046789883933095e-05
-6.947683971172275e-06   -3.685824117006045e-06   2.046789883933095e-05
-6.947683971172275e-06   -3.685824117006045e-06   2.046789883933095e-05
-6.947683971172275e-06   -3.685824117006045e-06   2.046789883933095e-05
-6.886077459802463e-06   -1.2608692962867533e-07   1.646800073503037e-05
-6.886077459802463e-06   -1.2608692962867533e-07   1.646800073503037e-05
-6.886077459802463e-06   -1.2608692962867533e-07   1.646800073503037e-05
-6.886077459802463e-06   -1.2608692962867533e-07   1.646800073503037e-05
-9.458208372000403e-06   -3.6199140452675962e-06   2.285118185807683e-05
-9.458208372000403e-06   -3.6199140452675962e-06   2.285118185807683e-05
-9.458208372000403e-06   -3.6199140452675962e-06   2.285118185807683e-05
-9.458208372000403e-06   -3.6199140452675962e-06   2.285118185807683e-05
-8.132497370622494e-06   -1.8624910126370877e-06   1.9587209702868698e-05
-8.132497370622494e-06   -1.8624910126370877e-06   1.9587209702868698e-05
-8.132497370622494e-06   -1.8624910126370877e-06   1.9587209702868698e-05
-8.132497370622494e-06   -1.8624910126370877e-06   1.9587209702868698e-05
-9.458208372000403e-06   -1.2608692962878375e-07   1.8564297004413516e-05
-9.458208372000403e-06   -1.2608692962878375e-07   1.8564297004413516e-05
-9.458208372000403e-06   -1.2608692962878375e-07   1.8564297004413516e-05
-9.458208372000403e-06   -1.2608692962878375e-07   1.8564297004413516e-05
-6.886077459802463e-06   -3.6199140452675962e-06   2.075488558869353e-05
-6.886077459802463e-06   -3.6199140452675962e-06   2.075488558869353e-05
-6.886077459802463e-06   -3.6199140452675962e-06   2.075488558869353e-05
-6.886077459802463e-06   -3.6199140452675962e-06   2.075488558869353e-05
-6.8333908956913654e-06   -5.373891567884981e-07   1.6861364284245957e-05
-6.8333908956913654e-06   -5.373891567884981e-07   1.6861364284245957e-05
-6.8333908956913654e-06   -5.373891567884981e-07   1.6861364284245957e-05
-6.8333908956913654e-06   -5.373891567884981e-07   1.6861364284245957e-05
-9.495698928226889e-06   -3.73025083297133e-06   2.321426134418151e-05
-9.495698928226889e-06   -3.73025083297133e-06   2.321426134418151e-05
-9.495698928226889e-06   -3.73025083297133e-06   2.321426134418151e-05
-9.495698928226889e-06   -3.73025083297133e-06   2.321426134418151e-05
-8.061185465134586e-06   -1.985888000879916e-06   1.9776787873105917e-05
-8.061185465134586e-06   -1.985888000879916e-06   1.9776787873105917e-05
-8.061185465134586e-06   -1.985888000879916e-06   1.9776787873105917e-05
-8.061185465134586e-06   -1.985888000879916e-06   1.9776787873105917e-05
-9.495698928226889e-06   -5.373891567884981e-07   1.8777081289955764e-05
-9.495698928226889e-06   -5.373891567884981e-07   1.8777081289955764e-05
-9.495698928226889e-06   -5.373891567884981e-07   1.8777081289955764e-05
-9.495698928226889e-06   -5.373891567884981e-07   1.8777081289955764e-05
-6.8333908956913654e-06   -3.73025083297133e-06   2.1298544338471804e-05
-6.8333908956913654e-06   -3.73025083297133e-06   2.1298544338471804e-05
-6.8333908956913654e-06   -3.73025083297133e-06   2.1298544338471804e-05
-6.8333908956913654e-06   -3.73025083297133e-06   2.1298544338471804e-05
-6.70006375624494e-06   -9.502411553879726e-07   1.7470569564549177e-05
-6.70006375624494e-06   -9.502411553879726e-07   1.7470569564549177e-05
-6.70006375624494e-06   -9.502411553879726e-07   1.7470569564549177e-05
-6.70006375624494e-06   -9.502411553879726e-07   1.7470569564549177e-05
-9.403415870292282e-06   -3.8862406161075335e-06   2.3737756097726333e-05
-9.403415870292282e-06   -3.8862406161075335e-06   2.3737756097726333e-05
-9.403415870292282e-06   -3.8862406161075335e-06   2.3737756097726333e-05
-9.403415870292282e-06   -3.8862406161075335e-06   2.3737756097726333e-05
-7.977855822128627e-06   -2.1659791497806414e-06   2.0329665804324205e-05
-7.977855822128627e-06   -2.1659791497806414e-06   2.0329665804324205e-05
-7.977855822128627e-06   -2.1659791497806414e-06   2.0329665804324205e-05
-7.977855822128627e-06   -2.1659791497806414e-06   2.0329665804324205e-05
-6.947683971172275e-06   9.932409353874405e-07   1.2698251952070975e-05
-6.947683971172275e-06   9.932409353874405e-07   1.2698251952070975e-05
-6.947683971172275e-06   9.932409353874405e-07   1.2698251952070975e-05
-6.947683971172275e-06   9.932409353874405e-07   1.2698251952070975e-05
-5.796777853880831e-06   -1.5127772626125709e-06   1.3112817895423391e-05
-5.796777853880831e-06   -1.5127772626125709e-06   1.3112817895423391e-05
-5.796777853880831e-06   -1.5127772626125709e-06   1.3112817895423391e-05
-5.796777853880831e-06   -1.5127772626125709e-06   1.3112817895423391e-05
-5.672809911660384e-06   5.406115403045527e-07   1.146555321299733e-05
-5.672809911660384e-06   5.406115403045527e-07   1.146555321299733e-05
-5.672809911660384e-06   5.406115403045527e-07   1.146555321299733e-05
-5.672809911660384e-06   5.406115403045527e-07   1.146555321299733e-05
-6.886077459802463e-06   -1.7705139983083306e-06   1.4874341116402005e-05
-6.886077459802463e-06   -1.7705139983083306e-06   1.4874341116402005e-05
-6.886077459802463e-06   -1.7705139983083306e-06   1.4874341116402005e-05
-6.886077459802463e-06   -1.7705139983083306e-06   1.4874341116402005e-05
-6.2797011900329425e-06   -3.4517202078017265e-07   1.300850881360256e-05
-6.2797011900329425e-06   -3.4517202078017265e-07   1.300850881360256e-05
-6.2797011900329425e-06   -3.4517202078017265e-07   1.300850881360256e-05
-6.2797011900329425e-06   -3.4517202078017265e-07   1.300850881360256e-05
-6.886077459802463e-06   5.406115403046611e-07   1.2852228536164973e-05
-6.886077459802463e-06   5.406115403046611e-07   1.2852228536164973e-05
-6.886077459802463e-06   5.406115403046611e-07   1.2852228536164973e-05
-6.886077459802463e-06   5.406115403046611e-07   1.2852228536164973e-05
-5.67280991166033e-06   -1.7705139983083306e-06   1.3487665793234253e-05
-5.67280991166033e-06   -1.7705139983083306e-06   1.3487665793234253e-05
-5.67280991166033e-06   -1.7705139983083306e-06   1.3487665793234253e-05
-5.67280991166033e-06   -1.7705139983083306e-06   1.3487665793234253e-05
-5.617288779452686e-06   1.5299061236482333e-07   1.200748581987605e-05
-5.617288779452686e-06   1.5299061236482333e-07   1.200748581987605e-05
-5.617288779452686e-06   1.5299061236482333e-07   1.200748581987605e-05
-5.617288779452686e-06   1.5299061236482333e-07   1.200748581987605e-05
-6.8333908956913654e-06   -1.9678232482921447e-06   1.530681099666813e-05
-6.8333908956913654e-06   -1.9678232482921447e-06   1.530681099666813e-05
-6.8333908956913654e-06   -1.9678232482921447e-06   1.530681099666813e-05
-6.8333908956913654e-06   -1.9678232482921447e-06   1.530681099666813e-05
-6.1567543356493915e-06   -6.208422538456378e-07   1.3370894799929982e-05
-6.1567543356493915e-06   -6.208422538456378e-07   1.3370894799929982e-05
-6.1567543356493915e-06   -6.208422538456378e-07   1.3370894799929982e-05
-6.1567543356493915e-06   -6.208422538456378e-07   1.3370894799929982e-05
-6.8333908956913925e-06   1.5299061236482333e-07   1.3279974136270393e-05
-6.8333908956913925e-06   1.5299061236482333e-07   1.3279974136270393e-05
-6.8333908956913925e-06   1.5299061236482333e-07   1.3279974136270393e-05
-6.8333908956913925e-06   1.5299061236482333e-07   1.3279974136270393e-05
-5.617288779452686e-06   -1.9678232482921447e-06   1.4034322680273894e-05
-5.617288779452686e-06   -1.9678232482921447e-06   1.4034322680273894e-05
-5.617288779452686e-06   -1.9678232482921447e-06   1.4034322680273894e-05
-5.617288779452686e-06   -1.9678232482921447e-06   1.4034322680273894e-05
-5.525234705032033e-06   -2.3778429799432496e-07   1.268804380401647e-05
-5.525234705032033e-06   -2.3778429799432496e-07   1.268804380401647e-05
-5.525234705032033e-06   -2.3778429799432496e-07   1.268804380401647e-05
-5.525234705032033e-06   -2.3778429799432496e-07   1.268804380401647e-05
-6.70006375624494e-06   -2.226512845451519e-06   1.5839329351178947e-05
-6.70006375624494e-06   -2.226512845451519e-06   1.5839329351178947e-05
-6.70006375624494e-06   -2.226512845451519e-06   1.5839329351178947e-05
-6.70006375624494e-06   -2.226512845451519e-06   1.5839329351178947e-05
-6.061656825479228e-06   -8.624942721442838e-07   1.39569066559185e-05
-6.061656825479228e-06   -8.624942721442838e-07   1.39569066559185e-05
-6.061656825479228e-06   -8.624942721442838e-07   1.39569066559185e-05
-6.061656825479228e-06   -8.624942721442838e-07   1.39569066559185e-05
-5.796777853880831e-06   1.6376616636237101e-06   2.9030276738361595e-06
-5.796777853880831e-06   1.6376616636237101e-06   2.9030276738361595e-06
-5.796777853880831e-06   1.6376616636237101e-06   2.9030276738361595e-06
-5.796777853880831e-06   1.6376616636237101e-06   2.9030276738361595e-06
-3.3589691130893285e-06   -1.687282793895288e-07   5.882208276013917e-06
-3.3589691130893285e-06   -1.687282793895288e-07   5.882208276013917e-06
-3.3589691130893285e-06   -1.687282793895288e-07   5.882208276013917e-06
-3.3589691130893285e-06   -1.687282793895288e-07   5.882208276013917e-06
-3.550180182440208e-06   1.3172581174491008e-06   2.9298664918420755e-06
-3.550180182440208e-06   1.3172581174491008e-06   2.9298664918420755e-06
-3.550180182440208e-06   1.3172581174491008e-06   2.9298664918420755e-06
-3.550180182440208e-06   1.3172581174491008e-06   2.9298664918420755e-06
-5.672809911660384e-06   -2.3548110406296056e-07   7.399226240116161e-06
-5.672809911660384e-06   -2.3548110406296056e-07   7.399226240116161e-06
-5.672809911660384e-06   -2.3548110406296056e-07   7.399226240116161e-06
-5.672809911660384e-06   -2.3548110406296056e-07   7.399226240116161e-06
-4.4366622154210856e-06   8.420011201542383e-07   4.692490745187151e-06
-4.4366622154210856e-06   8.420011201542383e-07   4.692490745187151e-06
-4.4366622154210856e-06   8.420011201542383e-07   4.692490745187151e-06
-4.4366622154210856e-06   8.420011201542383e-07   4.692490745187151e-06
-5.67280991166033e-06   1.3172581174489923e-06   3.861510024748965e-06
-5.67280991166033e-06   1.3172581174489923e-06   3.861510024748965e-06
-5.67280991166033e-06   1.3172581174489923e-06   3.861510024748965e-06
-5.67280991166033e-06   1.3172581174489923e-06   3.861510024748965e-06
-3.550180182440262e-06   -2.3548110406290635e-07   6.467582707208946e-06
-3.550180182440262e-06   -2.3548110406290635e-07   6.467582707208946e-06
-3.550180182440262e-06   -2.3548110406290635e-07   6.467582707208946e-06
-3.550180182440262e-06   -2.3548110406290635e-07   6.467582707208946e-06
-3.707193164214262e-06   1.107773731288432e-06   3.808749021539347e-06
-3.707193164214262e-06   1.107773731288432e-06   3.808749021539347e-06
-3.707193164214262e-06   1.107773731288432e-06   3.808749021539347e-06
-3.707193164214262e-06   1.107773731288432e-06   3.808749021539347e-06
-5.617288779452686e-06   -3.257698190340611e-07   7.852367843796796e-06
-5.617288779452686e-06   -3.257698190340611e-07   7.852367843796796e-06
-5.617288779452686e-06   -3.257698190340611e-07   7.852367843796796e-06
-5.617288779452686e-06   -3.257698190340611e-07   7.852367843796796e-06
-4.5154429979275324e-06   6.836635883336357e-07   5.4102981635008784e-06
-4.5154429979275324e-06   6.836635883336357e-07   5.4102981635008784e-06
-4.5154429979275324e-06   6.836635883336357e-07   5.4102981635008784e-06
-4.5154429979275324e-06   6.836635883336357e-07   5.4102981635008784e-06
-5.617288779452686e-06   1.1077737312883236e-06   4.668875151732973e-06
-5.617288779452686e-06   1.1077737312883236e-06   4.668875151732973e-06
-5.617288779452686e-06   1.1077737312883236e-06   4.668875151732973e-06
-5.617288779452686e-06   1.1077737312883236e-06   4.668875151732973e-06
-3.7071931642143163e-06   -3.257698190340611e-07   6.992241713603333e-06
-3.7071931642143163e-06   -3.257698190340611e-07   6.992241713603333e-06
-3.7071931642143163e-06   -3.257698190340611e-07   6.992241713603333e-06
-3.7071931642143163e-06   -3.257698190340611e-07   6.992241713603333e-06
-4.0926371867099445e-06   6.862124664192004e-07   5.379911166106884e-06
-4.0926371867099445e-06   6.862124664192004e-07   5.379911166106884e-06
-4.0926371867099445e-06   6.862124664192004e-07   5.379911166106884e-06
-4.0926371867099445e-06   6.862124664192004e-07   5.379911166106884e-06
-5.525234705032033e-06   -4.35595454531079e-07   8.440658449213522e-06
-5.525234705032033e-06   -4.35595454531079e-07   8.440658449213522e-06
-5.525234705032033e-06   -4.35595454531079e-07   8.440658449213522e-06
-5.525234705032033e-06   -4.35595454531079e-07   8.440658449213522e-06
-4.5262381733579115e-06   5.763986393776004e-07   6.168467773411178e-06
-4.5262381733579115e-06   5.763986393776004e-07   6.168467773411178e-06
-4.5262381733579115e-06   5.763986393776004e-07   6.168467773411178e-06
-4.5262381733579115e-06   5.763986393776004e-07   6.168467773411178e-06
-5.3371690543763936e-05   4.176846536636629e-06   2.2874254331368816e-05
-5.3371690543763936e-05   4.176846536636629e-06   2.2874254331368816e-05
-5.3371690543763936e-05   4.176846536636629e-06   2.2874254331368816e-05
-5.3371690543763936e-05   4.176846536636629e-06   2.2874254331368816e-05
-1.2546767479176502e-05   -2.6083827870289053e-05   7.275938812819253e-05
-1.2546767479176502e-05   -2.6083827870289053e-05   7.275938812819253e-05
-1.2546767479176502e-05   -2.6083827870289053e-05   7.275938812819253e-05
-1.2546767479176502e-05   -2.6083827870289053e-05   7.275938812819253e-05
-1.4726938263532753e-05   1.6916090037556904e-06   1.2556110881181007e-05
-1.4726938263532753e-05   1.6916090037556904e-06   1.2556110881181007e-05
-1.4726938263532753e-05   1.6916090037556904e-06   1.2556110881181007e-05
-1.4726938263532753e-05   1.6916090037556904e-06   1.2556110881181007e-05
-4.867652803394267e-05   -2.0274179718604046e-05   8.231823373194655e-05
-4.867652803394267e-05   -2.0274179718604046e-05   8.231823373194655e-05
-4.867652803394267e-05   -2.0274179718604046e-05   8.231823373194655e-05
-4.867652803394267e-05   -2.0274179718604046e-05   8.231823373194655e-05
-3.2454786517235385e-05   -1.0093469233885227e-05   4.9173571579936456e-05
-3.2454786517235385e-05   -1.0093469233885227e-05   4.9173571579936456e-05
-3.2454786517235385e-05   -1.0093469233885227e-05   4.9173571579936456e-05
-3.2454786517235385e-05   -1.0093469233885227e-05   4.9173571579936456e-05
-4.8676528033942586e-05   1.6916090037556904e-06   2.5735584114596803e-05
-4.8676528033942586e-05   1.6916090037556904e-06   2.5735584114596803e-05
-4.8676528033942586e-05   1.6916090037556904e-06   2.5735584114596803e-05
-4.8676528033942586e-05   1.6916090037556904e-06   2.5735584114596803e-05
-1.4726938263532787e-05   -2.0274179718604046e-05   6.913876049853074e-05
-1.4726938263532787e-05   -2.0274179718604046e-05   6.913876049853074e-05
-1.4726938263532787e-05   -2.0274179718604046e-05   6.913876049853074e-05
-1.4726938263532787e-05   -2.0274179718604046e-05   6.913876049853074e-05
-1.5060061948651932e-05   1.2137010320942623e-06   1.3797708149535597e-05
-1.5060061948651932e-05   1.2137010320942623e-06   1.3797708149535597e-05
-1.5060061948651932e-05   1.2137010320942623e-06   1.3797708149535597e-05
-1.5060061948651932e-05   1.2137010320942623e-06   1.3797708149535597e-05
-4.592767813859581e-05   -1.747484207305614e-05   7.645686099586552e-05
-4.592767813859581e-05   -1.747484207305614e-05   7.645686099586552e-05
-4.592767813859581e-05   -1.747484207305614e-05   7.645686099586552e-05
-4.592767813859581e-05   -1.747484207305614e-05   7.645686099586552e-05
-3.148417186654802e-05   -9.562583632818358e-06   4.763699547830992e-05
-3.148417186654802e-05   -9.562583632818358e-06   4.763699547830992e-05
-3.148417186654802e-05   -9.562583632818358e-06   4.763699547830992e-05
-3.148417186654802e-05   -9.562583632818358e-06   4.763699547830992e-05
-4.592767813859573e-05   1.2137010320942623e-06   2.5010834012625813e-05
-4.592767813859573e-05   1.2137010320942623e-06   2.5010834012625813e-05
-4.592767813859573e-05   1.2137010320942623e-06   2.5010834012625813e-05
-4.592767813859573e-05   1.2137010320942623e-06   2.5010834012625813e-05
-1.5060061948651952e-05   -1.747484207305614e-05   6.524373513277529e-05
-1.5060061948651952e-05   -1.747484207305614e-05   6.524373513277529e-05
-1.5060061948651952e-05   -1.747484207305614e-05   6.524373513277529e-05
-1.5060061948651952e-05   -1.747484207305614e-05   6.524373513277529e-05
-1.649686449621978e-05   -8.187584015027631e-07   1.7277837315763888e-05
-1.649686449621978e-05   -8.187584015027631e-07   1.7277837315763888e-05
-1.649686449621978e-05   -8.187584015027631e-07   1.7277837315763888e-05
-1.649686449621978e-05   -8.187584015027631e-07   1.7277837315763888e-05
-4.240405547850465e-05   -1.3757293757643284e-05   6.821961016658955e-05
-4.240405547850465e-05   -1.3757293757643284e-05   6.821961016658955e-05
-4.240405547850465e-05   -1.3757293757643284e-05   6.821961016658955e-05
-4.240405547850465e-05   -1.3757293757643284e-05   6.821961016658955e-05
-3.028330633875323e-05   -8.827150872796206e-06   4.506027586942897e-05
-3.028330633875323e-05   -8.827150872796206e-06   4.506027586942897e-05
-3.028330633875323e-05   -8.827150872796206e-06   4.506027586942897e-05
-3.028330633875323e-05   -8.827150872796206e-06   4.506027586942897e-05
-1.2546767479176482e-05   -4.718045748754087e-06   1.2984142333062501e-05
-1.2546767479176482e-05   -4.718045748754087e-06   1.2984142333062501e-05
-1.2546767479176482e-05   -4.718045748754087e-06   1.2984142333062501e-05
-1.2546767479176482e-05   -4.718045748754087e-06   1.2984142333062501e-05
-4.370456018999079e-06   -8.086927558534043e-06   2.4589999014156825e-05
-4.370456018999079e-06   -8.086927558534043e-06   2.4589999014156825e-05
-4.370456018999079e-06   -8.086927558534043e-06   2.4589999014156825e-05
-4.370456018999079e-06   -8.086927558534043e-06   2.4589999014156825e-05
-4.882387327272657e-06   -3.864243262049355e-06   1.1590057337665177e-05
-4.882387327272657e-06   -3.864243262049355e-06   1.1590057337665177e-05
-4.882387327272657e-06   -3.864243262049355e-06   1.1590057337665177e-05
-4.882387327272657e-06   -3.864243262049355e-06   1.1590057337665177e-05
-1.4726938263532787e-05   -1.07214607912271e-05   3.211197274893859e-05
-1.4726938263532787e-05   -1.07214607912271e-05   3.211197274893859e-05
-1.4726938263532787e-05   -1.07214607912271e-05   3.211197274893859e-05
-1.4726938263532787e-05   -1.07214607912271e-05   3.211197274893859e-05
-8.655454218369139e-06   -5.617113070609161e-06   1.893022404129498e-05
-8.655454218369139e-06   -5.617113070609161e-06   1.893022404129498e-05
-8.655454218369139e-06   -5.617113070609161e-06   1.893022404129498e-05
-8.655454218369139e-06   -5.617113070609161e-06   1.893022404129498e-05
-1.472693826353274e-05   -3.864243262049355e-06   1.5704387855171602e-05
-1.472693826353274e-05   -3.864243262049355e-06   1.5704387855171602e-05
-1.472693826353274e-05   -3.864243262049355e-06   1.5704387855171602e-05
-1.472693826353274e-05   -3.864243262049355e-06   1.5704387855171602e-05
-4.882387327272684e-06   -1.07214607912271e-05   2.7997642231431918e-05
-4.882387327272684e-06   -1.07214607912271e-05   2.7997642231431918e-05
-4.882387327272684e-06   -1.07214607912271e-05   2.7997642231431918e-05
-4.882387327272684e-06   -1.07214607912271e-05   2.7997642231431918e-05
-5.320995693068993e-06   -3.951543254920083e-06   1.3031893158313467e-05
-5.320995693068993e-06   -3.951543254920083e-06   1.3031893158313467e-05
-5.320995693068993e-06   -3.951543254920083e-06   1.3031893158313467e-05
-5.320995693068993e-06   -3.951543254920083e-06   1.3031893158313467e-05
-1.5060061948651952e-05   -9.805784116967508e-06   3.2776214768180114e-05
-1.5060061948651952e-05   -9.805784116967508e-06   3.2776214768180114e-05
-1.5060061948651952e-05   -9.805784116967508e-06   3.2776214768180114e-05
-1.5060061948651952e-05   -9.805784116967508e-06   3.2776214768180114e-05
-9.760308087946906e-06   -6.867357979071896e-06   2.218023598426782e-05
-9.760308087946906e-06   -6.867357979071896e-06   2.218023598426782e-05
-9.760308087946906e-06   -6.867357979071896e-06   2.218023598426782e-05
-9.760308087946906e-06   -6.867357979071896e-06   2.218023598426782e-05
-1.5060061948651932e-05   -3.951543254920029e-06   1.654443767554187e-05
-1.5060061948651932e-05   -3.951543254920029e-06   1.654443767554187e-05
-1.5060061948651932e-05   -3.951543254920029e-06   1.654443767554187e-05
-1.5060061948651932e-05   -3.951543254920029e-06   1.654443767554187e-05
-5.320995693068993e-06   -9.805784116967508e-06   2.9263670250951617e-05
-5.320995693068993e-06   -9.805784116967508e-06   2.9263670250951617e-05
-5.320995693068993e-06   -9.805784116967508e-06   2.9263670250951617e-05
-5.320995693068993e-06   -9.805784116967508e-06   2.9263670250951617e-05
-6.034490607981951e-06   -3.9864879250111436e-06   1.4256120896473639e-05
-6.034490607981951e-06   -3.9864879250111436e-06   1.4256120896473639e-05
-6.034490607981951e-06   -3.9864879250111436e-06   1.4256120896473639e-05
-6.034490607981951e-06   -3.9864879250111436e-06   1.4256120896473639e-05
-1.649686449621976e-05   -9.228212433457529e-06   3.483844541527105e-05
-1.649686449621976e-05   -9.228212433457529e-06   3.483844541527105e-05
-1.649686449621976e-05   -9.228212433457529e-06   3.483844541527105e-05
-1.649686449621976e-05   -9.228212433457529e-06   3.483844541527105e-05
-1.0405334671731049e-05   -6.270228479705512e-06   2.2911105335538684e-05
-1.0405334671731049e-05   -6.270228479705512e-06   2.2911105335538684e-05
-1.0405334671731049e-05   -6.270228479705512e-06   2.2911105335538684e-05
-1.0405334671731049e-05   -6.270228479705512e-06   2.2911105335538684e-05
-4.370456018999079e-06   -3.685824117006045e-06   6.9858067383535174e-06
-4.370456018999079e-06   -3.685824117006045e-06   6.9858067383535174e-06
-4.370456018999079e-06   -3.685824117006045e-06   6.9858067383535174e-06
-4.370456018999079e-06   -3.685824117006045e-06   6.9858067383535174e-06
-2.438449933412311e-06   -2.2599024030076856e-06   1.1061369909397202e-05
-2.438449933412311e-06   -2.2599024030076856e-06   1.1061369909397202e-05
-2.438449933412311e-06   -2.2599024030076856e-06   1.1061369909397202e-05
-2.438449933412311e-06   -2.2599024030076856e-06   1.1061369909397202e-05
-2.343945036110159e-06   -3.6199140452676504e-06   8.047990590035684e-06
-2.343945036110159e-06   -3.6199140452676504e-06   8.047990590035684e-06
-2.343945036110159e-06   -3.6199140452676504e-06   8.047990590035684e-06
-2.343945036110159e-06   -3.6199140452676504e-06   8.047990590035684e-06
-4.882387327272684e-06   -2.957934532739706e-06   1.1881540034456325e-05
-4.882387327272684e-06   -2.957934532739706e-06   1.1881540034456325e-05
-4.882387327272684e-06   -2.957934532739706e-06   1.1881540034456325e-05
-4.882387327272684e-06   -2.957934532739706e-06   1.1881540034456325e-05
-3.286751726590747e-06   -2.9634069851903187e-06   9.22543083812339e-06
-3.286751726590747e-06   -2.9634069851903187e-06   9.22543083812339e-06
-3.286751726590747e-06   -2.9634069851903187e-06   9.22543083812339e-06
-3.286751726590747e-06   -2.9634069851903187e-06   9.22543083812339e-06
-4.882387327272657e-06   -3.6199140452675962e-06   7.650802882518929e-06
-4.882387327272657e-06   -3.6199140452675962e-06   7.650802882518929e-06
-4.882387327272657e-06   -3.6199140452675962e-06   7.650802882518929e-06
-4.882387327272657e-06   -3.6199140452675962e-06   7.650802882518929e-06
-2.343945036110159e-06   -2.957934532739706e-06   1.2278727741973027e-05
-2.343945036110159e-06   -2.957934532739706e-06   1.2278727741973027e-05
-2.343945036110159e-06   -2.957934532739706e-06   1.2278727741973027e-05
-2.343945036110159e-06   -2.957934532739706e-06   1.2278727741973027e-05
-2.3483602310405793e-06   -3.73025083297133e-06   8.605163953515928e-06
-2.3483602310405793e-06   -3.73025083297133e-06   8.605163953515928e-06
-2.3483602310405793e-06   -3.73025083297133e-06   8.605163953515928e-06
-2.3483602310405793e-06   -3.73025083297133e-06   8.605163953515928e-06
-5.320995693068993e-06   -3.7985078519803482e-06   1.3600510601635089e-05
-5.320995693068993e-06   -3.7985078519803482e-06   1.3600510601635089e-05
-5.320995693068993e-06   -3.7985078519803482e-06   1.3600510601635089e-05
-5.320995693068993e-06   -3.7985078519803482e-06   1.3600510601635089e-05
-3.4856710502765014e-06   -3.2400669046223616e-06   1.0206571628566249e-05
-3.4856710502765014e-06   -3.2400669046223616e-06   1.0206571628566249e-05
-3.4856710502765014e-06   -3.2400669046223616e-06   1.0206571628566249e-05
-3.4856710502765014e-06   -3.2400669046223616e-06   1.0206571628566249e-05
-5.320995693068993e-06   -3.730250832971384e-06   8.646118164921219e-06
-5.320995693068993e-06   -3.730250832971384e-06   8.646118164921219e-06
-5.320995693068993e-06   -3.730250832971384e-06   8.646118164921219e-06
-5.320995693068993e-06   -3.730250832971384e-06   8.646118164921219e-06
-2.3483602310405793e-06   -3.7985078519803482e-06   1.3559556390229716e-05
-2.3483602310405793e-06   -3.7985078519803482e-06   1.3559556390229716e-05
-2.3483602310405793e-06   -3.7985078519803482e-06   1.3559556390229716e-05
-2.3483602310405793e-06   -3.7985078519803482e-06   1.3559556390229716e-05
-2.3848994949926734e-06   -3.886240616107588e-06   9.43906791468145e-06
-2.3848994949926734e-06   -3.886240616107588e-06   9.43906791468145e-06
-2.3848994949926734e-06   -3.886240616107588e-06   9.43906791468145e-06
-2.3848994949926734e-06   -3.886240616107588e-06   9.43906791468145e-06
-6.034490607981951e-06   -4.597292564981471e-06   1.5948350938987807e-05
-6.034490607981951e-06   -4.597292564981471e-06   1.5948350938987807e-05
-6.034490607981951e-06   -4.597292564981471e-06   1.5948350938987807e-05
-6.034490607981951e-06   -4.597292564981471e-06   1.5948350938987807e-05
-3.7124000331676234e-06   -3.5378641576926323e-06   1.1442542936590668e-05
-3.7124000331676234e-06   -3.5378641576926323e-06   1.1442542936590668e-05
-3.7124000331676234e-06   -3.5378641576926323e-06   1.1442542936590668e-05
-3.7124000331676234e-06   -3.5378641576926323e-06   1.1442542936590668e-05
-2.438449933412311e-06   -1.5127772626125709e-06   1.9898897416449277e-06
-2.438449933412311e-06   -1.5127772626125709e-06   1.9898897416449277e-06
-2.438449933412311e-06   -1.5127772626125709e-06   1.9898897416449277e-06
-2.438449933412311e-06   -1.5127772626125709e-06   1.9898897416449277e-06
-1.8115987884364236e-06   3.882314558251653e-07   4.175246881000703e-06
-1.8115987884364236e-06   3.882314558251653e-07   4.175246881000703e-06
-1.8115987884364236e-06   3.882314558251653e-07   4.175246881000703e-06
-1.8115987884364236e-06   3.882314558251653e-07   4.175246881000703e-06
-1.4664209820379557e-06   -1.7705139983083306e-06   3.3125255885441476e-06
-1.4664209820379557e-06   -1.7705139983083306e-06   3.3125255885441476e-06
-1.4664209820379557e-06   -1.7705139983083306e-06   3.3125255885441476e-06
-1.4664209820379557e-06   -1.7705139983083306e-06   3.3125255885441476e-06
-2.343945036110159e-06   1.3795178635838177e-07   3.6299862078644526e-06
-2.343945036110159e-06   1.3795178635838177e-07   3.6299862078644526e-06
-2.343945036110159e-06   1.3795178635838177e-07   3.6299862078644526e-06
-2.343945036110159e-06   1.3795178635838177e-07   3.6299862078644526e-06
-1.890708990916483e-06   -7.109114991797757e-07   3.3839107705308565e-06
-1.890708990916483e-06   -7.109114991797757e-07   3.3839107705308565e-06
-1.890708990916483e-06   -7.109114991797757e-07   3.3839107705308565e-06
-1.890708990916483e-06   -7.109114991797757e-07   3.3839107705308565e-06
-2.343945036110159e-06   -1.7705139983083306e-06   2.167446117744276e-06
-2.343945036110159e-06   -1.7705139983083306e-06   2.167446117744276e-06
-2.343945036110159e-06   -1.7705139983083306e-06   2.167446117744276e-06
-2.343945036110159e-06   -1.7705139983083306e-06   2.167446117744276e-06
-1.4664209820379557e-06   1.3795178635838177e-07   4.775065678664487e-06
-1.4664209820379557e-06   1.3795178635838177e-07   4.775065678664487e-06
-1.4664209820379557e-06   1.3795178635838177e-07   4.775065678664487e-06
-1.4664209820379557e-06   1.3795178635838177e-07   4.775065678664487e-06
-1.277273805016957e-06   -1.9678232482920905e-06   3.6390225907619944e-06
-1.277273805016957e-06   -1.9678232482920905e-06   3.6390225907619944e-06
-1.277273805016957e-06   -1.9678232482920905e-06   3.6390225907619944e-06
-1.277273805016957e-06   -1.9678232482920905e-06   3.6390225907619944e-06
-2.3483602310405793e-06   -2.585032832091378e-07   4.398574655084769e-06
-2.3483602310405793e-06   -2.585032832091378e-07   4.398574655084769e-06
-2.3483602310405793e-06   -2.585032832091378e-07   4.398574655084769e-06
-2.3483602310405793e-06   -2.585032832091378e-07   4.398574655084769e-06
-1.7142633525370882e-06   -9.10482862525561e-07   3.7329342718355656e-06
-1.7142633525370882e-06   -9.10482862525561e-07   3.7329342718355656e-06
-1.7142633525370882e-06   -9.10482862525561e-07   3.7329342718355656e-06
-1.7142633525370882e-06   -9.10482862525561e-07   3.7329342718355656e-06
-2.3483602310405793e-06   -1.9678232482921447e-06   2.613430611712246e-06
-2.3483602310405793e-06   -1.9678232482921447e-06   2.613430611712246e-06
-2.3483602310405793e-06   -1.9678232482921447e-06   2.613430611712246e-06
-2.3483602310405793e-06   -1.9678232482921447e-06   2.613430611712246e-06
-1.2772738050169027e-06   -2.585032832091378e-07   5.424166634134572e-06
-1.2772738050169027e-06   -2.585032832091378e-07   5.424166634134572e-06
-1.2772738050169027e-06   -2.585032832091378e-07   5.424166634134572e-06
-1.2772738050169027e-06   -2.585032832091378e-07   5.424166634134572e-06
-9.871822766363667e-07   -2.226512845451465e-06   3.994712732498782e-06
-9.871822766363667e-07   -2.226512845451465e-06   3.994712732498782e-06
-9.871822766363667e-07   -2.226512845451465e-06   3.994712732498782e-06
-9.871822766363667e-07   -2.226512845451465e-06   3.994712732498782e-06
-2.3848994949926734e-06   -1.0723930322296419e-06   5.631769541826069e-06
-2.3848994949926734e-06   -1.0723930322296419e-06   5.631769541826069e-06
-2.3848994949926734e-06   -1.0723930322296419e-06   5.631769541826069e-06
-2.3848994949926734e-06   -1.0723930322296419e-06   5.631769541826069e-06
-1.5707518114688743e-06   -1.215598063909561e-06   4.360779754961113e-06
-1.5707518114688743e-06   -1.215598063909561e-06   4.360779754961113e-06
-1.5707518114688743e-06   -1.215598063909561e-06   4.360779754961113e-06
-1.5707518114688743e-06   -1.215598063909561e-06   4.360779754961113e-06
-1.8115987884364236e-06   -1.687282793894746e-07   -3.0162806808938913e-06
-1.8115987884364236e-06   -1.687282793894746e-07   -3.0162806808938913e-06
-1.8115987884364236e-06   -1.687282793894746e-07   -3.0162806808938913e-06
-1.8115987884364236e-06   -1.687282793894746e-07   -3.0162806808938913e-06
-3.378311798516646e-07   2.590551197403476e-07   -3.0333129377464046e-07
-3.378311798516646e-07   2.590551197403476e-07   -3.0333129377464046e-07
-3.378311798516646e-07   2.590551197403476e-07   -3.0333129377464046e-07
-3.378311798516646e-07   2.590551197403476e-07   -3.0333129377464046e-07
1.093598566792673e-09   -2.3548110406290635e-07   -2.3658022730283336e-06
1.093598566792673e-09   -2.3548110406290635e-07   -2.3658022730283336e-06
1.093598566792673e-09   -2.3548110406290635e-07   -2.3658022730283336e-06
1.093598566792673e-09   -2.3548110406290635e-07   -2.3658022730283336e-06
-1.4664209820379557e-06   4.480383818462782e-07   -3.3005633023286906e-07
-1.4664209820379557e-06   4.480383818462782e-07   -3.3005633023286906e-07
-1.4664209820379557e-06   4.480383818462782e-07   -3.3005633023286906e-07
-1.4664209820379557e-06   4.480383818462782e-07   -3.3005633023286906e-07
-8.260252979810988e-07   1.1988482329021552e-07   -1.200490335194189e-06
-8.260252979810988e-07   1.1988482329021552e-07   -1.200490335194189e-06
-8.260252979810988e-07   1.1988482329021552e-07   -1.200490335194189e-06
-8.260252979810988e-07   1.1988482329021552e-07   -1.200490335194189e-06
-1.4664209820379557e-06   -2.3548110406296056e-07   -2.775913964574053e-06
-1.4664209820379557e-06   -2.3548110406296056e-07   -2.775913964574053e-06
-1.4664209820379557e-06   -2.3548110406296056e-07   -2.775913964574053e-06
-1.4664209820379557e-06   -2.3548110406296056e-07   -2.775913964574053e-06
1.0935985667384629e-09   4.480383818462782e-07   8.005536131271487e-08
1.0935985667384629e-09   4.480383818462782e-07   8.005536131271487e-08
1.0935985667384629e-09   4.480383818462782e-07   8.005536131271487e-08
1.0935985667384629e-09   4.480383818462782e-07   8.005536131271487e-08
1.7835188124336538e-07   -3.257698190340611e-07   -2.1176222370808103e-06
1.7835188124336538e-07   -3.257698190340611e-07   -2.1176222370808103e-06
1.7835188124336538e-07   -3.257698190340611e-07   -2.1176222370808103e-06
1.7835188124336538e-07   -3.257698190340611e-07   -2.1176222370808103e-06
-1.2772738050169027e-06   3.830801953566077e-07   -1.1688943528143135e-07
-1.2772738050169027e-06   3.830801953566077e-07   -1.1688943528143135e-07
-1.2772738050169027e-06   3.830801953566077e-07   -1.1688943528143135e-07
-1.2772738050169027e-06   3.830801953566077e-07   -1.1688943528143135e-07
-5.757430673782992e-07   7.825241408817457e-08   -1.1032106625843475e-06
-5.757430673782992e-07   7.825241408817457e-08   -1.1032106625843475e-06
-5.757430673782992e-07   7.825241408817457e-08   -1.1032106625843475e-06
-5.757430673782992e-07   7.825241408817457e-08   -1.1032106625843475e-06
-1.2772738050169027e-06   -3.257698190340611e-07   -2.54293224571532e-06
-1.2772738050169027e-06   -3.257698190340611e-07   -2.54293224571532e-06
-1.2772738050169027e-06   -3.257698190340611e-07   -2.54293224571532e-06
-1.2772738050169027e-06   -3.257698190340611e-07   -2.54293224571532e-06
1.7835188124336538e-07   3.830801953566077e-07   3.084205733529157e-07
1.7835188124336538e-07   3.830801953566077e-07   3.084205733529157e-07
1.7835188124336538e-07   3.830801953566077e-07   3.084205733529157e-07
1.7835188124336538e-07   3.830801953566077e-07   3.084205733529157e-07
3.9874455522365994e-07   -4.35595454531079e-07   -1.7528762113567728e-06
3.9874455522365994e-07   -4.35595454531079e-07   -1.7528762113567728e-06
3.9874455522365994e-07   -4.35595454531079e-07   -1.7528762113567728e-06
3.9874455522365994e-07   -4.35595454531079e-07   -1.7528762113567728e-06
-9.871822766363667e-07   3.2747926152788267e-07   9.915701210756658e-08
-9.871822766363667e-07   3.2747926152788267e-07   9.915701210756658e-08
-9.871822766363667e-07   3.2747926152788267e-07   9.915701210756658e-08
-9.871822766363667e-07   3.2747926152788267e-07   9.915701210756658e-08
-3.4928886363133106e-07   2.776472166768156e-08   -7.841699523180451e-07
-3.4928886363133106e-07   2.776472166768156e-08   -7.841699523180451e-07
-3.4928886363133106e-07   2.776472166768156e-08   -7.841699523180451e-07
-3.4928886363133106e-07   2.776472166768156e-08   -7.841699523180451e-07
              </DataArray>   
             <DataArray type="Float64" NumberOfComponents="3" Name="Stress" format="ascii">   
-2.7707180333011108   -0.6926795083252777   -0.6926795083252777
-2.7707180333011108   -0.6926795083252777   -0.6926795083252777
-2.7707180333011108   -0.6926795083252777   -0.6926795083252777
-2.7707180333011108   -0.6926795083252777   -0.6926795083252777
-1.6033294461027086   -0.05092357501139304   -0.03219548894913854
-1.6033294461027086   -0.05092357501139304   -0.03219548894913854
-1.6033294461027086   -0.05092357501139304   -0.03219548894913854
-1.6033294461027086   -0.05092357501139304   -0.03219548894913854
-1.7281064928016159   -0.43202662320040397   -0.43202662320040397
-1.7281064928016159   -0.43202662320040397   -0.43202662320040397
-1.7281064928016159   -0.43202662320040397   -0.43202662320040397
-1.7281064928016159   -0.43202662320040397   -0.43202662320040397
-2.670347053895246   -0.2193925076919082   -0.08393357980763283
-2.670347053895246   -0.2193925076919082   -0.08393357980763283
-2.670347053895246   -0.2193925076919082   -0.08393357980763283
-2.670347053895246   -0.2193925076919082   -0.08393357980763283
-2.0943107847674662   -0.34340881139450086   -0.005789928711711356
-2.0943107847674662   -0.34340881139450086   -0.005789928711711356
-2.0943107847674662   -0.34340881139450086   -0.005789928711711356
-2.0943107847674662   -0.34340881139450086   -0.005789928711711356
-2.8996464848837142   -0.7249116212209286   -0.7249116212209286
-2.8996464848837142   -0.7249116212209286   -0.7249116212209286
-2.8996464848837142   -0.7249116212209286   -0.7249116212209286
-2.8996464848837142   -0.7249116212209286   -0.7249116212209286
-1.5531960837703576   0.019103468371410887   -0.008604669615927873
-1.5531960837703576   0.019103468371410887   -0.008604669615927873
-1.5531960837703576   0.019103468371410887   -0.008604669615927873
-1.5531960837703576   0.019103468371410887   -0.008604669615927873
-1.7329441501829967   -0.4332360375457492   -0.4332360375457492
-1.7329441501829967   -0.4332360375457492   -0.4332360375457492
-1.7329441501829967   -0.4332360375457492   -0.4332360375457492
-1.7329441501829967   -0.4332360375457492   -0.4332360375457492
-2.760051985094149   -0.22148561510780765   -0.1229859635924394
-2.760051985094149   -0.22148561510780765   -0.1229859635924394
-2.760051985094149   -0.22148561510780765   -0.1229859635924394
-2.760051985094149   -0.22148561510780765   -0.1229859635924394
-2.1723852644550012   -0.32331174290136444   -0.11528565047355954
-2.1723852644550012   -0.32331174290136444   -0.11528565047355954
-2.1723852644550012   -0.32331174290136444   -0.11528565047355954
-2.1723852644550012   -0.32331174290136444   -0.11528565047355954
-2.990175188171227   -0.7475437970428067   -0.7475437970428067
-2.990175188171227   -0.7475437970428067   -0.7475437970428067
-2.990175188171227   -0.7475437970428067   -0.7475437970428067
-2.990175188171227   -0.7475437970428067   -0.7475437970428067
-1.54864824442753   0.04699484706764051   0.008012606618182094
-1.54864824442753   0.04699484706764051   0.008012606618182094
-1.54864824442753   0.04699484706764051   0.008012606618182094
-1.54864824442753   0.04699484706764051   0.008012606618182094
-1.731992797299705   -0.4329981993249262   -0.4329981993249262
-1.731992797299705   -0.4329981993249262   -0.4329981993249262
-1.731992797299705   -0.4329981993249262   -0.4329981993249262
-1.731992797299705   -0.4329981993249262   -0.4329981993249262
-2.9203205751295167   -0.19424149197332183   -0.07380572626747928
-2.9203205751295167   -0.19424149197332183   -0.07380572626747928
-2.9203205751295167   -0.19424149197332183   -0.07380572626747928
-2.9203205751295167   -0.19424149197332183   -0.07380572626747928
-2.230299352445505   -0.318269616873052   -0.20834917804489378
-2.230299352445505   -0.318269616873052   -0.20834917804489378
-2.230299352445505   -0.318269616873052   -0.20834917804489378
-2.230299352445505   -0.318269616873052   -0.20834917804489378
-1.7630062592340054   -0.44075156480850136   -0.44075156480850136
-1.7630062592340054   -0.44075156480850136   -0.44075156480850136
-1.7630062592340054   -0.44075156480850136   -0.44075156480850136
-1.7630062592340054   -0.44075156480850136   -0.44075156480850136
-0.7356231568383815   -0.049030408548893824   -0.015926881164488954
-0.7356231568383815   -0.049030408548893824   -0.015926881164488954
-0.7356231568383815   -0.049030408548893824   -0.015926881164488954
-0.7356231568383815   -0.049030408548893824   -0.015926881164488954
-0.7722060516977803   -0.19305151292444508   -0.19305151292444508
-0.7722060516977803   -0.19305151292444508   -0.19305151292444508
-0.7722060516977803   -0.19305151292444508   -0.19305151292444508
-0.7722060516977803   -0.19305151292444508   -0.19305151292444508
-1.605087635161096   -0.1888304553663941   -0.0601285028318157
-1.605087635161096   -0.1888304553663941   -0.0601285028318157
-1.605087635161096   -0.1888304553663941   -0.0601285028318157
-1.605087635161096   -0.1888304553663941   -0.0601285028318157
-1.1838556535957852   -0.2242951941480828   0.009244625765668368
-1.1838556535957852   -0.2242951941480828   0.009244625765668368
-1.1838556535957852   -0.2242951941480828   0.009244625765668368
-1.1838556535957852   -0.2242951941480828   0.009244625765668368
-1.7281064928016143   -0.4320266232004036   -0.4320266232004036
-1.7281064928016143   -0.4320266232004036   -0.4320266232004036
-1.7281064928016143   -0.4320266232004036   -0.4320266232004036
-1.7281064928016143   -0.4320266232004036   -0.4320266232004036
-0.6940050868234691   0.005326762143356083   -0.00042496362069005533
-0.6940050868234691   0.005326762143356083   -0.00042496362069005533
-0.6940050868234691   0.005326762143356083   -0.00042496362069005533
-0.6940050868234691   0.005326762143356083   -0.00042496362069005533
-0.7549391658383005   -0.1887347914595751   -0.1887347914595751
-0.7549391658383005   -0.1887347914595751   -0.1887347914595751
-0.7549391658383005   -0.1887347914595751   -0.1887347914595751
-0.7549391658383005   -0.1887347914595751   -0.1887347914595751
-1.6010162771304528   -0.15403608988879122   -0.0527966199399873
-1.6010162771304528   -0.15403608988879122   -0.0527966199399873
-1.6010162771304528   -0.15403608988879122   -0.0527966199399873
-1.6010162771304528   -0.15403608988879122   -0.0527966199399873
-1.1673404783038648   -0.18882012687834554   -0.06102953270117453
-1.1673404783038648   -0.18882012687834554   -0.06102953270117453
-1.1673404783038648   -0.18882012687834554   -0.06102953270117453
-1.1673404783038648   -0.18882012687834554   -0.06102953270117453
-1.7329441501829967   -0.4332360375457492   -0.4332360375457492
-1.7329441501829967   -0.4332360375457492   -0.4332360375457492
-1.7329441501829967   -0.4332360375457492   -0.4332360375457492
-1.7329441501829967   -0.4332360375457492   -0.4332360375457492
-0.6664198662546291   0.04705658272851106   0.018070332270700512
-0.6664198662546291   0.04705658272851106   0.018070332270700512
-0.6664198662546291   0.04705658272851106   0.018070332270700512
-0.6664198662546291   0.04705658272851106   0.018070332270700512
-0.7392103818596105   -0.18480259546490263   -0.18480259546490263
-0.7392103818596105   -0.18480259546490263   -0.18480259546490263
-0.7392103818596105   -0.18480259546490263   -0.18480259546490263
-0.7392103818596105   -0.18480259546490263   -0.18480259546490263
-1.5892170061243085   -0.11884777303182412   -0.03326966974106654
-1.5892170061243085   -0.11884777303182412   -0.03326966974106654
-1.5892170061243085   -0.11884777303182412   -0.03326966974106654
-1.5892170061243085   -0.11884777303182412   -0.03326966974106654
-1.1730797551679153   -0.16708523650118917   -0.13596584224252165
-1.1730797551679153   -0.16708523650118917   -0.13596584224252165
-1.1730797551679153   -0.16708523650118917   -0.13596584224252165
-1.1730797551679153   -0.16708523650118917   -0.13596584224252165
-0.8029241098841181   -0.20073102747102953   -0.20073102747102953
-0.8029241098841181   -0.20073102747102953   -0.20073102747102953
-0.8029241098841181   -0.20073102747102953   -0.20073102747102953
-0.8029241098841181   -0.20073102747102953   -0.20073102747102953
0.09512366265950285   0.006195888313845193   0.0007812848397715198
0.09512366265950285   0.006195888313845193   0.0007812848397715198
0.09512366265950285   0.006195888313845193   0.0007812848397715198
0.09512366265950285   0.006195888313845193   0.0007812848397715198
0.12376640717349302   0.030941601793373255   0.030941601793373255
0.12376640717349302   0.030941601793373255   0.030941601793373255
0.12376640717349302   0.030941601793373255   0.030941601793373255
0.12376640717349302   0.030941601793373255   0.030941601793373255
-0.7259352305410995   -0.12547142155852736   -0.029277498506958877
-0.7259352305410995   -0.12547142155852736   -0.029277498506958877
-0.7259352305410995   -0.12547142155852736   -0.029277498506958877
-0.7259352305410995   -0.12547142155852736   -0.029277498506958877
-0.3108462631512531   -0.07885147962006717   0.05272499496270436
-0.3108462631512531   -0.07885147962006717   0.05272499496270436
-0.3108462631512531   -0.07885147962006717   0.05272499496270436
-0.3108462631512531   -0.07885147962006717   0.05272499496270436
-0.7722060516977818   -0.19305151292444545   -0.19305151292444545
-0.7722060516977818   -0.19305151292444545   -0.19305151292444545
-0.7722060516977818   -0.19305151292444545   -0.19305151292444545
-0.7722060516977818   -0.19305151292444545   -0.19305151292444545
0.1259784104619303   0.0544628752910473   0.01848034473788458
0.1259784104619303   0.0544628752910473   0.01848034473788458
0.1259784104619303   0.0544628752910473   0.01848034473788458
0.1259784104619303   0.0544628752910473   0.01848034473788458
0.1392596041152489   0.034814901028812226   0.034814901028812226
0.1392596041152489   0.034814901028812226   0.034814901028812226
0.1392596041152489   0.034814901028812226   0.034814901028812226
0.1392596041152489   0.034814901028812226   0.034814901028812226
-0.7002635060553241   -0.08445773675711837   -0.019633547247155936
-0.7002635060553241   -0.08445773675711837   -0.019633547247155936
-0.7002635060553241   -0.08445773675711837   -0.019633547247155936
-0.7002635060553241   -0.08445773675711837   -0.019633547247155936
-0.29817683559338054   -0.04873164595138377   -0.018023024954823143
-0.29817683559338054   -0.04873164595138377   -0.018023024954823143
-0.29817683559338054   -0.04873164595138377   -0.018023024954823143
-0.29817683559338054   -0.04873164595138377   -0.018023024954823143
-0.7549391658383017   -0.18873479145957542   -0.18873479145957542
-0.7549391658383017   -0.18873479145957542   -0.18873479145957542
-0.7549391658383017   -0.18873479145957542   -0.18873479145957542
-0.7549391658383017   -0.18873479145957542   -0.18873479145957542
0.1507633125828365   0.09592000441588132   0.03122833997967996
0.1507633125828365   0.09592000441588132   0.03122833997967996
0.1507633125828365   0.09592000441588132   0.03122833997967996
0.1507633125828365   0.09592000441588132   0.03122833997967996
0.1600938545022808   0.0400234636255702   0.0400234636255702
0.1600938545022808   0.0400234636255702   0.0400234636255702
0.1600938545022808   0.0400234636255702   0.0400234636255702
0.1600938545022808   0.0400234636255702   0.0400234636255702
-0.6723253455994732   -0.035548274570959576   0.0003682649418375594
-0.6723253455994732   -0.035548274570959576   0.0003682649418375594
-0.6723253455994732   -0.035548274570959576   0.0003682649418375594
-0.6723253455994732   -0.035548274570959576   0.0003682649418375594
-0.2892472756721862   -0.01969510975573438   -0.08813931809915258
-0.2892472756721862   -0.01969510975573438   -0.08813931809915258
-0.2892472756721862   -0.01969510975573438   -0.08813931809915258
-0.2892472756721862   -0.01969510975573438   -0.08813931809915258
0.10414247558753296   0.02603561889688324   0.02603561889688324
0.10414247558753296   0.02603561889688324   0.02603561889688324
0.10414247558753296   0.02603561889688324   0.02603561889688324
0.10414247558753296   0.02603561889688324   0.02603561889688324
1.0045345593353485   0.09217227077529759   0.030990167049090328
1.0045345593353485   0.09217227077529759   0.030990167049090328
1.0045345593353485   0.09217227077529759   0.030990167049090328
1.0045345593353485   0.09217227077529759   0.030990167049090328
1.0907445828711695   0.27268614571779237   0.27268614571779237
1.0907445828711695   0.27268614571779237   0.27268614571779237
1.0907445828711695   0.27268614571779237   0.27268614571779237
1.0907445828711695   0.27268614571779237   0.27268614571779237
0.09428931184951655   -0.07073125837345173   -0.014771014659685125
0.09428931184951655   -0.07073125837345173   -0.014771014659685125
0.09428931184951655   -0.07073125837345173   -0.014771014659685125
0.09428931184951655   -0.07073125837345173   -0.014771014659685125
0.5727706404780162   0.07131121497678464   0.10404610588121582
0.5727706404780162   0.07131121497678464   0.10404610588121582
0.5727706404780162   0.07131121497678464   0.10404610588121582
0.5727706404780162   0.07131121497678464   0.10404610588121582
0.12376640717349348   0.03094160179337337   0.03094160179337337
0.12376640717349348   0.03094160179337337   0.03094160179337337
0.12376640717349348   0.03094160179337337   0.03094160179337337
0.12376640717349348   0.03094160179337337   0.03094160179337337
1.016482197854936   0.12622799585871186   0.04783237049571348
1.016482197854936   0.12622799585871186   0.04783237049571348
1.016482197854936   0.12622799585871186   0.04783237049571348
1.016482197854936   0.12622799585871186   0.04783237049571348
1.0860976160226707   0.2715244040056677   0.2715244040056677
1.0860976160226707   0.2715244040056677   0.2715244040056677
1.0860976160226707   0.2715244040056677   0.2715244040056677
1.0860976160226707   0.2715244040056677   0.2715244040056677
0.11923118574138186   -0.03062551212273119   0.00011322231101919614
0.11923118574138186   -0.03062551212273119   0.00011322231101919614
0.11923118574138186   -0.03062551212273119   0.00011322231101919614
0.11923118574138186   -0.03062551212273119   0.00011322231101919614
0.5685686172953893   0.09359924790191855   0.027049786383658
0.5685686172953893   0.09359924790191855   0.027049786383658
0.5685686172953893   0.09359924790191855   0.027049786383658
0.5685686172953893   0.09359924790191855   0.027049786383658
0.13925960411524918   0.034814901028812295   0.034814901028812295
0.13925960411524918   0.034814901028812295   0.034814901028812295
0.13925960411524918   0.034814901028812295   0.034814901028812295
0.13925960411524918   0.034814901028812295   0.034814901028812295
1.0217144487189624   0.1617292419242845   0.059403729568517194
1.0217144487189624   0.1617292419242845   0.059403729568517194
1.0217144487189624   0.1617292419242845   0.059403729568517194
1.0217144487189624   0.1617292419242845   0.059403729568517194
1.107155632661779   0.27678890816544477   0.27678890816544477
1.107155632661779   0.27678890816544477   0.27678890816544477
1.107155632661779   0.27678890816544477   0.27678890816544477
1.107155632661779   0.27678890816544477   0.27678890816544477
0.1519231948562272   0.022431094558074613   0.01676253446279676
0.1519231948562272   0.022431094558074613   0.01676253446279676
0.1519231948562272   0.022431094558074613   0.01676253446279676
0.1519231948562272   0.022431094558074613   0.01676253446279676
0.5774148438508656   0.12698275205446286   -0.04434281554844871
0.5774148438508656   0.12698275205446286   -0.04434281554844871
0.5774148438508656   0.12698275205446286   -0.04434281554844871
0.5774148438508656   0.12698275205446286   -0.04434281554844871
1.0887800797449716   0.2721950199362429   0.2721950199362429
1.0887800797449716   0.2721950199362429   0.2721950199362429
1.0887800797449716   0.2721950199362429   0.2721950199362429
1.0887800797449716   0.2721950199362429   0.2721950199362429
2.2586561778481635   0.1721767071673645   0.05908253941639724
2.2586561778481635   0.1721767071673645   0.05908253941639724
2.2586561778481635   0.1721767071673645   0.05908253941639724
2.2586561778481635   0.1721767071673645   0.05908253941639724
2.3087088670107216   0.5771772167526804   0.5771772167526804
2.3087088670107216   0.5771772167526804   0.5771772167526804
2.3087088670107216   0.5771772167526804   0.5771772167526804
2.3087088670107216   0.5771772167526804   0.5771772167526804
0.969564568155675   -0.05507458066664593   -0.00545320147523326
0.969564568155675   -0.05507458066664593   -0.00545320147523326
0.969564568155675   -0.05507458066664593   -0.00545320147523326
0.969564568155675   -0.05507458066664593   -0.00545320147523326
1.610835009564852   0.22799813449343867   0.18182678313051162
1.610835009564852   0.22799813449343867   0.18182678313051162
1.610835009564852   0.22799813449343867   0.18182678313051162
1.610835009564852   0.22799813449343867   0.18182678313051162
1.0907445828711686   0.27268614571779215   0.27268614571779215
1.0907445828711686   0.27268614571779215   0.27268614571779215
1.0907445828711686   0.27268614571779215   0.27268614571779215
1.0907445828711686   0.27268614571779215   0.27268614571779215
2.13952338865736   0.2014110267303735   0.1070160150081807
2.13952338865736   0.2014110267303735   0.1070160150081807
2.13952338865736   0.2014110267303735   0.1070160150081807
2.13952338865736   0.2014110267303735   0.1070160150081807
2.2397711446228943   0.5599427861557236   0.5599427861557236
2.2397711446228943   0.5599427861557236   0.5599427861557236
2.2397711446228943   0.5599427861557236   0.5599427861557236
2.2397711446228943   0.5599427861557236   0.5599427861557236
0.9729790654412729   -0.030358408114070583   0.00781446321842455
0.9729790654412729   -0.030358408114070583   0.00781446321842455
0.9729790654412729   -0.030358408114070583   0.00781446321842455
0.9729790654412729   -0.030358408114070583   0.00781446321842455
1.5630869717802263   0.2345889649272968   0.08718550711219453
1.5630869717802263   0.2345889649272968   0.08718550711219453
1.5630869717802263   0.2345889649272968   0.08718550711219453
1.5630869717802263   0.2345889649272968   0.08718550711219453
1.0860976160226707   0.2715244040056677   0.2715244040056677
1.0860976160226707   0.2715244040056677   0.2715244040056677
1.0860976160226707   0.2715244040056677   0.2715244040056677
1.0860976160226707   0.2715244040056677   0.2715244040056677
2.07067359939528   0.2020809793897701   0.0723168667836212
2.07067359939528   0.2020809793897701   0.0723168667836212
2.07067359939528   0.2020809793897701   0.0723168667836212
2.07067359939528   0.2020809793897701   0.0723168667836212
2.13712511892118   0.534281279730295   0.534281279730295
2.13712511892118   0.534281279730295   0.534281279730295
2.13712511892118   0.534281279730295   0.534281279730295
2.13712511892118   0.534281279730295   0.534281279730295
1.0090101710638935   0.0319445689073561   0.030905939434117707
1.0090101710638935   0.0319445689073561   0.030905939434117707
1.0090101710638935   0.0319445689073561   0.030905939434117707
1.0090101710638935   0.0319445689073561   0.030905939434117707
1.4967459080474685   0.2543675629972449   -0.022889176383553533
1.4967459080474685   0.2543675629972449   -0.022889176383553533
1.4967459080474685   0.2543675629972449   -0.022889176383553533
1.4967459080474685   0.2543675629972449   -0.022889176383553533
-2.1896344843984195   -0.15679999766113042   0.024727436097887412
-2.1896344843984195   -0.15679999766113042   0.024727436097887412
-2.1896344843984195   -0.15679999766113042   0.024727436097887412
-2.1896344843984195   -0.15679999766113042   0.024727436097887412
-1.393812083445149   -0.03222800954465596   -0.009041222810229121
-1.393812083445149   -0.03222800954465596   -0.009041222810229121
-1.393812083445149   -0.03222800954465596   -0.009041222810229121
-1.393812083445149   -0.03222800954465596   -0.009041222810229121
-1.4031971031148895   0.056695143078989665   0.02935472326650196
-1.4031971031148895   0.056695143078989665   0.02935472326650196
-1.4031971031148895   0.056695143078989665   0.02935472326650196
-1.4031971031148895   0.056695143078989665   0.02935472326650196
-2.2222051481226055   -0.1516224307733487   -0.026347796092373033
-2.2222051481226055   -0.1516224307733487   -0.026347796092373033
-2.2222051481226055   -0.1516224307733487   -0.026347796092373033
-2.2222051481226055   -0.1516224307733487   -0.026347796092373033
-1.731301104243869   -0.05914848459735059   -0.006902905981312879
-1.731301104243869   -0.05914848459735059   -0.006902905981312879
-1.731301104243869   -0.05914848459735059   -0.006902905981312879
-1.731301104243869   -0.05914848459735059   -0.006902905981312879
-2.206016454305896   -0.10762085280745584   0.010594095025280748
-2.206016454305896   -0.10762085280745584   0.010594095025280748
-2.206016454305896   -0.10762085280745584   0.010594095025280748
-2.206016454305896   -0.10762085280745584   0.010594095025280748
-1.421713761305306   0.010365600739394007   -0.016899025345958885
-1.421713761305306   0.010365600739394007   -0.016899025345958885
-1.421713761305306   0.010365600739394007   -0.016899025345958885
-1.421713761305306   0.010365600739394007   -0.016899025345958885
-1.4048454129676393   0.08083525646880078   0.03341182216409283
-1.4048454129676393   0.08083525646880078   0.03341182216409283
-1.4048454129676393   0.08083525646880078   0.03341182216409283
-1.4048454129676393   0.08083525646880078   0.03341182216409283
-2.2356419674955896   -0.13354382307114165   -0.03477946790524333
-2.2356419674955896   -0.13354382307114165   -0.03477946790524333
-2.2356419674955896   -0.13354382307114165   -0.03477946790524333
-2.2356419674955896   -0.13354382307114165   -0.03477946790524333
-1.7798891538702377   -0.03958719930915795   -0.01689859472161137
-1.7798891538702377   -0.03958719930915795   -0.01689859472161137
-1.7798891538702377   -0.03958719930915795   -0.01689859472161137
-1.7798891538702377   -0.03958719930915795   -0.01689859472161137
-2.1954668265051778   -0.06455075656366152   0.09710317053931972
-2.1954668265051778   -0.06455075656366152   0.09710317053931972
-2.1954668265051778   -0.06455075656366152   0.09710317053931972
-2.1954668265051778   -0.06455075656366152   0.09710317053931972
-1.4282936875175147   0.028569056401855322   -0.03156335051832593
-1.4282936875175147   0.028569056401855322   -0.03156335051832593
-1.4282936875175147   0.028569056401855322   -0.03156335051832593
-1.4282936875175147   0.028569056401855322   -0.03156335051832593
-1.3792648731097596   0.14086339164350692   0.06066298979690926
-1.3792648731097596   0.14086339164350692   0.06066298979690926
-1.3792648731097596   0.14086339164350692   0.06066298979690926
-1.3792648731097596   0.14086339164350692   0.06066298979690926
-2.173806111669064   -0.10773205773242016   -0.05687869077264057
-2.173806111669064   -0.10773205773242016   -0.05687869077264057
-2.173806111669064   -0.10773205773242016   -0.05687869077264057
-2.173806111669064   -0.10773205773242016   -0.05687869077264057
-1.711781956973404   0.015988348716895348   0.037946313855931224
-1.711781956973404   0.015988348716895348   0.037946313855931224
-1.711781956973404   0.015988348716895348   0.037946313855931224
-1.711781956973404   0.015988348716895348   0.037946313855931224
-1.428416175992035   -0.18938464597049182   -0.024905049118823408
-1.428416175992035   -0.18938464597049182   -0.024905049118823408
-1.428416175992035   -0.18938464597049182   -0.024905049118823408
-1.428416175992035   -0.18938464597049182   -0.024905049118823408
-0.6581565202033298   -0.014678024824296303   0.006974552449923455
-0.6581565202033298   -0.014678024824296303   0.006974552449923455
-0.6581565202033298   -0.014678024824296303   0.006974552449923455
-0.6581565202033298   -0.014678024824296303   0.006974552449923455
-0.6677625327457729   0.012656802870620931   0.009982685937936109
-0.6677625327457729   0.012656802870620931   0.009982685937936109
-0.6677625327457729   0.012656802870620931   0.009982685937936109
-0.6677625327457729   0.012656802870620931   0.009982685937936109
-1.4567109444492725   -0.1386199560202501   -0.04289938430617263
-1.4567109444492725   -0.1386199560202501   -0.04289938430617263
-1.4567109444492725   -0.1386199560202501   -0.04289938430617263
-1.4567109444492725   -0.1386199560202501   -0.04289938430617263
-1.0527358637160689   -0.08549741462193877   -0.02415139170063782
-1.0527358637160689   -0.08549741462193877   -0.02415139170063782
-1.0527358637160689   -0.08549741462193877   -0.02415139170063782
-1.0527358637160689   -0.08549741462193877   -0.02415139170063782
-1.4553337999555274   -0.15148392610871514   -0.023149691748987955
-1.4553337999555274   -0.15148392610871514   -0.023149691748987955
-1.4553337999555274   -0.15148392610871514   -0.023149691748987955
-1.4553337999555274   -0.15148392610871514   -0.023149691748987955
-0.6665442584681979   0.02811619173040382   0.0006146684660222057
-0.6665442584681979   0.02811619173040382   0.0006146684660222057
-0.6665442584681979   0.02811619173040382   0.0006146684660222057
-0.6665442584681979   0.02811619173040382   0.0006146684660222057
-0.6652270673000497   0.046389722537866045   0.013543232362896007
-0.6652270673000497   0.046389722537866045   0.013543232362896007
-0.6652270673000497   0.046389722537866045   0.013543232362896007
-0.6652270673000497   0.046389722537866045   0.013543232362896007
-1.4572890973583679   -0.10157010884691496   -0.046401234473833874
-1.4572890973583679   -0.10157010884691496   -0.046401234473833874
-1.4572890973583679   -0.10157010884691496   -0.046401234473833874
-1.4572890973583679   -0.10157010884691496   -0.046401234473833874
-1.0506751735566688   -0.04757603038233638   -0.011483223032465822
-1.0506751735566688   -0.04757603038233638   -0.011483223032465822
-1.0506751735566688   -0.04757603038233638   -0.011483223032465822
-1.0506751735566688   -0.04757603038233638   -0.011483223032465822
-1.4515859831003932   -0.11456821791746459   -0.004887554113411741
-1.4515859831003932   -0.11456821791746459   -0.004887554113411741
-1.4515859831003932   -0.11456821791746459   -0.004887554113411741
-1.4515859831003932   -0.11456821791746459   -0.004887554113411741
-0.6661105043499091   0.06420750881653164   -0.008691739165059512
-0.6661105043499091   0.06420750881653164   -0.008691739165059512
-0.6661105043499091   0.06420750881653164   -0.008691739165059512
-0.6661105043499091   0.06420750881653164   -0.008691739165059512
-0.6540683516715459   0.08027266201590073   0.027183851044795093
-0.6540683516715459   0.08027266201590073   0.027183851044795093
-0.6540683516715459   0.08027266201590073   0.027183851044795093
-0.6540683516715459   0.08027266201590073   0.027183851044795093
-1.4416630750783885   -0.05876132424320789   -0.05170330415951291
-1.4416630750783885   -0.05876132424320789   -0.05170330415951291
-1.4416630750783885   -0.05876132424320789   -0.05170330415951291
-1.4416630750783885   -0.05876132424320789   -0.05170330415951291
-1.0462651587517973   -0.011690176048716867   0.0052513697698425565
-1.0462651587517973   -0.011690176048716867   0.0052513697698425565
-1.0462651587517973   -0.011690176048716867   0.0052513697698425565
-1.0462651587517973   -0.011690176048716867   0.0052513697698425565
-0.6940123811630168   -0.15765344404431267   -0.029329333128499974
-0.6940123811630168   -0.15765344404431267   -0.029329333128499974
-0.6940123811630168   -0.15765344404431267   -0.029329333128499974
-0.6940123811630168   -0.15765344404431267   -0.029329333128499974
0.07180037916948429   0.01631947753929738   0.027036279632432755
0.07180037916948429   0.01631947753929738   0.027036279632432755
0.07180037916948429   0.01631947753929738   0.027036279632432755
0.07180037916948429   0.01631947753929738   0.027036279632432755
0.06854672853397692   0.039714389612770004   0.0021695982744514876
0.06854672853397692   0.039714389612770004   0.0021695982744514876
0.06854672853397692   0.039714389612770004   0.0021695982744514876
0.06854672853397692   0.039714389612770004   0.0021695982744514876
-0.6969224355896733   -0.10443083312372069   -0.018729192287230467
-0.6969224355896733   -0.10443083312372069   -0.018729192287230467
-0.6969224355896733   -0.10443083312372069   -0.018729192287230467
-0.6969224355896733   -0.10443083312372069   -0.018729192287230467
-0.31567098684165423   -0.05228184853242854   -0.00999656389519303
-0.31567098684165423   -0.05228184853242854   -0.00999656389519303
-0.31567098684165423   -0.05228184853242854   -0.00999656389519303
-0.31567098684165423   -0.05228184853242854   -0.00999656389519303
-0.7017444156843098   -0.12019312005217031   -0.027076805831963452
-0.7017444156843098   -0.12019312005217031   -0.027076805831963452
-0.7017444156843098   -0.12019312005217031   -0.027076805831963452
-0.7017444156843098   -0.12019312005217031   -0.027076805831963452
0.07604550703365046   0.05815347494625659   0.021224405439332177
0.07604550703365046   0.05815347494625659   0.021224405439332177
0.07604550703365046   0.05815347494625659   0.021224405439332177
0.07604550703365046   0.05815347494625659   0.021224405439332177
0.07402215546594619   0.07683896742985677   0.01256431216644946
0.07402215546594619   0.07683896742985677   0.01256431216644946
0.07402215546594619   0.07683896742985677   0.01256431216644946
0.07402215546594619   0.07683896742985677   0.01256431216644946
-0.6946314517092416   -0.06371913218077963   -0.023369834964422853
-0.6946314517092416   -0.06371913218077963   -0.023369834964422853
-0.6946314517092416   -0.06371913218077963   -0.023369834964422853
-0.6946314517092416   -0.06371913218077963   -0.023369834964422853
-0.3106974410152412   -0.012830691429144545   0.0037066138198130205
-0.3106974410152412   -0.012830691429144545   0.0037066138198130205
-0.3106974410152412   -0.012830691429144545   0.0037066138198130205
-0.3106974410152412   -0.012830691429144545   0.0037066138198130205
-0.6964972139559731   -0.08255110380299083   -0.013866674575869209
-0.6964972139559731   -0.08255110380299083   -0.013866674575869209
-0.6964972139559731   -0.08255110380299083   -0.013866674575869209
-0.6964972139559731   -0.08255110380299083   -0.013866674575869209
0.07876852389645343   0.0985515452358437   0.014583576512998742
0.07876852389645343   0.0985515452358437   0.014583576512998742
0.07876852389645343   0.0985515452358437   0.014583576512998742
0.07876852389645343   0.0985515452358437   0.014583576512998742
0.07578531015068787   0.11813536595074997   0.020675811800224153
0.07578531015068787   0.11813536595074997   0.020675811800224153
0.07578531015068787   0.11813536595074997   0.020675811800224153
0.07578531015068787   0.11813536595074997   0.020675811800224153
-0.6854894515345443   -0.020199963240838368   -0.029449023013460543
-0.6854894515345443   -0.020199963240838368   -0.029449023013460543
-0.6854894515345443   -0.020199963240838368   -0.029449023013460543
-0.6854894515345443   -0.020199963240838368   -0.029449023013460543
-0.3028709643559887   0.02842599952689134   0.018708338473667097
-0.3028709643559887   0.02842599952689134   0.018708338473667097
-0.3028709643559887   0.02842599952689134   0.018708338473667097
-0.3028709643559887   0.02842599952689134   0.018708338473667097
0.032806003078906916   -0.11557891545170013   -0.03603720782945654
0.032806003078906916   -0.11557891545170013   -0.03603720782945654
0.032806003078906916   -0.11557891545170013   -0.03603720782945654
0.032806003078906916   -0.11557891545170013   -0.03603720782945654
0.8261629736800554   0.056998218807067916   0.049632180099318995
0.8261629736800554   0.056998218807067916   0.049632180099318995
0.8261629736800554   0.056998218807067916   0.049632180099318995
0.8261629736800554   0.056998218807067916   0.049632180099318995
0.8252111858510747   0.07681825728982507   -0.007945310344859152
0.8252111858510747   0.07681825728982507   -0.007945310344859152
0.8252111858510747   0.07681825728982507   -0.007945310344859152
0.8252111858510747   0.07681825728982507   -0.007945310344859152
0.04728639411208867   -0.06940605944609558   0.004988375223875425
0.04728639411208867   -0.06940605944609558   0.004988375223875425
0.04728639411208867   -0.06940605944609558   0.004988375223875425
0.04728639411208867   -0.06940605944609558   0.004988375223875425
0.42752991293096415   -0.009922575901714404   0.0008912940979515366
0.42752991293096415   -0.009922575901714404   0.0008912940979515366
0.42752991293096415   -0.009922575901714404   0.0008912940979515366
0.42752991293096415   -0.009922575901714404   0.0008912940979515366
0.037899137111667085   -0.0844382368616251   -0.026915732362702543
0.037899137111667085   -0.0844382368616251   -0.026915732362702543
0.037899137111667085   -0.0844382368616251   -0.026915732362702543
0.037899137111667085   -0.0844382368616251   -0.026915732362702543
0.8394120333003326   0.09666402515419112   0.043213159037064935
0.8394120333003326   0.09666402515419112   0.043213159037064935
0.8394120333003326   0.09666402515419112   0.043213159037064935
0.8394120333003326   0.09666402515419112   0.043213159037064935
0.8318077352789879   0.11353909279619002   0.008359697368019281
0.8318077352789879   0.11353909279619002   0.008359697368019281
0.8318077352789879   0.11353909279619002   0.008359697368019281
0.8318077352789879   0.11353909279619002   0.008359697368019281
0.049056432997521195   -0.03301769032389514   -0.0024076424219236408
0.049056432997521195   -0.03301769032389514   -0.0024076424219236408
0.049056432997521195   -0.03301769032389514   -0.0024076424219236408
0.049056432997521195   -0.03301769032389514   -0.0024076424219236408
0.43331764410836465   0.025175833534598846   0.017732985028599962
0.43331764410836465   0.025175833534598846   0.017732985028599962
0.43331764410836465   0.025175833534598846   0.017732985028599962
0.43331764410836465   0.025175833534598846   0.017732985028599962
0.04221202250929583   -0.049984555223951135   -0.01966282996299448
0.04221202250929583   -0.049984555223951135   -0.01966282996299448
0.04221202250929583   -0.049984555223951135   -0.01966282996299448
0.04221202250929583   -0.049984555223951135   -0.01966282996299448
0.8421358971522561   0.13398970908129026   0.039549890449260716
0.8421358971522561   0.13398970908129026   0.039549890449260716
0.8421358971522561   0.13398970908129026   0.039549890449260716
0.8421358971522561   0.13398970908129026   0.039549890449260716
0.8185206417454507   0.15591864687619905   0.017602849164197354
0.8185206417454507   0.15591864687619905   0.017602849164197354
0.8185206417454507   0.15591864687619905   0.017602849164197354
0.8185206417454507   0.15591864687619905   0.017602849164197354
0.04868343135364407   0.012037945673739182   -0.008736161907984034
0.04868343135364407   0.012037945673739182   -0.008736161907984034
0.04868343135364407   0.012037945673739182   -0.008736161907984034
0.04868343135364407   0.012037945673739182   -0.008736161907984034
0.43980470716298   0.0652995609265891   0.033325895610997955
0.43980470716298   0.0652995609265891   0.033325895610997955
0.43980470716298   0.0652995609265891   0.033325895610997955
0.43980470716298   0.0652995609265891   0.033325895610997955
0.7610070389823684   -0.15249956950456905   -0.06664970507747903
0.7610070389823684   -0.15249956950456905   -0.06664970507747903
0.7610070389823684   -0.15249956950456905   -0.06664970507747903
0.7610070389823684   -0.15249956950456905   -0.06664970507747903
1.5672298424225006   0.10352104373018127   0.048392675195561896
1.5672298424225006   0.10352104373018127   0.048392675195561896
1.5672298424225006   0.10352104373018127   0.048392675195561896
1.5672298424225006   0.10352104373018127   0.048392675195561896
1.5850431016311866   0.04905904465771693   -0.10026360832892839
1.5850431016311866   0.04905904465771693   -0.10026360832892839
1.5850431016311866   0.04905904465771693   -0.10026360832892839
1.5850431016311866   0.04905904465771693   -0.10026360832892839
0.8109831903267039   -0.031219675286774315   0.028952644609880257
0.8109831903267039   -0.031219675286774315   0.028952644609880257
0.8109831903267039   -0.031219675286774315   0.028952644609880257
0.8109831903267039   -0.031219675286774315   0.028952644609880257
1.122340306636116   -0.019652314465247803   -0.028112420426333634
1.122340306636116   -0.019652314465247803   -0.028112420426333634
1.122340306636116   -0.019652314465247803   -0.028112420426333634
1.122340306636116   -0.019652314465247803   -0.028112420426333634
0.7825388509996036   -0.1002390243877419   -0.04424970292464356
0.7825388509996036   -0.1002390243877419   -0.04424970292464356
0.7825388509996036   -0.1002390243877419   -0.04424970292464356
0.7825388509996036   -0.1002390243877419   -0.04424970292464356
1.6278894343519246   0.13248038715232752   0.03054671278016885
1.6278894343519246   0.13248038715232752   0.03054671278016885
1.6278894343519246   0.13248038715232752   0.03054671278016885
1.6278894343519246   0.13248038715232752   0.03054671278016885
1.602619797301789   0.08945569155473507   -0.022755770298061306
1.602619797301789   0.08945569155473507   -0.022755770298061306
1.602619797301789   0.08945569155473507   -0.022755770298061306
1.602619797301789   0.08945569155473507   -0.022755770298061306
0.8078029562812202   -0.013069702855860475   0.014944598031231743
0.8078029562812202   -0.013069702855860475   0.014944598031231743
0.8078029562812202   -0.013069702855860475   0.014944598031231743
0.8078029562812202   -0.013069702855860475   0.014944598031231743
1.1812134460200667   0.02951178985868689   0.019418616423801632
1.1812134460200667   0.02951178985868689   0.019418616423801632
1.1812134460200667   0.02951178985868689   0.019418616423801632
1.1812134460200667   0.02951178985868689   0.019418616423801632
0.7849749407162323   -0.07664596852722988   -0.03561921412233135
0.7849749407162323   -0.07664596852722988   -0.03561921412233135
0.7849749407162323   -0.07664596852722988   -0.03561921412233135
0.7849749407162323   -0.07664596852722988   -0.03561921412233135
1.6235466167687969   0.15113076112812962   0.020203257463597912
1.6235466167687969   0.15113076112812962   0.020203257463597912
1.6235466167687969   0.15113076112812962   0.020203257463597912
1.6235466167687969   0.15113076112812962   0.020203257463597912
1.6000694208650703   0.13701166460488842   -0.034817831879397465
1.6000694208650703   0.13701166460488842   -0.034817831879397465
1.6000694208650703   0.13701166460488842   -0.034817831879397465
1.6000694208650703   0.13701166460488842   -0.034817831879397465
0.791229200294648   0.02874473293742124   0.008319555848965293
0.791229200294648   0.02874473293742124   0.008319555848965293
0.791229200294648   0.02874473293742124   0.008319555848965293
0.791229200294648   0.02874473293742124   0.008319555848965293
1.1511001464905453   0.051764002695395134   0.014424246108882155
1.1511001464905453   0.051764002695395134   0.014424246108882155
1.1511001464905453   0.051764002695395134   0.014424246108882155
1.1511001464905453   0.051764002695395134   0.014424246108882155
-1.7207823773661486   -0.07808497387926279   0.08864424943773624
-1.7207823773661486   -0.07808497387926279   0.08864424943773624
-1.7207823773661486   -0.07808497387926279   0.08864424943773624
-1.7207823773661486   -0.07808497387926279   0.08864424943773624
-1.1428936834282337   -0.043459876978837166   -0.023065522403745126
-1.1428936834282337   -0.043459876978837166   -0.023065522403745126
-1.1428936834282337   -0.043459876978837166   -0.023065522403745126
-1.1428936834282337   -0.043459876978837166   -0.023065522403745126
-1.101648009849973   0.09263124464916647   0.07436344274757056
-1.101648009849973   0.09263124464916647   0.07436344274757056
-1.101648009849973   0.09263124464916647   0.07436344274757056
-1.101648009849973   0.09263124464916647   0.07436344274757056
-1.7286942041371531   -0.12343059653762795   -0.036138090836120185
-1.7286942041371531   -0.12343059653762795   -0.036138090836120185
-1.7286942041371531   -0.12343059653762795   -0.036138090836120185
-1.7286942041371531   -0.12343059653762795   -0.036138090836120185
-1.3657091861395738   -0.02111582507275417   -0.0025463747756157007
-1.3657091861395738   -0.02111582507275417   -0.0025463747756157007
-1.3657091861395738   -0.02111582507275417   -0.0025463747756157007
-1.3657091861395738   -0.02111582507275417   -0.0025463747756157007
-1.6805488939921847   -0.01815837338214253   0.09931623673323714
-1.6805488939921847   -0.01815837338214253   0.09931623673323714
-1.6805488939921847   -0.01815837338214253   0.09931623673323714
-1.6805488939921847   -0.01815837338214253   0.09931623673323714
-1.1422110329310466   -0.005058691442423997   -0.030761736566206982
-1.1422110329310466   -0.005058691442423997   -0.030761736566206982
-1.1422110329310466   -0.005058691442423997   -0.030761736566206982
-1.1422110329310466   -0.005058691442423997   -0.030761736566206982
-1.0971296101577748   0.11489945721312715   0.06892457617829317
-1.0971296101577748   0.11489945721312715   0.06892457617829317
-1.0971296101577748   0.11489945721312715   0.06892457617829317
-1.0971296101577748   0.11489945721312715   0.06892457617829317
-1.7018716377316945   -0.10324260764698265   -0.049474744117916414
-1.7018716377316945   -0.10324260764698265   -0.049474744117916414
-1.7018716377316945   -0.10324260764698265   -0.049474744117916414
-1.7018716377316945   -0.10324260764698265   -0.049474744117916414
-1.3685757104443748   0.005046721284131181   0.015760946349811455
-1.3685757104443748   0.005046721284131181   0.015760946349811455
-1.3685757104443748   0.005046721284131181   0.015760946349811455
-1.3685757104443748   0.005046721284131181   0.015760946349811455
-1.6570397951106055   0.0028507310458430746   0.06859113029470343
-1.6570397951106055   0.0028507310458430746   0.06859113029470343
-1.6570397951106055   0.0028507310458430746   0.06859113029470343
-1.6570397951106055   0.0028507310458430746   0.06859113029470343
-1.1394627929110654   0.011304778388101129   -0.039146658763126396
-1.1394627929110654   0.011304778388101129   -0.039146658763126396
-1.1394627929110654   0.011304778388101129   -0.039146658763126396
-1.1394627929110654   0.011304778388101129   -0.039146658763126396
-1.0981682859303963   0.12970919715998622   0.054689757950723616
-1.0981682859303963   0.12970919715998622   0.054689757950723616
-1.0981682859303963   0.12970919715998622   0.054689757950723616
-1.0981682859303963   0.12970919715998622   0.054689757950723616
-1.6670682965992993   -0.0817793886690478   -0.0630869422372986
-1.6670682965992993   -0.0817793886690478   -0.0630869422372986
-1.6670682965992993   -0.0817793886690478   -0.0630869422372986
-1.6670682965992993   -0.0817793886690478   -0.0630869422372986
-1.3292076036006664   0.028481043654328728   0.03281901995463299
-1.3292076036006664   0.028481043654328728   0.03281901995463299
-1.3292076036006664   0.028481043654328728   0.03281901995463299
-1.3292076036006664   0.028481043654328728   0.03281901995463299
-1.1462859026924312   -0.10866342579401264   0.025176930090443084
-1.1462859026924312   -0.10866342579401264   0.025176930090443084
-1.1462859026924312   -0.10866342579401264   0.025176930090443084
-1.1462859026924312   -0.10866342579401264   0.025176930090443084
-0.578970741869528   -0.020956613947641187   0.0011055322614584029
-0.578970741869528   -0.020956613947641187   0.0011055322614584029
-0.578970741869528   -0.020956613947641187   0.0011055322614584029
-0.578970741869528   -0.020956613947641187   0.0011055322614584029
-0.5625253301436522   0.05687950290359598   0.04041229600743744
-0.5625253301436522   0.05687950290359598   0.04041229600743744
-0.5625253301436522   0.05687950290359598   0.04041229600743744
-0.5625253301436522   0.05687950290359598   0.04041229600743744
-1.1645047700462654   -0.10716112437761666   -0.040127989207107334
-1.1645047700462654   -0.10716112437761666   -0.040127989207107334
-1.1645047700462654   -0.10716112437761666   -0.040127989207107334
-1.1645047700462654   -0.10716112437761666   -0.040127989207107334
-0.860009311862809   -0.04220271001654168   -0.01743985862691108
-0.860009311862809   -0.04220271001654168   -0.01743985862691108
-0.860009311862809   -0.04220271001654168   -0.01743985862691108
-0.860009311862809   -0.04220271001654168   -0.01743985862691108
-1.1426430757831154   -0.06235219489965023   0.02437155263066959
-1.1426430757831154   -0.06235219489965023   0.02437155263066959
-1.1426430757831154   -0.06235219489965023   0.02437155263066959
-1.1426430757831154   -0.06235219489965023   0.02437155263066959
-0.5799578612424149   0.016499736590016658   -0.006370593172791081
-0.5799578612424149   0.016499736590016658   -0.006370593172791081
-0.5799578612424149   0.016499736590016658   -0.006370593172791081
-0.5799578612424149   0.016499736590016658   -0.006370593172791081
-0.560716501027067   0.09401672253723488   0.03496032611561459
-0.560716501027067   0.09401672253723488   0.03496032611561459
-0.560716501027067   0.09401672253723488   0.03496032611561459
-0.560716501027067   0.09401672253723488   0.03496032611561459
-1.1578711067117047   -0.07250119695364585   -0.04738225242458291
-1.1578711067117047   -0.07250119695364585   -0.04738225242458291
-1.1578711067117047   -0.07250119695364585   -0.04738225242458291
-1.1578711067117047   -0.07250119695364585   -0.04738225242458291
-0.8505911518467324   -0.004634963939583944   -7.018371240746779e-05
-0.8505911518467324   -0.004634963939583944   -7.018371240746779e-05
-0.8505911518467324   -0.004634963939583944   -7.018371240746779e-05
-0.8505911518467324   -0.004634963939583944   -7.018371240746779e-05
-1.1355633705888624   -0.024678058625875465   0.016333289861858058
-1.1355633705888624   -0.024678058625875465   0.016333289861858058
-1.1355633705888624   -0.024678058625875465   0.016333289861858058
-1.1355633705888624   -0.024678058625875465   0.016333289861858058
-0.5794177856728518   0.04980003568652536   -0.014329410262594836
-0.5794177856728518   0.04980003568652536   -0.014329410262594836
-0.5794177856728518   0.04980003568652536   -0.014329410262594836
-0.5794177856728518   0.04980003568652536   -0.014329410262594836
-0.5605237908713937   0.13304584769120953   0.026193271305579163
-0.5605237908713937   0.13304584769120953   0.026193271305579163
-0.5605237908713937   0.13304584769120953   0.026193271305579163
-0.5605237908713937   0.13304584769120953   0.026193271305579163
-1.1522646432100316   -0.035095705655779845   -0.0509871256316958
-1.1522646432100316   -0.035095705655779845   -0.0509871256316958
-1.1522646432100316   -0.035095705655779845   -0.0509871256316958
-1.1522646432100316   -0.035095705655779845   -0.0509871256316958
-0.8511119744660849   0.02982368125937828   0.013208993462218266
-0.8511119744660849   0.02982368125937828   0.013208993462218266
-0.8511119744660849   0.02982368125937828   0.013208993462218266
-0.8511119744660849   0.02982368125937828   0.013208993462218266
-0.6005301374707775   -0.12423624471144051   -0.003411814980994937
-0.6005301374707775   -0.12423624471144051   -0.003411814980994937
-0.6005301374707775   -0.12423624471144051   -0.003411814980994937
-0.6005301374707775   -0.12423624471144051   -0.003411814980994937
-0.020263936041951147   0.006115405361956741   0.025643984691173287
-0.020263936041951147   0.006115405361956741   0.025643984691173287
-0.020263936041951147   0.006115405361956741   0.025643984691173287
-0.020263936041951147   0.006115405361956741   0.025643984691173287
-0.02243426929101596   0.03666430154161625   0.012258314740796866
-0.02243426929101596   0.03666430154161625   0.012258314740796866
-0.02243426929101596   0.03666430154161625   0.012258314740796866
-0.02243426929101596   0.03666430154161625   0.012258314740796866
-0.600906854705185   -0.07960454698374064   -0.015011276912893279
-0.600906854705185   -0.07960454698374064   -0.015011276912893279
-0.600906854705185   -0.07960454698374064   -0.015011276912893279
-0.600906854705185   -0.07960454698374064   -0.015011276912893279
-0.31198873368530683   -0.03895720885343901   -0.009764649523835614
-0.31198873368530683   -0.03895720885343901   -0.009764649523835614
-0.31198873368530683   -0.03895720885343901   -0.009764649523835614
-0.31198873368530683   -0.03895720885343901   -0.009764649523835614
-0.6002597181772763   -0.08302373286267711   -0.008356408394409653
-0.6002597181772763   -0.08302373286267711   -0.008356408394409653
-0.6002597181772763   -0.08302373286267711   -0.008356408394409653
-0.6002597181772763   -0.08302373286267711   -0.008356408394409653
-0.01977989051685616   0.04338500272261929   0.01880950743059283
-0.01977989051685616   0.04338500272261929   0.01880950743059283
-0.01977989051685616   0.04338500272261929   0.01880950743059283
-0.01977989051685616   0.04338500272261929   0.01880950743059283
-0.019667515779550806   0.07712275330784503   0.00587565654900961
-0.019667515779550806   0.07712275330784503   0.00587565654900961
-0.019667515779550806   0.07712275330784503   0.00587565654900961
-0.019667515779550806   0.07712275330784503   0.00587565654900961
-0.5993673271045048   -0.04227054005927225   -0.02200654167506684
-0.5993673271045048   -0.04227054005927225   -0.02200654167506684
-0.5993673271045048   -0.04227054005927225   -0.02200654167506684
-0.5993673271045048   -0.04227054005927225   -0.02200654167506684
-0.30893196733388373   -0.0015497344838548838   0.004270926164091915
-0.30893196733388373   -0.0015497344838548838   0.004270926164091915
-0.30893196733388373   -0.0015497344838548838   0.004270926164091915
-0.30893196733388373   -0.0015497344838548838   0.004270926164091915
-0.5984660160930496   -0.043138486166724416   -0.016632040510338827
-0.5984660160930496   -0.043138486166724416   -0.016632040510338827
-0.5984660160930496   -0.043138486166724416   -0.016632040510338827
-0.5984660160930496   -0.043138486166724416   -0.016632040510338827
-0.017842864265831294   0.08071666194046932   0.011405005484982871
-0.017842864265831294   0.08071666194046932   0.011405005484982871
-0.017842864265831294   0.08071666194046932   0.011405005484982871
-0.017842864265831294   0.08071666194046932   0.011405005484982871
-0.019057332699554175   0.11878946287310152   -0.000934011278751215
-0.019057332699554175   0.11878946287310152   -0.000934011278751215
-0.019057332699554175   0.11878946287310152   -0.000934011278751215
-0.019057332699554175   0.11878946287310152   -0.000934011278751215
-0.5990472295045419   -0.004302306668925952   -0.029075767500023122
-0.5990472295045419   -0.004302306668925952   -0.029075767500023122
-0.5990472295045419   -0.004302306668925952   -0.029075767500023122
-0.5990472295045419   -0.004302306668925952   -0.029075767500023122
-0.30655178157373353   0.0358933806260667   0.017142318883422228
-0.30655178157373353   0.0358933806260667   0.017142318883422228
-0.30655178157373353   0.0358933806260667   0.017142318883422228
-0.30655178157373353   0.0358933806260667   0.017142318883422228
-0.059781044407899823   -0.13606854265475798   -0.02975760912185513
-0.059781044407899823   -0.13606854265475798   -0.02975760912185513
-0.059781044407899823   -0.13606854265475798   -0.02975760912185513
-0.059781044407899823   -0.13606854265475798   -0.02975760912185513
0.5362985870258007   0.037799262372515935   0.04875507435820095
0.5362985870258007   0.037799262372515935   0.04875507435820095
0.5362985870258007   0.037799262372515935   0.04875507435820095
0.5362985870258007   0.037799262372515935   0.04875507435820095
0.5187498515459045   0.020040561852195445   -0.019241975718485294
0.5187498515459045   0.020040561852195445   -0.019241975718485294
0.5187498515459045   0.020040561852195445   -0.019241975718485294
0.5187498515459045   0.020040561852195445   -0.019241975718485294
-0.040078229126765355   -0.049796023248460795   0.010498840352126938
-0.040078229126765355   -0.049796023248460795   0.010498840352126938
-0.040078229126765355   -0.049796023248460795   0.010498840352126938
-0.040078229126765355   -0.049796023248460795   0.010498840352126938
0.23541402885415416   -0.031516281122529716   -0.005513159593468923
0.23541402885415416   -0.031516281122529716   -0.005513159593468923
0.23541402885415416   -0.031516281122529716   -0.005513159593468923
0.23541402885415416   -0.031516281122529716   -0.005513159593468923
-0.05954210401664777   -0.09924395465480594   -0.03737260269093998
-0.05954210401664777   -0.09924395465480594   -0.03737260269093998
-0.05954210401664777   -0.09924395465480594   -0.03737260269093998
-0.05954210401664777   -0.09924395465480594   -0.03737260269093998
0.5419688064239171   0.07324357324666719   0.04364978727709973
0.5419688064239171   0.07324357324666719   0.04364978727709973
0.5419688064239171   0.07324357324666719   0.04364978727709973
0.5419688064239171   0.07324357324666719   0.04364978727709973
0.5271749930330513   0.057681395164740856   -0.027030775014281416
0.5271749930330513   0.057681395164740856   -0.027030775014281416
0.5271749930330513   0.057681395164740856   -0.027030775014281416
0.5271749930330513   0.057681395164740856   -0.027030775014281416
-0.038929739754532275   -0.01634603921382207   0.0030333291957697194
-0.038929739754532275   -0.01634603921382207   0.0030333291957697194
-0.038929739754532275   -0.01634603921382207   0.0030333291957697194
-0.038929739754532275   -0.01634603921382207   0.0030333291957697194
0.23751233433628757   0.002327847399986805   0.008434471186094653
0.23751233433628757   0.002327847399986805   0.008434471186094653
0.23751233433628757   0.002327847399986805   0.008434471186094653
0.23751233433628757   0.002327847399986805   0.008434471186094653
-0.05786018798782243   -0.06292706356123193   -0.04503788762327156
-0.05786018798782243   -0.06292706356123193   -0.04503788762327156
-0.05786018798782243   -0.06292706356123193   -0.04503788762327156
-0.05786018798782243   -0.06292706356123193   -0.04503788762327156
0.5501977187339104   0.10835469697971618   0.03740955167503361
0.5501977187339104   0.10835469697971618   0.03740955167503361
0.5501977187339104   0.10835469697971618   0.03740955167503361
0.5501977187339104   0.10835469697971618   0.03740955167503361
0.5323763909575832   0.1048789369322265   -0.02822416521948662
0.5323763909575832   0.1048789369322265   -0.02822416521948662
0.5323763909575832   0.1048789369322265   -0.02822416521948662
0.5323763909575832   0.1048789369322265   -0.02822416521948662
-0.03896298491114362   0.02274128464048075   -0.004414094104077309
-0.03896298491114362   0.02274128464048075   -0.004414094104077309
-0.03896298491114362   0.02274128464048075   -0.004414094104077309
-0.03896298491114362   0.02274128464048075   -0.004414094104077309
0.24575535783915148   0.04006428043872037   0.024996461936037745
0.24575535783915148   0.04006428043872037   0.024996461936037745
0.24575535783915148   0.04006428043872037   0.024996461936037745
0.24575535783915148   0.04006428043872037   0.024996461936037745
0.48037426681307965   -0.13511838274782786   -0.05794888158505494
0.48037426681307965   -0.13511838274782786   -0.05794888158505494
0.48037426681307965   -0.13511838274782786   -0.05794888158505494
0.48037426681307965   -0.13511838274782786   -0.05794888158505494
1.056355812681703   0.07848712022674997   0.054237078510964765
1.056355812681703   0.07848712022674997   0.054237078510964765
1.056355812681703   0.07848712022674997   0.054237078510964765
1.056355812681703   0.07848712022674997   0.054237078510964765
1.0481266812017924   -0.005008269992349962   -0.07713381979308637
1.0481266812017924   -0.005008269992349962   -0.07713381979308637
1.0481266812017924   -0.005008269992349962   -0.07713381979308637
1.0481266812017924   -0.005008269992349962   -0.07713381979308637
0.5236201272777407   -0.011257970950995833   0.036407935743886594
0.5236201272777407   -0.011257970950995833   0.036407935743886594
0.5236201272777407   -0.011257970950995833   0.036407935743886594
0.5236201272777407   -0.011257970950995833   0.036407935743886594
0.7393959052414609   -0.026367886862070478   -0.02426666435053007
0.7393959052414609   -0.026367886862070478   -0.02426666435053007
0.7393959052414609   -0.026367886862070478   -0.02426666435053007
0.7393959052414609   -0.026367886862070478   -0.02426666435053007
0.4808754562079771   -0.11728869095306732   -0.07128469960285788
0.4808754562079771   -0.11728869095306732   -0.07128469960285788
0.4808754562079771   -0.11728869095306732   -0.07128469960285788
0.4808754562079771   -0.11728869095306732   -0.07128469960285788
1.093941925244267   0.10409302298243545   0.04284110744450134
1.093941925244267   0.10409302298243545   0.04284110744450134
1.093941925244267   0.10409302298243545   0.04284110744450134
1.093941925244267   0.10409302298243545   0.04284110744450134
1.0738654068739495   0.016461493361729765   -0.10346187147354641
1.0738654068739495   0.016461493361729765   -0.10346187147354641
1.0738654068739495   0.016461493361729765   -0.10346187147354641
1.0738654068739495   0.016461493361729765   -0.10346187147354641
0.5274950485258335   0.005120480471854337   0.027130417142520458
0.5274950485258335   0.005120480471854337   0.027130417142520458
0.5274950485258335   0.005120480471854337   0.027130417142520458
0.5274950485258335   0.005120480471854337   0.027130417142520458
0.7728883412723264   -0.003155510037414433   -0.007398670428546833
0.7728883412723264   -0.003155510037414433   -0.007398670428546833
0.7728883412723264   -0.003155510037414433   -0.007398670428546833
0.7728883412723264   -0.003155510037414433   -0.007398670428546833
0.48635695319334393   -0.09586311574108128   -0.07757646330699602
0.48635695319334393   -0.09586311574108128   -0.07757646330699602
0.48635695319334393   -0.09586311574108128   -0.07757646330699602
0.48635695319334393   -0.09586311574108128   -0.07757646330699602
1.1217864869193683   0.12422807428759575   0.02837694782769276
1.1217864869193683   0.12422807428759575   0.02837694782769276
1.1217864869193683   0.12422807428759575   0.02837694782769276
1.1217864869193683   0.12422807428759575   0.02837694782769276
1.1147327868827013   0.07231709055978049   -0.09732224262729178
1.1147327868827013   0.07231709055978049   -0.09732224262729178
1.1147327868827013   0.07231709055978049   -0.09732224262729178
1.1147327868827013   0.07231709055978049   -0.09732224262729178
0.5292676427701862   0.041298694741179504   0.01981233603458142
0.5292676427701862   0.041298694741179504   0.01981233603458142
0.5292676427701862   0.041298694741179504   0.01981233603458142
0.5292676427701862   0.041298694741179504   0.01981233603458142
0.7786344377562596   0.023385295829587878   0.011268082524915679
0.7786344377562596   0.023385295829587878   0.011268082524915679
0.7786344377562596   0.023385295829587878   0.011268082524915679
0.7786344377562596   0.023385295829587878   0.011268082524915679
-1.229771244296974   -0.040162250608279104   0.08030017031778541
-1.229771244296974   -0.040162250608279104   0.08030017031778541
-1.229771244296974   -0.040162250608279104   0.08030017031778541
-1.229771244296974   -0.040162250608279104   0.08030017031778541
-0.8605013303245079   -0.05749837903948352   -0.030324090555533006
-0.8605013303245079   -0.05749837903948352   -0.030324090555533006
-0.8605013303245079   -0.05749837903948352   -0.030324090555533006
-0.8605013303245079   -0.05749837903948352   -0.030324090555533006
-0.8099231246242596   0.08124515675285232   0.0684695961033876
-0.8099231246242596   0.08124515675285232   0.0684695961033876
-0.8099231246242596   0.08124515675285232   0.0684695961033876
-0.8099231246242596   0.08124515675285232   0.0684695961033876
-1.2298661697285531   -0.1012375988347263   -0.044357877792580686
-1.2298661697285531   -0.1012375988347263   -0.044357877792580686
-1.2298661697285531   -0.1012375988347263   -0.044357877792580686
-1.2298661697285531   -0.1012375988347263   -0.044357877792580686
-0.9902196267745774   -0.015777548162631043   -0.0021972718101111732
-0.9902196267745774   -0.015777548162631043   -0.0021972718101111732
-0.9902196267745774   -0.015777548162631043   -0.0021972718101111732
-0.9902196267745774   -0.015777548162631043   -0.0021972718101111732
-1.183862313943756   0.008040133439676161   0.07638366885700304
-1.183862313943756   0.008040133439676161   0.07638366885700304
-1.183862313943756   0.008040133439676161   0.07638366885700304
-1.183862313943756   0.008040133439676161   0.07638366885700304
-0.8521838234134735   -0.02428941852596552   -0.03729932256385629
-0.8521838234134735   -0.02428941852596552   -0.03729932256385629
-0.8521838234134735   -0.02428941852596552   -0.03729932256385629
-0.8521838234134735   -0.02428941852596552   -0.03729932256385629
-0.8022948525496798   0.09813994351324357   0.0578612265011999
-0.8022948525496798   0.09813994351324357   0.0578612265011999
-0.8022948525496798   0.09813994351324357   0.0578612265011999
-0.8022948525496798   0.09813994351324357   0.0578612265011999
-1.2007510140639852   -0.08240493829677617   -0.05607364409690413
-1.2007510140639852   -0.08240493829677617   -0.05607364409690413
-1.2007510140639852   -0.08240493829677617   -0.05607364409690413
-1.2007510140639852   -0.08240493829677617   -0.05607364409690413
-0.9832932370622846   0.006505376505440787   0.010382273658014723
-0.9832932370622846   0.006505376505440787   0.010382273658014723
-0.9832932370622846   0.006505376505440787   0.010382273658014723
-0.9832932370622846   0.006505376505440787   0.010382273658014723
-1.1551422018893573   0.028259436700799917   0.06130604177865939
-1.1551422018893573   0.028259436700799917   0.06130604177865939
-1.1551422018893573   0.028259436700799917   0.06130604177865939
-1.1551422018893573   0.028259436700799917   0.06130604177865939
-0.8445199821857835   -0.009140748945807062   -0.04598372922026048
-0.8445199821857835   -0.009140748945807062   -0.04598372922026048
-0.8445199821857835   -0.009140748945807062   -0.04598372922026048
-0.8445199821857835   -0.009140748945807062   -0.04598372922026048
-0.7980712657107055   0.11459535849582575   0.04978976269849053
-0.7980712657107055   0.11459535849582575   0.04978976269849053
-0.7980712657107055   0.11459535849582575   0.04978976269849053
-0.7980712657107055   0.11459535849582575   0.04978976269849053
-1.1617571488592062   -0.057504937693187215   -0.06713485708260872
-1.1617571488592062   -0.057504937693187215   -0.06713485708260872
-1.1617571488592062   -0.057504937693187215   -0.06713485708260872
-1.1617571488592062   -0.057504937693187215   -0.06713485708260872
-0.9463919462623722   0.027384679930003375   0.02802902107225605
-0.9463919462623722   0.027384679930003375   0.02802902107225605
-0.9463919462623722   0.027384679930003375   0.02802902107225605
-0.9463919462623722   0.027384679930003375   0.02802902107225605
-0.8508127022139919   -0.0695183152310953   0.03013898618865163
-0.8508127022139919   -0.0695183152310953   0.03013898618865163
-0.8508127022139919   -0.0695183152310953   0.03013898618865163
-0.8508127022139919   -0.0695183152310953   0.03013898618865163
-0.49342285903212596   -0.03725754547610012   -0.004894501876087698
-0.49342285903212596   -0.03725754547610012   -0.004894501876087698
-0.49342285903212596   -0.03725754547610012   -0.004894501876087698
-0.49342285903212596   -0.03725754547610012   -0.004894501876087698
-0.4683501402538184   0.047478744267829935   0.03691672422769418
-0.4683501402538184   0.047478744267829935   0.03691672422769418
-0.4683501402538184   0.047478744267829935   0.03691672422769418
-0.4683501402538184   0.047478744267829935   0.03691672422769418
-0.8636119156159033   -0.08273555858005238   -0.03599364352192583
-0.8636119156159033   -0.08273555858005238   -0.03599364352192583
-0.8636119156159033   -0.08273555858005238   -0.03599364352192583
-0.8636119156159033   -0.08273555858005238   -0.03599364352192583
-0.6663601278908858   -0.03248876518188505   -0.013611389859909812
-0.6663601278908858   -0.03248876518188505   -0.013611389859909812
-0.6663601278908858   -0.03248876518188505   -0.013611389859909812
-0.6663601278908858   -0.03248876518188505   -0.013611389859909812
-0.8408351847223571   -0.029475599165219198   0.02463005153097189
-0.8408351847223571   -0.029475599165219198   0.02463005153097189
-0.8408351847223571   -0.029475599165219198   0.02463005153097189
-0.8408351847223571   -0.029475599165219198   0.02463005153097189
-0.4882052004791617   -0.002859544478800359   -0.01202028815239195
-0.4882052004791617   -0.002859544478800359   -0.01202028815239195
-0.4882052004791617   -0.002859544478800359   -0.01202028815239195
-0.4882052004791617   -0.002859544478800359   -0.01202028815239195
-0.4623934672545612   0.08212421779589027   0.030267181865954354
-0.4623934672545612   0.08212421779589027   0.030267181865954354
-0.4623934672545612   0.08212421779589027   0.030267181865954354
-0.4623934672545612   0.08212421779589027   0.030267181865954354
-0.8519853867541612   -0.05004145790096924   -0.04241004310699495
-0.8519853867541612   -0.05004145790096924   -0.04241004310699495
-0.8519853867541612   -0.05004145790096924   -0.04241004310699495
-0.8519853867541612   -0.05004145790096924   -0.04241004310699495
-0.6535639909129812   0.0015627902443760833   0.0010171558236883593
-0.6535639909129812   0.0015627902443760833   0.0010171558236883593
-0.6535639909129812   0.0015627902443760833   0.0010171558236883593
-0.6535639909129812   0.0015627902443760833   0.0010171558236883593
-0.8274849797764433   0.0075521547453734975   0.022498379135252544
-0.8274849797764433   0.0075521547453734975   0.022498379135252544
-0.8274849797764433   0.0075521547453734975   0.022498379135252544
-0.8274849797764433   0.0075521547453734975   0.022498379135252544
-0.48326566646208297   0.028158812919743793   -0.020128409295508076
-0.48326566646208297   0.028158812919743793   -0.020128409295508076
-0.48326566646208297   0.028158812919743793   -0.020128409295508076
-0.48326566646208297   0.028158812919743793   -0.020128409295508076
-0.45663815579946776   0.11904199861211198   0.0240749082971993
-0.45663815579946776   0.11904199861211198   0.0240749082971993
-0.45663815579946776   0.11904199861211198   0.0240749082971993
-0.45663815579946776   0.11904199861211198   0.0240749082971993
-0.8432836476757946   -0.014807063418355977   -0.046869725212772856
-0.8432836476757946   -0.014807063418355977   -0.046869725212772856
-0.8432836476757946   -0.014807063418355977   -0.046869725212772856
-0.8432836476757946   -0.014807063418355977   -0.046869725212772856
-0.6486058772160063   0.03360646377561304   0.014948287255684034
-0.6486058772160063   0.03360646377561304   0.014948287255684034
-0.6486058772160063   0.03360646377561304   0.014948287255684034
-0.6486058772160063   0.03360646377561304   0.014948287255684034
-0.5038442775527094   -0.09548440655787457   0.0012252666027750547
-0.5038442775527094   -0.09548440655787457   0.0012252666027750547
-0.5038442775527094   -0.09548440655787457   0.0012252666027750547
-0.5038442775527094   -0.09548440655787457   0.0012252666027750547
-0.13012626540546104   -0.011159920482033629   0.020541095048564467
-0.13012626540546104   -0.011159920482033629   0.020541095048564467
-0.13012626540546104   -0.011159920482033629   0.020541095048564467
-0.13012626540546104   -0.011159920482033629   0.020541095048564467
-0.12693548496478674   0.019593021993497474   0.0070051982329143135
-0.12693548496478674   0.019593021993497474   0.0070051982329143135
-0.12693548496478674   0.019593021993497474   0.0070051982329143135
-0.12693548496478674   0.019593021993497474   0.0070051982329143135
-0.4983179800612552   -0.05585142796247154   -0.009592302579188208
-0.4983179800612552   -0.05585142796247154   -0.009592302579188208
-0.4983179800612552   -0.05585142796247154   -0.009592302579188208
-0.4983179800612552   -0.05585142796247154   -0.009592302579188208
-0.31534308043272463   -0.03419868652909824   -0.009674719101959453
-0.31534308043272463   -0.03419868652909824   -0.009674719101959453
-0.31534308043272463   -0.03419868652909824   -0.009674719101959453
-0.31534308043272463   -0.03419868652909824   -0.009674719101959453
-0.49750467353170463   -0.056831079121041086   -0.004546118772860597
-0.49750467353170463   -0.056831079121041086   -0.004546118772860597
-0.49750467353170463   -0.056831079121041086   -0.004546118772860597
-0.49750467353170463   -0.056831079121041086   -0.004546118772860597
-0.12481974350960351   0.023501721136801698   0.013675206365526348
-0.12481974350960351   0.023501721136801698   0.013675206365526348
-0.12481974350960351   0.023501721136801698   0.013675206365526348
-0.12481974350960351   0.023501721136801698   0.013675206365526348
-0.11974239155276141   0.05842057991861184   0.001824122662610287
-0.11974239155276141   0.05842057991861184   0.001824122662610287
-0.11974239155276141   0.05842057991861184   0.001824122662610287
-0.11974239155276141   0.05842057991861184   0.001824122662610287
-0.49235508262533123   -0.02094860125511646   -0.016468075936889093
-0.49235508262533123   -0.02094860125511646   -0.016468075936889093
-0.49235508262533123   -0.02094860125511646   -0.016468075936889093
-0.49235508262533123   -0.02094860125511646   -0.016468075936889093
-0.3076601192639204   0.0006926600099131201   0.004112428812126451
-0.3076601192639204   0.0006926600099131201   0.004112428812126451
-0.3076601192639204   0.0006926600099131201   0.004112428812126451
-0.3076601192639204   0.0006926600099131201   0.004112428812126451
-0.490524615365669   -0.018127964629358836   -0.010136376264335487
-0.490524615365669   -0.018127964629358836   -0.010136376264335487
-0.490524615365669   -0.018127964629358836   -0.010136376264335487
-0.490524615365669   -0.018127964629358836   -0.010136376264335487
-0.11886845741706585   0.05830434468821202   0.006310028571487922
-0.11886845741706585   0.05830434468821202   0.006310028571487922
-0.11886845741706585   0.05830434468821202   0.006310028571487922
-0.11886845741706585   0.05830434468821202   0.006310028571487922
-0.113289569657246   0.09781129708776984   -0.0042654085638399635
-0.113289569657246   0.09781129708776984   -0.0042654085638399635
-0.113289569657246   0.09781129708776984   -0.0042654085638399635
-0.113289569657246   0.09781129708776984   -0.0042654085638399635
-0.4871217568166826   0.014358576478013065   -0.023659674654774143
-0.4871217568166826   0.014358576478013065   -0.023659674654774143
-0.4871217568166826   0.014358576478013065   -0.023659674654774143
-0.4871217568166826   0.014358576478013065   -0.023659674654774143
-0.3006455041867483   0.03575129118784394   0.01739500057479111
-0.3006455041867483   0.03575129118784394   0.01739500057479111
-0.3006455041867483   0.03575129118784394   0.01739500057479111
-0.3006455041867483   0.03575129118784394   0.01739500057479111
-0.16076327232005005   -0.11677074697464788   -0.027033113031767413
-0.16076327232005005   -0.11677074697464788   -0.027033113031767413
-0.16076327232005005   -0.11677074697464788   -0.027033113031767413
-0.16076327232005005   -0.11677074697464788   -0.027033113031767413
0.2283486598417517   0.018103968766889272   0.0445431825043285
0.2283486598417517   0.018103968766889272   0.0445431825043285
0.2283486598417517   0.018103968766889272   0.0445431825043285
0.2283486598417517   0.018103968766889272   0.0445431825043285
0.21241321951037023   -0.0063686165784757574   -0.024855574935083474
0.21241321951037023   -0.0063686165784757574   -0.024855574935083474
0.21241321951037023   -0.0063686165784757574   -0.024855574935083474
0.21241321951037023   -0.0063686165784757574   -0.024855574935083474
-0.13437495924931792   -0.027102076310370597   0.016502925114125315
-0.13437495924931792   -0.027102076310370597   0.016502925114125315
-0.13437495924931792   -0.027102076310370597   0.016502925114125315
-0.13437495924931792   -0.027102076310370597   0.016502925114125315
0.03496226193807243   -0.03211775886110361   -0.006887092340698085
0.03496226193807243   -0.03211775886110361   -0.006887092340698085
0.03496226193807243   -0.03211775886110361   -0.006887092340698085
0.03496226193807243   -0.03211775886110361   -0.006887092340698085
-0.15522560459565815   -0.0815797849985448   -0.033272592929400394
-0.15522560459565815   -0.0815797849985448   -0.033272592929400394
-0.15522560459565815   -0.0815797849985448   -0.033272592929400394
-0.15522560459565815   -0.0815797849985448   -0.033272592929400394
0.23674961564968375   0.051594842902671946   0.03886294628033637
0.23674961564968375   0.051594842902671946   0.03886294628033637
0.23674961564968375   0.051594842902671946   0.03886294628033637
0.23674961564968375   0.051594842902671946   0.03886294628033637
0.22579653635170735   0.03036028530305595   -0.028161324326064455
0.22579653635170735   0.03036028530305595   -0.028161324326064455
0.22579653635170735   0.03036028530305595   -0.028161324326064455
0.22579653635170735   0.03036028530305595   -0.028161324326064455
-0.1291841833113716   0.004111474675297945   0.008924269112871974
-0.1291841833113716   0.004111474675297945   0.008924269112871974
-0.1291841833113716   0.004111474675297945   0.008924269112871974
-0.1291841833113716   0.004111474675297945   0.008924269112871974
0.042081005856505434   -0.00047964991699154966   0.007138629659163319
0.042081005856505434   -0.00047964991699154966   0.007138629659163319
0.042081005856505434   -0.00047964991699154966   0.007138629659163319
0.042081005856505434   -0.00047964991699154966   0.007138629659163319
-0.1493060665077891   -0.04711892070201141   -0.04045475149190484
-0.1493060665077891   -0.04711892070201141   -0.04045475149190484
-0.1493060665077891   -0.04711892070201141   -0.04045475149190484
-0.1493060665077891   -0.04711892070201141   -0.04045475149190484
0.24894143706343227   0.0846136981956755   0.033309766339940594
0.24894143706343227   0.0846136981956755   0.033309766339940594
0.24894143706343227   0.0846136981956755   0.033309766339940594
0.24894143706343227   0.0846136981956755   0.033309766339940594
0.23657354168939884   0.07222308766191908   -0.03254160559742812
0.23657354168939884   0.07222308766191908   -0.03254160559742812
0.23657354168939884   0.07222308766191908   -0.03254160559742812
0.23657354168939884   0.07222308766191908   -0.03254160559742812
-0.12363654549941115   0.04009622274643966   0.0017147865666643884
-0.12363654549941115   0.04009622274643966   0.0017147865666643884
-0.12363654549941115   0.04009622274643966   0.0017147865666643884
-0.12363654549941115   0.04009622274643966   0.0017147865666643884
0.05307797248126896   0.03393730252740098   0.02166284500054708
0.05307797248126896   0.03393730252740098   0.02166284500054708
0.05307797248126896   0.03393730252740098   0.02166284500054708
0.05307797248126896   0.03393730252740098   0.02166284500054708
0.18155026800466295   -0.11799197166141345   -0.053352836252812466
0.18155026800466295   -0.11799197166141345   -0.053352836252812466
0.18155026800466295   -0.11799197166141345   -0.053352836252812466
0.18155026800466295   -0.11799197166141345   -0.053352836252812466
0.5469391687181023   0.053932079220498017   0.05769413099975264
0.5469391687181023   0.053932079220498017   0.05769413099975264
0.5469391687181023   0.053932079220498017   0.05769413099975264
0.5469391687181023   0.053932079220498017   0.05769413099975264
0.5414837164538047   -0.02901436793807638   -0.07023763836758014
0.5414837164538047   -0.02901436793807638   -0.07023763836758014
0.5414837164538047   -0.02901436793807638   -0.07023763836758014
0.5414837164538047   -0.02901436793807638   -0.07023763836758014
0.22922569818135471   0.009783671185410228   0.04305453065595291
0.22922569818135471   0.009783671185410228   0.04305453065595291
0.22922569818135471   0.009783671185410228   0.04305453065595291
0.22922569818135471   0.009783671185410228   0.04305453065595291
0.355261820135373   -0.02441015652138216   -0.01877542034446157
0.355261820135373   -0.02441015652138216   -0.01877542034446157
0.355261820135373   -0.02441015652138216   -0.01877542034446157
0.355261820135373   -0.02441015652138216   -0.01877542034446157
0.1866599886222191   -0.0982747125181167   -0.061715633436196245
0.1866599886222191   -0.0982747125181167   -0.061715633436196245
0.1866599886222191   -0.0982747125181167   -0.061715633436196245
0.1866599886222191   -0.0982747125181167   -0.061715633436196245
0.5876033768507035   0.08259796660321737   0.04874832907562447
0.5876033768507035   0.08259796660321737   0.04874832907562447
0.5876033768507035   0.08259796660321737   0.04874832907562447
0.5876033768507035   0.08259796660321737   0.04874832907562447
0.5710682346503339   -0.008438971651983491   -0.08424002960116905
0.5710682346503339   -0.008438971651983491   -0.08424002960116905
0.5710682346503339   -0.008438971651983491   -0.08424002960116905
0.5710682346503339   -0.008438971651983491   -0.08424002960116905
0.2370425693109211   0.024855464450842336   0.03357366132221792
0.2370425693109211   0.024855464450842336   0.03357366132221792
0.2370425693109211   0.024855464450842336   0.03357366132221792
0.2370425693109211   0.024855464450842336   0.03357366132221792
0.3851472974067298   -0.0036629409137689667   -0.002251770260693023
0.3851472974067298   -0.0036629409137689667   -0.002251770260693023
0.3851472974067298   -0.0036629409137689667   -0.002251770260693023
0.3851472974067298   -0.0036629409137689667   -0.002251770260693023
0.1948115090265911   -0.0811562883218468   -0.07156988732674285
0.1948115090265911   -0.0811562883218468   -0.07156988732674285
0.1948115090265911   -0.0811562883218468   -0.07156988732674285
0.1948115090265911   -0.0811562883218468   -0.07156988732674285
0.6170027959978664   0.10127628218390897   0.03571752330060557
0.6170027959978664   0.10127628218390897   0.03571752330060557
0.6170027959978664   0.10127628218390897   0.03571752330060557
0.6170027959978664   0.10127628218390897   0.03571752330060557
0.6164951615698265   0.03674619257734089   -0.09017769358426736
0.6164951615698265   0.03674619257734089   -0.09017769358426736
0.6164951615698265   0.03674619257734089   -0.09017769358426736
0.6164951615698265   0.03674619257734089   -0.09017769358426736
0.24504216739441145   0.05534786485212578   0.026676745737426483
0.24504216739441145   0.05534786485212578   0.026676745737426483
0.24504216739441145   0.05534786485212578   0.026676745737426483
0.24504216739441145   0.05534786485212578   0.026676745737426483
0.4000516881005597   0.019202845884141912   0.011968567151421292
0.4000516881005597   0.019202845884141912   0.011968567151421292
0.4000516881005597   0.019202845884141912   0.011968567151421292
0.4000516881005597   0.019202845884141912   0.011968567151421292
-0.7370390281454462   -0.012343840035799351   0.0719863022838261
-0.7370390281454462   -0.012343840035799351   0.0719863022838261
-0.7370390281454462   -0.012343840035799351   0.0719863022838261
-0.7370390281454462   -0.012343840035799351   0.0719863022838261
-0.57495684352088   -0.07298590270609415   -0.035610528967681285
-0.57495684352088   -0.07298590270609415   -0.035610528967681285
-0.57495684352088   -0.07298590270609415   -0.035610528967681285
-0.57495684352088   -0.07298590270609415   -0.035610528967681285
-0.5204353068818185   0.061831153418038624   0.06155502062450932
-0.5204353068818185   0.061831153418038624   0.06155502062450932
-0.5204353068818185   0.061831153418038624   0.06155502062450932
-0.5204353068818185   0.061831153418038624   0.06155502062450932
-0.7339285592128013   -0.07995027519984832   -0.048471637478138735
-0.7339285592128013   -0.07995027519984832   -0.048471637478138735
-0.7339285592128013   -0.07995027519984832   -0.048471637478138735
-0.7339285592128013   -0.07995027519984832   -0.048471637478138735
-0.6170369535151823   -0.01698023230132397   -0.009090842682478423
-0.6170369535151823   -0.01698023230132397   -0.009090842682478423
-0.6170369535151823   -0.01698023230132397   -0.009090842682478423
-0.6170369535151823   -0.01698023230132397   -0.009090842682478423
-0.6885588749066853   0.029650614548901506   0.06877589430369063
-0.6885588749066853   0.029650614548901506   0.06877589430369063
-0.6885588749066853   0.029650614548901506   0.06877589430369063
-0.6885588749066853   0.029650614548901506   0.06877589430369063
-0.562652372259616   -0.04461711740239725   -0.043082035444038005
-0.562652372259616   -0.04461711740239725   -0.043082035444038005
-0.562652372259616   -0.04461711740239725   -0.043082035444038005
-0.562652372259616   -0.04461711740239725   -0.043082035444038005
-0.5075263605640585   0.07786742913003525   0.05206353953722612
-0.5075263605640585   0.07786742913003525   0.05206353953722612
-0.5075263605640585   0.07786742913003525   0.05206353953722612
-0.5075263605640585   0.07786742913003525   0.05206353953722612
-0.700239108022675   -0.06177813559648959   -0.06056026760934942
-0.700239108022675   -0.06177813559648959   -0.06056026760934942
-0.700239108022675   -0.06177813559648959   -0.06056026760934942
-0.700239108022675   -0.06177813559648959   -0.06056026760934942
-0.5994256381916413   0.00400988257341639   0.004304157428155597
-0.5994256381916413   0.00400988257341639   0.004304157428155597
-0.5994256381916413   0.00400988257341639   0.004304157428155597
-0.5994256381916413   0.00400988257341639   0.004304157428155597
-0.6548355988785421   0.04910725171888067   0.05557189079593683
-0.6548355988785421   0.04910725171888067   0.05557189079593683
-0.6548355988785421   0.04910725171888067   0.05557189079593683
-0.6548355988785421   0.04910725171888067   0.05557189079593683
-0.5499458684055993   -0.03003395688274364   -0.05213261365769527
-0.5499458684055993   -0.03003395688274364   -0.05213261365769527
-0.5499458684055993   -0.03003395688274364   -0.05213261365769527
-0.5499458684055993   -0.03003395688274364   -0.05213261365769527
-0.49707097623488095   0.09783970062501643   0.04490216188408436
-0.49707097623488095   0.09783970062501643   0.04490216188408436
-0.49707097623488095   0.09783970062501643   0.04490216188408436
-0.49707097623488095   0.09783970062501643   0.04490216188408436
-0.6549785820631794   -0.03268522819421764   -0.07008429185775202
-0.6549785820631794   -0.03268522819421764   -0.07008429185775202
-0.6549785820631794   -0.03268522819421764   -0.07008429185775202
-0.6549785820631794   -0.03268522819421764   -0.07008429185775202
-0.5638819504788655   0.024706506894244133   0.02092342217954045
-0.5638819504788655   0.024706506894244133   0.02092342217954045
-0.5638819504788655   0.024706506894244133   0.02092342217954045
-0.5638819504788655   0.024706506894244133   0.02092342217954045
-0.5547967918671366   -0.041760555290746994   0.033964381885688594
-0.5547967918671366   -0.041760555290746994   0.033964381885688594
-0.5547967918671366   -0.041760555290746994   0.033964381885688594
-0.5547967918671366   -0.041760555290746994   0.033964381885688594
-0.4073531280756945   -0.05533641668534137   -0.01054296181137325
-0.4073531280756945   -0.05533641668534137   -0.01054296181137325
-0.4073531280756945   -0.05533641668534137   -0.01054296181137325
-0.4073531280756945   -0.05533641668534137   -0.01054296181137325
-0.3769543172362915   0.02808836762074157   0.03146838910244752
-0.3769543172362915   0.02808836762074157   0.03146838910244752
-0.3769543172362915   0.02808836762074157   0.03146838910244752
-0.3769543172362915   0.02808836762074157   0.03146838910244752
-0.5630012888582172   -0.05901791528792659   -0.03042582055151523
-0.5630012888582172   -0.05901791528792659   -0.03042582055151523
-0.5630012888582172   -0.05901791528792659   -0.03042582055151523
-0.5630012888582172   -0.05901791528792659   -0.03042582055151523
-0.47421414735317624   -0.029483230899101275   -0.012775268929496209
-0.47421414735317624   -0.029483230899101275   -0.012775268929496209
-0.47421414735317624   -0.029483230899101275   -0.012775268929496209
-0.47421414735317624   -0.029483230899101275   -0.012775268929496209
-0.5403525799138253   -0.00510416746562662   0.028903976348140403
-0.5403525799138253   -0.00510416746562662   0.028903976348140403
-0.5403525799138253   -0.00510416746562662   0.028903976348140403
-0.5403525799138253   -0.00510416746562662   0.028903976348140403
-0.3970603180659908   -0.02328267208686581   -0.01769057533843779
-0.3970603180659908   -0.02328267208686581   -0.01769057533843779
-0.3970603180659908   -0.02328267208686581   -0.01769057533843779
-0.3970603180659908   -0.02328267208686581   -0.01769057533843779
-0.36582310133292106   0.06070689158250108   0.025169418889116446
-0.36582310133292106   0.06070689158250108   0.025169418889116446
-0.36582310133292106   0.06070689158250108   0.025169418889116446
-0.36582310133292106   0.06070689158250108   0.025169418889116446
-0.5463291452945807   -0.027657490345655105   -0.036425464639682534
-0.5463291452945807   -0.027657490345655105   -0.036425464639682534
-0.5463291452945807   -0.027657490345655105   -0.036425464639682534
-0.5463291452945807   -0.027657490345655105   -0.036425464639682534
-0.458117559991537   0.0019674940636602266   0.001311068141831323
-0.458117559991537   0.0019674940636602266   0.001311068141831323
-0.458117559991537   0.0019674940636602266   0.001311068141831323
-0.458117559991537   0.0019674940636602266   0.001311068141831323
-0.5223511589202011   0.029607326387109577   0.026199650499438953
-0.5223511589202011   0.029607326387109577   0.026199650499438953
-0.5223511589202011   0.029607326387109577   0.026199650499438953
-0.5223511589202011   0.029607326387109577   0.026199650499438953
-0.38686565111627325   0.006377511440761848   -0.02571394988590516
-0.38686565111627325   0.006377511440761848   -0.02571394988590516
-0.38686565111627325   0.006377511440761848   -0.02571394988590516
-0.38686565111627325   0.006377511440761848   -0.02571394988590516
-0.3547273236848194   0.0961121309974925   0.019169922875494384
-0.3547273236848194   0.0961121309974925   0.019169922875494384
-0.3547273236848194   0.0961121309974925   0.019169922875494384
-0.3547273236848194   0.0961121309974925   0.019169922875494384
-0.532566618022052   0.0065946881480716465   -0.041331034574821957
-0.532566618022052   0.0065946881480716465   -0.041331034574821957
-0.532566618022052   0.0065946881480716465   -0.041331034574821957
-0.532566618022052   0.0065946881480716465   -0.041331034574821957
-0.4464773364799312   0.032798903222900515   0.015089180539844621
-0.4464773364799312   0.032798903222900515   0.015089180539844621
-0.4464773364799312   0.032798903222900515   0.015089180539844621
-0.4464773364799312   0.032798903222900515   0.015089180539844621
-0.40686397691402754   -0.06941867194261406   0.005985049254228825
-0.40686397691402754   -0.06941867194261406   0.005985049254228825
-0.40686397691402754   -0.06941867194261406   0.005985049254228825
-0.40686397691402754   -0.06941867194261406   0.005985049254228825
-0.24200837485096832   -0.02920086719930418   0.014945968571455782
-0.24200837485096832   -0.02920086719930418   0.014945968571455782
-0.24200837485096832   -0.02920086719930418   0.014945968571455782
-0.24200837485096832   -0.02920086719930418   0.014945968571455782
-0.2337229481215641   -0.0006283463941099757   0.001928073322928589
-0.2337229481215641   -0.0006283463941099757   0.001928073322928589
-0.2337229481215641   -0.0006283463941099757   0.001928073322928589
-0.2337229481215641   -0.0006283463941099757   0.001928073322928589
-0.3959007977799479   -0.03165869464994764   -0.0035169513451451806
-0.3959007977799479   -0.03165869464994764   -0.0035169513451451806
-0.3959007977799479   -0.03165869464994764   -0.0035169513451451806
-0.3959007977799479   -0.03165869464994764   -0.0035169513451451806
-0.3201325340926   -0.031195813607304647   -0.009303831293159148
-0.3201325340926   -0.031195813607304647   -0.009303831293159148
-0.3201325340926   -0.031195813607304647   -0.009303831293159148
-0.3201325340926   -0.031195813607304647   -0.009303831293159148
-0.39542760692191575   -0.03326402596646101   0.00045433426152509393
-0.39542760692191575   -0.03326402596646101   0.00045433426152509393
-0.39542760692191575   -0.03326402596646101   0.00045433426152509393
-0.39542760692191575   -0.03326402596646101   0.00045433426152509393
-0.23166744934907935   0.003505674552919372   0.008071546238321299
-0.23166744934907935   0.003505674552919372   0.008071546238321299
-0.23166744934907935   0.003505674552919372   0.008071546238321299
-0.23166744934907935   0.003505674552919372   0.008071546238321299
-0.22163184346568632   0.03584598978497934   -0.0032183598960550674
-0.22163184346568632   0.03584598978497934   -0.0032183598960550674
-0.22163184346568632   0.03584598978497934   -0.0032183598960550674
-0.22163184346568632   0.03584598978497934   -0.0032183598960550674
-0.38474921837465254   0.001514621871461147   -0.01026889660850476
-0.38474921837465254   0.001514621871461147   -0.01026889660850476
-0.38474921837465254   0.001514621871461147   -0.01026889660850476
-0.38474921837465254   0.001514621871461147   -0.01026889660850476
-0.3073785362134864   0.0015963635863838234   0.004357045056329098
-0.3073785362134864   0.0015963635863838234   0.004357045056329098
-0.3073785362134864   0.0015963635863838234   0.004357045056329098
-0.3073785362134864   0.0015963635863838234   0.004357045056329098
-0.38341235051074635   0.0030996443930628864   -0.005169579810577293
-0.38341235051074635   0.0030996443930628864   -0.005169579810577293
-0.38341235051074635   0.0030996443930628864   -0.005169579810577293
-0.38341235051074635   0.0030996443930628864   -0.005169579810577293
-0.22068185778505783   0.036547820807911635   0.0008297374841529648
-0.22068185778505783   0.036547820807911635   0.0008297374841529648
-0.22068185778505783   0.036547820807911635   0.0008297374841529648
-0.22068185778505783   0.036547820807911635   0.0008297374841529648
-0.2102113925234002   0.07265489457306573   -0.00908844847280859
-0.2102113925234002   0.07265489457306573   -0.00908844847280859
-0.2102113925234002   0.07265489457306573   -0.00908844847280859
-0.2102113925234002   0.07265489457306573   -0.00908844847280859
-0.374292198896241   0.03494369962160854   -0.017486021805729356
-0.374292198896241   0.03494369962160854   -0.017486021805729356
-0.374292198896241   0.03494369962160854   -0.017486021805729356
-0.374292198896241   0.03494369962160854   -0.017486021805729356
-0.29531496830989085   0.034506323873240256   0.017468087074580363
-0.29531496830989085   0.034506323873240256   0.017468087074580363
-0.29531496830989085   0.034506323873240256   0.017468087074580363
-0.29531496830989085   0.034506323873240256   0.017468087074580363
-0.26230712443829385   -0.09340462825240392   -0.02234401831207654
-0.26230712443829385   -0.09340462825240392   -0.02234401831207654
-0.26230712443829385   -0.09340462825240392   -0.02234401831207654
-0.26230712443829385   -0.09340462825240392   -0.02234401831207654
-0.08131766616461115   -0.0014513677611794115   0.03918647792272683
-0.08131766616461115   -0.0014513677611794115   0.03918647792272683
-0.08131766616461115   -0.0014513677611794115   0.03918647792272683
-0.08131766616461115   -0.0014513677611794115   0.03918647792272683
-0.09243645867344052   -0.027772800217122647   -0.02878919499551233
-0.09243645867344052   -0.027772800217122647   -0.02878919499551233
-0.09243645867344052   -0.027772800217122647   -0.02878919499551233
-0.09243645867344052   -0.027772800217122647   -0.02878919499551233
-0.2302093679705396   -0.0035652630862191316   0.02243289077015853
-0.2302093679705396   -0.0035652630862191316   0.02243289077015853
-0.2302093679705396   -0.0035652630862191316   0.02243289077015853
-0.2302093679705396   -0.0035652630862191316   0.02243289077015853
-0.1665368547480217   -0.030172104770565665   -0.0067144415273296815
-0.1665368547480217   -0.030172104770565665   -0.0067144415273296815
-0.1665368547480217   -0.030172104770565665   -0.0067144415273296815
-0.1665368547480217   -0.030172104770565665   -0.0067144415273296815
-0.2515334535201539   -0.05948743350015806   -0.028265366563976074
-0.2515334535201539   -0.05948743350015806   -0.028265366563976074
-0.2515334535201539   -0.05948743350015806   -0.028265366563976074
-0.2515334535201539   -0.05948743350015806   -0.028265366563976074
-0.06827909090351869   0.03098265241712349   0.033242191219850746
-0.06827909090351869   0.03098265241712349   0.033242191219850746
-0.06827909090351869   0.03098265241712349   0.033242191219850746
-0.06827909090351869   0.03098265241712349   0.033242191219850746
-0.07475232043811363   0.006730949503983038   -0.03241021961696051
-0.07475232043811363   0.006730949503983038   -0.03241021961696051
-0.07475232043811363   0.006730949503983038   -0.03241021961696051
-0.07475232043811363   0.006730949503983038   -0.03241021961696051
-0.21992039626414386   0.026220869959925022   0.014963995936709523
-0.21992039626414386   0.026220869959925022   0.014963995936709523
-0.21992039626414386   0.026220869959925022   0.014963995936709523
-0.21992039626414386   0.026220869959925022   0.014963995936709523
-0.1529682261266565   0.000370350705048381   0.007207683288618927
-0.1529682261266565   0.000370350705048381   0.007207683288618927
-0.1529682261266565   0.000370350705048381   0.007207683288618927
-0.1529682261266565   0.000370350705048381   0.007207683288618927
-0.24056754698378477   -0.02696685785172785   -0.03508402984984384
-0.24056754698378477   -0.02696685785172785   -0.03508402984984384
-0.24056754698378477   -0.02696685785172785   -0.03508402984984384
-0.24056754698378477   -0.02696685785172785   -0.03508402984984384
-0.05146767130042952   0.06255617573367883   0.028187799841764248
-0.05146767130042952   0.06255617573367883   0.028187799841764248
-0.05146767130042952   0.06255617573367883   0.028187799841764248
-0.05146767130042952   0.06255617573367883   0.028187799841764248
-0.0597939943256411   0.04526017057547488   -0.03630802546191421
-0.0597939943256411   0.04526017057547488   -0.03630802546191421
-0.0597939943256411   0.04526017057547488   -0.03630802546191421
-0.0597939943256411   0.04526017057547488   -0.03630802546191421
-0.2093872162858516   0.05992352138799019   0.007763805900009926
-0.2093872162858516   0.05992352138799019   0.007763805900009926
-0.2093872162858516   0.05992352138799019   0.007763805900009926
-0.2093872162858516   0.05992352138799019   0.007763805900009926
-0.13892446526496838   0.032206308574659503   0.021131124187355677
-0.13892446526496838   0.032206308574659503   0.021131124187355677
-0.13892446526496838   0.032206308574659503   0.021131124187355677
-0.13892446526496838   0.032206308574659503   0.021131124187355677
-0.11866685464670934   -0.10044176508516994   -0.04856906716377555
-0.11866685464670934   -0.10044176508516994   -0.04856906716377555
-0.11866685464670934   -0.10044176508516994   -0.04856906716377555
-0.11866685464670934   -0.10044176508516994   -0.04856906716377555
0.03999785602337265   0.029674108019012928   0.05975978443932214
0.03999785602337265   0.029674108019012928   0.05975978443932214
0.03999785602337265   0.029674108019012928   0.05975978443932214
0.03999785602337265   0.029674108019012928   0.05975978443932214
0.04029278747770146   -0.04947721802603476   -0.06431700469763409
0.04029278747770146   -0.04947721802603476   -0.06431700469763409
0.04029278747770146   -0.04947721802603476   -0.06431700469763409
0.04029278747770146   -0.04947721802603476   -0.06431700469763409
-0.06514251534751984   0.030996616482155556   0.04891110493481285
-0.06514251534751984   0.030996616482155556   0.04891110493481285
-0.06514251534751984   0.030996616482155556   0.04891110493481285
-0.06514251534751984   0.030996616482155556   0.04891110493481285
-0.027181351364752845   -0.021329436343375016   -0.01135939636904953
-0.027181351364752845   -0.021329436343375016   -0.01135939636904953
-0.027181351364752845   -0.021329436343375016   -0.01135939636904953
-0.027181351364752845   -0.021329436343375016   -0.01135939636904953
-0.10777071070439834   -0.07739430649701123   -0.05583894887041669
-0.10777071070439834   -0.07739430649701123   -0.05583894887041669
-0.10777071070439834   -0.07739430649701123   -0.05583894887041669
-0.10777071070439834   -0.07739430649701123   -0.05583894887041669
0.08594994549417846   0.06194266761273501   0.05254889974598116
0.08594994549417846   0.06194266761273501   0.05254889974598116
0.08594994549417846   0.06194266761273501   0.05254889974598116
0.08594994549417846   0.06194266761273501   0.05254889974598116
0.07415607852957437   -0.029717407033041206   -0.07640420531585307
0.07415607852957437   -0.029717407033041206   -0.07640420531585307
0.07415607852957437   -0.029717407033041206   -0.07640420531585307
0.07415607852957437   -0.029717407033041206   -0.07640420531585307
-0.05270400497461693   0.04533469106858371   0.03922761613592237
-0.05270400497461693   0.04533469106858371   0.03922761613592237
-0.05270400497461693   0.04533469106858371   0.03922761613592237
-0.05270400497461693   0.04533469106858371   0.03922761613592237
0.0006587008294691611   -0.000998355774576593   0.0037269629708274548
0.0006587008294691611   -0.000998355774576593   0.0037269629708274548
0.0006587008294691611   -0.000998355774576593   0.0037269629708274548
0.0006587008294691611   -0.000998355774576593   0.0037269629708274548
-0.09475969668048337   -0.061135792730709015   -0.06458035859411906
-0.09475969668048337   -0.061135792730709015   -0.06458035859411906
-0.09475969668048337   -0.061135792730709015   -0.06458035859411906
-0.09475969668048337   -0.061135792730709015   -0.06458035859411906
0.1192436937880832   0.07978500031889103   0.03953146362475881
0.1192436937880832   0.07978500031889103   0.03953146362475881
0.1192436937880832   0.07978500031889103   0.03953146362475881
0.1192436937880832   0.07978500031889103   0.03953146362475881
0.12161427087397758   0.00896234246704463   -0.08182296966754546
0.12161427087397758   0.00896234246704463   -0.08182296966754546
0.12161427087397758   0.00896234246704463   -0.08182296966754546
0.12161427087397758   0.00896234246704463   -0.08182296966754546
-0.04108403210377615   0.07062388640710521   0.0318780698157802
-0.04108403210377615   0.07062388640710521   0.0318780698157802
-0.04108403210377615   0.07062388640710521   0.0318780698157802
-0.04108403210377615   0.07062388640710521   0.0318780698157802
0.025749039132228955   0.02036198309177107   0.018474560799405786
0.025749039132228955   0.02036198309177107   0.018474560799405786
0.025749039132228955   0.02036198309177107   0.018474560799405786
0.025749039132228955   0.02036198309177107   0.018474560799405786
-0.24410726476414718   0.013961098051146897   0.06827489606179112
-0.24410726476414718   0.013961098051146897   0.06827489606179112
-0.24410726476414718   0.013961098051146897   0.06827489606179112
-0.24410726476414718   0.013961098051146897   0.06827489606179112
-0.2902614351024701   -0.08900256373612377   -0.04023489759050598
-0.2902614351024701   -0.08900256373612377   -0.04023489759050598
-0.2902614351024701   -0.08900256373612377   -0.04023489759050598
-0.2902614351024701   -0.08900256373612377   -0.04023489759050598
-0.23173748583210405   0.04136288707726812   0.05590310052674634
-0.23173748583210405   0.04136288707726812   0.05590310052674634
-0.23173748583210405   0.04136288707726812   0.05590310052674634
-0.23173748583210405   0.04136288707726812   0.05590310052674634
-0.23704803711484626   -0.0585225663053163   -0.05184967870900371
-0.23704803711484626   -0.0585225663053163   -0.05184967870900371
-0.23704803711484626   -0.0585225663053163   -0.05184967870900371
-0.23704803711484626   -0.0585225663053163   -0.05184967870900371
-0.2444506060996233   -0.0188025996472491   -0.01867820556797014
-0.2444506060996233   -0.0188025996472491   -0.01867820556797014
-0.2444506060996233   -0.0188025996472491   -0.01867820556797014
-0.2444506060996233   -0.0188025996472491   -0.01867820556797014
-0.1920892797764185   0.05083018043218311   0.06359136124563568
-0.1920892797764185   0.05083018043218311   0.06359136124563568
-0.1920892797764185   0.05083018043218311   0.06359136124563568
-0.1920892797764185   0.05083018043218311   0.06359136124563568
-0.27387827643949536   -0.06517189292919418   -0.04826607250374403
-0.27387827643949536   -0.06517189292919418   -0.04826607250374403
-0.27387827643949536   -0.06517189292919418   -0.04826607250374403
-0.27387827643949536   -0.06517189292919418   -0.04826607250374403
-0.21368619789597468   0.057053567221417106   0.04704533635345311
-0.21368619789597468   0.057053567221417106   0.04704533635345311
-0.21368619789597468   0.057053567221417106   0.04704533635345311
-0.21368619789597468   0.057053567221417106   0.04704533635345311
-0.19836799980043793   -0.04079005928332719   -0.06458640765455251
-0.19836799980043793   -0.04079005928332719   -0.06458640765455251
-0.19836799980043793   -0.04079005928332719   -0.06458640765455251
-0.19836799980043793   -0.04079005928332719   -0.06458640765455251
-0.2159153548237503   0.0012439551968673641   -0.0038895042281050923
-0.2159153548237503   0.0012439551968673641   -0.0038895042281050923
-0.2159153548237503   0.0012439551968673641   -0.0038895042281050923
-0.2159153548237503   0.0012439551968673641   -0.0038895042281050923
-0.1531501710910551   0.06991186719459774   0.0508008094144367
-0.1531501710910551   0.06991186719459774   0.0508008094144367
-0.1531501710910551   0.06991186719459774   0.0508008094144367
-0.1531501710910551   0.06991186719459774   0.0508008094144367
-0.25624669907639586   -0.05099103172754556   -0.05771257059968641
-0.25624669907639586   -0.05099103172754556   -0.05771257059968641
-0.25624669907639586   -0.05099103172754556   -0.05771257059968641
-0.25624669907639586   -0.05099103172754556   -0.05771257059968641
-0.19717210708031022   0.08101949080279466   0.040632828144471
-0.19717210708031022   0.08101949080279466   0.040632828144471
-0.19717210708031022   0.08101949080279466   0.040632828144471
-0.19717210708031022   0.08101949080279466   0.040632828144471
-0.14673707692689475   -0.0070830753902627105   -0.0727577930539484
-0.14673707692689475   -0.0070830753902627105   -0.0727577930539484
-0.14673707692689475   -0.0070830753902627105   -0.0727577930539484
-0.14673707692689475   -0.0070830753902627105   -0.0727577930539484
-0.18161037204254493   0.02218920228775929   0.01194373129844644
-0.18161037204254493   0.02218920228775929   0.01194373129844644
-0.18161037204254493   0.02218920228775929   0.01194373129844644
-0.18161037204254493   0.02218920228775929   0.01194373129844644
-0.25984304160521887   -0.0159624214975392   0.03881692765716192
-0.25984304160521887   -0.0159624214975392   0.03881692765716192
-0.25984304160521887   -0.0159624214975392   0.03881692765716192
-0.25984304160521887   -0.0159624214975392   0.03881692765716192
-0.3225991980408569   -0.07259884221977957   -0.01571969899974919
-0.3225991980408569   -0.07259884221977957   -0.01571969899974919
-0.3225991980408569   -0.07259884221977957   -0.01571969899974919
-0.3225991980408569   -0.07259884221977957   -0.01571969899974919
-0.28760448373346276   0.007334812423078627   0.025941012878756345
-0.28760448373346276   0.007334812423078627   0.025941012878756345
-0.28760448373346276   0.007334812423078627   0.025941012878756345
-0.28760448373346276   0.007334812423078627   0.025941012878756345
-0.2628094432056561   -0.0342915106665196   -0.023802288597222346
-0.2628094432056561   -0.0342915106665196   -0.023802288597222346
-0.2628094432056561   -0.0342915106665196   -0.023802288597222346
-0.2628094432056561   -0.0342915106665196   -0.023802288597222346
-0.2834165232521149   -0.026665611686667298   -0.013145273725893074
-0.2834165232521149   -0.026665611686667298   -0.013145273725893074
-0.2834165232521149   -0.026665611686667298   -0.013145273725893074
-0.2834165232521149   -0.026665611686667298   -0.013145273725893074
-0.24075649009145647   0.018292001530982583   0.033878964776269845
-0.24075649009145647   0.018292001530982583   0.033878964776269845
-0.24075649009145647   0.018292001530982583   0.033878964776269845
-0.24075649009145647   0.018292001530982583   0.033878964776269845
-0.3074502624562737   -0.043041525383030715   -0.02291154292919101
-0.3074502624562737   -0.043041525383030715   -0.02291154292919101
-0.3074502624562737   -0.043041525383030715   -0.02291154292919101
-0.3074502624562737   -0.043041525383030715   -0.02291154292919101
-0.27148632897859487   0.03855449710912668   0.019791656318240654
-0.27148632897859487   0.03855449710912668   0.019791656318240654
-0.27148632897859487   0.03855449710912668   0.019791656318240654
-0.27148632897859487   0.03855449710912668   0.019791656318240654
-0.2412552440866504   -0.004199366609306905   -0.029546960769197585
-0.2412552440866504   -0.004199366609306905   -0.029546960769197585
-0.2412552440866504   -0.004199366609306905   -0.029546960769197585
-0.2412552440866504   -0.004199366609306905   -0.029546960769197585
-0.2641625565418757   0.002468394951788128   0.0005052348483401276
-0.2641625565418757   0.002468394951788128   0.0005052348483401276
-0.2641625565418757   0.002468394951788128   0.0005052348483401276
-0.2641625565418757   0.002468394951788128   0.0005052348483401276
-0.21812975872295093   0.0513697498205043   0.030511349619484783
-0.21812975872295093   0.0513697498205043   0.030511349619484783
-0.21812975872295093   0.0513697498205043   0.030511349619484783
-0.21812975872295093   0.0513697498205043   0.030511349619484783
-0.2922591476513377   -0.014661952629728772   -0.030855987306619648
-0.2922591476513377   -0.014661952629728772   -0.030855987306619648
-0.2922591476513377   -0.014661952629728772   -0.030855987306619648
-0.2922591476513377   -0.014661952629728772   -0.030855987306619648
-0.2552899314704479   0.07310559450456065   0.01394681065601893
-0.2552899314704479   0.07310559450456065   0.01394681065601893
-0.2552899314704479   0.07310559450456065   0.01394681065601893
-0.2552899314704479   0.07310559450456065   0.01394681065601893
-0.22265481603397583   0.029195634853862257   -0.034956860674920834
-0.22265481603397583   0.029195634853862257   -0.034956860674920834
-0.22265481603397583   0.029195634853862257   -0.034956860674920834
-0.22265481603397583   0.029195634853862257   -0.034956860674920834
-0.24595948796189013   0.0325517117576465   0.014397311969228721
-0.24595948796189013   0.0325517117576465   0.014397311969228721
-0.24595948796189013   0.0325517117576465   0.014397311969228721
-0.24595948796189013   0.0325517117576465   0.014397311969228721
-0.31153761055288176   -0.043915024008263345   0.010904420228604148
-0.31153761055288176   -0.043915024008263345   0.010904420228604148
-0.31153761055288176   -0.043915024008263345   0.010904420228604148
-0.31153761055288176   -0.043915024008263345   0.010904420228604148
-0.3548327930406374   -0.04583663744811385   0.009508426322584182
-0.3548327930406374   -0.04583663744811385   0.009508426322584182
-0.3548327930406374   -0.04583663744811385   0.009508426322584182
-0.3548327930406374   -0.04583663744811385   0.009508426322584182
-0.3419157152078783   -0.020830576123462386   -0.003361441284757863
-0.3419157152078783   -0.020830576123462386   -0.003361441284757863
-0.3419157152078783   -0.020830576123462386   -0.003361441284757863
-0.3419157152078783   -0.020830576123462386   -0.003361441284757863
-0.29488292145000267   -0.006216406702703476   0.0031000434218368816
-0.29488292145000267   -0.006216406702703476   0.0031000434218368816
-0.29488292145000267   -0.006216406702703476   0.0031000434218368816
-0.29488292145000267   -0.006216406702703476   0.0031000434218368816
-0.3262809155481468   -0.02754433944943598   -0.008722868186620727
-0.3262809155481468   -0.02754433944943598   -0.008722868186620727
-0.3262809155481468   -0.02754433944943598   -0.008722868186620727
-0.3262809155481468   -0.02754433944943598   -0.008722868186620727
-0.29512103258558625   -0.00971727927816965   0.00541036031938312
-0.29512103258558625   -0.00971727927816965   0.00541036031938312
-0.29512103258558625   -0.00971727927816965   0.00541036031938312
-0.29512103258558625   -0.00971727927816965   0.00541036031938312
-0.3395965893393237   -0.015248688815020433   0.002652300749573136
-0.3395965893393237   -0.015248688815020433   0.002652300749573136
-0.3395965893393237   -0.015248688815020433   0.002652300749573136
-0.3395965893393237   -0.015248688815020433   0.002652300749573136
-0.32498423598856613   0.013815425489945375   -0.008529860902170089
-0.32498423598856613   0.013815425489945375   -0.008529860902170089
-0.32498423598856613   0.013815425489945375   -0.008529860902170089
-0.32498423598856613   0.013815425489945375   -0.008529860902170089
-0.2788191207579823   0.025216003369462274   -0.003533808839034147
-0.2788191207579823   0.025216003369462274   -0.003533808839034147
-0.2788191207579823   0.025216003369462274   -0.003533808839034147
-0.2788191207579823   0.025216003369462274   -0.003533808839034147
-0.3085930266977226   0.003425753451904521   0.004754554683076909
-0.3085930266977226   0.003425753451904521   0.004754554683076909
-0.3085930266977226   0.003425753451904521   0.004754554683076909
-0.3085930266977226   0.003425753451904521   0.004754554683076909
-0.27825564326082775   0.02480586051597211   -0.00030627849977476335
-0.27825564326082775   0.02480586051597211   -0.00030627849977476335
-0.27825564326082775   0.02480586051597211   -0.00030627849977476335
-0.27825564326082775   0.02480586051597211   -0.00030627849977476335
-0.32373246677235756   0.016040815056797532   -0.004496404387982628
-0.32373246677235756   0.016040815056797532   -0.004496404387982628
-0.32373246677235756   0.016040815056797532   -0.004496404387982628
-0.32373246677235756   0.016040815056797532   -0.004496404387982628
-0.30877195048971257   0.048672275646243934   -0.014363390089111513
-0.30877195048971257   0.048672275646243934   -0.014363390089111513
-0.30877195048971257   0.048672275646243934   -0.014363390089111513
-0.30877195048971257   0.048672275646243934   -0.014363390089111513
-0.26350860314866853   0.056777112208015505   -0.010818065438537736
-0.26350860314866853   0.056777112208015505   -0.010818065438537736
-0.26350860314866853   0.056777112208015505   -0.010818065438537736
-0.26350860314866853   0.056777112208015505   -0.010818065438537736
-0.2917231859632968   0.034452470719131115   0.017601310367457906
-0.2917231859632968   0.034452470719131115   0.017601310367457906
-0.2917231859632968   0.034452470719131115   0.017601310367457906
-0.2917231859632968   0.034452470719131115   0.017601310367457906
-0.36502942122039184   -0.0695777373014464   -0.01773361472285813
-0.36502942122039184   -0.0695777373014464   -0.01773361472285813
-0.36502942122039184   -0.0695777373014464   -0.01773361472285813
-0.36502942122039184   -0.0695777373014464   -0.01773361472285813
-0.38981237601868995   -0.019625930543338783   0.03361813809588729
-0.38981237601868995   -0.019625930543338783   0.03361813809588729
-0.38981237601868995   -0.019625930543338783   0.03361813809588729
-0.38981237601868995   -0.019625930543338783   0.03361813809588729
-0.3960886493891422   -0.04783665266454173   -0.03304477570285184
-0.3960886493891422   -0.04783665266454173   -0.03304477570285184
-0.3960886493891422   -0.04783665266454173   -0.03304477570285184
-0.3960886493891422   -0.04783665266454173   -0.03304477570285184
-0.32723356939008374   0.020852594282029055   0.028366117398723495
-0.32723356939008374   0.020852594282029055   0.028366117398723495
-0.32723356939008374   0.020852594282029055   0.028366117398723495
-0.32723356939008374   0.020852594282029055   0.028366117398723495
-0.36800534833367626   -0.027167130877093514   -0.005482051281705896
-0.36800534833367626   -0.027167130877093514   -0.005482051281705896
-0.36800534833367626   -0.027167130877093514   -0.005482051281705896
-0.36800534833367626   -0.027167130877093514   -0.005482051281705896
-0.34905980926486774   -0.036503689198125466   -0.023408798495044972
-0.34905980926486774   -0.036503689198125466   -0.023408798495044972
-0.34905980926486774   -0.036503689198125466   -0.023408798495044972
-0.34905980926486774   -0.036503689198125466   -0.023408798495044972
-0.3720803654928016   0.011701674837168857   0.027458316277140377
-0.3720803654928016   0.011701674837168857   0.027458316277140377
-0.3720803654928016   0.011701674837168857   0.027458316277140377
-0.3720803654928016   0.011701674837168857   0.027458316277140377
-0.37389986126581437   -0.014982834265587398   -0.03707506018915135
-0.37389986126581437   -0.014982834265587398   -0.03707506018915135
-0.37389986126581437   -0.014982834265587398   -0.03707506018915135
-0.37389986126581437   -0.014982834265587398   -0.03707506018915135
-0.3119881141140597   0.04920203366889518   0.02106414029140906
-0.3119881141140597   0.04920203366889518   0.02106414029140906
-0.3119881141140597   0.04920203366889518   0.02106414029140906
-0.3119881141140597   0.04920203366889518   0.02106414029140906
-0.34790857405355213   0.002656914947869373   0.008429791978111181
-0.34790857405355213   0.002656914947869373   0.008429791978111181
-0.34790857405355213   0.002656914947869373   0.008429791978111181
-0.34790857405355213   0.002656914947869373   0.008429791978111181
-0.333137972422081   -0.005426723312476222   -0.030056394267328847
-0.333137972422081   -0.005426723312476222   -0.030056394267328847
-0.333137972422081   -0.005426723312476222   -0.030056394267328847
-0.333137972422081   -0.005426723312476222   -0.030056394267328847
-0.35054479302460867   0.04185113264896349   0.02286631410233017
-0.35054479302460867   0.04185113264896349   0.02286631410233017
-0.35054479302460867   0.04185113264896349   0.02286631410233017
-0.35054479302460867   0.04185113264896349   0.02286631410233017
-0.35448283525634544   0.02121494041110268   -0.04068348001393378
-0.35448283525634544   0.02121494041110268   -0.04068348001393378
-0.35448283525634544   0.02121494041110268   -0.04068348001393378
-0.35448283525634544   0.02121494041110268   -0.04068348001393378
-0.2967006754242418   0.08080289167850427   0.013862369205981877
-0.2967006754242418   0.08080289167850427   0.013862369205981877
-0.2967006754242418   0.08080289167850427   0.013862369205981877
-0.2967006754242418   0.08080289167850427   0.013862369205981877
-0.330839369713811   0.0322538358240882   0.021732394901038385
-0.330839369713811   0.0322538358240882   0.021732394901038385
-0.330839369713811   0.0322538358240882   0.021732394901038385
-0.330839369713811   0.0322538358240882   0.021732394901038385
-0.4180501126340094   -0.08277228142094926   -0.04442419410310678
-0.4180501126340094   -0.08277228142094926   -0.04442419410310678
-0.4180501126340094   -0.08277228142094926   -0.04442419410310678
-0.4180501126340094   -0.08277228142094926   -0.04442419410310678
-0.46237656485716766   0.006380652507005875   0.06048517221287862
-0.46237656485716766   0.006380652507005875   0.06048517221287862
-0.46237656485716766   0.006380652507005875   0.06048517221287862
-0.46237656485716766   0.006380652507005875   0.06048517221287862
-0.4561582336142609   -0.06882291580891318   -0.05917083825378979
-0.4561582336142609   -0.06882291580891318   -0.05917083825378979
-0.4561582336142609   -0.06882291580891318   -0.05917083825378979
-0.4561582336142609   -0.06882291580891318   -0.05917083825378979
-0.35863208088907855   0.05218502575203539   0.05421638838088519
-0.35863208088907855   0.05218502575203539   0.05421638838088519
-0.35863208088907855   0.05218502575203539   0.05421638838088519
-0.35863208088907855   0.05218502575203539   0.05421638838088519
-0.4068208972646151   -0.017782155284083723   -0.002711111348375733
-0.4068208972646151   -0.017782155284083723   -0.002711111348375733
-0.4068208972646151   -0.017782155284083723   -0.002711111348375733
-0.4068208972646151   -0.017782155284083723   -0.002711111348375733
-0.4013069659391169   -0.05617758070548453   -0.05079543041179051
-0.4013069659391169   -0.05617758070548453   -0.05079543041179051
-0.4013069659391169   -0.05617758070548453   -0.05079543041179051
-0.4013069659391169   -0.05617758070548453   -0.05079543041179051
-0.41117674280515193   0.041846296407676724   0.05506740357516521
-0.41117674280515193   0.041846296407676724   0.05506740357516521
-0.41117674280515193   0.041846296407676724   0.05506740357516521
-0.41117674280515193   0.041846296407676724   0.05506740357516521
-0.4178371801326018   -0.04964258226102304   -0.07052557535412651
-0.4178371801326018   -0.04964258226102304   -0.07052557535412651
-0.4178371801326018   -0.04964258226102304   -0.07052557535412651
-0.4178371801326018   -0.04964258226102304   -0.07052557535412651
-0.34147367392072026   0.06569476887217489   0.0443782733985571
-0.34147367392072026   0.06569476887217489   0.0443782733985571
-0.34147367392072026   0.06569476887217489   0.0443782733985571
-0.34147367392072026   0.06569476887217489   0.0443782733985571
-0.38088247805416164   0.002262928076349563   0.010637479532127611
-0.38088247805416164   0.002262928076349563   0.010637479532127611
-0.38088247805416164   0.002262928076349563   0.010637479532127611
-0.38088247805416164   0.002262928076349563   0.010637479532127611
-0.38332029491889663   -0.04038841890957259   -0.05877164381057946
-0.38332029491889663   -0.04038841890957259   -0.05877164381057946
-0.38332029491889663   -0.04038841890957259   -0.05877164381057946
-0.38332029491889663   -0.04038841890957259   -0.05877164381057946
-0.37357316910342   0.058857995551730824   0.042293901979036555
-0.37357316910342   0.058857995551730824   0.042293901979036555
-0.37357316910342   0.058857995551730824   0.042293901979036555
-0.37357316910342   0.058857995551730824   0.042293901979036555
-0.3675403509933819   -0.016457771263577562   -0.07707389964802792
-0.3675403509933819   -0.016457771263577562   -0.07707389964802792
-0.3675403509933819   -0.016457771263577562   -0.07707389964802792
-0.3675403509933819   -0.016457771263577562   -0.07707389964802792
-0.3261081449572541   0.08585124558884635   0.036553666303777654
-0.3261081449572541   0.08585124558884635   0.036553666303777654
-0.3261081449572541   0.08585124558884635   0.036553666303777654
-0.3261081449572541   0.08585124558884635   0.036553666303777654
-0.345400880766415   0.02229176755004878   0.026090868940228856
-0.345400880766415   0.02229176755004878   0.026090868940228856
-0.345400880766415   0.02229176755004878   0.026090868940228856
-0.345400880766415   0.02229176755004878   0.026090868940228856
0.252977533921114   0.04090020764431726   0.06603999028811504
0.252977533921114   0.04090020764431726   0.06603999028811504
0.252977533921114   0.04090020764431726   0.06603999028811504
0.252977533921114   0.04090020764431726   0.06603999028811504
-0.0061216135973079676   -0.10613229073733998   -0.04361536428807457
-0.0061216135973079676   -0.10613229073733998   -0.04361536428807457
-0.0061216135973079676   -0.10613229073733998   -0.04361536428807457
-0.0061216135973079676   -0.10613229073733998   -0.04361536428807457
0.056300450711386715   0.020721526526703334   0.051022297624830806
0.056300450711386715   0.020721526526703334   0.051022297624830806
0.056300450711386715   0.020721526526703334   0.051022297624830806
0.056300450711386715   0.020721526526703334   0.051022297624830806
0.26393350973451846   -0.037183280529548245   -0.05458947847488539
0.26393350973451846   -0.037183280529548245   -0.05458947847488539
0.26393350973451846   -0.037183280529548245   -0.05458947847488539
0.26393350973451846   -0.037183280529548245   -0.05458947847488539
0.1290940482204991   -0.0206211809905534   -0.03145813053613625
0.1290940482204991   -0.0206211809905534   -0.03145813053613625
0.1290940482204991   -0.0206211809905534   -0.03145813053613625
0.1290940482204991   -0.0206211809905534   -0.03145813053613625
0.30879289643424496   0.0729336592042905   0.05959051528990837
0.30879289643424496   0.0729336592042905   0.05959051528990837
0.30879289643424496   0.0729336592042905   0.05959051528990837
0.30879289643424496   0.0729336592042905   0.05959051528990837
0.014199820107451536   -0.08663665711134408   -0.05212267175679765
0.014199820107451536   -0.08663665711134408   -0.05212267175679765
0.014199820107451536   -0.08663665711134408   -0.05212267175679765
0.014199820107451536   -0.08663665711134408   -0.05212267175679765
0.07906300019101241   0.036129931799492344   0.04258254776809482
0.07906300019101241   0.036129931799492344   0.04258254776809482
0.07906300019101241   0.036129931799492344   0.04258254776809482
0.07906300019101241   0.036129931799492344   0.04258254776809482
0.3075142726943956   -0.019776758881175673   -0.06829410210500264
0.3075142726943956   -0.019776758881175673   -0.06829410210500264
0.3075142726943956   -0.019776758881175673   -0.06829410210500264
0.3075142726943956   -0.019776758881175673   -0.06829410210500264
0.16842082868749172   -0.0014097859579209268   -0.014784734463787225
0.16842082868749172   -0.0014097859579209268   -0.014784734463787225
0.16842082868749172   -0.0014097859579209268   -0.014784734463787225
0.16842082868749172   -0.0014097859579209268   -0.014784734463787225
0.3528668997732439   0.09176054753661032   0.04693172687145318
0.3528668997732439   0.09176054753661032   0.04693172687145318
0.3528668997732439   0.09176054753661032   0.04693172687145318
0.3528668997732439   0.09176054753661032   0.04693172687145318
0.036409182707049764   -0.07270856502340792   -0.06184804282881806
0.036409182707049764   -0.07270856502340792   -0.06184804282881806
0.036409182707049764   -0.07270856502340792   -0.06184804282881806
0.036409182707049764   -0.07270856502340792   -0.06184804282881806
0.10115424954208946   0.06441657667523726   0.03684914080456723
0.10115424954208946   0.06441657667523726   0.03684914080456723
0.10115424954208946   0.06441657667523726   0.03684914080456723
0.10115424954208946   0.06441657667523726   0.03684914080456723
0.3653648827336053   0.019183744872670938   -0.07531755476256803
0.3653648827336053   0.019183744872670938   -0.07531755476256803
0.3653648827336053   0.019183744872670938   -0.07531755476256803
0.3653648827336053   0.019183744872670938   -0.07531755476256803
0.20143541431060202   0.02011898855151728   0.0009817948335167984
0.20143541431060202   0.02011898855151728   0.0009817948335167984
0.20143541431060202   0.02011898855151728   0.0009817948335167984
0.20143541431060202   0.02011898855151728   0.0009817948335167984
0.03499847472129283   0.011029324538431752   0.04482346202915771
0.03499847472129283   0.011029324538431752   0.04482346202915771
0.03499847472129283   0.011029324538431752   0.04482346202915771
0.03499847472129283   0.011029324538431752   0.04482346202915771
-0.24048364416260662   -0.09010665390680361   -0.02000824355623681
-0.24048364416260662   -0.09010665390680361   -0.02000824355623681
-0.24048364416260662   -0.09010665390680361   -0.02000824355623681
-0.24048364416260662   -0.09010665390680361   -0.02000824355623681
-0.20109221150438997   -0.013090951308870724   0.020483276489725206
-0.20109221150438997   -0.013090951308870724   0.020483276489725206
-0.20109221150438997   -0.013090951308870724   0.020483276489725206
-0.20109221150438997   -0.013090951308870724   0.020483276489725206
0.036703715671037876   -0.010346675636060527   -0.01589317541414951
0.036703715671037876   -0.010346675636060527   -0.01589317541414951
0.036703715671037876   -0.010346675636060527   -0.01589317541414951
0.036703715671037876   -0.010346675636060527   -0.01589317541414951
-0.09445153833320265   -0.02332127955445477   -0.015123216306224404
-0.09445153833320265   -0.02332127955445477   -0.015123216306224404
-0.09445153833320265   -0.02332127955445477   -0.015123216306224404
-0.09445153833320265   -0.02332127955445477   -0.015123216306224404
0.058439316830103484   0.04267194167424969   0.03976621307086451
0.058439316830103484   0.04267194167424969   0.03976621307086451
0.058439316830103484   0.04267194167424969   0.03976621307086451
0.058439316830103484   0.04267194167424969   0.03976621307086451
-0.22081973185661   -0.06410148781234112   -0.027143788767904596
-0.22081973185661   -0.06410148781234112   -0.027143788767904596
-0.22081973185661   -0.06410148781234112   -0.027143788767904596
-0.22081973185661   -0.06410148781234112   -0.027143788767904596
-0.18033640298123974   0.016789271431353253   0.014477388328692567
-0.18033640298123974   0.016789271431353253   0.014477388328692567
-0.18033640298123974   0.016789271431353253   0.014477388328692567
-0.18033640298123974   0.016789271431353253   0.014477388328692567
0.06262226179202053   0.018016366308535696   -0.021507578735907897
0.06262226179202053   0.018016366308535696   -0.021507578735907897
0.06262226179202053   0.018016366308535696   -0.021507578735907897
0.06262226179202053   0.018016366308535696   -0.021507578735907897
-0.07245203344411959   0.0030431778104814734   -0.0018358784030969733
-0.07245203344411959   0.0030431778104814734   -0.0018358784030969733
-0.07245203344411959   0.0030431778104814734   -0.0018358784030969733
-0.07245203344411959   0.0030431778104814734   -0.0018358784030969733
0.08527168528692901   0.07413882702390212   0.035617078023268106
0.08527168528692901   0.07413882702390212   0.035617078023268106
0.08527168528692901   0.07413882702390212   0.035617078023268106
0.08527168528692901   0.07413882702390212   0.035617078023268106
-0.2010534602832157   -0.0374008230910806   -0.03491780365875319
-0.2010534602832157   -0.0374008230910806   -0.03491780365875319
-0.2010534602832157   -0.0374008230910806   -0.03491780365875319
-0.2010534602832157   -0.0374008230910806   -0.03491780365875319
-0.15945724313475115   0.05057695665960421   0.008752175454564248
-0.15945724313475115   0.05057695665960421   0.008752175454564248
-0.15945724313475115   0.05057695665960421   0.008752175454564248
-0.15945724313475115   0.05057695665960421   0.008752175454564248
0.08544295370583846   0.05017401160244021   -0.027464773303890695
0.08544295370583846   0.05017401160244021   -0.027464773303890695
0.08544295370583846   0.05017401160244021   -0.027464773303890695
0.08544295370583846   0.05017401160244021   -0.027464773303890695
-0.04812615821928875   0.032148199232059284   0.01232856007346337
-0.04812615821928875   0.032148199232059284   0.01232856007346337
-0.04812615821928875   0.032148199232059284   0.01232856007346337
-0.04812615821928875   0.032148199232059284   0.01232856007346337
-0.21869292048114508   -0.017285503343231663   0.016124224287502757
-0.21869292048114508   -0.017285503343231663   0.016124224287502757
-0.21869292048114508   -0.017285503343231663   0.016124224287502757
-0.21869292048114508   -0.017285503343231663   0.016124224287502757
-0.47060252157810645   -0.06401109741928374   0.004153918988721639
-0.47060252157810645   -0.06401109741928374   0.004153918988721639
-0.47060252157810645   -0.06401109741928374   0.004153918988721639
-0.47060252157810645   -0.06401109741928374   0.004153918988721639
-0.4524270479293412   -0.0401186042875408   -0.008866818023041956
-0.4524270479293412   -0.0401186042875408   -0.008866818023041956
-0.4524270479293412   -0.0401186042875408   -0.008866818023041956
-0.4524270479293412   -0.0401186042875408   -0.008866818023041956
-0.1972291294852511   0.016703120929963865   0.010004614346587025
-0.1972291294852511   0.016703120929963865   0.010004614346587025
-0.1972291294852511   0.016703120929963865   0.010004614346587025
-0.1972291294852511   0.016703120929963865   0.010004614346587025
-0.3352271036378393   -0.024035512038355262   -0.008803064726505674
-0.3352271036378393   -0.024035512038355262   -0.008803064726505674
-0.3352271036378393   -0.024035512038355262   -0.008803064726505674
-0.3352271036378393   -0.024035512038355262   -0.008803064726505674
-0.19748770072795538   0.014771337141625526   0.010643541921403897
-0.19748770072795538   0.014771337141625526   0.010643541921403897
-0.19748770072795538   0.014771337141625526   0.010643541921403897
-0.19748770072795538   0.014771337141625526   0.010643541921403897
-0.45044622394264294   -0.03646456775520404   -0.002616734621891312
-0.45044622394264294   -0.03646456775520404   -0.002616734621891312
-0.45044622394264294   -0.03646456775520404   -0.002616734621891312
-0.45044622394264294   -0.03646456775520404   -0.002616734621891312
-0.4306024682534562   -0.007222637308197104   -0.013943664731887934
-0.4306024682534562   -0.007222637308197104   -0.013943664731887934
-0.4306024682534562   -0.007222637308197104   -0.013943664731887934
-0.4306024682534562   -0.007222637308197104   -0.013943664731887934
-0.17667876849369085   0.04587510894220402   0.0036797232555882582
-0.17667876849369085   0.04587510894220402   0.0036797232555882582
-0.17667876849369085   0.04587510894220402   0.0036797232555882582
-0.17667876849369085   0.04587510894220402   0.0036797232555882582
-0.3126940854592383   0.0048598754671448745   0.004582671349499079
-0.3126940854592383   0.0048598754671448745   0.004582671349499079
-0.3126940854592383   0.0048598754671448745   0.004582671349499079
-0.3126940854592383   0.0048598754671448745   0.004582671349499079
-0.17615114380403687   0.047412459714397344   0.00478049593166497
-0.17615114380403687   0.047412459714397344   0.00478049593166497
-0.17615114380403687   0.047412459714397344   0.00478049593166497
-0.17615114380403687   0.047412459714397344   0.00478049593166497
-0.4297538964903843   -0.007383791627665046   -0.00953965159706363
-0.4297538964903843   -0.007383791627665046   -0.00953965159706363
-0.4297538964903843   -0.007383791627665046   -0.00953965159706363
-0.4297538964903843   -0.007383791627665046   -0.00953965159706363
-0.40965888881056534   0.025763226877028082   -0.019737206431578058
-0.40965888881056534   0.025763226877028082   -0.019737206431578058
-0.40965888881056534   0.025763226877028082   -0.019737206431578058
-0.40965888881056534   0.025763226877028082   -0.019737206431578058
-0.15701723189648065   0.07513298472392599   -0.0036037964184048588
-0.15701723189648065   0.07513298472392599   -0.0036037964184048588
-0.15701723189648065   0.07513298472392599   -0.0036037964184048588
-0.15701723189648065   0.07513298472392599   -0.0036037964184048588
-0.2913359238487338   0.03367564627239895   0.01709461144755657
-0.2913359238487338   0.03367564627239895   0.01709461144755657
-0.2913359238487338   0.03367564627239895   0.01709461144755657
-0.2913359238487338   0.03367564627239895   0.01709461144755657
-0.4703525316962287   -0.045149195918548185   -0.013458033102620948
-0.4703525316962287   -0.045149195918548185   -0.013458033102620948
-0.4703525316962287   -0.045149195918548185   -0.013458033102620948
-0.4703525316962287   -0.045149195918548185   -0.013458033102620948
-0.6983213950117156   -0.03948571309912938   0.0278778245966321
-0.6983213950117156   -0.03948571309912938   0.0278778245966321
-0.6983213950117156   -0.03948571309912938   0.0278778245966321
-0.6983213950117156   -0.03948571309912938   0.0278778245966321
-0.6985327584793597   -0.06658397653446504   -0.03751754759447112
-0.6985327584793597   -0.06658397653446504   -0.03751754759447112
-0.6985327584793597   -0.06658397653446504   -0.03751754759447112
-0.6985327584793597   -0.06658397653446504   -0.03751754759447112
-0.42730389544626246   0.04251206367155046   0.03411827643325649
-0.42730389544626246   0.04251206367155046   0.03411827643325649
-0.42730389544626246   0.04251206367155046   0.03411827643325649
-0.42730389544626246   0.04251206367155046   0.03411827643325649
-0.5704207580966312   -0.024382928981280146   -0.0037047762669644435
-0.5704207580966312   -0.024382928981280146   -0.0037047762669644435
-0.5704207580966312   -0.024382928981280146   -0.0037047762669644435
-0.5704207580966312   -0.024382928981280146   -0.0037047762669644435
-0.448964559113378   -0.012917852323778338   -0.01875512590698855
-0.448964559113378   -0.012917852323778338   -0.01875512590698855
-0.448964559113378   -0.012917852323778338   -0.01875512590698855
-0.448964559113378   -0.012917852323778338   -0.01875512590698855
-0.6754486883051691   -0.00973065403207006   0.02104948077409119
-0.6754486883051691   -0.00973065403207006   0.02104948077409119
-0.6754486883051691   -0.00973065403207006   0.02104948077409119
-0.6754486883051691   -0.00973065403207006   0.02104948077409119
-0.6711933798309369   -0.03520080400453361   -0.04174478235882717
-0.6711933798309369   -0.03520080400453361   -0.04174478235882717
-0.6711933798309369   -0.03520080400453361   -0.04174478235882717
-0.6711933798309369   -0.03520080400453361   -0.04174478235882717
-0.40712613374866985   0.06906264459658533   0.02715272588726117
-0.40712613374866985   0.06906264459658533   0.02715272588726117
-0.40712613374866985   0.06906264459658533   0.02715272588726117
-0.40712613374866985   0.06906264459658533   0.02715272588726117
-0.5434000107251807   0.004743930300647528   0.010086876776455325
-0.5434000107251807   0.004743930300647528   0.010086876776455325
-0.5434000107251807   0.004743930300647528   0.010086876776455325
-0.5434000107251807   0.004743930300647528   0.010086876776455325
-0.42806891027589117   0.016727786623157485   -0.02522629877541735
-0.42806891027589117   0.016727786623157485   -0.02522629877541735
-0.42806891027589117   0.016727786623157485   -0.02522629877541735
-0.42806891027589117   0.016727786623157485   -0.02522629877541735
-0.6486497663097653   0.018734890962844454   0.017037590279652237
-0.6486497663097653   0.018734890962844454   0.017037590279652237
-0.6486497663097653   0.018734890962844454   0.017037590279652237
-0.6486497663097653   0.018734890962844454   0.017037590279652237
-0.6467347919951448   -0.000963320751236136   -0.04493457637181701
-0.6467347919951448   -0.000963320751236136   -0.04493457637181701
-0.6467347919951448   -0.000963320751236136   -0.04493457637181701
-0.6467347919951448   -0.000963320751236136   -0.04493457637181701
-0.38715812039540276   0.098394667144831   0.020135195376431894
-0.38715812039540276   0.098394667144831   0.020135195376431894
-0.38715812039540276   0.098394667144831   0.020135195376431894
-0.38715812039540276   0.098394667144831   0.020135195376431894
-0.5231648382718868   0.03191523519880996   0.022449678835856995
-0.5231648382718868   0.03191523519880996   0.022449678835856995
-0.5231648382718868   0.03191523519880996   0.022449678835856995
-0.5231648382718868   0.03191523519880996   0.022449678835856995
-0.7171484830001967   -0.06484952604429678   -0.04089380240060567
-0.7171484830001967   -0.06484952604429678   -0.04089380240060567
-0.7171484830001967   -0.06484952604429678   -0.04089380240060567
-0.7171484830001967   -0.06484952604429678   -0.04089380240060567
-0.9578839941611752   -0.016845089270345642   0.06037601199451359
-0.9578839941611752   -0.016845089270345642   0.06037601199451359
-0.9578839941611752   -0.016845089270345642   0.06037601199451359
-0.9578839941611752   -0.016845089270345642   0.06037601199451359
-0.9445186547515058   -0.08674941869802634   -0.05456926000699622
-0.9445186547515058   -0.08674941869802634   -0.05456926000699622
-0.9445186547515058   -0.08674941869802634   -0.05456926000699622
-0.9445186547515058   -0.08674941869802634   -0.05456926000699622
-0.6514408981217661   0.0718389258871531   0.05951885177187852
-0.6514408981217661   0.0718389258871531   0.05951885177187852
-0.6514408981217661   0.0718389258871531   0.05951885177187852
-0.6514408981217661   0.0718389258871531   0.05951885177187852
-0.7824970408983702   -0.013882596318019982   0.006490218529060843
-0.7824970408983702   -0.013882596318019982   0.006490218529060843
-0.7824970408983702   -0.013882596318019982   0.006490218529060843
-0.7824970408983702   -0.013882596318019982   0.006490218529060843
-0.6939576655423199   -0.03497381728628053   -0.04625224215745313
-0.6939576655423199   -0.03497381728628053   -0.04625224215745313
-0.6939576655423199   -0.03497381728628053   -0.04625224215745313
-0.6939576655423199   -0.03497381728628053   -0.04625224215745313
-0.9007103223800026   0.021354889426354204   0.056368093726120505
-0.9007103223800026   0.021354889426354204   0.056368093726120505
-0.9007103223800026   0.021354889426354204   0.056368093726120505
-0.9007103223800026   0.021354889426354204   0.056368093726120505
-0.9012678655571025   -0.06812889602725525   -0.06494585946221129
-0.9012678655571025   -0.06812889602725525   -0.06494585946221129
-0.9012678655571025   -0.06812889602725525   -0.06494585946221129
-0.9012678655571025   -0.06812889602725525   -0.06494585946221129
-0.629174667859238   0.08408129818786464   0.04906667530726355
-0.629174667859238   0.08408129818786464   0.04906667530726355
-0.629174667859238   0.08408129818786464   0.04906667530726355
-0.629174667859238   0.08408129818786464   0.04906667530726355
-0.7579640004664454   0.0056572000806617145   0.01762960280688408
-0.7579640004664454   0.0056572000806617145   0.01762960280688408
-0.7579640004664454   0.0056572000806617145   0.01762960280688408
-0.7579640004664454   0.0056572000806617145   0.01762960280688408
-0.6704161541886089   -0.019651061242882063   -0.05340839690883899
-0.6704161541886089   -0.019651061242882063   -0.05340839690883899
-0.6704161541886089   -0.019651061242882063   -0.05340839690883899
-0.6704161541886089   -0.019651061242882063   -0.05340839690883899
-0.8584464475202863   0.03718339511093633   0.04384893958367034
-0.8584464475202863   0.03718339511093633   0.04384893958367034
-0.8584464475202863   0.03718339511093633   0.04384893958367034
-0.8584464475202863   0.03718339511093633   0.04384893958367034
-0.8479869499623388   -0.04032014513911557   -0.07242448233091647
-0.8479869499623388   -0.04032014513911557   -0.07242448233091647
-0.8479869499623388   -0.04032014513911557   -0.07242448233091647
-0.8479869499623388   -0.04032014513911557   -0.07242448233091647
-0.6096073025554325   0.09886703769796312   0.040872512377542525
-0.6096073025554325   0.09886703769796312   0.040872512377542525
-0.6096073025554325   0.09886703769796312   0.040872512377542525
-0.6096073025554325   0.09886703769796312   0.040872512377542525
-0.7120460457131536   0.02396267387073956   0.03331816558895853
-0.7120460457131536   0.02396267387073956   0.03331816558895853
-0.7120460457131536   0.02396267387073956   0.03331816558895853
-0.7120460457131536   0.02396267387073956   0.03331816558895853
0.7604436011308825   0.0690975669249713   0.06596870929529133
0.7604436011308825   0.0690975669249713   0.06596870929529133
0.7604436011308825   0.0690975669249713   0.06596870929529133
0.7604436011308825   0.0690975669249713   0.06596870929529133
0.27851431728605097   -0.126416021383704   -0.04342295739368008
0.27851431728605097   -0.126416021383704   -0.04342295739368008
0.27851431728605097   -0.126416021383704   -0.04342295739368008
0.27851431728605097   -0.126416021383704   -0.04342295739368008
0.34392196197799774   -0.0007747214489420761   0.04746486468466615
0.34392196197799774   -0.0007747214489420761   0.04746486468466615
0.34392196197799774   -0.0007747214489420761   0.04746486468466615
0.34392196197799774   -0.0007747214489420761   0.04746486468466615
0.7742451860440756   -0.01754112472898143   -0.05543717667358733
0.7742451860440756   -0.01754112472898143   -0.05543717667358733
0.7742451860440756   -0.01754112472898143   -0.05543717667358733
0.7742451860440756   -0.01754112472898143   -0.05543717667358733
0.5061105098737049   -0.022877028233734803   -0.048865725713177335
0.5061105098737049   -0.022877028233734803   -0.048865725713177335
0.5061105098737049   -0.022877028233734803   -0.048865725713177335
0.5061105098737049   -0.022877028233734803   -0.048865725713177335
0.8195749149025688   0.09633080398084617   0.0573395389090364
0.8195749149025688   0.09633080398084617   0.0573395389090364
0.8195749149025688   0.09633080398084617   0.0573395389090364
0.8195749149025688   0.09633080398084617   0.0573395389090364
0.3018012879373294   -0.11143759534094663   -0.05247563162666721
0.3018012879373294   -0.11143759534094663   -0.05247563162666721
0.3018012879373294   -0.11143759534094663   -0.05247563162666721
0.3018012879373294   -0.11143759534094663   -0.05247563162666721
0.3697290131002144   0.014153238826868086   0.03914114602939735
0.3697290131002144   0.014153238826868086   0.03914114602939735
0.3697290131002144   0.014153238826868086   0.03914114602939735
0.3697290131002144   0.014153238826868086   0.03914114602939735
0.8212983738106139   -0.0005746330745616673   -0.06983437267661824
0.8212983738106139   -0.0005746330745616673   -0.06983437267661824
0.8212983738106139   -0.0005746330745616673   -0.06983437267661824
0.8212983738106139   -0.0005746330745616673   -0.06983437267661824
0.5552455837366128   -0.00455072313035558   -0.029597151247839903
0.5552455837366128   -0.00455072313035558   -0.029597151247839903
0.5552455837366128   -0.00455072313035558   -0.029597151247839903
0.5552455837366128   -0.00455072313035558   -0.029597151247839903
0.8671312851557019   0.11463047852244729   0.0441250724518058
0.8671312851557019   0.11463047852244729   0.0441250724518058
0.8671312851557019   0.11463047852244729   0.0441250724518058
0.8671312851557019   0.11463047852244729   0.0441250724518058
0.32731000964240964   -0.0976379648828581   -0.061162667549896174
0.32731000964240964   -0.0976379648828581   -0.061162667549896174
0.32731000964240964   -0.0976379648828581   -0.061162667549896174
0.32731000964240964   -0.0976379648828581   -0.061162667549896174
0.3955003290287291   0.047059088512759584   0.03392371714275132
0.3955003290287291   0.047059088512759584   0.03392371714275132
0.3955003290287291   0.047059088512759584   0.03392371714275132
0.3955003290287291   0.047059088512759584   0.03392371714275132
0.8830871546955392   0.04367385049985911   -0.0753318914107099
0.8830871546955392   0.04367385049985911   -0.0753318914107099
0.8830871546955392   0.04367385049985911   -0.0753318914107099
0.8830871546955392   0.04367385049985911   -0.0753318914107099
0.5855641864017228   0.01774450921565577   -0.012929350048506622
0.5855641864017228   0.01774450921565577   -0.012929350048506622
0.5855641864017228   0.01774450921565577   -0.012929350048506622
0.5855641864017228   0.01774450921565577   -0.012929350048506622
0.3307654423283152   0.03869011782451221   0.052726528609420495
0.3307654423283152   0.03869011782451221   0.052726528609420495
0.3307654423283152   0.03869011782451221   0.052726528609420495
0.3307654423283152   0.03869011782451221   0.052726528609420495
-0.1611540660883137   -0.1179526471740232   -0.02274740511799197
-0.1611540660883137   -0.1179526471740232   -0.02274740511799197
-0.1611540660883137   -0.1179526471740232   -0.02274740511799197
-0.1611540660883137   -0.1179526471740232   -0.02274740511799197
-0.11617180455674891   -0.034550055801592754   0.015965443985976137
-0.11617180455674891   -0.034550055801592754   0.015965443985976137
-0.11617180455674891   -0.034550055801592754   0.015965443985976137
-0.11617180455674891   -0.034550055801592754   0.015965443985976137
0.3333851177412314   0.0009762625648296885   -0.006970340512937254
0.3333851177412314   0.0009762625648296885   -0.006970340512937254
0.3333851177412314   0.0009762625648296885   -0.006970340512937254
0.3333851177412314   0.0009762625648296885   -0.006970340512937254
0.09235468155209757   -0.024933439508982757   -0.020820481017251487
0.09235468155209757   -0.024933439508982757   -0.020820481017251487
0.09235468155209757   -0.024933439508982757   -0.020820481017251487
0.09235468155209757   -0.024933439508982757   -0.020820481017251487
0.35727545702220953   0.06636485950696694   0.047092758949816155
0.35727545702220953   0.06636485950696694   0.047092758949816155
0.35727545702220953   0.06636485950696694   0.047092758949816155
0.35727545702220953   0.06636485950696694   0.047092758949816155
-0.13812869450572676   -0.09800520341174028   -0.030363858148767513
-0.13812869450572676   -0.09800520341174028   -0.030363858148767513
-0.13812869450572676   -0.09800520341174028   -0.030363858148767513
-0.13812869450572676   -0.09800520341174028   -0.030363858148767513
-0.0921297994019839   -0.006614199089568588   0.010091655467575126
-0.0921297994019839   -0.006614199089568588   0.010091655467575126
-0.0921297994019839   -0.006614199089568588   0.010091655467575126
-0.0921297994019839   -0.006614199089568588   0.010091655467575126
0.36167777782061006   0.026042519200058005   -0.01300431074181016
0.36167777782061006   0.026042519200058005   -0.01300431074181016
0.36167777782061006   0.026042519200058005   -0.01300431074181016
0.36167777782061006   0.026042519200058005   -0.01300431074181016
0.11558333531205556   -0.0028583671139313788   -0.008279526988644509
0.11558333531205556   -0.0028583671139313788   -0.008279526988644509
0.11558333531205556   -0.0028583671139313788   -0.008279526988644509
0.11558333531205556   -0.0028583671139313788   -0.008279526988644509
0.3865238355132255   0.09545991348685208   0.041808583434469096
0.3865238355132255   0.09545991348685208   0.041808583434469096
0.3865238355132255   0.09545991348685208   0.041808583434469096
0.3865238355132255   0.09545991348685208   0.041808583434469096
-0.11503813132513588   -0.07409386760689984   -0.03697033563085344
-0.11503813132513588   -0.07409386760689984   -0.03697033563085344
-0.11503813132513588   -0.07409386760689984   -0.03697033563085344
-0.11503813132513588   -0.07409386760689984   -0.03697033563085344
-0.06839007756242411   0.025749341156552176   0.004244905734931683
-0.06839007756242411   0.025749341156552176   0.004244905734931683
-0.06839007756242411   0.025749341156552176   0.004244905734931683
-0.06839007756242411   0.025749341156552176   0.004244905734931683
0.38676859501926636   0.055889577588458444   -0.018565441980261527
0.38676859501926636   0.055889577588458444   -0.018565441980261527
0.38676859501926636   0.055889577588458444   -0.018565441980261527
0.38676859501926636   0.055889577588458444   -0.018565441980261527
0.14427842468926758   0.02421333997107248   0.006361738688831758
0.14427842468926758   0.02421333997107248   0.006361738688831758
0.14427842468926758   0.02421333997107248   0.006361738688831758
0.14427842468926758   0.02421333997107248   0.006361738688831758
-0.1268521620453903   0.00839173689502963   0.02241773102757234
-0.1268521620453903   0.00839173689502963   0.02241773102757234
-0.1268521620453903   0.00839173689502963   0.02241773102757234
-0.1268521620453903   0.00839173689502963   0.02241773102757234
-0.5920946077282219   -0.10415073904426145   -0.0030074463727411127
-0.5920946077282219   -0.10415073904426145   -0.0030074463727411127
-0.5920946077282219   -0.10415073904426145   -0.0030074463727411127
-0.5920946077282219   -0.10415073904426145   -0.0030074463727411127
-0.5635873129871966   -0.061351669376656856   -0.013911153684571034
-0.5635873129871966   -0.061351669376656856   -0.013911153684571034
-0.5635873129871966   -0.061351669376656856   -0.013911153684571034
-0.5635873129871966   -0.061351669376656856   -0.013911153684571034
-0.10636920797053036   0.015523562645920757   0.014904808469553495
-0.10636920797053036   0.015523562645920757   0.014904808469553495
-0.10636920797053036   0.015523562645920757   0.014904808469553495
-0.10636920797053036   0.015523562645920757   0.014904808469553495
-0.34783644255090107   -0.03201916706129879   -0.012998500338106983
-0.34783644255090107   -0.03201916706129879   -0.012998500338106983
-0.34783644255090107   -0.03201916706129879   -0.012998500338106983
-0.34783644255090107   -0.03201916706129879   -0.012998500338106983
-0.10161973601414445   0.03721601911195743   0.016959711785448223
-0.10161973601414445   0.03721601911195743   0.016959711785448223
-0.10161973601414445   0.03721601911195743   0.016959711785448223
-0.10161973601414445   0.03721601911195743   0.016959711785448223
-0.5670448981511751   -0.08175223905028582   -0.010798509830834607
-0.5670448981511751   -0.08175223905028582   -0.010798509830834607
-0.5670448981511751   -0.08175223905028582   -0.010798509830834607
-0.5670448981511751   -0.08175223905028582   -0.010798509830834607
-0.5370891863557132   -0.030701460408344827   -0.01879270563513355
-0.5370891863557132   -0.030701460408344827   -0.01879270563513355
-0.5370891863557132   -0.030701460408344827   -0.01879270563513355
-0.5370891863557132   -0.030701460408344827   -0.01879270563513355
-0.08296861790018707   0.040845138360252484   0.00843822552673821
-0.08296861790018707   0.040845138360252484   0.00843822552673821
-0.08296861790018707   0.040845138360252484   0.00843822552673821
-0.08296861790018707   0.040845138360252484   0.00843822552673821
-0.3211100867084641   -0.006374681290029122   -0.00019893578903158737
-0.3211100867084641   -0.006374681290029122   -0.00019893578903158737
-0.3211100867084641   -0.006374681290029122   -0.00019893578903158737
-0.3211100867084641   -0.006374681290029122   -0.00019893578903158737
-0.07723699769566952   0.06717984286050528   0.010761622049073223
-0.07723699769566952   0.06717984286050528   0.010761622049073223
-0.07723699769566952   0.06717984286050528   0.010761622049073223
-0.07723699769566952   0.06717984286050528   0.010761622049073223
-0.5416209500766339   -0.05583630842501093   -0.016316676223070675
-0.5416209500766339   -0.05583630842501093   -0.016316676223070675
-0.5416209500766339   -0.05583630842501093   -0.016316676223070675
-0.5416209500766339   -0.05583630842501093   -0.016316676223070675
-0.5124232678015435   -0.00015293404183135129   -0.024627354342128732
-0.5124232678015435   -0.00015293404183135129   -0.024627354342128732
-0.5124232678015435   -0.00015293404183135129   -0.024627354342128732
-0.5124232678015435   -0.00015293404183135129   -0.024627354342128732
-0.06063352618156877   0.06670637073043317   0.0020706330653273482
-0.06063352618156877   0.06670637073043317   0.0020706330653273482
-0.06063352618156877   0.06670637073043317   0.0020706330653273482
-0.06063352618156877   0.06670637073043317   0.0020706330653273482
-0.29655929127065156   0.019173398234692104   0.011980580873955746
-0.29655929127065156   0.019173398234692104   0.011980580873955746
-0.29655929127065156   0.019173398234692104   0.011980580873955746
-0.29655929127065156   0.019173398234692104   0.011980580873955746
-0.5769367330020004   -0.022548423311409205   -0.008820388474482257
-0.5769367330020004   -0.022548423311409205   -0.008820388474482257
-0.5769367330020004   -0.022548423311409205   -0.008820388474482257
-0.5769367330020004   -0.022548423311409205   -0.008820388474482257
-1.0132317029937528   -0.08438856143549298   0.019538155267681878
-1.0132317029937528   -0.08438856143549298   0.019538155267681878
-1.0132317029937528   -0.08438856143549298   0.019538155267681878
-1.0132317029937528   -0.08438856143549298   0.019538155267681878
-0.9993771885979376   -0.08709738390165953   -0.04185566828111831
-0.9993771885979376   -0.08709738390165953   -0.04185566828111831
-0.9993771885979376   -0.08709738390165953   -0.04185566828111831
-0.9993771885979376   -0.08709738390165953   -0.04185566828111831
-0.533192890115332   0.03925520528284394   0.03745408601525717
-0.533192890115332   0.03925520528284394   0.03745408601525717
-0.533192890115332   0.03925520528284394   0.03745408601525717
-0.533192890115332   0.03925520528284394   0.03745408601525717
-0.7752836550287708   -0.033821106483826614   -0.0045316633557031805
-0.7752836550287708   -0.033821106483826614   -0.0045316633557031805
-0.7752836550287708   -0.033821106483826614   -0.0045316633557031805
-0.7752836550287708   -0.033821106483826614   -0.0045316633557031805
-0.5495067728633274   0.008563173677592382   -0.013423296119468936
-0.5495067728633274   0.008563173677592382   -0.013423296119468936
-0.5495067728633274   0.008563173677592382   -0.013423296119468936
-0.5495067728633274   0.008563173677592382   -0.013423296119468936
-0.9829953482716681   -0.05633739471813393   0.009293544166703943
-0.9829953482716681   -0.05633739471813393   0.009293544166703943
-0.9829953482716681   -0.05633739471813393   0.009293544166703943
-0.9829953482716681   -0.05633739471813393   0.009293544166703943
-0.9647508421587971   -0.05715188135514214   -0.046295195461248856
-0.9647508421587971   -0.05715188135514214   -0.046295195461248856
-0.9647508421587971   -0.05715188135514214   -0.046295195461248856
-0.9647508421587971   -0.05715188135514214   -0.046295195461248856
-0.5085234452172838   0.06339859256889374   0.02993594707978034
-0.5085234452172838   0.06339859256889374   0.02993594707978034
-0.5085234452172838   0.06339859256889374   0.02993594707978034
-0.5085234452172838   0.06339859256889374   0.02993594707978034
-0.7400577834835682   -0.005476523689320688   0.00830475115313195
-0.7400577834835682   -0.005476523689320688   0.00830475115313195
-0.7400577834835682   -0.005476523689320688   0.00830475115313195
-0.7400577834835682   -0.005476523689320688   0.00830475115313195
-0.5238378334424059   0.036368565987498866   -0.01960596746443516
-0.5238378334424059   0.036368565987498866   -0.01960596746443516
-0.5238378334424059   0.036368565987498866   -0.01960596746443516
-0.5238378334424059   0.036368565987498866   -0.01960596746443516
-0.9486246495955184   -0.029310050435590568   0.006493936435593456
-0.9486246495955184   -0.029310050435590568   0.006493936435593456
-0.9486246495955184   -0.029310050435590568   0.006493936435593456
-0.9486246495955184   -0.029310050435590568   0.006493936435593456
-0.9337887422026899   -0.02469368011480535   -0.048675919114462646
-0.9337887422026899   -0.02469368011480535   -0.048675919114462646
-0.9337887422026899   -0.02469368011480535   -0.048675919114462646
-0.9337887422026899   -0.02469368011480535   -0.048675919114462646
-0.484630374509655   0.08994623125013344   0.024237946825354004
-0.484630374509655   0.08994623125013344   0.024237946825354004
-0.484630374509655   0.08994623125013344   0.024237946825354004
-0.484630374509655   0.08994623125013344   0.024237946825354004
-0.7162294738415897   0.018755683894099776   0.019378102406893832
-0.7162294738415897   0.018755683894099776   0.019378102406893832
-0.7162294738415897   0.018755683894099776   0.019378102406893832
-0.7162294738415897   0.018755683894099776   0.019378102406893832
-1.0174863149052682   -0.04838787413594862   -0.03773559158943915
-1.0174863149052682   -0.04838787413594862   -0.03773559158943915
-1.0174863149052682   -0.04838787413594862   -0.03773559158943915
-1.0174863149052682   -0.04838787413594862   -0.03773559158943915
-1.4502259534243411   -0.05230360894340656   0.06538952417428445
-1.4502259534243411   -0.05230360894340656   0.06538952417428445
-1.4502259534243411   -0.05230360894340656   0.06538952417428445
-1.4502259534243411   -0.05230360894340656   0.06538952417428445
-1.422368257519391   -0.10425070928266614   -0.050001964679592836
-1.422368257519391   -0.10425070928266614   -0.050001964679592836
-1.422368257519391   -0.10425070928266614   -0.050001964679592836
-1.422368257519391   -0.10425070928266614   -0.050001964679592836
-0.9440724600234637   0.08110239545061948   0.06646819523896216
-0.9440724600234637   0.08110239545061948   0.06646819523896216
-0.9440724600234637   0.08110239545061948   0.06646819523896216
-0.9440724600234637   0.08110239545061948   0.06646819523896216
-1.1549340599145999   -0.014276486088992929   0.013390793537741141
-1.1549340599145999   -0.014276486088992929   0.013390793537741141
-1.1549340599145999   -0.014276486088992929   0.013390793537741141
-1.1549340599145999   -0.014276486088992929   0.013390793537741141
-0.9850104522907919   -0.015168857858698974   -0.04195051278835607
-0.9850104522907919   -0.015168857858698974   -0.04195051278835607
-0.9850104522907919   -0.015168857858698974   -0.04195051278835607
-0.9850104522907919   -0.015168857858698974   -0.04195051278835607
-1.3807539302817073   -0.007303121002998611   0.06112208322914575
-1.3807539302817073   -0.007303121002998611   0.06112208322914575
-1.3807539302817073   -0.007303121002998611   0.06112208322914575
-1.3807539302817073   -0.007303121002998611   0.06112208322914575
-1.3699657575184452   -0.08566775941958045   -0.058887523070754566
-1.3699657575184452   -0.08566775941958045   -0.058887523070754566
-1.3699657575184452   -0.08566775941958045   -0.058887523070754566
-1.3699657575184452   -0.08566775941958045   -0.058887523070754566
-0.9150145959093294   0.09256415070679141   0.05267000372415673
-0.9150145959093294   0.09256415070679141   0.05267000372415673
-0.9150145959093294   0.09256415070679141   0.05267000372415673
-0.9150145959093294   0.09256415070679141   0.05267000372415673
-1.1278964430348126   0.006007347500048527   0.02407248657814587
-1.1278964430348126   0.006007347500048527   0.02407248657814587
-1.1278964430348126   0.006007347500048527   0.02407248657814587
-1.1278964430348126   0.006007347500048527   0.02407248657814587
-0.9536450680929937   -0.0001747985148449413   -0.04774340797252863
-0.9536450680929937   -0.0001747985148449413   -0.04774340797252863
-0.9536450680929937   -0.0001747985148449413   -0.04774340797252863
-0.9536450680929937   -0.0001747985148449413   -0.04774340797252863
-1.3306609579590136   0.007745517177814035   0.04422319812898451
-1.3306609579590136   0.007745517177814035   0.04422319812898451
-1.3306609579590136   0.007745517177814035   0.04422319812898451
-1.3306609579590136   0.007745517177814035   0.04422319812898451
-1.3126891666947924   -0.06334488985427181   -0.0671052612442721
-1.3126891666947924   -0.06334488985427181   -0.0671052612442721
-1.3126891666947924   -0.06334488985427181   -0.0671052612442721
-1.3126891666947924   -0.06334488985427181   -0.0671052612442721
-0.8894776460770666   0.10333377847703562   0.04485210292180905
-0.8894776460770666   0.10333377847703562   0.04485210292180905
-0.8894776460770666   0.10333377847703562   0.04485210292180905
-0.8894776460770666   0.10333377847703562   0.04485210292180905
-1.0701112372302524   0.022870104134103425   0.04021586834224172
-1.0701112372302524   0.022870104134103425   0.04021586834224172
-1.0701112372302524   0.022870104134103425   0.04021586834224172
-1.0701112372302524   0.022870104134103425   0.04021586834224172
1.276585568619408   0.09540692220746946   0.06762050922876864
1.276585568619408   0.09540692220746946   0.06762050922876864
1.276585568619408   0.09540692220746946   0.06762050922876864
1.276585568619408   0.09540692220746946   0.06762050922876864
0.5631025717957391   -0.1503268341938813   -0.031077738224967025
0.5631025717957391   -0.1503268341938813   -0.031077738224967025
0.5631025717957391   -0.1503268341938813   -0.031077738224967025
0.5631025717957391   -0.1503268341938813   -0.031077738224967025
0.627876237921503   -0.026438492517446094   0.0464449325066619
0.627876237921503   -0.026438492517446094   0.0464449325066619
0.627876237921503   -0.026438492517446094   0.0464449325066619
0.627876237921503   -0.026438492517446094   0.0464449325066619
1.2906689573271448   -0.0023527019348172362   -0.048708282533785785
1.2906689573271448   -0.0023527019348172362   -0.048708282533785785
1.2906689573271448   -0.0023527019348172362   -0.048708282533785785
1.2906689573271448   -0.0023527019348172362   -0.048708282533785785
0.8845267552044286   -0.026811350111580173   -0.06918035940596065
0.8845267552044286   -0.026811350111580173   -0.06918035940596065
0.8845267552044286   -0.026811350111580173   -0.06918035940596065
0.8845267552044286   -0.026811350111580173   -0.06918035940596065
1.3356229915157127   0.11713642416242319   0.05657276231179853
1.3356229915157127   0.11713642416242319   0.05657276231179853
1.3356229915157127   0.11713642416242319   0.05657276231179853
1.3356229915157127   0.11713642416242319   0.05657276231179853
0.5872393126506924   -0.14161050969693106   -0.04156767666790252
0.5872393126506924   -0.14161050969693106   -0.04156767666790252
0.5872393126506924   -0.14161050969693106   -0.04156767666790252
0.5872393126506924   -0.14161050969693106   -0.04156767666790252
0.6532065047270046   -0.012716193954225186   0.03754969200861208
0.6532065047270046   -0.012716193954225186   0.03754969200861208
0.6532065047270046   -0.012716193954225186   0.03754969200861208
0.6532065047270046   -0.012716193954225186   0.03754969200861208
1.3349343933861733   0.01277824304077245   -0.060859271193430264
1.3349343933861733   0.01277824304077245   -0.060859271193430264
1.3349343933861733   0.01277824304077245   -0.060859271193430264
1.3349343933861733   0.01277824304077245   -0.060859271193430264
0.9401139061048752   -0.010640439165423857   -0.04705795098468141
0.9401139061048752   -0.010640439165423857   -0.04705795098468141
0.9401139061048752   -0.010640439165423857   -0.04705795098468141
0.9401139061048752   -0.010640439165423857   -0.04705795098468141
1.3796252417543557   0.1334435481559781   0.04192966553227717
1.3796252417543557   0.1334435481559781   0.04192966553227717
1.3796252417543557   0.1334435481559781   0.04192966553227717
1.3796252417543557   0.1334435481559781   0.04192966553227717
0.6122941185342818   -0.12960303689396058   -0.050125396015265625
0.6122941185342818   -0.12960303689396058   -0.050125396015265625
0.6122941185342818   -0.12960303689396058   -0.050125396015265625
0.6122941185342818   -0.12960303689396058   -0.050125396015265625
0.6761529419358361   0.023937592299096474   0.032921030345180055
0.6761529419358361   0.023937592299096474   0.032921030345180055
0.6761529419358361   0.023937592299096474   0.032921030345180055
0.6761529419358361   0.023937592299096474   0.032921030345180055
1.3893943233965078   0.05705066494304528   -0.06373196095053185
1.3893943233965078   0.05705066494304528   -0.06373196095053185
1.3893943233965078   0.05705066494304528   -0.06373196095053185
1.3893943233965078   0.05705066494304528   -0.06373196095053185
0.9608996384147728   0.011130508719707763   -0.031745383029854135
0.9608996384147728   0.011130508719707763   -0.031745383029854135
0.9608996384147728   0.011130508719707763   -0.031745383029854135
0.9608996384147728   0.011130508719707763   -0.031745383029854135
0.6229219376697539   0.0557920716595174   0.061900185291704796
0.6229219376697539   0.0557920716595174   0.061900185291704796
0.6229219376697539   0.0557920716595174   0.061900185291704796
0.6229219376697539   0.0557920716595174   0.061900185291704796
-0.07704143274623071   -0.1852162491080546   -0.017698188470557964
-0.07704143274623071   -0.1852162491080546   -0.017698188470557964
-0.07704143274623071   -0.1852162491080546   -0.017698188470557964
-0.07704143274623071   -0.1852162491080546   -0.017698188470557964
-0.02125594711840858   -0.0654097215441168   0.01574080380197034
-0.02125594711840858   -0.0654097215441168   0.01574080380197034
-0.02125594711840858   -0.0654097215441168   0.01574080380197034
-0.02125594711840858   -0.0654097215441168   0.01574080380197034
0.6176591796771178   -0.03414816785232943   0.0030693166196190946
0.6176591796771178   -0.03414816785232943   0.0030693166196190946
0.6176591796771178   -0.03414816785232943   0.0030693166196190946
0.6176591796771178   -0.03414816785232943   0.0030693166196190946
0.2778326461408956   -0.05162374027542674   -0.03296896982828887
0.2778326461408956   -0.05162374027542674   -0.03296896982828887
0.2778326461408956   -0.05162374027542674   -0.03296896982828887
0.2778326461408956   -0.05162374027542674   -0.03296896982828887
0.650179093518851   0.07669439118177744   0.05482632679418192
0.650179093518851   0.07669439118177744   0.05482632679418192
0.650179093518851   0.07669439118177744   0.05482632679418192
0.650179093518851   0.07669439118177744   0.05482632679418192
-0.05150062570817903   -0.1739770453262603   -0.02691526536473842
-0.05150062570817903   -0.1739770453262603   -0.02691526536473842
-0.05150062570817903   -0.1739770453262603   -0.02691526536473842
-0.05150062570817903   -0.1739770453262603   -0.02691526536473842
0.004573885408719233   -0.04085610149027535   0.009606478218413907
0.004573885408719233   -0.04085610149027535   0.009606478218413907
0.004573885408719233   -0.04085610149027535   0.009606478218413907
0.004573885408719233   -0.04085610149027535   0.009606478218413907
0.6441133237460436   -0.01563469528414297   -0.004997711566274682
0.6441133237460436   -0.01563469528414297   -0.004997711566274682
0.6441133237460436   -0.01563469528414297   -0.004997711566274682
0.6441133237460436   -0.01563469528414297   -0.004997711566274682
0.30026877519243417   -0.036548239433221094   -0.021371220396005627
0.30026877519243417   -0.036548239433221094   -0.021371220396005627
0.30026877519243417   -0.036548239433221094   -0.021371220396005627
0.30026877519243417   -0.036548239433221094   -0.021371220396005627
0.678380547151941   0.10177056437540657   0.04893314580366305
0.678380547151941   0.10177056437540657   0.04893314580366305
0.678380547151941   0.10177056437540657   0.04893314580366305
0.678380547151941   0.10177056437540657   0.04893314580366305
-0.028339804955682953   -0.1569078281083504   -0.038910246985523866
-0.028339804955682953   -0.1569078281083504   -0.038910246985523866
-0.028339804955682953   -0.1569078281083504   -0.038910246985523866
-0.028339804955682953   -0.1569078281083504   -0.038910246985523866
0.02484961074156616   -0.012099930844003626   0.003406000135066977
0.02484961074156616   -0.012099930844003626   0.003406000135066977
0.02484961074156616   -0.012099930844003626   0.003406000135066977
0.02484961074156616   -0.012099930844003626   0.003406000135066977
0.6639201686539211   0.007978612372699742   -0.0122838561380057
0.6639201686539211   0.007978612372699742   -0.0122838561380057
0.6639201686539211   0.007978612372699742   -0.0122838561380057
0.6639201686539211   0.007978612372699742   -0.0122838561380057
0.3277528762672067   -0.013998818816075849   -0.008928156582919455
0.3277528762672067   -0.013998818816075849   -0.008928156582919455
0.3277528762672067   -0.013998818816075849   -0.008928156582919455
0.3277528762672067   -0.013998818816075849   -0.008928156582919455
-0.027191825447673956   0.015581688724358828   0.03075191018981239
-0.027191825447673956   0.015581688724358828   0.03075191018981239
-0.027191825447673956   0.015581688724358828   0.03075191018981239
-0.027191825447673956   0.015581688724358828   0.03075191018981239
-0.7122429976344884   -0.23244233902408212   -0.014231478707440681
-0.7122429976344884   -0.23244233902408212   -0.014231478707440681
-0.7122429976344884   -0.23244233902408212   -0.014231478707440681
-0.7122429976344884   -0.23244233902408212   -0.014231478707440681
-0.6558148271823381   -0.1003445743555145   -0.014990257325814965
-0.6558148271823381   -0.1003445743555145   -0.014990257325814965
-0.6558148271823381   -0.1003445743555145   -0.014990257325814965
-0.6558148271823381   -0.1003445743555145   -0.014990257325814965
-0.024522866398594318   -0.07987690730304553   0.013873393159970368
-0.024522866398594318   -0.07987690730304553   0.013873393159970368
-0.024522866398594318   -0.07987690730304553   0.013873393159970368
-0.024522866398594318   -0.07987690730304553   0.013873393159970368
-0.3565572172356696   -0.09394926008133066   -0.02945089764658436
-0.3565572172356696   -0.09394926008133066   -0.02945089764658436
-0.3565572172356696   -0.09394926008133066   -0.02945089764658436
-0.3565572172356696   -0.09394926008133066   -0.02945089764658436
0.0014974193613678062   0.039112924458113985   0.024984990198621486
0.0014974193613678062   0.039112924458113985   0.024984990198621486
0.0014974193613678062   0.039112924458113985   0.024984990198621486
0.0014974193613678062   0.039112924458113985   0.024984990198621486
-0.6801919408133758   -0.21769123398774962   -0.019529165848768543
-0.6801919408133758   -0.21769123398774962   -0.019529165848768543
-0.6801919408133758   -0.21769123398774962   -0.019529165848768543
-0.6801919408133758   -0.21769123398774962   -0.019529165848768543
-0.6237771110618604   -0.07308656906042993   -0.020411818415000504
-0.6237771110618604   -0.07308656906042993   -0.020411818415000504
-0.6237771110618604   -0.07308656906042993   -0.020411818415000504
-0.6237771110618604   -0.07308656906042993   -0.020411818415000504
-0.0004590478716740851   -0.06208562411803777   0.005671334444207837
-0.0004590478716740851   -0.06208562411803777   0.005671334444207837
-0.0004590478716740851   -0.06208562411803777   0.005671334444207837
-0.0004590478716740851   -0.06208562411803777   0.005671334444207837
-0.32545639190616377   -0.07435256427055091   -0.016353683586463344
-0.32545639190616377   -0.07435256427055091   -0.016353683586463344
-0.32545639190616377   -0.07435256427055091   -0.016353683586463344
-0.32545639190616377   -0.07435256427055091   -0.016353683586463344
0.02775070034523988   0.0651902059884485   0.01944424542229138
0.02775070034523988   0.0651902059884485   0.01944424542229138
0.02775070034523988   0.0651902059884485   0.01944424542229138
0.02775070034523988   0.0651902059884485   0.01944424542229138
-0.6519965237252355   -0.20037206361337734   -0.03422338717892859
-0.6519965237252355   -0.20037206361337734   -0.03422338717892859
-0.6519965237252355   -0.20037206361337734   -0.03422338717892859
-0.6519965237252355   -0.20037206361337734   -0.03422338717892859
-0.601137087600941   -0.04710312143238826   -0.026473266329407552
-0.601137087600941   -0.04710312143238826   -0.026473266329407552
-0.601137087600941   -0.04710312143238826   -0.026473266329407552
-0.601137087600941   -0.04710312143238826   -0.026473266329407552
0.015341651623336505   -0.047867780210027584   -0.008365946090055414
0.015341651623336505   -0.047867780210027584   -0.008365946090055414
0.015341651623336505   -0.047867780210027584   -0.008365946090055414
0.015341651623336505   -0.047867780210027584   -0.008365946090055414
-0.30264507115107486   -0.05607484830343607   -0.008153272245652654
-0.30264507115107486   -0.05607484830343607   -0.008153272245652654
-0.30264507115107486   -0.05607484830343607   -0.008153272245652654
-0.30264507115107486   -0.05607484830343607   -0.008153272245652654
-0.6669558792392377   -0.019240560740983466   -0.0009976650142856092
-0.6669558792392377   -0.019240560740983466   -0.0009976650142856092
-0.6669558792392377   -0.019240560740983466   -0.0009976650142856092
-0.6669558792392377   -0.019240560740983466   -0.0009976650142856092
-1.350382896691394   -0.24990332323885062   -0.011442881279878747
-1.350382896691394   -0.24990332323885062   -0.011442881279878747
-1.350382896691394   -0.24990332323885062   -0.011442881279878747
-1.350382896691394   -0.24990332323885062   -0.011442881279878747
-1.2897877492191303   -0.1284725542489858   -0.044589852540092956
-1.2897877492191303   -0.1284725542489858   -0.044589852540092956
-1.2897877492191303   -0.1284725542489858   -0.044589852540092956
-1.2897877492191303   -0.1284725542489858   -0.044589852540092956
-0.6434618015151964   -0.08298577638904522   0.029416073043424362
-0.6434618015151964   -0.08298577638904522   0.029416073043424362
-0.6434618015151964   -0.08298577638904522   0.029416073043424362
-0.6434618015151964   -0.08298577638904522   0.029416073043424362
-0.9789975196046871   -0.11294644529179679   -0.02075781789142392
-0.9789975196046871   -0.11294644529179679   -0.02075781789142392
-0.9789975196046871   -0.11294644529179679   -0.02075781789142392
-0.9789975196046871   -0.11294644529179679   -0.02075781789142392
-0.6315632110199912   0.011062478104117993   -0.005139228973713217
-0.6315632110199912   0.011062478104117993   -0.005139228973713217
-0.6315632110199912   0.011062478104117993   -0.005139228973713217
-0.6315632110199912   0.011062478104117993   -0.005139228973713217
-1.302205299623661   -0.2230397686514727   -0.01211039016024823
-1.302205299623661   -0.2230397686514727   -0.01211039016024823
-1.302205299623661   -0.2230397686514727   -0.01211039016024823
-1.302205299623661   -0.2230397686514727   -0.01211039016024823
-1.2439897465534928   -0.10000982127449062   -0.05163982080093241
-1.2439897465534928   -0.10000982127449062   -0.05163982080093241
-1.2439897465534928   -0.10000982127449062   -0.05163982080093241
-1.2439897465534928   -0.10000982127449062   -0.05163982080093241
-0.6123496257761419   -0.061615420835884636   0.025254459789051248
-0.6123496257761419   -0.061615420835884636   0.025254459789051248
-0.6123496257761419   -0.061615420835884636   0.025254459789051248
-0.6123496257761419   -0.061615420835884636   0.025254459789051248
-0.9319299238988996   -0.08563872324496274   -0.006816882177683364
-0.9319299238988996   -0.08563872324496274   -0.006816882177683364
-0.9319299238988996   -0.08563872324496274   -0.006816882177683364
-0.9319299238988996   -0.08563872324496274   -0.006816882177683364
-0.5994496851648449   0.0373782529711291   -0.009239510961481762
-0.5994496851648449   0.0373782529711291   -0.009239510961481762
-0.5994496851648449   0.0373782529711291   -0.009239510961481762
-0.5994496851648449   0.0373782529711291   -0.009239510961481762
-1.25909543440072   -0.20120924231743342   -0.025968838994114618
-1.25909543440072   -0.20120924231743342   -0.025968838994114618
-1.25909543440072   -0.20120924231743342   -0.025968838994114618
-1.25909543440072   -0.20120924231743342   -0.025968838994114618
-1.2068349501102746   -0.06999947494907222   -0.05328600857005453
-1.2068349501102746   -0.06999947494907222   -0.05328600857005453
-1.2068349501102746   -0.06999947494907222   -0.05328600857005453
-1.2068349501102746   -0.06999947494907222   -0.05328600857005453
-0.5944778603463213   -0.0480291747568506   0.007748923268159957
-0.5944778603463213   -0.0480291747568506   0.007748923268159957
-0.5944778603463213   -0.0480291747568506   0.007748923268159957
-0.5944778603463213   -0.0480291747568506   0.007748923268159957
-0.9059711065121427   -0.06899169403614802   -0.0022660578832425227
-0.9059711065121427   -0.06899169403614802   -0.0022660578832425227
-0.9059711065121427   -0.06899169403614802   -0.0022660578832425227
-0.9059711065121427   -0.06899169403614802   -0.0022660578832425227
-1.3135357605806801   -0.04455465000213066   -0.032555873963028004
-1.3135357605806801   -0.04455465000213066   -0.032555873963028004
-1.3135357605806801   -0.04455465000213066   -0.032555873963028004
-1.3135357605806801   -0.04455465000213066   -0.032555873963028004
-1.9806575069534   -0.16899324980186453   0.0748571356960594
-1.9806575069534   -0.16899324980186453   0.0748571356960594
-1.9806575069534   -0.16899324980186453   0.0748571356960594
-1.9806575069534   -0.16899324980186453   0.0748571356960594
-1.9127068812694006   -0.1346326205912243   -0.04357246372428941
-1.9127068812694006   -0.1346326205912243   -0.04357246372428941
-1.9127068812694006   -0.1346326205912243   -0.04357246372428941
-1.9127068812694006   -0.1346326205912243   -0.04357246372428941
-1.234331168156685   0.03539364120692104   0.06882685731621663
-1.234331168156685   0.03539364120692104   0.06882685731621663
-1.234331168156685   0.03539364120692104   0.06882685731621663
-1.234331168156685   0.03539364120692104   0.06882685731621663
-1.5382604802505793   -0.053024532496855056   0.007381252170816033
-1.5382604802505793   -0.053024532496855056   0.007381252170816033
-1.5382604802505793   -0.053024532496855056   0.007381252170816033
-1.5382604802505793   -0.053024532496855056   0.007381252170816033
-1.2630327028536321   -0.003200605962935907   -0.03608656899864621
-1.2630327028536321   -0.003200605962935907   -0.03608656899864621
-1.2630327028536321   -0.003200605962935907   -0.03608656899864621
-1.2630327028536321   -0.003200605962935907   -0.03608656899864621
-1.8793764534176418   -0.09140948026655105   0.07985653520981295
-1.8793764534176418   -0.09140948026655105   0.07985653520981295
-1.8793764534176418   -0.09140948026655105   0.07985653520981295
-1.8793764534176418   -0.09140948026655105   0.07985653520981295
-1.8398110124752904   -0.11330716161773578   -0.05189014133251796
-1.8398110124752904   -0.11330716161773578   -0.05189014133251796
-1.8398110124752904   -0.11330716161773578   -0.05189014133251796
-1.8398110124752904   -0.11330716161773578   -0.05189014133251796
-1.1890396763908182   0.0566416837677792   0.0664590249701707
-1.1890396763908182   0.0566416837677792   0.0664590249701707
-1.1890396763908182   0.0566416837677792   0.0664590249701707
-1.1890396763908182   0.0566416837677792   0.0664590249701707
-1.4952453552782836   -0.02138895243519086   0.03064340085626327
-1.4952453552782836   -0.02138895243519086   0.03064340085626327
-1.4952453552782836   -0.02138895243519086   0.03064340085626327
-1.4952453552782836   -0.02138895243519086   0.03064340085626327
-1.2187570352688866   0.013487037466315542   -0.038973123118696246
-1.2187570352688866   0.013487037466315542   -0.038973123118696246
-1.2187570352688866   0.013487037466315542   -0.038973123118696246
-1.2187570352688866   0.013487037466315542   -0.038973123118696246
-1.809156266913306   -0.06921512863234673   0.05729155349202897
-1.809156266913306   -0.06921512863234673   0.05729155349202897
-1.809156266913306   -0.06921512863234673   0.05729155349202897
-1.809156266913306   -0.06921512863234673   0.05729155349202897
-1.7644202227894326   -0.09316740531701227   -0.06271123933606454
-1.7644202227894326   -0.09316740531701227   -0.06271123933606454
-1.7644202227894326   -0.09316740531701227   -0.06271123933606454
-1.7644202227894326   -0.09316740531701227   -0.06271123933606454
-1.1554836534168627   0.08206302856816194   0.05140797137977626
-1.1554836534168627   0.08206302856816194   0.05140797137977626
-1.1554836534168627   0.08206302856816194   0.05140797137977626
-1.1554836534168627   0.08206302856816194   0.05140797137977626
-1.4141745984399252   0.005652916030000593   0.053953221948026875
-1.4141745984399252   0.005652916030000593   0.053953221948026875
-1.4141745984399252   0.005652916030000593   0.053953221948026875
-1.4141745984399252   0.005652916030000593   0.053953221948026875
1.7431963041766325   0.1045427139290685   0.06317627000888848
1.7431963041766325   0.1045427139290685   0.06317627000888848
1.7431963041766325   0.1045427139290685   0.06317627000888848
1.7431963041766325   0.1045427139290685   0.06317627000888848
0.8309629668406521   -0.15560569382707024   0.014117776398748644
0.8309629668406521   -0.15560569382707024   0.014117776398748644
0.8309629668406521   -0.15560569382707024   0.014117776398748644
0.8309629668406521   -0.15560569382707024   0.014117776398748644
0.8768032008356409   -0.0656652560854325   0.048594703204703105
0.8768032008356409   -0.0656652560854325   0.048594703204703105
0.8768032008356409   -0.0656652560854325   0.048594703204703105
0.8768032008356409   -0.0656652560854325   0.048594703204703105
1.752375275568571   0.014917463863709624   -0.014073003197377365
1.752375275568571   0.014917463863709624   -0.014073003197377365
1.752375275568571   0.014917463863709624   -0.014073003197377365
1.752375275568571   0.014917463863709624   -0.014073003197377365
1.2255588239261506   -0.03341692050750676   -0.08142739115255998
1.2255588239261506   -0.03341692050750676   -0.08142739115255998
1.2255588239261506   -0.03341692050750676   -0.08142739115255998
1.2255588239261506   -0.03341692050750676   -0.08142739115255998
1.7854663606580272   0.11634034371735556   0.04995954239625716
1.7854663606580272   0.11634034371735556   0.04995954239625716
1.7854663606580272   0.11634034371735556   0.04995954239625716
1.7854663606580272   0.11634034371735556   0.04995954239625716
0.8516510563558848   -0.15914919532937843   0.016317920049868595
0.8516510563558848   -0.15914919532937843   0.016317920049868595
0.8516510563558848   -0.15914919532937843   0.016317920049868595
0.8516510563558848   -0.15914919532937843   0.016317920049868595
0.8941638976168093   -0.055808472314021425   0.0369776478019028
0.8941638976168093   -0.055808472314021425   0.0369776478019028
0.8941638976168093   -0.055808472314021425   0.0369776478019028
0.8941638976168093   -0.055808472314021425   0.0369776478019028
1.783066147664236   0.02602966173232721   -0.004311772676400372
1.783066147664236   0.02602966173232721   -0.004311772676400372
1.783066147664236   0.02602966173232721   -0.004311772676400372
1.783066147664236   0.02602966173232721   -0.004311772676400372
1.276098081527644   -0.026423910948668472   -0.05563084462303369
1.276098081527644   -0.026423910948668472   -0.05563084462303369
1.276098081527644   -0.026423910948668472   -0.05563084462303369
1.276098081527644   -0.026423910948668472   -0.05563084462303369
1.8110645942766657   0.12709846823432022   0.0346116538837547
1.8110645942766657   0.12709846823432022   0.0346116538837547
1.8110645942766657   0.12709846823432022   0.0346116538837547
1.8110645942766657   0.12709846823432022   0.0346116538837547
0.8716879537674032   -0.15135477605299097   0.02014423229384163
0.8716879537674032   -0.15135477605299097   0.02014423229384163
0.8716879537674032   -0.15135477605299097   0.02014423229384163
0.8716879537674032   -0.15135477605299097   0.02014423229384163
0.9197154933909439   -0.017377928751030544   0.033803900584652796
0.9197154933909439   -0.017377928751030544   0.033803900584652796
0.9197154933909439   -0.017377928751030544   0.033803900584652796
0.9197154933909439   -0.017377928751030544   0.033803900584652796
1.8149887645890248   0.05149743612091466   -0.0007152985725293326
1.8149887645890248   0.05149743612091466   -0.0007152985725293326
1.8149887645890248   0.05149743612091466   -0.0007152985725293326
1.8149887645890248   0.05149743612091466   -0.0007152985725293326
1.2823606512955594   -0.012177474423144374   -0.041588538390903484
1.2823606512955594   -0.012177474423144374   -0.041588538390903484
1.2823606512955594   -0.012177474423144374   -0.041588538390903484
1.2823606512955594   -0.012177474423144374   -0.041588538390903484
0.8769836085264527   0.022376212533941738   0.06623907846674032
0.8769836085264527   0.022376212533941738   0.06623907846674032
0.8769836085264527   0.022376212533941738   0.06623907846674032
0.8769836085264527   0.022376212533941738   0.06623907846674032
0.04603952090920728   -0.30986876828755266   0.031790939692840595
0.04603952090920728   -0.30986876828755266   0.031790939692840595
0.04603952090920728   -0.30986876828755266   0.031790939692840595
0.04603952090920728   -0.30986876828755266   0.031790939692840595
0.10576827746668863   -0.13120709472876235   0.029665584447883593
0.10576827746668863   -0.13120709472876235   0.029665584447883593
0.10576827746668863   -0.13120709472876235   0.029665584447883593
0.10576827746668863   -0.13120709472876235   0.029665584447883593
0.8544910902121778   -0.14881303819709993   0.020181932199047875
0.8544910902121778   -0.14881303819709993   0.020181932199047875
0.8544910902121778   -0.14881303819709993   0.020181932199047875
0.8544910902121778   -0.14881303819709993   0.020181932199047875
0.4555280858798312   -0.13887141569489564   -0.052045908604209365
0.4555280858798312   -0.13887141569489564   -0.052045908604209365
0.4555280858798312   -0.13887141569489564   -0.052045908604209365
0.4555280858798312   -0.13887141569489564   -0.052045908604209365
0.8977449836880043   0.03231900158511799   0.055319359795969664
0.8977449836880043   0.03231900158511799   0.055319359795969664
0.8977449836880043   0.03231900158511799   0.055319359795969664
0.8977449836880043   0.03231900158511799   0.055319359795969664
0.07393396898980921   -0.30091954951203204   0.04020649684675615
0.07393396898980921   -0.30091954951203204   0.04020649684675615
0.07393396898980921   -0.30091954951203204   0.04020649684675615
0.07393396898980921   -0.30091954951203204   0.04020649684675615
0.12977908006216807   -0.11320290076745711   0.021495504701091635
0.12977908006216807   -0.11320290076745711   0.021495504701091635
0.12977908006216807   -0.11320290076745711   0.021495504701091635
0.12977908006216807   -0.11320290076745711   0.021495504701091635
0.8750443737600226   -0.13937905532718606   0.024950611531134287
0.8750443737600226   -0.13937905532718606   0.024950611531134287
0.8750443737600226   -0.13937905532718606   0.024950611531134287
0.8750443737600226   -0.13937905532718606   0.024950611531134287
0.47596269588838924   -0.13197581561394728   -0.02602461358820042
0.47596269588838924   -0.13197581561394728   -0.02602461358820042
0.47596269588838924   -0.13197581561394728   -0.02602461358820042
0.47596269588838924   -0.13197581561394728   -0.02602461358820042
0.9171107833370816   0.04928754980429659   0.04661605428494653
0.9171107833370816   0.04928754980429659   0.04661605428494653
0.9171107833370816   0.04928754980429659   0.04661605428494653
0.9171107833370816   0.04928754980429659   0.04661605428494653
0.09869877813584646   -0.2908833982482021   0.04377449255023045
0.09869877813584646   -0.2908833982482021   0.04377449255023045
0.09869877813584646   -0.2908833982482021   0.04377449255023045
0.09869877813584646   -0.2908833982482021   0.04377449255023045
0.16663475614594672   -0.08617547159374957   0.014231136537722233
0.16663475614594672   -0.08617547159374957   0.014231136537722233
0.16663475614594672   -0.08617547159374957   0.014231136537722233
0.16663475614594672   -0.08617547159374957   0.014231136537722233
0.8975375030620852   -0.12504089764503395   0.030576917834369416
0.8975375030620852   -0.12504089764503395   0.030576917834369416
0.8975375030620852   -0.12504089764503395   0.030576917834369416
0.8975375030620852   -0.12504089764503395   0.030576917834369416
0.5118089498773031   -0.11527753913999064   0.00425928627570113
0.5118089498773031   -0.11527753913999064   0.00425928627570113
0.5118089498773031   -0.11527753913999064   0.00425928627570113
0.5118089498773031   -0.11527753913999064   0.00425928627570113
0.09839618073811134   -0.058939261248426994   0.042644731798235205
0.09839618073811134   -0.058939261248426994   0.042644731798235205
0.09839618073811134   -0.058939261248426994   0.042644731798235205
0.09839618073811134   -0.058939261248426994   0.042644731798235205
-0.745327883010257   -0.5321938933459127   0.046076840583413714
-0.745327883010257   -0.5321938933459127   0.046076840583413714
-0.745327883010257   -0.5321938933459127   0.046076840583413714
-0.745327883010257   -0.5321938933459127   0.046076840583413714
-0.6509115862049091   -0.20731737043712958   0.003059797295864919
-0.6509115862049091   -0.20731737043712958   0.003059797295864919
-0.6509115862049091   -0.20731737043712958   0.003059797295864919
-0.6509115862049091   -0.20731737043712958   0.003059797295864919
0.05218553369278717   -0.38704093754787827   0.017585708397492225
0.05218553369278717   -0.38704093754787827   0.017585708397492225
0.05218553369278717   -0.38704093754787827   0.017585708397492225
0.05218553369278717   -0.38704093754787827   0.017585708397492225
-0.32115370698425155   -0.29849564274738255   -0.06245049549758282
-0.32115370698425155   -0.29849564274738255   -0.06245049549758282
-0.32115370698425155   -0.29849564274738255   -0.06245049549758282
-0.32115370698425155   -0.29849564274738255   -0.06245049549758282
0.1235387706328575   -0.04631422284896343   0.03362517839892902
0.1235387706328575   -0.04631422284896343   0.03362517839892902
0.1235387706328575   -0.04631422284896343   0.03362517839892902
0.1235387706328575   -0.04631422284896343   0.03362517839892902
-0.7057347584882883   -0.5315140204793521   0.053140585921197914
-0.7057347584882883   -0.5315140204793521   0.053140585921197914
-0.7057347584882883   -0.5315140204793521   0.053140585921197914
-0.7057347584882883   -0.5315140204793521   0.053140585921197914
-0.6144919773907844   -0.18603818977504327   -5.856432170936454e-05
-0.6144919773907844   -0.18603818977504327   -5.856432170936454e-05
-0.6144919773907844   -0.18603818977504327   -5.856432170936454e-05
-0.6144919773907844   -0.18603818977504327   -5.856432170936454e-05
0.07749919823576867   -0.37850854816392915   0.025401742965568616
0.07749919823576867   -0.37850854816392915   0.025401742965568616
0.07749919823576867   -0.37850854816392915   0.025401742965568616
0.07749919823576867   -0.37850854816392915   0.025401742965568616
-0.2842637909565153   -0.2882866542369047   -0.023276598207894197
-0.2842637909565153   -0.2882866542369047   -0.023276598207894197
-0.2842637909565153   -0.2882866542369047   -0.023276598207894197
-0.2842637909565153   -0.2882866542369047   -0.023276598207894197
0.14652595424902817   -0.029514579674292926   0.02154155454222985
0.14652595424902817   -0.029514579674292926   0.02154155454222985
0.14652595424902817   -0.029514579674292926   0.02154155454222985
0.14652595424902817   -0.029514579674292926   0.02154155454222985
-0.6686019720421683   -0.5201153969028023   0.06346866954913977
-0.6686019720421683   -0.5201153969028023   0.06346866954913977
-0.6686019720421683   -0.5201153969028023   0.06346866954913977
-0.6686019720421683   -0.5201153969028023   0.06346866954913977
-0.5543922911961373   -0.16152813036041463   -0.006933754022516808
-0.5543922911961373   -0.16152813036041463   -0.006933754022516808
-0.5543922911961373   -0.16152813036041463   -0.006933754022516808
-0.5543922911961373   -0.16152813036041463   -0.006933754022516808
0.11701307901759689   -0.354722294228333   0.03466957353055472
0.11701307901759689   -0.354722294228333   0.03466957353055472
0.11701307901759689   -0.354722294228333   0.03466957353055472
0.11701307901759689   -0.354722294228333   0.03466957353055472
-0.2363933477228182   -0.26545724936973947   0.017713541863657423
-0.2363933477228182   -0.26545724936973947   0.017713541863657423
-0.2363933477228182   -0.26545724936973947   0.017713541863657423
-0.2363933477228182   -0.26545724936973947   0.017713541863657423
-0.6653473524587041   -0.10654209844772733   0.020327698442986375
-0.6653473524587041   -0.10654209844772733   0.020327698442986375
-0.6653473524587041   -0.10654209844772733   0.020327698442986375
-0.6653473524587041   -0.10654209844772733   0.020327698442986375
-1.657944786500315   -0.8283282795977936   -0.0389254789175425
-1.657944786500315   -0.8283282795977936   -0.0389254789175425
-1.657944786500315   -0.8283282795977936   -0.0389254789175425
-1.657944786500315   -0.8283282795977936   -0.0389254789175425
-1.5021452020165205   -0.26975896524731446   -0.045766470746597565
-1.5021452020165205   -0.26975896524731446   -0.045766470746597565
-1.5021452020165205   -0.26975896524731446   -0.045766470746597565
-1.5021452020165205   -0.26975896524731446   -0.045766470746597565
-0.7457564053137219   -0.6924263195643585   0.013944650879030018
-0.7457564053137219   -0.6924263195643585   0.013944650879030018
-0.7457564053137219   -0.6924263195643585   0.013944650879030018
-0.7457564053137219   -0.6924263195643585   0.013944650879030018
-1.1415111927212924   -0.4899547921922595   -0.06561015996954805
-1.1415111927212924   -0.4899547921922595   -0.06561015996954805
-1.1415111927212924   -0.4899547921922595   -0.06561015996954805
-1.1415111927212924   -0.4899547921922595   -0.06561015996954805
-0.622324846636072   -0.0807553125677675   0.019431437270688662
-0.622324846636072   -0.0807553125677675   0.019431437270688662
-0.622324846636072   -0.0807553125677675   0.019431437270688662
-0.622324846636072   -0.0807553125677675   0.019431437270688662
-1.621795188650338   -0.8776484002000708   -0.03612696896291556
-1.621795188650338   -0.8776484002000708   -0.03612696896291556
-1.621795188650338   -0.8776484002000708   -0.03612696896291556
-1.621795188650338   -0.8776484002000708   -0.03612696896291556
-1.4536499732631216   -0.24425485054445045   -0.046642341266736664
-1.4536499732631216   -0.24425485054445045   -0.046642341266736664
-1.4536499732631216   -0.24425485054445045   -0.046642341266736664
-1.4536499732631216   -0.24425485054445045   -0.046642341266736664
-0.710438900318524   -0.6869449419887225   0.021113573253275897
-0.710438900318524   -0.6869449419887225   0.021113573253275897
-0.710438900318524   -0.6869449419887225   0.021113573253275897
-0.710438900318524   -0.6869449419887225   0.021113573253275897
-1.090601764167857   -0.4766579650019145   -0.04596207914188877
-1.090601764167857   -0.4766579650019145   -0.04596207914188877
-1.090601764167857   -0.4766579650019145   -0.04596207914188877
-1.090601764167857   -0.4766579650019145   -0.04596207914188877
-0.5880657121209509   -0.06050217967682105   0.0065367519292395815
-0.5880657121209509   -0.06050217967682105   0.0065367519292395815
-0.5880657121209509   -0.06050217967682105   0.0065367519292395815
-0.5880657121209509   -0.06050217967682105   0.0065367519292395815
-1.5759273502222435   -0.8706018016178987   -0.03168227498888598
-1.5759273502222435   -0.8706018016178987   -0.03168227498888598
-1.5759273502222435   -0.8706018016178987   -0.03168227498888598
-1.5759273502222435   -0.8706018016178987   -0.03168227498888598
-1.3779872102054487   -0.21685614429230282   -0.05287657455003508
-1.3779872102054487   -0.21685614429230282   -0.05287657455003508
-1.3779872102054487   -0.21685614429230282   -0.05287657455003508
-1.3779872102054487   -0.21685614429230282   -0.05287657455003508
-0.6340278309093337   -0.6175384667543101   0.05089888380540469
-0.6340278309093337   -0.6175384667543101   0.05089888380540469
-0.6340278309093337   -0.6175384667543101   0.05089888380540469
-0.6340278309093337   -0.6175384667543101   0.05089888380540469
-1.033827560849468   -0.43196473025320026   -0.025496131299251545
-1.033827560849468   -0.43196473025320026   -0.025496131299251545
-1.033827560849468   -0.43196473025320026   -0.025496131299251545
-1.033827560849468   -0.43196473025320026   -0.025496131299251545
-1.5047763755647792   -0.09089232619239289   -0.010519377645264227
-1.5047763755647792   -0.09089232619239289   -0.010519377645264227
-1.5047763755647792   -0.09089232619239289   -0.010519377645264227
-1.5047763755647792   -0.09089232619239289   -0.010519377645264227
-2.6549879004218906   -0.525578287308731   0.0270964638782355
-2.6549879004218906   -0.525578287308731   0.0270964638782355
-2.6549879004218906   -0.525578287308731   0.0270964638782355
-2.6549879004218906   -0.525578287308731   0.0270964638782355
-2.5505370266405003   -0.25278846417633627   -0.05587781111625434
-2.5505370266405003   -0.25278846417633627   -0.05587781111625434
-2.5505370266405003   -0.25278846417633627   -0.05587781111625434
-2.5505370266405003   -0.25278846417633627   -0.05587781111625434
-1.4716198124913538   -0.2724197168099053   0.10952122844182738
-1.4716198124913538   -0.2724197168099053   0.10952122844182738
-1.4716198124913538   -0.2724197168099053   0.10952122844182738
-1.4716198124913538   -0.2724197168099053   0.10952122844182738
-1.9626332763726397   -0.30480305091149484   0.02802642593933058
-1.9626332763726397   -0.30480305091149484   0.02802642593933058
-1.9626332763726397   -0.30480305091149484   0.02802642593933058
-1.9626332763726397   -0.30480305091149484   0.02802642593933058
-1.442979814555879   -0.02003429939525056   0.00033580070455263566
-1.442979814555879   -0.02003429939525056   0.00033580070455263566
-1.442979814555879   -0.02003429939525056   0.00033580070455263566
-1.442979814555879   -0.02003429939525056   0.00033580070455263566
-2.589105656984223   -0.5151025139992413   0.0135930869880162
-2.589105656984223   -0.5151025139992413   0.0135930869880162
-2.589105656984223   -0.5151025139992413   0.0135930869880162
-2.589105656984223   -0.5151025139992413   0.0135930869880162
-2.493058307653998   -0.23163899520387538   -0.07092573862492269
-2.493058307653998   -0.23163899520387538   -0.07092573862492269
-2.493058307653998   -0.23163899520387538   -0.07092573862492269
-2.493058307653998   -0.23163899520387538   -0.07092573862492269
-1.4217001085545502   -0.2588079961371445   0.12766012786882758
-1.4217001085545502   -0.2588079961371445   0.12766012786882758
-1.4217001085545502   -0.2588079961371445   0.12766012786882758
-1.4217001085545502   -0.2588079961371445   0.12766012786882758
-1.9323417165571475   -0.2510430706832947   0.02696519561321653
-1.9323417165571475   -0.2510430706832947   0.02696519561321653
-1.9323417165571475   -0.2510430706832947   0.02696519561321653
-1.9323417165571475   -0.2510430706832947   0.02696519561321653
-1.398508952556145   -0.001318661762148829   -0.01387342651414275
-1.398508952556145   -0.001318661762148829   -0.01387342651414275
-1.398508952556145   -0.001318661762148829   -0.01387342651414275
-1.398508952556145   -0.001318661762148829   -0.01387342651414275
-2.519877747076521   -0.49275661300299284   0.05609468206155643
-2.519877747076521   -0.49275661300299284   0.05609468206155643
-2.519877747076521   -0.49275661300299284   0.05609468206155643
-2.519877747076521   -0.49275661300299284   0.05609468206155643
-2.373693367935687   -0.187724038342452   -0.07931764865446861
-2.373693367935687   -0.187724038342452   -0.07931764865446861
-2.373693367935687   -0.187724038342452   -0.07931764865446861
-2.373693367935687   -0.187724038342452   -0.07931764865446861
-1.3440386417691077   -0.2406714197382888   0.14068154307766367
-1.3440386417691077   -0.2406714197382888   0.14068154307766367
-1.3440386417691077   -0.2406714197382888   0.14068154307766367
-1.3440386417691077   -0.2406714197382888   0.14068154307766367
-1.8168121762150842   -0.1919292984907354   0.0553629479567202
-1.8168121762150842   -0.1919292984907354   0.0553629479567202
-1.8168121762150842   -0.1919292984907354   0.0553629479567202
-1.8168121762150842   -0.1919292984907354   0.0553629479567202
1.9093415409345864   0.06261855951310802   0.026860469005705434
1.9093415409345864   0.06261855951310802   0.026860469005705434
1.9093415409345864   0.06261855951310802   0.026860469005705434
1.9093415409345864   0.06261855951310802   0.026860469005705434
0.9748352583704556   -0.0513756596179778   0.01974665017265284
0.9748352583704556   -0.0513756596179778   0.01974665017265284
0.9748352583704556   -0.0513756596179778   0.01974665017265284
0.9748352583704556   -0.0513756596179778   0.01974665017265284
0.9367679157332174   -0.13761398591182342   0.038877107760311086
0.9367679157332174   -0.13761398591182342   0.038877107760311086
0.9367679157332174   -0.13761398591182342   0.038877107760311086
0.9367679157332174   -0.13761398591182342   0.038877107760311086
1.8954841119053192   0.10679386322143114   0.014283910192190163
1.8954841119053192   0.10679386322143114   0.014283910192190163
1.8954841119053192   0.10679386322143114   0.014283910192190163
1.8954841119053192   0.10679386322143114   0.014283910192190163
1.3529418637052735   -0.01920066242539417   -0.049963682420863464
1.3529418637052735   -0.01920066242539417   -0.049963682420863464
1.3529418637052735   -0.01920066242539417   -0.049963682420863464
1.3529418637052735   -0.01920066242539417   -0.049963682420863464
1.8850556399233716   0.04837935006243485   0.020556063441448225
1.8850556399233716   0.04837935006243485   0.020556063441448225
1.8850556399233716   0.04837935006243485   0.020556063441448225
1.8850556399233716   0.04837935006243485   0.020556063441448225
0.9440826725097193   -0.08231318795827283   0.02015009368927015
0.9440826725097193   -0.08231318795827283   0.02015009368927015
0.9440826725097193   -0.08231318795827283   0.02015009368927015
0.9440826725097193   -0.08231318795827283   0.02015009368927015
0.9124895767396829   -0.14079188049875266   0.03215708709275339
0.9124895767396829   -0.14079188049875266   0.03215708709275339
0.9124895767396829   -0.14079188049875266   0.03215708709275339
0.9124895767396829   -0.14079188049875266   0.03215708709275339
1.873299650444551   0.10216989605644931   0.024732167196858723
1.873299650444551   0.10216989605644931   0.024732167196858723
1.873299650444551   0.10216989605644931   0.024732167196858723
1.873299650444551   0.10216989605644931   0.024732167196858723
1.3489183789791244   -0.026486135425068433   -0.05783016133583041
1.3489183789791244   -0.026486135425068433   -0.05783016133583041
1.3489183789791244   -0.026486135425068433   -0.05783016133583041
1.3489183789791244   -0.026486135425068433   -0.05783016133583041
1.8577619997766137   0.04306162389400407   0.0061521860196063205
1.8577619997766137   0.04306162389400407   0.0061521860196063205
1.8577619997766137   0.04306162389400407   0.0061521860196063205
1.8577619997766137   0.04306162389400407   0.0061521860196063205
0.9224335739551244   -0.08727726178880513   0.02836245446001298
0.9224335739551244   -0.08727726178880513   0.02836245446001298
0.9224335739551244   -0.08727726178880513   0.02836245446001298
0.9224335739551244   -0.08727726178880513   0.02836245446001298
0.8868773263437556   -0.12842831188509507   0.027767399642691287
0.8868773263437556   -0.12842831188509507   0.027767399642691287
0.8868773263437556   -0.12842831188509507   0.027767399642691287
0.8868773263437556   -0.12842831188509507   0.027767399642691287
1.8391152946255456   0.1033302497258435   0.03557769303575342
1.8391152946255456   0.1033302497258435   0.03557769303575342
1.8391152946255456   0.1033302497258435   0.03557769303575342
1.8391152946255456   0.1033302497258435   0.03557769303575342
1.2982449570841463   -0.026686797079726626   -0.07807355426025436
1.2982449570841463   -0.026686797079726626   -0.07807355426025436
1.2982449570841463   -0.026686797079726626   -0.07807355426025436
1.2982449570841463   -0.026686797079726626   -0.07807355426025436
0.9661821395628202   -0.12264779432674885   0.04775319084324692
0.9661821395628202   -0.12264779432674885   0.04775319084324692
0.9661821395628202   -0.12264779432674885   0.04775319084324692
0.9661821395628202   -0.12264779432674885   0.04775319084324692
0.18749491042347688   -0.11505412823757329   0.01020571816641399
0.18749491042347688   -0.11505412823757329   0.01020571816641399
0.18749491042347688   -0.11505412823757329   0.01020571816641399
0.18749491042347688   -0.11505412823757329   0.01020571816641399
0.12184716418210066   -0.28915933900201973   0.051094354204525856
0.12184716418210066   -0.28915933900201973   0.051094354204525856
0.12184716418210066   -0.28915933900201973   0.051094354204525856
0.12184716418210066   -0.28915933900201973   0.051094354204525856
0.9714329623787883   0.03770586014868982   0.03688249492765294
0.9714329623787883   0.03770586014868982   0.03688249492765294
0.9714329623787883   0.03770586014868982   0.03688249492765294
0.9714329623787883   0.03770586014868982   0.03688249492765294
0.553104599796038   -0.12277939269915941   -0.002127420421874082
0.553104599796038   -0.12277939269915941   -0.002127420421874082
0.553104599796038   -0.12277939269915941   -0.002127420421874082
0.553104599796038   -0.12277939269915941   -0.002127420421874082
0.938925297394249   -0.12796048097480409   0.04001051112845594
0.938925297394249   -0.12796048097480409   0.04001051112845594
0.938925297394249   -0.12796048097480409   0.04001051112845594
0.938925297394249   -0.12796048097480409   0.04001051112845594
0.14614434529865655   -0.1317034817465087   0.015124402531792244
0.14614434529865655   -0.1317034817465087   0.015124402531792244
0.14614434529865655   -0.1317034817465087   0.015124402531792244
0.14614434529865655   -0.1317034817465087   0.015124402531792244
0.09244021687367415   -0.2917413309848912   0.04574339012895731
0.09244021687367415   -0.2917413309848912   0.04574339012895731
0.09244021687367415   -0.2917413309848912   0.04574339012895731
0.09244021687367415   -0.2917413309848912   0.04574339012895731
0.9490437513365565   0.030442610443397126   0.0436934691349716
0.9490437513365565   0.030442610443397126   0.0436934691349716
0.9490437513365565   0.030442610443397126   0.0436934691349716
0.9490437513365565   0.030442610443397126   0.0436934691349716
0.5131631008213956   -0.13085902317790366   -0.02651051727492028
0.5131631008213956   -0.13085902317790366   -0.02651051727492028
0.5131631008213956   -0.13085902317790366   -0.02651051727492028
0.5131631008213956   -0.13085902317790366   -0.02651051727492028
0.9148793572358549   -0.1297827992693963   0.033096908344250914
0.9148793572358549   -0.1297827992693963   0.033096908344250914
0.9148793572358549   -0.1297827992693963   0.033096908344250914
0.9148793572358549   -0.1297827992693963   0.033096908344250914
0.11768145531749487   -0.14043907692897964   0.02064732829214936
0.11768145531749487   -0.14043907692897964   0.02064732829214936
0.11768145531749487   -0.14043907692897964   0.02064732829214936
0.11768145531749487   -0.14043907692897964   0.02064732829214936
0.059535184908308496   -0.2915969313872818   0.03579906727690691
0.059535184908308496   -0.2915969313872818   0.03579906727690691
0.059535184908308496   -0.2915969313872818   0.03579906727690691
0.059535184908308496   -0.2915969313872818   0.03579906727690691
0.9236341841391156   0.030887789899856417   0.05223558683454352
0.9236341841391156   0.030887789899856417   0.05223558683454352
0.9236341841391156   0.030887789899856417   0.05223558683454352
0.9236341841391156   0.030887789899856417   0.05223558683454352
0.48877275966953293   -0.12985152498338565   -0.04724876604877726
0.48877275966953293   -0.12985152498338565   -0.04724876604877726
0.48877275966953293   -0.12985152498338565   -0.04724876604877726
0.48877275966953293   -0.12985152498338565   -0.04724876604877726
0.14613096501633413   -0.35454259939887695   0.042874462292001876
0.14613096501633413   -0.35454259939887695   0.042874462292001876
0.14613096501633413   -0.35454259939887695   0.042874462292001876
0.14613096501633413   -0.35454259939887695   0.042874462292001876
-0.5694231497729972   -0.17850964175712553   0.0006221214987173207
-0.5694231497729972   -0.17850964175712553   0.0006221214987173207
-0.5694231497729972   -0.17850964175712553   0.0006221214987173207
-0.5694231497729972   -0.17850964175712553   0.0006221214987173207
-0.6881896387624465   -0.5269213126020748   0.05855900558174337
-0.6881896387624465   -0.5269213126020748   0.05855900558174337
-0.6881896387624465   -0.5269213126020748   0.05855900558174337
-0.6881896387624465   -0.5269213126020748   0.05855900558174337
0.16810959033394562   -0.030076944861911273   0.02332409082364014
0.16810959033394562   -0.030076944861911273   0.02332409082364014
0.16810959033394562   -0.030076944861911273   0.02332409082364014
0.16810959033394562   -0.030076944861911273   0.02332409082364014
-0.23269057030064466   -0.2686745185551252   0.010105793692639253
-0.23269057030064466   -0.2686745185551252   0.010105793692639253
-0.23269057030064466   -0.2686745185551252   0.010105793692639253
-0.23269057030064466   -0.2686745185551252   0.010105793692639253
0.10068029765324009   -0.37469915826970457   0.030799840827907807
0.10068029765324009   -0.37469915826970457   0.030799840827907807
0.10068029765324009   -0.37469915826970457   0.030799840827907807
0.10068029765324009   -0.37469915826970457   0.030799840827907807
-0.6322513014030322   -0.1937900545155729   0.005119434292309766
-0.6322513014030322   -0.1937900545155729   0.005119434292309766
-0.6322513014030322   -0.1937900545155729   0.005119434292309766
-0.6322513014030322   -0.1937900545155729   0.005119434292309766
-0.7291493973812634   -0.5353817952424527   0.047684103189982785
-0.7291493973812634   -0.5353817952424527   0.047684103189982785
-0.7291493973812634   -0.5353817952424527   0.047684103189982785
-0.7291493973812634   -0.5353817952424527   0.047684103189982785
0.14055575631523387   -0.03813968727712057   0.03271944362898534
0.14055575631523387   -0.03813968727712057   0.03271944362898534
0.14055575631523387   -0.03813968727712057   0.03271944362898534
0.14055575631523387   -0.03813968727712057   0.03271944362898534
-0.2838740821374442   -0.2850079333229507   -0.024081311206609335
-0.2838740821374442   -0.2850079333229507   -0.024081311206609335
-0.2838740821374442   -0.2850079333229507   -0.024081311206609335
-0.2838740821374442   -0.2850079333229507   -0.024081311206609335
0.06935608342998534   -0.3812510344442289   0.019832426369852857
0.06935608342998534   -0.3812510344442289   0.019832426369852857
0.06935608342998534   -0.3812510344442289   0.019832426369852857
0.06935608342998534   -0.3812510344442289   0.019832426369852857
-0.6716193736914157   -0.2059400972707459   0.005892523667508365
-0.6716193736914157   -0.2059400972707459   0.005892523667508365
-0.6716193736914157   -0.2059400972707459   0.005892523667508365
-0.6716193736914157   -0.2059400972707459   0.005892523667508365
-0.7735399971334981   -0.5317354118566417   0.040157061540105954
-0.7735399971334981   -0.5317354118566417   0.040157061540105954
-0.7735399971334981   -0.5317354118566417   0.040157061540105954
-0.7735399971334981   -0.5317354118566417   0.040157061540105954
0.10989861552804166   -0.04263273894313645   0.03865202793142736
0.10989861552804166   -0.04263273894313645   0.03865202793142736
0.10989861552804166   -0.04263273894313645   0.03865202793142736
0.10989861552804166   -0.04263273894313645   0.03865202793142736
-0.32540209910119083   -0.2912149761531978   -0.05823369171713069
-0.32540209910119083   -0.2912149761531978   -0.05823369171713069
-0.32540209910119083   -0.2912149761531978   -0.05823369171713069
-0.32540209910119083   -0.2912149761531978   -0.05823369171713069
-0.645209892651345   -0.6078003766454328   0.050979141995291244
-0.645209892651345   -0.6078003766454328   0.050979141995291244
-0.645209892651345   -0.6078003766454328   0.050979141995291244
-0.645209892651345   -0.6078003766454328   0.050979141995291244
-1.4299163957577996   -0.22223865876854168   -0.033109037271849884
-1.4299163957577996   -0.22223865876854168   -0.033109037271849884
-1.4299163957577996   -0.22223865876854168   -0.033109037271849884
-1.4299163957577996   -0.22223865876854168   -0.033109037271849884
-1.6374729206886263   -0.8826996278982026   -0.04570537541528663
-1.6374729206886263   -0.8826996278982026   -0.04570537541528663
-1.6374729206886263   -0.8826996278982026   -0.04570537541528663
-1.6374729206886263   -0.8826996278982026   -0.04570537541528663
-0.6004522002850226   -0.04982779531745982   0.02015268068424539
-0.6004522002850226   -0.04982779531745982   0.02015268068424539
-0.6004522002850226   -0.04982779531745982   0.02015268068424539
-0.6004522002850226   -0.04982779531745982   0.02015268068424539
-1.0679301315071672   -0.42351878082348654   -0.03643221683433767
-1.0679301315071672   -0.42351878082348654   -0.03643221683433767
-1.0679301315071672   -0.42351878082348654   -0.03643221683433767
-1.0679301315071672   -0.42351878082348654   -0.03643221683433767
-0.7287617601100592   -0.6883840862092596   0.01716117245086146
-0.7287617601100592   -0.6883840862092596   0.01716117245086146
-0.7287617601100592   -0.6883840862092596   0.01716117245086146
-0.7287617601100592   -0.6883840862092596   0.01716117245086146
-1.5058890548834185   -0.24086903102623386   -0.029616643261228592
-1.5058890548834185   -0.24086903102623386   -0.029616643261228592
-1.5058890548834185   -0.24086903102623386   -0.029616643261228592
-1.5058890548834185   -0.24086903102623386   -0.029616643261228592
-1.6861943401467097   -0.8968897588015103   -0.05285507098247799
-1.6861943401467097   -0.8968897588015103   -0.05285507098247799
-1.6861943401467097   -0.8968897588015103   -0.05285507098247799
-1.6861943401467097   -0.8968897588015103   -0.05285507098247799
-0.6382075099524919   -0.06306204866179206   0.03007379375317401
-0.6382075099524919   -0.06306204866179206   0.03007379375317401
-0.6382075099524919   -0.06306204866179206   0.03007379375317401
-0.6382075099524919   -0.06306204866179206   0.03007379375317401
-1.1274721133982002   -0.4692534655118236   -0.05159379938590897
-1.1274721133982002   -0.4692534655118236   -0.05159379938590897
-1.1274721133982002   -0.4692534655118236   -0.05159379938590897
-1.1274721133982002   -0.4692534655118236   -0.05159379938590897
-0.7706408803112814   -0.7018658949820352   0.006710788279469415
-0.7706408803112814   -0.7018658949820352   0.006710788279469415
-0.7706408803112814   -0.7018658949820352   0.006710788279469415
-0.7706408803112814   -0.7018658949820352   0.006710788279469415
-1.5539880258975927   -0.2583129685909429   -0.030400289947478842
-1.5539880258975927   -0.2583129685909429   -0.030400289947478842
-1.5539880258975927   -0.2583129685909429   -0.030400289947478842
-1.5539880258975927   -0.2583129685909429   -0.030400289947478842
-1.7277474899500844   -0.858382670672621   -0.059602476745398536
-1.7277474899500844   -0.858382670672621   -0.059602476745398536
-1.7277474899500844   -0.858382670672621   -0.059602476745398536
-1.7277474899500844   -0.858382670672621   -0.059602476745398536
-0.6860042876328805   -0.08175280262234406   0.02785299980889616
-0.6860042876328805   -0.08175280262234406   0.02785299980889616
-0.6860042876328805   -0.08175280262234406   0.02785299980889616
-0.6860042876328805   -0.08175280262234406   0.02785299980889616
-1.182316925554174   -0.4848435331848329   -0.0660894763491231
-1.182316925554174   -0.4848435331848329   -0.0660894763491231
-1.182316925554174   -0.4848435331848329   -0.0660894763491231
-1.182316925554174   -0.4848435331848329   -0.0660894763491231
-1.4047384144157746   -0.2556993672910106   0.12624157796072144
-1.4047384144157746   -0.2556993672910106   0.12624157796072144
-1.4047384144157746   -0.2556993672910106   0.12624157796072144
-1.4047384144157746   -0.2556993672910106   0.12624157796072144
-2.4733729572184155   -0.18505021593404344   -0.043900569005764
-2.4733729572184155   -0.18505021593404344   -0.043900569005764
-2.4733729572184155   -0.18505021593404344   -0.043900569005764
-2.4733729572184155   -0.18505021593404344   -0.043900569005764
-2.624788565688331   -0.5180284536253411   0.034646297561625405
-2.624788565688331   -0.5180284536253411   0.034646297561625405
-2.624788565688331   -0.5180284536253411   0.034646297561625405
-2.624788565688331   -0.5180284536253411   0.034646297561625405
-1.4451250211416184   0.020864604180369922   0.01246989024116868
-1.4451250211416184   0.020864604180369922   0.01246989024116868
-1.4451250211416184   0.020864604180369922   0.01246989024116868
-1.4451250211416184   0.020864604180369922   0.01246989024116868
-1.8923798616287901   -0.181969948246161   0.038028748172683535
-1.8923798616287901   -0.181969948246161   0.038028748172683535
-1.8923798616287901   -0.181969948246161   0.038028748172683535
-1.8923798616287901   -0.181969948246161   0.038028748172683535
-1.4842794253601488   -0.2744528253385444   0.11201529866742665
-1.4842794253601488   -0.2744528253385444   0.11201529866742665
-1.4842794253601488   -0.2744528253385444   0.11201529866742665
-1.4842794253601488   -0.2744528253385444   0.11201529866742665
-2.579013378771441   -0.21609024140806476   -0.038415980071182076
-2.579013378771441   -0.21609024140806476   -0.038415980071182076
-2.579013378771441   -0.21609024140806476   -0.038415980071182076
-2.579013378771441   -0.21609024140806476   -0.038415980071182076
-2.6890274377699317   -0.5400829591956685   -0.01138735820841097
-2.6890274377699317   -0.5400829591956685   -0.01138735820841097
-2.6890274377699317   -0.5400829591956685   -0.01138735820841097
-2.6890274377699317   -0.5400829591956685   -0.01138735820841097
-1.490472971998226   0.006018026197796858   0.022843984760616054
-1.490472971998226   0.006018026197796858   0.022843984760616054
-1.490472971998226   0.006018026197796858   0.022843984760616054
-1.490472971998226   0.006018026197796858   0.022843984760616054
-2.0055652527716696   -0.24022596251053027   0.015657875948286937
-2.0055652527716696   -0.24022596251053027   0.015657875948286937
-2.0055652527716696   -0.24022596251053027   0.015657875948286937
-2.0055652527716696   -0.24022596251053027   0.015657875948286937
-1.5353772059390256   -0.28850606078076846   0.09284690203518337
-1.5353772059390256   -0.28850606078076846   0.09284690203518337
-1.5353772059390256   -0.28850606078076846   0.09284690203518337
-1.5353772059390256   -0.28850606078076846   0.09284690203518337
-2.630821879815358   -0.23225754820332578   -0.028184979427864798
-2.630821879815358   -0.23225754820332578   -0.028184979427864798
-2.630821879815358   -0.23225754820332578   -0.028184979427864798
-2.630821879815358   -0.23225754820332578   -0.028184979427864798
-2.7449057125493947   -0.5490136043712113   -0.00016230930666205623
-2.7449057125493947   -0.5490136043712113   -0.00016230930666205623
-2.7449057125493947   -0.5490136043712113   -0.00016230930666205623
-2.7449057125493947   -0.5490136043712113   -0.00016230930666205623
-1.5541549096915463   -0.05937597761437971   0.009353731489043504
-1.5541549096915463   -0.05937597761437971   0.009353731489043504
-1.5541549096915463   -0.05937597761437971   0.009353731489043504
-1.5541549096915463   -0.05937597761437971   0.009353731489043504
-2.0299702799927863   -0.29024718663100213   0.024715008904770297
-2.0299702799927863   -0.29024718663100213   0.024715008904770297
-2.0299702799927863   -0.29024718663100213   0.024715008904770297
-2.0299702799927863   -0.29024718663100213   0.024715008904770297
1.6723823688548012   0.07692228149158409   -0.036310754763883235
1.6723823688548012   0.07692228149158409   -0.036310754763883235
1.6723823688548012   0.07692228149158409   -0.036310754763883235
1.6723823688548012   0.07692228149158409   -0.036310754763883235
0.8417618238457987   -0.016965384594043453   0.017862063952147622
0.8417618238457987   -0.016965384594043453   0.017862063952147622
0.8417618238457987   -0.016965384594043453   0.017862063952147622
0.8417618238457987   -0.016965384594043453   0.017862063952147622
0.7882043741947978   -0.12393723469466189   -0.03209184167781512
0.7882043741947978   -0.12393723469466189   -0.03209184167781512
0.7882043741947978   -0.12393723469466189   -0.03209184167781512
0.7882043741947978   -0.12393723469466189   -0.03209184167781512
1.6530162933454975   0.12072969428026076   0.02089840360523304
1.6530162933454975   0.12072969428026076   0.02089840360523304
1.6530162933454975   0.12072969428026076   0.02089840360523304
1.6530162933454975   0.12072969428026076   0.02089840360523304
1.173901964940912   0.002879931172741129   -0.0453453585819063
1.173901964940912   0.002879931172741129   -0.0453453585819063
1.173901964940912   0.002879931172741129   -0.0453453585819063
1.173901964940912   0.002879931172741129   -0.0453453585819063
1.6259003366033842   0.0426916574646725   -0.03664334328972951
1.6259003366033842   0.0426916574646725   -0.03664334328972951
1.6259003366033842   0.0426916574646725   -0.03664334328972951
1.6259003366033842   0.0426916574646725   -0.03664334328972951
0.8138143713627783   -0.04740515745320484   0.01942606692062418
0.8138143713627783   -0.04740515745320484   0.01942606692062418
0.8138143713627783   -0.04740515745320484   0.01942606692062418
0.8138143713627783   -0.04740515745320484   0.01942606692062418
0.7593672115249248   -0.13086364307296072   -0.026503089530626717
0.7593672115249248   -0.13086364307296072   -0.026503089530626717
0.7593672115249248   -0.13086364307296072   -0.026503089530626717
0.7593672115249248   -0.13086364307296072   -0.026503089530626717
1.6129569807742774   0.11091534129414723   0.030549816787381334
1.6129569807742774   0.11091534129414723   0.030549816787381334
1.6129569807742774   0.11091534129414723   0.030549816787381334
1.6129569807742774   0.11091534129414723   0.030549816787381334
1.1581537195014493   -0.011749691377553814   -0.054131659413292676
1.1581537195014493   -0.011749691377553814   -0.054131659413292676
1.1581537195014493   -0.011749691377553814   -0.054131659413292676
1.1581537195014493   -0.011749691377553814   -0.054131659413292676
1.5856410870348694   0.03389073984336588   -0.029005050458877024
1.5856410870348694   0.03389073984336588   -0.029005050458877024
1.5856410870348694   0.03389073984336588   -0.029005050458877024
1.5856410870348694   0.03389073984336588   -0.029005050458877024
0.7845937816814512   -0.05592836520507109   0.024694483384115756
0.7845937816814512   -0.05592836520507109   0.024694483384115756
0.7845937816814512   -0.05592836520507109   0.024694483384115756
0.7845937816814512   -0.05592836520507109   0.024694483384115756
0.7314376208799196   -0.12895529207279768   -0.01817234221182648
0.7314376208799196   -0.12895529207279768   -0.01817234221182648
0.7314376208799196   -0.12895529207279768   -0.01817234221182648
0.7314376208799196   -0.12895529207279768   -0.01817234221182648
1.563355894650841   0.10424588712643054   0.03974993351464018
1.563355894650841   0.10424588712643054   0.03974993351464018
1.563355894650841   0.10424588712643054   0.03974993351464018
1.563355894650841   0.10424588712643054   0.03974993351464018
1.100864793346332   -0.020502516427366946   -0.07110079210345988
1.100864793346332   -0.020502516427366946   -0.07110079210345988
1.100864793346332   -0.020502516427366946   -0.07110079210345988
1.100864793346332   -0.020502516427366946   -0.07110079210345988
0.8463306745453658   0.016183389603924764   0.0075575432520154084
0.8463306745453658   0.016183389603924764   0.0075575432520154084
0.8463306745453658   0.016183389603924764   0.0075575432520154084
0.8463306745453658   0.016183389603924764   0.0075575432520154084
0.08142186983141045   -0.05070720963956616   -0.0019237241178550468
0.08142186983141045   -0.05070720963956616   -0.0019237241178550468
0.08142186983141045   -0.05070720963956616   -0.0019237241178550468
0.08142186983141045   -0.05070720963956616   -0.0019237241178550468
0.030954165330501195   -0.16394241592440784   -0.030880088389548054
0.030954165330501195   -0.16394241592440784   -0.030880088389548054
0.030954165330501195   -0.16394241592440784   -0.030880088389548054
0.030954165330501195   -0.16394241592440784   -0.030880088389548054
0.847339534141176   0.09773003369114641   0.041916689668261065
0.847339534141176   0.09773003369114641   0.041916689668261065
0.847339534141176   0.09773003369114641   0.041916689668261065
0.847339534141176   0.09773003369114641   0.041916689668261065
0.4432256879438945   -0.023033285839210053   -0.017571262458141515
0.4432256879438945   -0.023033285839210053   -0.017571262458141515
0.4432256879438945   -0.023033285839210053   -0.017571262458141515
0.4432256879438945   -0.023033285839210053   -0.017571262458141515
0.8226332564843213   0.003160405832744538   0.012954929242393637
0.8226332564843213   0.003160405832744538   0.012954929242393637
0.8226332564843213   0.003160405832744538   0.012954929242393637
0.8226332564843213   0.003160405832744538   0.012954929242393637
0.05659734734591449   -0.06843588370744663   0.0018292894705572446
0.05659734734591449   -0.06843588370744663   0.0018292894705572446
0.05659734734591449   -0.06843588370744663   0.0018292894705572446
0.05659734734591449   -0.06843588370744663   0.0018292894705572446
0.0031492702511259716   -0.17177266961081045   -0.021488450050574225
0.0031492702511259716   -0.17177266961081045   -0.021488450050574225
0.0031492702511259716   -0.17177266961081045   -0.021488450050574225
0.0031492702511259716   -0.17177266961081045   -0.021488450050574225
0.8168149496042414   0.08363728644453124   0.046234671348463985
0.8168149496042414   0.08363728644453124   0.046234671348463985
0.8168149496042414   0.08363728644453124   0.046234671348463985
0.8168149496042414   0.08363728644453124   0.046234671348463985
0.4112279203224895   -0.036004316419763815   -0.024878594253126315
0.4112279203224895   -0.036004316419763815   -0.024878594253126315
0.4112279203224895   -0.036004316419763815   -0.024878594253126315
0.4112279203224895   -0.036004316419763815   -0.024878594253126315
0.7934968307106681   -0.005624329036456592   0.018905692361591453
0.7934968307106681   -0.005624329036456592   0.018905692361591453
0.7934968307106681   -0.005624329036456592   0.018905692361591453
0.7934968307106681   -0.005624329036456592   0.018905692361591453
0.02633515003700361   -0.08264329323750699   0.005311572505510533
0.02633515003700361   -0.08264329323750699   0.005311572505510533
0.02633515003700361   -0.08264329323750699   0.005311572505510533
0.02633515003700361   -0.08264329323750699   0.005311572505510533
-0.026700606986301095   -0.17255681192572747   -0.014652631167959396
-0.026700606986301095   -0.17255681192572747   -0.014652631167959396
-0.026700606986301095   -0.17255681192572747   -0.014652631167959396
-0.026700606986301095   -0.17255681192572747   -0.014652631167959396
0.7860179443328779   0.07467416168729801   0.05109982129287527
0.7860179443328779   0.07467416168729801   0.05109982129287527
0.7860179443328779   0.07467416168729801   0.05109982129287527
0.7860179443328779   0.07467416168729801   0.05109982129287527
0.386191592097297   -0.04117868040643949   -0.031158763089355848
0.386191592097297   -0.04117868040643949   -0.031158763089355848
0.386191592097297   -0.04117868040643949   -0.031158763089355848
0.386191592097297   -0.04117868040643949   -0.031158763089355848
0.08298898665515113   -0.04759225724915273   0.0027969076104329494
0.08298898665515113   -0.04759225724915273   0.0027969076104329494
0.08298898665515113   -0.04759225724915273   0.0027969076104329494
0.08298898665515113   -0.04759225724915273   0.0027969076104329494
-0.653533420397153   -0.07553093565303032   -0.020562954372757403
-0.653533420397153   -0.07553093565303032   -0.020562954372757403
-0.653533420397153   -0.07553093565303032   -0.020562954372757403
-0.653533420397153   -0.07553093565303032   -0.020562954372757403
-0.7096398180920241   -0.2173286473693394   -0.03518501328753085
-0.7096398180920241   -0.2173286473693394   -0.03518501328753085
-0.7096398180920241   -0.2173286473693394   -0.03518501328753085
-0.7096398180920241   -0.2173286473693394   -0.03518501328753085
0.08904661926646232   0.07158091472398401   0.024058850641865748
0.08904661926646232   0.07158091472398401   0.024058850641865748
0.08904661926646232   0.07158091472398401   0.024058850641865748
0.08904661926646232   0.07158091472398401   0.024058850641865748
-0.2986664956905331   -0.06399845055863687   -0.017441039258190127
-0.2986664956905331   -0.06399845055863687   -0.017441039258190127
-0.2986664956905331   -0.06399845055863687   -0.017441039258190127
-0.2986664956905331   -0.06399845055863687   -0.017441039258190127
0.06209644819475103   -0.05313884121084963   0.014027751218142953
0.06209644819475103   -0.05313884121084963   0.014027751218142953
0.06209644819475103   -0.05313884121084963   0.014027751218142953
0.06209644819475103   -0.05313884121084963   0.014027751218142953
-0.6806271246918919   -0.09054636910608481   -0.01690382455012418
-0.6806271246918919   -0.09054636910608481   -0.01690382455012418
-0.6806271246918919   -0.09054636910608481   -0.01690382455012418
-0.6806271246918919   -0.09054636910608481   -0.01690382455012418
-0.742247307443638   -0.22590472912210302   -0.023302701837116663
-0.742247307443638   -0.22590472912210302   -0.023302701837116663
-0.742247307443638   -0.22590472912210302   -0.023302701837116663
-0.742247307443638   -0.22590472912210302   -0.023302701837116663
0.05854118032768441   0.05649433159417248   0.027204099127235048
0.05854118032768441   0.05649433159417248   0.027204099127235048
0.05854118032768441   0.05649433159417248   0.027204099127235048
0.05854118032768441   0.05649433159417248   0.027204099127235048
-0.32564176950033874   -0.07298280063692339   -0.0209204238446508
-0.32564176950033874   -0.07298280063692339   -0.0209204238446508
-0.32564176950033874   -0.07298280063692339   -0.0209204238446508
-0.32564176950033874   -0.07298280063692339   -0.0209204238446508
0.03322502835613709   -0.062271822851669004   0.019389493715339934
0.03322502835613709   -0.062271822851669004   0.019389493715339934
0.03322502835613709   -0.062271822851669004   0.019389493715339934
0.03322502835613709   -0.062271822851669004   0.019389493715339934
-0.7164984674967043   -0.1067058867008855   -0.01375734452366617
-0.7164984674967043   -0.1067058867008855   -0.01375734452366617
-0.7164984674967043   -0.1067058867008855   -0.01375734452366617
-0.7164984674967043   -0.1067058867008855   -0.01375734452366617
-0.7784284783980228   -0.2321716863318412   -0.02071561508603173
-0.7784284783980228   -0.2321716863318412   -0.02071561508603173
-0.7784284783980228   -0.2321716863318412   -0.02071561508603173
-0.7784284783980228   -0.2321716863318412   -0.02071561508603173
0.025545019321675497   0.043613736196875114   0.03040495224932095
0.025545019321675497   0.043613736196875114   0.03040495224932095
0.025545019321675497   0.043613736196875114   0.03040495224932095
0.025545019321675497   0.043613736196875114   0.03040495224932095
-0.36068786578626144   -0.08373933329190145   -0.02930211127712949
-0.36068786578626144   -0.08373933329190145   -0.02930211127712949
-0.36068786578626144   -0.08373933329190145   -0.02930211127712949
-0.36068786578626144   -0.08373933329190145   -0.02930211127712949
-0.643523183868293   -0.05628895867715208   0.010246251295652847
-0.643523183868293   -0.05628895867715208   0.010246251295652847
-0.643523183868293   -0.05628895867715208   0.010246251295652847
-0.643523183868293   -0.05628895867715208   0.010246251295652847
-1.3708509196408496   -0.08839619149972246   -0.03624064707665636
-1.3708509196408496   -0.08839619149972246   -0.03624064707665636
-1.3708509196408496   -0.08839619149972246   -0.03624064707665636
-1.3708509196408496   -0.08839619149972246   -0.03624064707665636
-1.4346296717132154   -0.22772356029353377   -0.03514867276793143
-1.4346296717132154   -0.22772356029353377   -0.03514867276793143
-1.4346296717132154   -0.22772356029353377   -0.03514867276793143
-1.4346296717132154   -0.22772356029353377   -0.03514867276793143
-0.6468395482861091   0.05467140099386841   0.006816287378830721
-0.6468395482861091   0.05467140099386841   0.006816287378830721
-0.6468395482861091   0.05467140099386841   0.006816287378830721
-0.6468395482861091   0.05467140099386841   0.006816287378830721
-1.0155244351602677   -0.07575375465884697   -0.01465417730244789
-1.0155244351602677   -0.07575375465884697   -0.01465417730244789
-1.0155244351602677   -0.07575375465884697   -0.01465417730244789
-1.0155244351602677   -0.07575375465884697   -0.01465417730244789
-0.6666634804899684   -0.06218915168719055   0.02455717904059898
-0.6666634804899684   -0.06218915168719055   0.02455717904059898
-0.6666634804899684   -0.06218915168719055   0.02455717904059898
-0.6666634804899684   -0.06218915168719055   0.02455717904059898
-1.4107624751049146   -0.1068197432080341   -0.03671650681193794
-1.4107624751049146   -0.1068197432080341   -0.03671650681193794
-1.4107624751049146   -0.1068197432080341   -0.03671650681193794
-1.4107624751049146   -0.1068197432080341   -0.03671650681193794
-1.4797409943590614   -0.24231890550412788   -0.02467700605193529
-1.4797409943590614   -0.24231890550412788   -0.02467700605193529
-1.4797409943590614   -0.24231890550412788   -0.02467700605193529
-1.4797409943590614   -0.24231890550412788   -0.02467700605193529
-0.6831090646408771   0.038145601477740224   0.008338181576844184
-0.6831090646408771   0.038145601477740224   0.008338181576844184
-0.6831090646408771   0.038145601477740224   0.008338181576844184
-0.6831090646408771   0.038145601477740224   0.008338181576844184
-1.0440479190189875   -0.08383604021476757   -0.014697455257382613
-1.0440479190189875   -0.08383604021476757   -0.014697455257382613
-1.0440479190189875   -0.08383604021476757   -0.014697455257382613
-1.0440479190189875   -0.08383604021476757   -0.014697455257382613
-0.7026817146025455   -0.0768729514109909   0.025493484657233417
-0.7026817146025455   -0.0768729514109909   0.025493484657233417
-0.7026817146025455   -0.0768729514109909   0.025493484657233417
-0.7026817146025455   -0.0768729514109909   0.025493484657233417
-1.457458475937289   -0.124590484155294   -0.03099283529191499
-1.457458475937289   -0.124590484155294   -0.03099283529191499
-1.457458475937289   -0.124590484155294   -0.03099283529191499
-1.457458475937289   -0.124590484155294   -0.03099283529191499
-1.5307871640126838   -0.26156196107348495   -0.026409916067005046
-1.5307871640126838   -0.26156196107348495   -0.026409916067005046
-1.5307871640126838   -0.26156196107348495   -0.026409916067005046
-1.5307871640126838   -0.26156196107348495   -0.026409916067005046
-0.7223064032350511   0.017750690606780514   0.009972383790197686
-0.7223064032350511   0.017750690606780514   0.009972383790197686
-0.7223064032350511   0.017750690606780514   0.009972383790197686
-0.7223064032350511   0.017750690606780514   0.009972383790197686
-1.094687072028035   -0.10356762989542613   -0.023893840567140334
-1.094687072028035   -0.10356762989542613   -0.023893840567140334
-1.094687072028035   -0.10356762989542613   -0.023893840567140334
-1.094687072028035   -0.10356762989542613   -0.023893840567140334
-1.324435484655024   0.0625045497086149   0.04493578664413583
-1.324435484655024   0.0625045497086149   0.04493578664413583
-1.324435484655024   0.0625045497086149   0.04493578664413583
-1.324435484655024   0.0625045497086149   0.04493578664413583
-2.0535563727115833   -0.1023142851251395   -0.027599575858553105
-2.0535563727115833   -0.1023142851251395   -0.027599575858553105
-2.0535563727115833   -0.1023142851251395   -0.027599575858553105
-2.0535563727115833   -0.1023142851251395   -0.027599575858553105
-2.1040566079824767   -0.10418869003164241   0.04613500602190401
-2.1040566079824767   -0.10418869003164241   0.04613500602190401
-2.1040566079824767   -0.10418869003164241   0.04613500602190401
-2.1040566079824767   -0.10418869003164241   0.04613500602190401
-1.3757317345241808   0.04262918719756158   -0.011011734313865817
-1.3757317345241808   0.04262918719756158   -0.011011734313865817
-1.3757317345241808   0.04262918719756158   -0.011011734313865817
-1.3757317345241808   0.04262918719756158   -0.011011734313865817
-1.6345443533611346   0.0012348222950415572   0.041488276094077625
-1.6345443533611346   0.0012348222950415572   0.041488276094077625
-1.6345443533611346   0.0012348222950415572   0.041488276094077625
-1.6345443533611346   0.0012348222950415572   0.041488276094077625
-1.3614139711451385   0.046461741739353524   0.05674452803954555
-1.3614139711451385   0.046461741739353524   0.05674452803954555
-1.3614139711451385   0.046461741739353524   0.05674452803954555
-1.3614139711451385   0.046461741739353524   0.05674452803954555
-2.117432102543475   -0.10707897575539178   -0.01785218105933839
-2.117432102543475   -0.10707897575539178   -0.01785218105933839
-2.117432102543475   -0.10707897575539178   -0.01785218105933839
-2.117432102543475   -0.10707897575539178   -0.01785218105933839
-2.1678054269824676   -0.12146721878909353   0.06275021481040577
-2.1678054269824676   -0.12146721878909353   0.06275021481040577
-2.1678054269824676   -0.12146721878909353   0.06275021481040577
-2.1678054269824676   -0.12146721878909353   0.06275021481040577
-1.422467173484738   0.030888908884868352   -0.011515716069322168
-1.422467173484738   0.030888908884868352   -0.011515716069322168
-1.422467173484738   0.030888908884868352   -0.011515716069322168
-1.422467173484738   0.030888908884868352   -0.011515716069322168
-1.7167907059887588   -0.018986767561946852   0.02269077146963072
-1.7167907059887588   -0.018986767561946852   0.02269077146963072
-1.7167907059887588   -0.018986767561946852   0.02269077146963072
-1.7167907059887588   -0.018986767561946852   0.02269077146963072
-1.4093787543321783   0.028859275412126878   0.055956013166218455
-1.4093787543321783   0.028859275412126878   0.055956013166218455
-1.4093787543321783   0.028859275412126878   0.055956013166218455
-1.4093787543321783   0.028859275412126878   0.055956013166218455
-2.1833587334143756   -0.12190247259569705   -0.014581063542511818
-2.1833587334143756   -0.12190247259569705   -0.014581063542511818
-2.1833587334143756   -0.12190247259569705   -0.014581063542511818
-2.1833587334143756   -0.12190247259569705   -0.014581063542511818
-2.258434096181432   -0.1912018164815217   0.0545037236432806
-2.258434096181432   -0.1912018164815217   0.0545037236432806
-2.258434096181432   -0.1912018164815217   0.0545037236432806
-2.258434096181432   -0.1912018164815217   0.0545037236432806
-1.4763511259494342   -0.0049486819674713495   -0.010843004856779082
-1.4763511259494342   -0.0049486819674713495   -0.010843004856779082
-1.4763511259494342   -0.0049486819674713495   -0.010843004856779082
-1.4763511259494342   -0.0049486819674713495   -0.010843004856779082
-1.751798305138512   -0.04445081186585069   0.006159645676079406
-1.751798305138512   -0.04445081186585069   0.006159645676079406
-1.751798305138512   -0.04445081186585069   0.006159645676079406
-1.751798305138512   -0.04445081186585069   0.006159645676079406
1.35528757792221   0.07250906017054808   -0.048291466301367325
1.35528757792221   0.07250906017054808   -0.048291466301367325
1.35528757792221   0.07250906017054808   -0.048291466301367325
1.35528757792221   0.07250906017054808   -0.048291466301367325
0.6718454443564763   -0.0007130289258414843   0.01749095891109556
0.6718454443564763   -0.0007130289258414843   0.01749095891109556
0.6718454443564763   -0.0007130289258414843   0.01749095891109556
0.6718454443564763   -0.0007130289258414843   0.01749095891109556
0.6140662466737323   -0.10010082363315642   -0.044304139290087835
0.6140662466737323   -0.10010082363315642   -0.044304139290087835
0.6140662466737323   -0.10010082363315642   -0.044304139290087835
0.6140662466737323   -0.10010082363315642   -0.044304139290087835
1.3297765175269545   0.10957899253328002   0.021936859815790855
1.3297765175269545   0.10957899253328002   0.021936859815790855
1.3297765175269545   0.10957899253328002   0.021936859815790855
1.3297765175269545   0.10957899253328002   0.021936859815790855
0.941420307834611   0.008314253572383329   -0.030983308173496427
0.941420307834611   0.008314253572383329   -0.030983308173496427
0.941420307834611   0.008314253572383329   -0.030983308173496427
0.941420307834611   0.008314253572383329   -0.030983308173496427
1.3015598598589904   0.0369543663864705   -0.0465218023772111
1.3015598598589904   0.0369543663864705   -0.0465218023772111
1.3015598598589904   0.0369543663864705   -0.0465218023772111
1.3015598598589904   0.0369543663864705   -0.0465218023772111
0.641074055329093   -0.028685046498950803   0.019319126852498286
0.641074055329093   -0.028685046498950803   0.019319126852498286
0.641074055329093   -0.028685046498950803   0.019319126852498286
0.641074055329093   -0.028685046498950803   0.019319126852498286
0.5851679090954891   -0.1084550783411721   -0.038513209710427126
0.5851679090954891   -0.1084550783411721   -0.038513209710427126
0.5851679090954891   -0.1084550783411721   -0.038513209710427126
0.5851679090954891   -0.1084550783411721   -0.038513209710427126
1.2865523783230837   0.09809477488161145   0.02999844831868842
1.2865523783230837   0.09809477488161145   0.02999844831868842
1.2865523783230837   0.09809477488161145   0.02999844831868842
1.2865523783230837   0.09809477488161145   0.02999844831868842
0.918823032832659   -0.006745983219134298   -0.040690738754877276
0.918823032832659   -0.006745983219134298   -0.040690738754877276
0.918823032832659   -0.006745983219134298   -0.040690738754877276
0.918823032832659   -0.006745983219134298   -0.040690738754877276
1.2589384704647442   0.026672010547074243   -0.03664832663845047
1.2589384704647442   0.026672010547074243   -0.03664832663845047
1.2589384704647442   0.026672010547074243   -0.03664832663845047
1.2589384704647442   0.026672010547074243   -0.03664832663845047
0.6116967650453412   -0.038117365915119474   0.023793357612776372
0.6116967650453412   -0.038117365915119474   0.023793357612776372
0.6116967650453412   -0.038117365915119474   0.023793357612776372
0.6116967650453412   -0.038117365915119474   0.023793357612776372
0.5587822229004505   -0.11091173436747631   -0.03146450220456504
0.5587822229004505   -0.11091173436747631   -0.03146450220456504
0.5587822229004505   -0.11091173436747631   -0.03146450220456504
0.5587822229004505   -0.11091173436747631   -0.03146450220456504
1.2378240984587305   0.08804202776000664   0.03733705915580304
1.2378240984587305   0.08804202776000664   0.03733705915580304
1.2378240984587305   0.08804202776000664   0.03733705915580304
1.2378240984587305   0.08804202776000664   0.03733705915580304
0.8661083490948227   -0.017110621515426597   -0.055259696596973884
0.8661083490948227   -0.017110621515426597   -0.055259696596973884
0.8661083490948227   -0.017110621515426597   -0.055259696596973884
0.8661083490948227   -0.017110621515426597   -0.055259696596973884
0.6834042696547837   0.07082368870336478   0.0037483677734262977
0.6834042696547837   0.07082368870336478   0.0037483677734262977
0.6834042696547837   0.07082368870336478   0.0037483677734262977
0.6834042696547837   0.07082368870336478   0.0037483677734262977
0.023326642406141976   -0.022409497484350865   -0.002794939365698561
0.023326642406141976   -0.022409497484350865   -0.002794939365698561
0.023326642406141976   -0.022409497484350865   -0.002794939365698561
0.023326642406141976   -0.022409497484350865   -0.002794939365698561
-0.020225249548916763   -0.09019646061846436   -0.03015099818970013
-0.020225249548916763   -0.09019646061846436   -0.03015099818970013
-0.020225249548916763   -0.09019646061846436   -0.03015099818970013
-0.020225249548916763   -0.09019646061846436   -0.03015099818970013
0.6702260564482924   0.09923699902909741   0.03715708692044653
0.6702260564482924   0.09923699902909741   0.03715708692044653
0.6702260564482924   0.09923699902909741   0.03715708692044653
0.6702260564482924   0.09923699902909741   0.03715708692044653
0.33389805548327667   0.01413628207325696   -0.0038186289735781254
0.33389805548327667   0.01413628207325696   -0.0038186289735781254
0.33389805548327667   0.01413628207325696   -0.0038186289735781254
0.33389805548327667   0.01413628207325696   -0.0038186289735781254
0.6549477694726429   0.052390727531716114   0.007611923539581261
0.6549477694726429   0.052390727531716114   0.007611923539581261
0.6549477694726429   0.052390727531716114   0.007611923539581261
0.6549477694726429   0.052390727531716114   0.007611923539581261
-0.004675593700141036   -0.04307882024794643   0.0004796406836605864
-0.004675593700141036   -0.04307882024794643   0.0004796406836605864
-0.004675593700141036   -0.04307882024794643   0.0004796406836605864
-0.004675593700141036   -0.04307882024794643   0.0004796406836605864
-0.04760032873152291   -0.10370553884687762   -0.02606417677281605
-0.04760032873152291   -0.10370553884687762   -0.02606417677281605
-0.04760032873152291   -0.10370553884687762   -0.02606417677281605
-0.04760032873152291   -0.10370553884687762   -0.02606417677281605
0.6392154034742099   0.08215398171724062   0.04111520212475994
0.6392154034742099   0.08215398171724062   0.04111520212475994
0.6392154034742099   0.08215398171724062   0.04111520212475994
0.6392154034742099   0.08215398171724062   0.04111520212475994
0.3004583248455882   -0.0026996617024257243   -0.013385299884631094
0.3004583248455882   -0.0026996617024257243   -0.013385299884631094
0.3004583248455882   -0.0026996617024257243   -0.013385299884631094
0.3004583248455882   -0.0026996617024257243   -0.013385299884631094
0.6245097303239072   0.03823122661405825   0.011509591476433184
0.6245097303239072   0.03823122661405825   0.011509591476433184
0.6245097303239072   0.03823122661405825   0.011509591476433184
0.6245097303239072   0.03823122661405825   0.011509591476433184
-0.03286831222890054   -0.059756440391374864   0.003646807284793028
-0.03286831222890054   -0.059756440391374864   0.003646807284793028
-0.03286831222890054   -0.059756440391374864   0.003646807284793028
-0.03286831222890054   -0.059756440391374864   0.003646807284793028
-0.0746978329473501   -0.11183565741259834   -0.02073349692637848
-0.0746978329473501   -0.11183565741259834   -0.02073349692637848
-0.0746978329473501   -0.11183565741259834   -0.02073349692637848
-0.0746978329473501   -0.11183565741259834   -0.02073349692637848
0.6097213357787322   0.0677479857307332   0.04457134208862512
0.6097213357787322   0.0677479857307332   0.04457134208862512
0.6097213357787322   0.0677479857307332   0.04457134208862512
0.6097213357787322   0.0677479857307332   0.04457134208862512
0.2757349841072446   -0.013466810461192365   -0.020435979749876168
0.2757349841072446   -0.013466810461192365   -0.020435979749876168
0.2757349841072446   -0.013466810461192365   -0.020435979749876168
0.2757349841072446   -0.013466810461192365   -0.020435979749876168
0.0457477228470411   0.07151506411771791   0.01538590123672828
0.0457477228470411   0.07151506411771791   0.01538590123672828
0.0457477228470411   0.07151506411771791   0.01538590123672828
0.0457477228470411   0.07151506411771791   0.01538590123672828
-0.605079682617743   -0.03918437295504154   -0.020815844524529045
-0.605079682617743   -0.03918437295504154   -0.020815844524529045
-0.605079682617743   -0.03918437295504154   -0.020815844524529045
-0.605079682617743   -0.03918437295504154   -0.020815844524529045
-0.6390578602239976   -0.08267091910830518   -0.01909583902918166
-0.6390578602239976   -0.08267091910830518   -0.01909583902918166
-0.6390578602239976   -0.08267091910830518   -0.01909583902918166
-0.6390578602239976   -0.08267091910830518   -0.01909583902918166
0.023699531038537478   0.08126242189287969   0.018014022236227032
0.023699531038537478   0.08126242189287969   0.018014022236227032
0.023699531038537478   0.08126242189287969   0.018014022236227032
0.023699531038537478   0.08126242189287969   0.018014022236227032
-0.2933044371507934   0.009105600899492743   0.0011177085364925676
-0.2933044371507934   0.009105600899492743   0.0011177085364925676
-0.2933044371507934   0.009105600899492743   0.0011177085364925676
-0.2933044371507934   0.009105600899492743   0.0011177085364925676
0.01903716287112747   0.056633478312472924   0.01933112497958375
0.01903716287112747   0.056633478312472924   0.01933112497958375
0.01903716287112747   0.056633478312472924   0.01933112497958375
0.01903716287112747   0.056633478312472924   0.01933112497958375
-0.6336487591191556   -0.05729524259046646   -0.01742601002281058
-0.6336487591191556   -0.05729524259046646   -0.01742601002281058
-0.6336487591191556   -0.05729524259046646   -0.01742601002281058
-0.6336487591191556   -0.05729524259046646   -0.01742601002281058
-0.6684357703614917   -0.09751368160591158   -0.015859016184009117
-0.6684357703614917   -0.09751368160591158   -0.015859016184009117
-0.6684357703614917   -0.09751368160591158   -0.015859016184009117
-0.6684357703614917   -0.09751368160591158   -0.015859016184009117
-0.004536313701024057   0.06368924899977435   0.02186111053302814
-0.004536313701024057   0.06368924899977435   0.02186111053302814
-0.004536313701024057   0.06368924899977435   0.02186111053302814
-0.004536313701024057   0.06368924899977435   0.02186111053302814
-0.3214504929945803   -0.005420705328446015   -0.006072644590475018
-0.3214504929945803   -0.005420705328446015   -0.006072644590475018
-0.3214504929945803   -0.005420705328446015   -0.006072644590475018
-0.3214504929945803   -0.005420705328446015   -0.006072644590475018
-0.008518629328204692   0.042307755097439274   0.02333102629945813
-0.008518629328204692   0.042307755097439274   0.02333102629945813
-0.008518629328204692   0.042307755097439274   0.02333102629945813
-0.008518629328204692   0.042307755097439274   0.02333102629945813
-0.6638121413824464   -0.07549087435171217   -0.014763678542982106
-0.6638121413824464   -0.07549087435171217   -0.014763678542982106
-0.6638121413824464   -0.07549087435171217   -0.014763678542982106
-0.6638121413824464   -0.07549087435171217   -0.014763678542982106
-0.6976147409836564   -0.10919488613567042   -0.010478399108013542
-0.6976147409836564   -0.10919488613567042   -0.010478399108013542
-0.6976147409836564   -0.10919488613567042   -0.010478399108013542
-0.6976147409836564   -0.10919488613567042   -0.010478399108013542
-0.033788841069513825   0.04713484621271603   0.024840958837488547
-0.033788841069513825   0.04713484621271603   0.024840958837488547
-0.033788841069513825   0.04713484621271603   0.024840958837488547
-0.033788841069513825   0.04713484621271603   0.024840958837488547
-0.3517353347110949   -0.020194047125499975   -0.013929917259833141
-0.3517353347110949   -0.020194047125499975   -0.013929917259833141
-0.3517353347110949   -0.020194047125499975   -0.013929917259833141
-0.3517353347110949   -0.020194047125499975   -0.013929917259833141
-0.5705684771684101   0.08451632363625408   0.028039486130848057
-0.5705684771684101   0.08451632363625408   0.028039486130848057
-0.5705684771684101   0.08451632363625408   0.028039486130848057
-0.5705684771684101   0.08451632363625408   0.028039486130848057
-1.2126455128537594   -0.05388352024122148   -0.034108782894482215
-1.2126455128537594   -0.05388352024122148   -0.034108782894482215
-1.2126455128537594   -0.05388352024122148   -0.034108782894482215
-1.2126455128537594   -0.05388352024122148   -0.034108782894482215
-1.239137111434089   -0.06624489431099292   -0.005467625997557568
-1.239137111434089   -0.06624489431099292   -0.005467625997557568
-1.239137111434089   -0.06624489431099292   -0.005467625997557568
-1.239137111434089   -0.06624489431099292   -0.005467625997557568
-0.6066087377950721   0.061469695813445364   -0.000990841806297063
-0.6066087377950721   0.061469695813445364   -0.000990841806297063
-0.6066087377950721   0.061469695813445364   -0.000990841806297063
-0.6066087377950721   0.061469695813445364   -0.000990841806297063
-0.9006870689794989   0.009247255916520154   0.006565664545979816
-0.9006870689794989   0.009247255916520154   0.006565664545979816
-0.9006870689794989   0.009247255916520154   0.006565664545979816
-0.9006870689794989   0.009247255916520154   0.006565664545979816
-0.5985586408336664   0.06925849397619872   0.03147084483797803
-0.5985586408336664   0.06925849397619872   0.03147084483797803
-0.5985586408336664   0.06925849397619872   0.03147084483797803
-0.5985586408336664   0.06925849397619872   0.03147084483797803
-1.2461730330130534   -0.07301951709130504   -0.033872611112067685
-1.2461730330130534   -0.07301951709130504   -0.033872611112067685
-1.2461730330130534   -0.07301951709130504   -0.033872611112067685
-1.2461730330130534   -0.07301951709130504   -0.033872611112067685
-1.2753164649328521   -0.08293352721166149   -0.004850061578250575
-1.2753164649328521   -0.08293352721166149   -0.004850061578250575
-1.2753164649328521   -0.08293352721166149   -0.004850061578250575
-1.2753164649328521   -0.08293352721166149   -0.004850061578250575
-0.636334000629831   0.044700133896032425   0.002436016972354099
-0.636334000629831   0.044700133896032425   0.002436016972354099
-0.636334000629831   0.044700133896032425   0.002436016972354099
-0.636334000629831   0.044700133896032425   0.002436016972354099
-0.9260174541858677   -0.004040666474771824   0.0006675187148419137
-0.9260174541858677   -0.004040666474771824   0.0006675187148419137
-0.9260174541858677   -0.004040666474771824   0.0006675187148419137
-0.9260174541858677   -0.004040666474771824   0.0006675187148419137
-0.627517116335454   0.05486705774292528   0.036353514597346426
-0.627517116335454   0.05486705774292528   0.036353514597346426
-0.627517116335454   0.05486705774292528   0.036353514597346426
-0.627517116335454   0.05486705774292528   0.036353514597346426
-1.282073260912835   -0.0910403627441703   -0.03052720594565561
-1.282073260912835   -0.0910403627441703   -0.03052720594565561
-1.282073260912835   -0.0910403627441703   -0.03052720594565561
-1.282073260912835   -0.0910403627441703   -0.03052720594565561
-1.3086284754449502   -0.10080202944345468   0.0035308557489207026
-1.3086284754449502   -0.10080202944345468   0.0035308557489207026
-1.3086284754449502   -0.10080202944345468   0.0035308557489207026
-1.3086284754449502   -0.10080202944345468   0.0035308557489207026
-0.667835030467199   0.02474612402349332   0.004479143315108819
-0.667835030467199   0.02474612402349332   0.004479143315108819
-0.667835030467199   0.02474612402349332   0.004479143315108819
-0.667835030467199   0.02474612402349332   0.004479143315108819
-0.9655565459280038   -0.022690191017959854   -0.00726204557630708
-0.9655565459280038   -0.022690191017959854   -0.00726204557630708
-0.9655565459280038   -0.022690191017959854   -0.00726204557630708
-0.9655565459280038   -0.022690191017959854   -0.00726204557630708
-1.1696284803239194   0.0878414836890116   0.039251375824477214
-1.1696284803239194   0.0878414836890116   0.039251375824477214
-1.1696284803239194   0.0878414836890116   0.039251375824477214
-1.1696284803239194   0.0878414836890116   0.039251375824477214
-1.7900522428868335   -0.08280074871847841   -0.03145557243095565
-1.7900522428868335   -0.08280074871847841   -0.03145557243095565
-1.7900522428868335   -0.08280074871847841   -0.03145557243095565
-1.7900522428868335   -0.08280074871847841   -0.03145557243095565
-1.8146227136079167   -0.036267353290607304   0.033396542329086676
-1.8146227136079167   -0.036267353290607304   0.033396542329086676
-1.8146227136079167   -0.036267353290607304   0.033396542329086676
-1.8146227136079167   -0.036267353290607304   0.033396542329086676
-1.2209642188901262   0.03678980205397861   -0.017637859642715525
-1.2209642188901262   0.03678980205397861   -0.017637859642715525
-1.2209642188901262   0.03678980205397861   -0.017637859642715525
-1.2209642188901262   0.03678980205397861   -0.017637859642715525
-1.4325835616067741   0.018279575050111435   0.032914427176971295
-1.4325835616067741   0.018279575050111435   0.032914427176971295
-1.4325835616067741   0.018279575050111435   0.032914427176971295
-1.4325835616067741   0.018279575050111435   0.032914427176971295
-1.197889058798245   0.08942134814971078   0.04510639472094419
-1.197889058798245   0.08942134814971078   0.04510639472094419
-1.197889058798245   0.08942134814971078   0.04510639472094419
-1.197889058798245   0.08942134814971078   0.04510639472094419
-1.836335897689979   -0.08753692337650928   -0.023899807995302114
-1.836335897689979   -0.08753692337650928   -0.023899807995302114
-1.836335897689979   -0.08753692337650928   -0.023899807995302114
-1.836335897689979   -0.08753692337650928   -0.023899807995302114
-1.859557919570695   -0.04499834060540342   0.04613878256521453
-1.859557919570695   -0.04499834060540342   0.04613878256521453
-1.859557919570695   -0.04499834060540342   0.04613878256521453
-1.859557919570695   -0.04499834060540342   0.04613878256521453
-1.255468784491312   0.027152226172706087   -0.015697412754916762
-1.255468784491312   0.027152226172706087   -0.015697412754916762
-1.255468784491312   0.027152226172706087   -0.015697412754916762
-1.255468784491312   0.027152226172706087   -0.015697412754916762
-1.4943941141632373   0.009017779023826514   0.021151514278092032
-1.4943941141632373   0.009017779023826514   0.021151514278092032
-1.4943941141632373   0.009017779023826514   0.021151514278092032
-1.4943941141632373   0.009017779023826514   0.021151514278092032
-1.2299823736603326   0.08288865464845929   0.05599821292422702
-1.2299823736603326   0.08288865464845929   0.05599821292422702
-1.2299823736603326   0.08288865464845929   0.05599821292422702
-1.2299823736603326   0.08288865464845929   0.05599821292422702
-1.8837285827845884   -0.09941902146407844   -0.020293852645562938
-1.8837285827845884   -0.09941902146407844   -0.020293852645562938
-1.8837285827845884   -0.09941902146407844   -0.020293852645562938
-1.8837285827845884   -0.09941902146407844   -0.020293852645562938
-1.9205052105368718   -0.0824342404199767   0.045883287468131584
-1.9205052105368718   -0.0824342404199767   0.045883287468131584
-1.9205052105368718   -0.0824342404199767   0.045883287468131584
-1.9205052105368718   -0.0824342404199767   0.045883287468131584
-1.2924711686634567   -0.0017382707001043218   -0.014746369086966749
-1.2924711686634567   -0.0017382707001043218   -0.014746369086966749
-1.2924711686634567   -0.0017382707001043218   -0.014746369086966749
-1.2924711686634567   -0.0017382707001043218   -0.014746369086966749
-1.5124013302059782   -0.004309393022922645   0.017252982370960568
-1.5124013302059782   -0.004309393022922645   0.017252982370960568
-1.5124013302059782   -0.004309393022922645   0.017252982370960568
-1.5124013302059782   -0.004309393022922645   0.017252982370960568
1.02738148443062   0.05708791483827261   -0.04904036234247752
1.02738148443062   0.05708791483827261   -0.04904036234247752
1.02738148443062   0.05708791483827261   -0.04904036234247752
1.02738148443062   0.05708791483827261   -0.04904036234247752
0.4885534382681146   0.009792605965792293   0.018696108987325294
0.4885534382681146   0.009792605965792293   0.018696108987325294
0.4885534382681146   0.009792605965792293   0.018696108987325294
0.4885534382681146   0.009792605965792293   0.018696108987325294
0.4340700837781822   -0.08326454964947852   -0.04657441734929069
0.4340700837781822   -0.08326454964947852   -0.04657441734929069
0.4340700837781822   -0.08326454964947852   -0.04657441734929069
0.4340700837781822   -0.08326454964947852   -0.04657441734929069
1.0051300140603714   0.09442830961544998   0.023119141256712994
1.0051300140603714   0.09442830961544998   0.023119141256712994
1.0051300140603714   0.09442830961544998   0.023119141256712994
1.0051300140603714   0.09442830961544998   0.023119141256712994
0.7006287898558651   0.00947488747104882   -0.02071814619797832
0.7006287898558651   0.00947488747104882   -0.02071814619797832
0.7006287898558651   0.00947488747104882   -0.02071814619797832
0.7006287898558651   0.00947488747104882   -0.02071814619797832
0.9774409528572894   0.0254541138396278   -0.04635196898286642
0.9774409528572894   0.0254541138396278   -0.04635196898286642
0.9774409528572894   0.0254541138396278   -0.04635196898286642
0.9774409528572894   0.0254541138396278   -0.04635196898286642
0.4612135974424636   -0.014835901412456162   0.020714502735090137
0.4612135974424636   -0.014835901412456162   0.020714502735090137
0.4612135974424636   -0.014835901412456162   0.020714502735090137
0.4612135974424636   -0.014835901412456162   0.020714502735090137
0.40861743398954037   -0.09143639715829088   -0.0397224675472799
0.40861743398954037   -0.09143639715829088   -0.0397224675472799
0.40861743398954037   -0.09143639715829088   -0.0397224675472799
0.40861743398954037   -0.09143639715829088   -0.0397224675472799
0.9655536487452817   0.0827482367553376   0.03040910887326792
0.9655536487452817   0.0827482367553376   0.03040910887326792
0.9655536487452817   0.0827482367553376   0.03040910887326792
0.9655536487452817   0.0827482367553376   0.03040910887326792
0.6778475382734432   -0.004695608232956332   -0.029090481225102965
0.6778475382734432   -0.004695608232956332   -0.029090481225102965
0.6778475382734432   -0.004695608232956332   -0.029090481225102965
0.6778475382734432   -0.004695608232956332   -0.029090481225102965
0.9385103227620967   0.015062347706845239   -0.037121631994155635
0.9385103227620967   0.015062347706845239   -0.037121631994155635
0.9385103227620967   0.015062347706845239   -0.037121631994155635
0.9385103227620967   0.015062347706845239   -0.037121631994155635
0.4349717612665035   -0.024439506816019464   0.025052278495260774
0.4349717612665035   -0.024439506816019464   0.025052278495260774
0.4349717612665035   -0.024439506816019464   0.025052278495260774
0.4349717612665035   -0.024439506816019464   0.025052278495260774
0.3856786487082306   -0.09647065887039408   -0.03308092424570068
0.3856786487082306   -0.09647065887039408   -0.03308092424570068
0.3856786487082306   -0.09647065887039408   -0.03308092424570068
0.3856786487082306   -0.09647065887039408   -0.03308092424570068
0.9209242272864068   0.07010230006021555   0.03612647541598829
0.9209242272864068   0.07010230006021555   0.03612647541598829
0.9209242272864068   0.07010230006021555   0.03612647541598829
0.9209242272864068   0.07010230006021555   0.03612647541598829
0.6328062024757655   -0.015403724768770471   -0.041480569362998515
0.6328062024757655   -0.015403724768770471   -0.041480569362998515
0.6328062024757655   -0.015403724768770471   -0.041480569362998515
0.6328062024757655   -0.015403724768770471   -0.041480569362998515
0.4967142830118019   0.07223800520352783   -0.0029450665319650793
0.4967142830118019   0.07223800520352783   -0.0029450665319650793
0.4967142830118019   0.07223800520352783   -0.0029450665319650793
0.4967142830118019   0.07223800520352783   -0.0029450665319650793
-0.03245619047168561   -0.0070499274299551246   -0.00025570035175351453
-0.03245619047168561   -0.0070499274299551246   -0.00025570035175351453
-0.03245619047168561   -0.0070499274299551246   -0.00025570035175351453
-0.03245619047168561   -0.0070499274299551246   -0.00025570035175351453
-0.07083708009599841   -0.06232937764343888   -0.02961165989794424
-0.07083708009599841   -0.06232937764343888   -0.02961165989794424
-0.07083708009599841   -0.06232937764343888   -0.02961165989794424
-0.07083708009599841   -0.06232937764343888   -0.02961165989794424
0.48379440996142864   0.08583073482052436   0.03295192909693449
0.48379440996142864   0.08583073482052436   0.03295192909693449
0.48379440996142864   0.08583073482052436   0.03295192909693449
0.48379440996142864   0.08583073482052436   0.03295192909693449
0.21592436465853834   0.021178960256040245   0.0015401045818631554
0.21592436465853834   0.021178960256040245   0.0015401045818631554
0.21592436465853834   0.021178960256040245   0.0015401045818631554
0.21592436465853834   0.021178960256040245   0.0015401045818631554
0.47076477893154406   0.052200189912723204   0.001434318855323663
0.47076477893154406   0.052200189912723204   0.001434318855323663
0.47076477893154406   0.052200189912723204   0.001434318855323663
0.47076477893154406   0.052200189912723204   0.001434318855323663
-0.057584382049741034   -0.02847576571926308   0.002798218409166886
-0.057584382049741034   -0.02847576571926308   0.002798218409166886
-0.057584382049741034   -0.02847576571926308   0.002798218409166886
-0.057584382049741034   -0.02847576571926308   0.002798218409166886
-0.09481144870615026   -0.07777164833059771   -0.024486095934071514
-0.09481144870615026   -0.07777164833059771   -0.024486095934071514
-0.09481144870615026   -0.07777164833059771   -0.024486095934071514
-0.09481144870615026   -0.07777164833059771   -0.024486095934071514
0.4555317233044036   0.06738939473231022   0.03602318713643142
0.4555317233044036   0.06738939473231022   0.03602318713643142
0.4555317233044036   0.06738939473231022   0.03602318713643142
0.4555317233044036   0.06738939473231022   0.03602318713643142
0.18637705374924812   0.002943242447900195   -0.0076149805321475
0.18637705374924812   0.002943242447900195   -0.0076149805321475
0.18637705374924812   0.002943242447900195   -0.0076149805321475
0.18637705374924812   0.002943242447900195   -0.0076149805321475
0.44293393502966577   0.035632813085325864   0.004790827409730344
0.44293393502966577   0.035632813085325864   0.004790827409730344
0.44293393502966577   0.035632813085325864   0.004790827409730344
0.44293393502966577   0.035632813085325864   0.004790827409730344
-0.08239693079161509   -0.04619833704381539   0.006013182351822022
-0.08239693079161509   -0.04619833704381539   0.006013182351822022
-0.08239693079161509   -0.04619833704381539   0.006013182351822022
-0.08239693079161509   -0.04619833704381539   0.006013182351822022
-0.11847218272952875   -0.0907390855583911   -0.019670495848735477
-0.11847218272952875   -0.0907390855583911   -0.019670495848735477
-0.11847218272952875   -0.0907390855583911   -0.019670495848735477
-0.11847218272952875   -0.0907390855583911   -0.019670495848735477
0.429437268700757   0.05034019625101603   0.03890132059551857
0.429437268700757   0.05034019625101603   0.03890132059551857
0.429437268700757   0.05034019625101603   0.03890132059551857
0.429437268700757   0.05034019625101603   0.03890132059551857
0.16371598091593317   -0.01087642968254998   -0.015241016173263629
0.16371598091593317   -0.01087642968254998   -0.015241016173263629
0.16371598091593317   -0.01087642968254998   -0.015241016173263629
0.16371598091593317   -0.01087642968254998   -0.015241016173263629
-0.01137885987167207   0.0861126379522919   0.011968387266067183
-0.01137885987167207   0.0861126379522919   0.011968387266067183
-0.01137885987167207   0.0861126379522919   0.011968387266067183
-0.01137885987167207   0.0861126379522919   0.011968387266067183
-0.542371127910866   -0.023544682694323634   -0.017989545651117905
-0.542371127910866   -0.023544682694323634   -0.017989545651117905
-0.542371127910866   -0.023544682694323634   -0.017989545651117905
-0.542371127910866   -0.023544682694323634   -0.017989545651117905
-0.5671070387319833   -0.043311025770566204   -0.014046646310481636
-0.5671070387319833   -0.043311025770566204   -0.014046646310481636
-0.5671070387319833   -0.043311025770566204   -0.014046646310481636
-0.5671070387319833   -0.043311025770566204   -0.014046646310481636
-0.03571202621012489   0.06931759491786207   0.014366636970122451
-0.03571202621012489   0.06931759491786207   0.014366636970122451
-0.03571202621012489   0.06931759491786207   0.014366636970122451
-0.03571202621012489   0.06931759491786207   0.014366636970122451
-0.2884569876897039   0.022290548711589798   0.005657938834855145
-0.2884569876897039   0.022290548711589798   0.005657938834855145
-0.2884569876897039   0.022290548711589798   0.005657938834855145
-0.2884569876897039   0.022290548711589798   0.005657938834855145
-0.03523479323324509   0.06923902662146206   0.016831370150921475
-0.03523479323324509   0.06923902662146206   0.016831370150921475
-0.03523479323324509   0.06923902662146206   0.016831370150921475
-0.03523479323324509   0.06923902662146206   0.016831370150921475
-0.5671215733151158   -0.042769759080418995   -0.014660585916291852
-0.5671215733151158   -0.042769759080418995   -0.014660585916291852
-0.5671215733151158   -0.042769759080418995   -0.014660585916291852
-0.5671215733151158   -0.042769759080418995   -0.014660585916291852
-0.5916639828543633   -0.06002344602901132   -0.009574695457561067
-0.5916639828543633   -0.06002344602901132   -0.009574695457561067
-0.5916639828543633   -0.06002344602901132   -0.009574695457561067
-0.5916639828543633   -0.06002344602901132   -0.009574695457561067
-0.060707229648320385   0.050328790825980435   0.017934560198499722
-0.060707229648320385   0.050328790825980435   0.017934560198499722
-0.060707229648320385   0.050328790825980435   0.017934560198499722
-0.060707229648320385   0.050328790825980435   0.017934560198499722
-0.3132667200575182   0.005800506158652914   -0.0017691590405499585
-0.3132667200575182   0.005800506158652914   -0.0017691590405499585
-0.3132667200575182   0.005800506158652914   -0.0017691590405499585
-0.3132667200575182   0.005800506158652914   -0.0017691590405499585
-0.05973431999184545   0.05241917124697951   0.020708728059875302
-0.05973431999184545   0.05241917124697951   0.020708728059875302
-0.05973431999184545   0.05241917124697951   0.020708728059875302
-0.05973431999184545   0.05241917124697951   0.020708728059875302
-0.5925015410630048   -0.061978475002175626   -0.011807457527596238
-0.5925015410630048   -0.061978475002175626   -0.011807457527596238
-0.5925015410630048   -0.061978475002175626   -0.011807457527596238
-0.5925015410630048   -0.061978475002175626   -0.011807457527596238
-0.6159312359081027   -0.07529134274797256   -0.005147591127365458
-0.6159312359081027   -0.07529134274797256   -0.005147591127365458
-0.6159312359081027   -0.07529134274797256   -0.005147591127365458
-0.6159312359081027   -0.07529134274797256   -0.005147591127365458
-0.08580479283440748   0.031963408930377635   0.020963959138102145
-0.08580479283440748   0.031963408930377635   0.020963959138102145
-0.08580479283440748   0.031963408930377635   0.020963959138102145
-0.08580479283440748   0.031963408930377635   0.020963959138102145
-0.3392133623826248   -0.010828213628171782   -0.010040598856832839
-0.3392133623826248   -0.010828213628171782   -0.010040598856832839
-0.3392133623826248   -0.010828213628171782   -0.010040598856832839
-0.3392133623826248   -0.010828213628171782   -0.010040598856832839
-0.5090980065190692   0.09884501110609992   0.02598636750743441
-0.5090980065190692   0.09884501110609992   0.02598636750743441
-0.5090980065190692   0.09884501110609992   0.02598636750743441
-0.5090980065190692   0.09884501110609992   0.02598636750743441
-1.040640836566888   -0.040395808225690895   -0.03242702286649893
-1.040640836566888   -0.040395808225690895   -0.03242702286649893
-1.040640836566888   -0.040395808225690895   -0.03242702286649893
-1.040640836566888   -0.040395808225690895   -0.03242702286649893
-1.0541581269497073   -0.027259306238862274   0.0029135370868000887
-1.0541581269497073   -0.027259306238862274   0.0029135370868000887
-1.0541581269497073   -0.027259306238862274   0.0029135370868000887
-1.0541581269497073   -0.027259306238862274   0.0029135370868000887
-0.5465094366170987   0.04978217445573187   -0.00415183596235337
-0.5465094366170987   0.04978217445573187   -0.00415183596235337
-0.5465094366170987   0.04978217445573187   -0.00415183596235337
-0.5465094366170987   0.04978217445573187   -0.00415183596235337
-0.782485259539309   0.021238208073657297   0.009587995934674576
-0.782485259539309   0.021238208073657297   0.009587995934674576
-0.782485259539309   0.021238208073657297   0.009587995934674576
-0.782485259539309   0.021238208073657297   0.009587995934674576
-0.5329971153361839   0.08252381470506023   0.030668130192889123
-0.5329971153361839   0.08252381470506023   0.030668130192889123
-0.5329971153361839   0.08252381470506023   0.030668130192889123
-0.5329971153361839   0.08252381470506023   0.030668130192889123
-1.0675458696257254   -0.0598763678832957   -0.031408114648864394
-1.0675458696257254   -0.0598763678832957   -0.031408114648864394
-1.0675458696257254   -0.0598763678832957   -0.031408114648864394
-1.0675458696257254   -0.0598763678832957   -0.031408114648864394
-1.0827541012617892   -0.044154243639105015   0.0045842299286251165
-1.0827541012617892   -0.044154243639105015   0.0045842299286251165
-1.0827541012617892   -0.044154243639105015   0.0045842299286251165
-1.0827541012617892   -0.044154243639105015   0.0045842299286251165
-0.5714103927941029   0.032195172342285416   -0.0005253635275479923
-0.5714103927941029   0.032195172342285416   -0.0005253635275479923
-0.5714103927941029   0.032195172342285416   -0.0005253635275479923
-0.5714103927941029   0.032195172342285416   -0.0005253635275479923
-0.8034613921359056   0.006531004041168263   0.002675570097667501
-0.8034613921359056   0.006531004041168263   0.002675570097667501
-0.8034613921359056   0.006531004041168263   0.002675570097667501
-0.8034613921359056   0.006531004041168263   0.002675570097667501
-0.5573335452768954   0.06701985904358637   0.035034187357188176
-0.5573335452768954   0.06701985904358637   0.035034187357188176
-0.5573335452768954   0.06701985904358637   0.035034187357188176
-0.5573335452768954   0.06701985904358637   0.035034187357188176
-1.096106750311553   -0.07825473187296345   -0.028078527086342286
-1.096106750311553   -0.07825473187296345   -0.028078527086342286
-1.096106750311553   -0.07825473187296345   -0.028078527086342286
-1.096106750311553   -0.07825473187296345   -0.028078527086342286
-1.1086909123061974   -0.06234313931502802   0.009888708461500362
-1.1086909123061974   -0.06234313931502802   0.009888708461500362
-1.1086909123061974   -0.06234313931502802   0.009888708461500362
-1.1086909123061974   -0.06234313931502802   0.009888708461500362
-0.5970091127288648   0.012070799067660787   0.002100882953199018
-0.5970091127288648   0.012070799067660787   0.002100882953199018
-0.5970091127288648   0.012070799067660787   0.002100882953199018
-0.5970091127288648   0.012070799067660787   0.002100882953199018
-0.8354231933018734   -0.011920554836982025   -0.006103544669760375
-0.8354231933018734   -0.011920554836982025   -0.006103544669760375
-0.8354231933018734   -0.011920554836982025   -0.006103544669760375
-0.8354231933018734   -0.011920554836982025   -0.006103544669760375
-1.001002012034502   0.08864555854343922   0.036725733026301055
-1.001002012034502   0.08864555854343922   0.036725733026301055
-1.001002012034502   0.08864555854343922   0.036725733026301055
-1.001002012034502   0.08864555854343922   0.036725733026301055
-1.5145341344722911   -0.06988729423652237   -0.03571734569165497
-1.5145341344722911   -0.06988729423652237   -0.03571734569165497
-1.5145341344722911   -0.06988729423652237   -0.03571734569165497
-1.5145341344722911   -0.06988729423652237   -0.03571734569165497
-1.5313666727467827   -0.014994560959033051   0.03384277914894396
-1.5313666727467827   -0.014994560959033051   0.03384277914894396
-1.5313666727467827   -0.014994560959033051   0.03384277914894396
-1.5313666727467827   -0.014994560959033051   0.03384277914894396
-1.0484431196048085   0.02511465450114763   -0.020885386928715305
-1.0484431196048085   0.02511465450114763   -0.020885386928715305
-1.0484431196048085   0.02511465450114763   -0.020885386928715305
-1.0484431196048085   0.02511465450114763   -0.020885386928715305
-1.2174817489336094   0.019922768214585385   0.02982279913805025
-1.2174817489336094   0.019922768214585385   0.02982279913805025
-1.2174817489336094   0.019922768214585385   0.02982279913805025
-1.2174817489336094   0.019922768214585385   0.02982279913805025
-1.0229666043910628   0.08853272134212528   0.043079122299015726
-1.0229666043910628   0.08853272134212528   0.043079122299015726
-1.0229666043910628   0.08853272134212528   0.043079122299015726
-1.0229666043910628   0.08853272134212528   0.043079122299015726
-1.5564138171134134   -0.07798325695289755   -0.02840424669033631
-1.5564138171134134   -0.07798325695289755   -0.02840424669033631
-1.5564138171134134   -0.07798325695289755   -0.02840424669033631
-1.5564138171134134   -0.07798325695289755   -0.02840424669033631
-1.5688032318620813   -0.02390870706391765   0.042332368432795364
-1.5688032318620813   -0.02390870706391765   0.042332368432795364
-1.5688032318620813   -0.02390870706391765   0.042332368432795364
-1.5688032318620813   -0.02390870706391765   0.042332368432795364
-1.0753243387570006   0.015472778093268962   -0.01789397927980571
-1.0753243387570006   0.015472778093268962   -0.01789397927980571
-1.0753243387570006   0.015472778093268962   -0.01789397927980571
-1.0753243387570006   0.015472778093268962   -0.01789397927980571
-1.2697881353992644   0.009975790047223557   0.01814499373625006
-1.2697881353992644   0.009975790047223557   0.01814499373625006
-1.2697881353992644   0.009975790047223557   0.01814499373625006
-1.2697881353992644   0.009975790047223557   0.01814499373625006
-1.0482998360197433   0.08188813409829429   0.05081317840145566
-1.0482998360197433   0.08188813409829429   0.05081317840145566
-1.0482998360197433   0.08188813409829429   0.05081317840145566
-1.0482998360197433   0.08188813409829429   0.05081317840145566
-1.5951182547520955   -0.08961458322168696   -0.023536869859490606
-1.5951182547520955   -0.08961458322168696   -0.023536869859490606
-1.5951182547520955   -0.08961458322168696   -0.023536869859490606
-1.5951182547520955   -0.08961458322168696   -0.023536869859490606
-1.6182129277880681   -0.05562367935243155   0.041568346776070075
-1.6182129277880681   -0.05562367935243155   0.041568346776070075
-1.6182129277880681   -0.05562367935243155   0.041568346776070075
-1.6182129277880681   -0.05562367935243155   0.041568346776070075
-1.1037111184495776   -0.01133917269256493   -0.016216288877867524
-1.1037111184495776   -0.01133917269256493   -0.016216288877867524
-1.1037111184495776   -0.01133917269256493   -0.016216288877867524
-1.1037111184495776   -0.01133917269256493   -0.016216288877867524
-1.283260616831588   -0.0024008076132496226   0.014252241642728425
-1.283260616831588   -0.0024008076132496226   0.014252241642728425
-1.283260616831588   -0.0024008076132496226   0.014252241642728425
-1.283260616831588   -0.0024008076132496226   0.014252241642728425
0.7057412582140571   0.03996051436498098   -0.04765216896264313
0.7057412582140571   0.03996051436498098   -0.04765216896264313
0.7057412582140571   0.03996051436498098   -0.04765216896264313
0.7057412582140571   0.03996051436498098   -0.04765216896264313
0.3014505118586438   0.019244097722642937   0.020445571638987747
0.3014505118586438   0.019244097722642937   0.020445571638987747
0.3014505118586438   0.019244097722642937   0.020445571638987747
0.3014505118586438   0.019244097722642937   0.020445571638987747
0.2523390705207366   -0.06964037968216807   -0.04443336169174239
0.2523390705207366   -0.06964037968216807   -0.04443336169174239
0.2523390705207366   -0.06964037968216807   -0.04443336169174239
0.2523390705207366   -0.06964037968216807   -0.04443336169174239
0.6891938727814304   0.08016518257238729   0.024841732013607648
0.6891938727814304   0.08016518257238729   0.024841732013607648
0.6891938727814304   0.08016518257238729   0.024841732013607648
0.6891938727814304   0.08016518257238729   0.024841732013607648
0.4613809017067286   0.010229899770823826   -0.012605571157633569
0.4613809017067286   0.010229899770823826   -0.012605571157633569
0.4613809017067286   0.010229899770823826   -0.012605571157633569
0.4613809017067286   0.010229899770823826   -0.012605571157633569
0.6617492138283632   0.0122375377348636   -0.044453917914210606
0.6617492138283632   0.0122375377348636   -0.044453917914210606
0.6617492138283632   0.0122375377348636   -0.044453917914210606
0.6617492138283632   0.0122375377348636   -0.044453917914210606
0.2792680728641941   -0.0022283914542543005   0.022799661797636053
0.2792680728641941   -0.0022283914542543005   0.022799661797636053
0.2792680728641941   -0.0022283914542543005   0.022799661797636053
0.2792680728641941   -0.0022283914542543005   0.022799661797636053
0.23142129047561447   -0.0777243878629241   -0.03782165594837328
0.23142129047561447   -0.0777243878629241   -0.03782165594837328
0.23142129047561447   -0.0777243878629241   -0.03782165594837328
0.23142129047561447   -0.0777243878629241   -0.03782165594837328
0.6547777711664763   0.0686943782123668   0.03201930719763832
0.6547777711664763   0.0686943782123668   0.03201930719763832
0.6547777711664763   0.0686943782123668   0.03201930719763832
0.6547777711664763   0.0686943782123668   0.03201930719763832
0.43976021433030077   -0.003105141209098418   -0.020524898726201335
0.43976021433030077   -0.003105141209098418   -0.020524898726201335
0.43976021433030077   -0.003105141209098418   -0.020524898726201335
0.43976021433030077   -0.003105141209098418   -0.020524898726201335
0.6277824976433881   0.0018830402660141715   -0.0361457224714557
0.6277824976433881   0.0018830402660141715   -0.0361457224714557
0.6277824976433881   0.0018830402660141715   -0.0361457224714557
0.6277824976433881   0.0018830402660141715   -0.0361457224714557
0.2576553337942942   -0.011674280120980617   0.027298452903083373
0.2576553337942942   -0.011674280120980617   0.027298452903083373
0.2576553337942942   -0.011674280120980617   0.027298452903083373
0.2576553337942942   -0.011674280120980617   0.027298452903083373
0.21272415109227816   -0.08506758197612271   -0.03152285857160495
0.21272415109227816   -0.08506758197612271   -0.03152285857160495
0.21272415109227816   -0.08506758197612271   -0.03152285857160495
0.21272415109227816   -0.08506758197612271   -0.03152285857160495
0.6145996489825339   0.05361401542968822   0.03654800525490447
0.6145996489825339   0.05361401542968822   0.03654800525490447
0.6145996489825339   0.05361401542968822   0.03654800525490447
0.6145996489825339   0.05361401542968822   0.03654800525490447
0.40316821573368883   -0.014046440568094322   -0.03140177268525983
0.40316821573368883   -0.014046440568094322   -0.03140177268525983
0.40316821573368883   -0.014046440568094322   -0.03140177268525983
0.40316821573368883   -0.014046440568094322   -0.03140177268525983
0.3034915730057086   0.05847480029605369   -0.008579825199103622
0.3034915730057086   0.05847480029605369   -0.008579825199103622
0.3034915730057086   0.05847480029605369   -0.008579825199103622
0.3034915730057086   0.05847480029605369   -0.008579825199103622
-0.09316470667519795   0.00504130168483089   0.0027678334874696245
-0.09316470667519795   0.00504130168483089   0.0027678334874696245
-0.09316470667519795   0.00504130168483089   0.0027678334874696245
-0.09316470667519795   0.00504130168483089   0.0027678334874696245
-0.12673951978438097   -0.04834053447258828   -0.027370487622819212
-0.12673951978438097   -0.04834053447258828   -0.027370487622819212
-0.12673951978438097   -0.04834053447258828   -0.027370487622819212
-0.12673951978438097   -0.04834053447258828   -0.027370487622819212
0.29509049206245097   0.07029884849953803   0.0293845178351282
0.29509049206245097   0.07029884849953803   0.0293845178351282
0.29509049206245097   0.07029884849953803   0.0293845178351282
0.29509049206245097   0.07029884849953803   0.0293845178351282
0.09259310570537586   0.02033021039757034   0.0035514337784541064
0.09259310570537586   0.02033021039757034   0.0035514337784541064
0.09259310570537586   0.02033021039757034   0.0035514337784541064
0.09259310570537586   0.02033021039757034   0.0035514337784541064
0.2818154738111169   0.037921847322232985   -0.0046135722442413735
0.2818154738111169   0.037921847322232985   -0.0046135722442413735
0.2818154738111169   0.037921847322232985   -0.0046135722442413735
0.2818154738111169   0.037921847322232985   -0.0046135722442413735
-0.11366115467570209   -0.01616018643793372   0.005840989885922455
-0.11366115467570209   -0.01616018643793372   0.005840989885922455
-0.11366115467570209   -0.01616018643793372   0.005840989885922455
-0.11366115467570209   -0.01616018643793372   0.005840989885922455
-0.1461945738212028   -0.06458982862536657   -0.022146632526346167
-0.1461945738212028   -0.06458982862536657   -0.022146632526346167
-0.1461945738212028   -0.06458982862536657   -0.022146632526346167
-0.1461945738212028   -0.06458982862536657   -0.022146632526346167
0.27122930871697865   0.051547050113734366   0.03194699728179069
0.27122930871697865   0.051547050113734366   0.03194699728179069
0.27122930871697865   0.051547050113734366   0.03194699728179069
0.27122930871697865   0.051547050113734366   0.03194699728179069
0.06859954341608811   0.001952082926119419   -0.005276879830477008
0.06859954341608811   0.001952082926119419   -0.005276879830477008
0.06859954341608811   0.001952082926119419   -0.005276879830477008
0.06859954341608811   0.001952082926119419   -0.005276879830477008
0.2583739547780013   0.020497215949892   -0.0012799382492573869
0.2583739547780013   0.020497215949892   -0.0012799382492573869
0.2583739547780013   0.020497215949892   -0.0012799382492573869
0.2583739547780013   0.020497215949892   -0.0012799382492573869
-0.13383631372347485   -0.034037088302773924   0.009091927639702728
-0.13383631372347485   -0.034037088302773924   0.009091927639702728
-0.13383631372347485   -0.034037088302773924   0.009091927639702728
-0.13383631372347485   -0.034037088302773924   0.009091927639702728
-0.1653908486204774   -0.07986966468059588   -0.01731986674130654
-0.1653908486204774   -0.07986966468059588   -0.01731986674130654
-0.1653908486204774   -0.07986966468059588   -0.01731986674130654
-0.1653908486204774   -0.07986966468059588   -0.01731986674130654
0.24969670120450752   0.033525606336752785   0.034746703676672736
0.24969670120450752   0.033525606336752785   0.034746703676672736
0.24969670120450752   0.033525606336752785   0.034746703676672736
0.24969670120450752   0.033525606336752785   0.034746703676672736
0.04933812999367002   -0.013302984176294962   -0.013074944849693081
0.04933812999367002   -0.013302984176294962   -0.013074944849693081
0.04933812999367002   -0.013302984176294962   -0.013074944849693081
0.04933812999367002   -0.013302984176294962   -0.013074944849693081
-0.07853698877555079   0.07417466599755819   0.0067730586729761125
-0.07853698877555079   0.07417466599755819   0.0067730586729761125
-0.07853698877555079   0.07417466599755819   0.0067730586729761125
-0.07853698877555079   0.07417466599755819   0.0067730586729761125
-0.48192421680215175   -0.012179944294545868   -0.014654681745484108
-0.48192421680215175   -0.012179944294545868   -0.014654681745484108
-0.48192421680215175   -0.012179944294545868   -0.014654681745484108
-0.48192421680215175   -0.012179944294545868   -0.014654681745484108
-0.5011204325536842   -0.0287953205760809   -0.010789534156033023
-0.5011204325536842   -0.0287953205760809   -0.010789534156033023
-0.5011204325536842   -0.0287953205760809   -0.010789534156033023
-0.5011204325536842   -0.0287953205760809   -0.010789534156033023
-0.0985984723424944   0.05360116258081774   0.011393052533207514
-0.0985984723424944   0.05360116258081774   0.011393052533207514
-0.0985984723424944   0.05360116258081774   0.011393052533207514
-0.0985984723424944   0.05360116258081774   0.011393052533207514
-0.28933823218595295   0.021361922445936564   0.005722443837814194
-0.28933823218595295   0.021361922445936564   0.005722443837814194
-0.28933823218595295   0.021361922445936564   0.005722443837814194
-0.28933823218595295   0.021361922445936564   0.005722443837814194
-0.09799787242565765   0.05632211768364402   0.011675097014564983
-0.09799787242565765   0.05632211768364402   0.011675097014564983
-0.09799787242565765   0.05632211768364402   0.011675097014564983
-0.09799787242565765   0.05632211768364402   0.011675097014564983
-0.5017764151323825   -0.03157165834076811   -0.011293109284833625
-0.5017764151323825   -0.03157165834076811   -0.011293109284833625
-0.5017764151323825   -0.03157165834076811   -0.011293109284833625
-0.5017764151323825   -0.03157165834076811   -0.011293109284833625
-0.5207767411129182   -0.04649953858186737   -0.0061375753761415824
-0.5207767411129182   -0.04649953858186737   -0.0061375753761415824
-0.5207767411129182   -0.04649953858186737   -0.0061375753761415824
-0.5207767411129182   -0.04649953858186737   -0.0061375753761415824
-0.11901400681728667   0.034303264268894906   0.014863109598971073
-0.11901400681728667   0.034303264268894906   0.014863109598971073
-0.11901400681728667   0.034303264268894906   0.014863109598971073
-0.11901400681728667   0.034303264268894906   0.014863109598971073
-0.3095472003053383   0.004123702283059548   -0.0018666826099878742
-0.3095472003053383   0.004123702283059548   -0.0018666826099878742
-0.3095472003053383   0.004123702283059548   -0.0018666826099878742
-0.3095472003053383   0.004123702283059548   -0.0018666826099878742
-0.1179926571468305   0.038449514775507156   0.015823607444643444
-0.1179926571468305   0.038449514775507156   0.015823607444643444
-0.1179926571468305   0.038449514775507156   0.015823607444643444
-0.1179926571468305   0.038449514775507156   0.015823607444643444
-0.5221129603290409   -0.050960658634145645   -0.0083575514044774
-0.5221129603290409   -0.050960658634145645   -0.0083575514044774
-0.5221129603290409   -0.050960658634145645   -0.0083575514044774
-0.5221129603290409   -0.050960658634145645   -0.0083575514044774
-0.5401011577569024   -0.0634114510988853   -0.0016139760857176721
-0.5401011577569024   -0.0634114510988853   -0.0016139760857176721
-0.5401011577569024   -0.0634114510988853   -0.0016139760857176721
-0.5401011577569024   -0.0634114510988853   -0.0016139760857176721
-0.1392574508501198   0.015551949629129251   0.017925507800754567
-0.1392574508501198   0.015551949629129251   0.017925507800754567
-0.1392574508501198   0.015551949629129251   0.017925507800754567
-0.1392574508501198   0.015551949629129251   0.017925507800754567
-0.3305893158116915   -0.013133446680044587   -0.010093300686077972
-0.3305893158116915   -0.013133446680044587   -0.010093300686077972
-0.3305893158116915   -0.013133446680044587   -0.010093300686077972
-0.3305893158116915   -0.013133446680044587   -0.010093300686077972
-0.4546716072904657   0.08764093875547783   0.02178748276292243
-0.4546716072904657   0.08764093875547783   0.02178748276292243
-0.4546716072904657   0.08764093875547783   0.02178748276292243
-0.4546716072904657   0.08764093875547783   0.02178748276292243
-0.8638318036546458   -0.02931399421785858   -0.029820108918822114
-0.8638318036546458   -0.02931399421785858   -0.029820108918822114
-0.8638318036546458   -0.02931399421785858   -0.029820108918822114
-0.8638318036546458   -0.02931399421785858   -0.029820108918822114
-0.8710435623580775   -0.012895796641575953   0.00699243429208618
-0.8710435623580775   -0.012895796641575953   0.00699243429208618
-0.8710435623580775   -0.012895796641575953   0.00699243429208618
-0.8710435623580775   -0.012895796641575953   0.00699243429208618
-0.4874859477165299   0.034932173769253616   -0.006344604315599842
-0.4874859477165299   0.034932173769253616   -0.006344604315599842
-0.4874859477165299   0.034932173769253616   -0.006344604315599842
-0.4874859477165299   0.034932173769253616   -0.006344604315599842
-0.6652859358228507   0.020286192255066386   0.008307647380805444
-0.6652859358228507   0.020286192255066386   0.008307647380805444
-0.6652859358228507   0.020286192255066386   0.008307647380805444
-0.6652859358228507   0.020286192255066386   0.008307647380805444
-0.47377270469294747   0.07049220412278959   0.02666158044878393
-0.47377270469294747   0.07049220412278959   0.02666158044878393
-0.47377270469294747   0.07049220412278959   0.02666158044878393
-0.47377270469294747   0.07049220412278959   0.02666158044878393
-0.885356922667413   -0.049055944280866313   -0.02841421961531651
-0.885356922667413   -0.049055944280866313   -0.02841421961531651
-0.885356922667413   -0.049055944280866313   -0.02841421961531651
-0.885356922667413   -0.049055944280866313   -0.02841421961531651
-0.8942158742312608   -0.03043147878989467   0.00914686224870953
-0.8942158742312608   -0.03043147878989467   0.00914686224870953
-0.8942158742312608   -0.03043147878989467   0.00914686224870953
-0.8942158742312608   -0.03043147878989467   0.00914686224870953
-0.5073527870884204   0.01714725681030038   -0.0026646006458278665
-0.5073527870884204   0.01714725681030038   -0.0026646006458278665
-0.5073527870884204   0.01714725681030038   -0.0026646006458278665
-0.5073527870884204   0.01714725681030038   -0.0026646006458278665
-0.6822959271337138   0.004657009776156781   0.0006996015084922147
-0.6822959271337138   0.004657009776156781   0.0006996015084922147
-0.6822959271337138   0.004657009776156781   0.0006996015084922147
-0.6822959271337138   0.004657009776156781   0.0006996015084922147
-0.49314622333144714   0.054213478275162735   0.03130199667418293
-0.49314622333144714   0.054213478275162735   0.03130199667418293
-0.49314622333144714   0.054213478275162735   0.03130199667418293
-0.49314622333144714   0.054213478275162735   0.03130199667418293
-0.9084753124669427   -0.06755057473346701   -0.02503123298614257
-0.9084753124669427   -0.06755057473346701   -0.02503123298614257
-0.9084753124669427   -0.06755057473346701   -0.02503123298614257
-0.9084753124669427   -0.06755057473346701   -0.02503123298614257
-0.9148465306180148   -0.049116633807732846   0.014001136465411457
-0.9148465306180148   -0.049116633807732846   0.014001136465411457
-0.9148465306180148   -0.049116633807732846   0.014001136465411457
-0.9148465306180148   -0.049116633807732846   0.014001136465411457
-0.5275672893458239   -0.0025831663735110845   0.00022708124429256238
-0.5275672893458239   -0.0025831663735110845   0.00022708124429256238
-0.5275672893458239   -0.0025831663735110845   0.00022708124429256238
-0.5275672893458239   -0.0025831663735110845   0.00022708124429256238
-0.7078376444347025   -0.013490027214108538   -0.008133323411437215
-0.7078376444347025   -0.013490027214108538   -0.008133323411437215
-0.7078376444347025   -0.013490027214108538   -0.008133323411437215
-0.7078376444347025   -0.013490027214108538   -0.008133323411437215
-0.8289101733947116   0.08122981395826387   0.0342442342047273
-0.8289101733947116   0.08122981395826387   0.0342442342047273
-0.8289101733947116   0.08122981395826387   0.0342442342047273
-0.8289101733947116   0.08122981395826387   0.0342442342047273
-1.2231430879114498   -0.05632859434809553   -0.038706508248243315
-1.2231430879114498   -0.05632859434809553   -0.038706508248243315
-1.2231430879114498   -0.05632859434809553   -0.038706508248243315
-1.2231430879114498   -0.05632859434809553   -0.038706508248243315
-1.2349379155411937   -0.0012201624083463675   0.033935324460200034
-1.2349379155411937   -0.0012201624083463675   0.033935324460200034
-1.2349379155411937   -0.0012201624083463675   0.033935324460200034
-1.2349379155411937   -0.0012201624083463675   0.033935324460200034
-0.8721208395307668   0.011937807531262383   -0.02322755574422211
-0.8721208395307668   0.011937807531262383   -0.02322755574422211
-0.8721208395307668   0.011937807531262383   -0.02322755574422211
-0.8721208395307668   0.011937807531262383   -0.02322755574422211
-0.9940216217538521   0.01883206457207108   0.025173517111656052
-0.9940216217538521   0.01883206457207108   0.025173517111656052
-0.9940216217538521   0.01883206457207108   0.025173517111656052
-0.9940216217538521   0.01883206457207108   0.025173517111656052
-0.8462207974699774   0.07781524061004788   0.04039522148095473
-0.8462207974699774   0.07781524061004788   0.04039522148095473
-0.8462207974699774   0.07781524061004788   0.04039522148095473
-0.8462207974699774   0.07781524061004788   0.04039522148095473
-1.2613506453600511   -0.0676102832451986   -0.031738203797242626
-1.2613506453600511   -0.0676102832451986   -0.031738203797242626
-1.2613506453600511   -0.0676102832451986   -0.031738203797242626
-1.2613506453600511   -0.0676102832451986   -0.031738203797242626
-1.2676794466215258   -0.010866241524948667   0.04276603049363131
-1.2676794466215258   -0.010866241524948667   0.04276603049363131
-1.2676794466215258   -0.010866241524948667   0.04276603049363131
-1.2676794466215258   -0.010866241524948667   0.04276603049363131
-0.8934799832528336   0.00218540102262961   -0.019790562671701845
-0.8934799832528336   0.00218540102262961   -0.019790562671701845
-0.8934799832528336   0.00218540102262961   -0.019790562671701845
-0.8934799832528336   0.00218540102262961   -0.019790562671701845
-1.0381962313390392   0.007746381888625184   0.013198620693409602
-1.0381962313390392   0.007746381888625184   0.013198620693409602
-1.0381962313390392   0.007746381888625184   0.013198620693409602
-1.0381962313390392   0.007746381888625184   0.013198620693409602
-0.8663682201780254   0.07036127367501702   0.047592380049959304
-0.8663682201780254   0.07036127367501702   0.047592380049959304
-0.8663682201780254   0.07036127367501702   0.047592380049959304
-0.8663682201780254   0.07036127367501702   0.047592380049959304
-1.295161385919032   -0.07941229040003155   -0.02609761711883979
-1.295161385919032   -0.07941229040003155   -0.02609761711883979
-1.295161385919032   -0.07941229040003155   -0.02609761711883979
-1.295161385919032   -0.07941229040003155   -0.02609761711883979
-1.3114806635806684   -0.04106990722851771   0.04289958357342866
-1.3114806635806684   -0.04106990722851771   0.04289958357342866
-1.3114806635806684   -0.04106990722851771   0.04289958357342866
-1.3114806635806684   -0.04106990722851771   0.04289958357342866
-0.9158305978691325   -0.022536382065031953   -0.017499451532893534
-0.9158305978691325   -0.022536382065031953   -0.017499451532893534
-0.9158305978691325   -0.022536382065031953   -0.017499451532893534
-0.9158305978691325   -0.022536382065031953   -0.017499451532893534
-1.0506696802074444   -0.004906934531366751   0.00750695043486474
-1.0506696802074444   -0.004906934531366751   0.00750695043486474
-1.0506696802074444   -0.004906934531366751   0.00750695043486474
-1.0506696802074444   -0.004906934531366751   0.00750695043486474
0.38864113389620547   0.023263268069557044   -0.0466491986640034
0.38864113389620547   0.023263268069557044   -0.0466491986640034
0.38864113389620547   0.023263268069557044   -0.0466491986640034
0.38864113389620547   0.023263268069557044   -0.0466491986640034
0.11311636198822504   0.02801470399873561   0.02230455008519508
0.11311636198822504   0.02801470399873561   0.02230455008519508
0.11311636198822504   0.02801470399873561   0.02230455008519508
0.11311636198822504   0.02801470399873561   0.02230455008519508
0.06969799988495093   -0.05693030048925631   -0.04113981039813086
0.06969799988495093   -0.05693030048925631   -0.04113981039813086
0.06969799988495093   -0.05693030048925631   -0.04113981039813086
0.06969799988495093   -0.05693030048925631   -0.04113981039813086
0.3779549574832489   0.06619627347118835   0.02683620062059995
0.3779549574832489   0.06619627347118835   0.02683620062059995
0.3779549574832489   0.06619627347118835   0.02683620062059995
0.3779549574832489   0.06619627347118835   0.02683620062059995
0.22349374216811757   0.011042037554938891   -0.005166692202235451
0.22349374216811757   0.011042037554938891   -0.005166692202235451
0.22349374216811757   0.011042037554938891   -0.005166692202235451
0.22349374216811757   0.011042037554938891   -0.005166692202235451
0.3505768859985604   -0.0010817815443665418   -0.04277610178729152
0.3505768859985604   -0.0010817815443665418   -0.04277610178729152
0.3505768859985604   -0.0010817815443665418   -0.04277610178729152
0.3505768859985604   -0.0010817815443665418   -0.04277610178729152
0.09622172894350903   0.009493412100167695   0.02505512230523659
0.09622172894350903   0.009493412100167695   0.02505512230523659
0.09622172894350903   0.009493412100167695   0.02505512230523659
0.09622172894350903   0.009493412100167695   0.02505512230523659
0.05330845206574901   -0.06499235818911757   -0.03494505570902562
0.05330845206574901   -0.06499235818911757   -0.03494505570902562
0.05330845206574901   -0.06499235818911757   -0.03494505570902562
0.05330845206574901   -0.06499235818911757   -0.03494505570902562
0.3484941518222284   0.05507195251246665   0.03448098212518357
0.3484941518222284   0.05507195251246665   0.03448098212518357
0.3484941518222284   0.05507195251246665   0.03448098212518357
0.3484941518222284   0.05507195251246665   0.03448098212518357
0.20293628711481476   -0.0015534420812477606   -0.013335095507169159
0.20293628711481476   -0.0015534420812477606   -0.013335095507169159
0.20293628711481476   -0.0015534420812477606   -0.013335095507169159
0.20293628711481476   -0.0015534420812477606   -0.013335095507169159
0.3212706929141112   -0.01143647571518486   -0.03512788418775491
0.3212706929141112   -0.01143647571518486   -0.03512788418775491
0.3212706929141112   -0.01143647571518486   -0.03512788418775491
0.3212706929141112   -0.01143647571518486   -0.03512788418775491
0.07938727658283755   0.0003714356475099474   0.030085273039790954
0.07938727658283755   0.0003714356475099474   0.030085273039790954
0.07938727658283755   0.0003714356475099474   0.030085273039790954
0.07938727658283755   0.0003714356475099474   0.030085273039790954
0.03865518721898005   -0.07470606463703545   -0.029107933315190605
0.03865518721898005   -0.07470606463703545   -0.029107933315190605
0.03865518721898005   -0.07470606463703545   -0.029107933315190605
0.03865518721898005   -0.07470606463703545   -0.029107933315190605
0.31200975611934745   0.03728340888517509   0.03828742597382283
0.31200975611934745   0.03728340888517509   0.03828742597382283
0.31200975611934745   0.03728340888517509   0.03828742597382283
0.31200975611934745   0.03728340888517509   0.03828742597382283
0.17449118886479473   -0.012765915003858208   -0.023326951645550847
0.17449118886479473   -0.012765915003858208   -0.023326951645550847
0.17449118886479473   -0.012765915003858208   -0.023326951645550847
0.17449118886479473   -0.012765915003858208   -0.023326951645550847
0.10878815853635088   0.042178296162132096   -0.013500059337573186
0.10878815853635088   0.042178296162132096   -0.013500059337573186
0.10878815853635088   0.042178296162132096   -0.013500059337573186
0.10878815853635088   0.042178296162132096   -0.013500059337573186
-0.1575643453164379   0.013557921895318868   0.005408383627101568
-0.1575643453164379   0.013557921895318868   0.005408383627101568
-0.1575643453164379   0.013557921895318868   0.005408383627101568
-0.1575643453164379   0.013557921895318868   0.005408383627101568
-0.18553395341528967   -0.036506041044317546   -0.024015484406378414
-0.18553395341528967   -0.036506041044317546   -0.024015484406378414
-0.18553395341528967   -0.036506041044317546   -0.024015484406378414
-0.18553395341528967   -0.036506041044317546   -0.024015484406378414
0.10488594477495615   0.052345073099871485   0.025524540462768478
0.10488594477495615   0.052345073099871485   0.025524540462768478
0.10488594477495615   0.052345073099871485   0.025524540462768478
0.10488594477495615   0.052345073099871485   0.025524540462768478
-0.033286641282432416   0.01713802238424259   0.004355942451668775
-0.033286641282432416   0.01713802238424259   0.004355942451668775
-0.033286641282432416   0.01713802238424259   0.004355942451668775
-0.033286641282432416   0.01713802238424259   0.004355942451668775
0.0916787945237159   0.021755314905039066   -0.00992145259860091
0.0916787945237159   0.021755314905039066   -0.00992145259860091
0.0916787945237159   0.021755314905039066   -0.00992145259860091
0.0916787945237159   0.021755314905039066   -0.00992145259860091
-0.1730559969571338   -0.00664547664256991   0.00851373348265147
-0.1730559969571338   -0.00664547664256991   0.00851373348265147
-0.1730559969571338   -0.00664547664256991   0.00851373348265147
-0.1730559969571338   -0.00664547664256991   0.00851373348265147
-0.2001950167285166   -0.05288954529076413   -0.01881165429520653
-0.2001950167285166   -0.05288954529076413   -0.01881165429520653
-0.2001950167285166   -0.05288954529076413   -0.01881165429520653
-0.2001950167285166   -0.05288954529076413   -0.01881165429520653
0.0856502240915861   0.03394108943018764   0.027830356800855993
0.0856502240915861   0.03394108943018764   0.027830356800855993
0.0856502240915861   0.03394108943018764   0.027830356800855993
0.0856502240915861   0.03394108943018764   0.027830356800855993
-0.05140458926756724   -0.000539844432669525   -0.004115769336293401
-0.05140458926756724   -0.000539844432669525   -0.004115769336293401
-0.05140458926756724   -0.000539844432669525   -0.004115769336293401
-0.05140458926756724   -0.000539844432669525   -0.004115769336293401
0.07283271401775493   0.00417925907492908   -0.006495363213042726
0.07283271401775493   0.00417925907492908   -0.006495363213042726
0.07283271401775493   0.00417925907492908   -0.006495363213042726
0.07283271401775493   0.00417925907492908   -0.006495363213042726
-0.18832144059411637   -0.024071648874926195   0.011738329960958582
-0.18832144059411637   -0.024071648874926195   0.011738329960958582
-0.18832144059411637   -0.024071648874926195   0.011738329960958582
-0.18832144059411637   -0.024071648874926195   0.011738329960958582
-0.21474366482236218   -0.06913357561235381   -0.01410884004199052
-0.21474366482236218   -0.06913357561235381   -0.01410884004199052
-0.21474366482236218   -0.06913357561235381   -0.01410884004199052
-0.21474366482236218   -0.06913357561235381   -0.01410884004199052
0.06880810514197407   0.015879533367190536   0.031071058295554375
0.06880810514197407   0.015879533367190536   0.031071058295554375
0.06880810514197407   0.015879533367190536   0.031071058295554375
0.06880810514197407   0.015879533367190536   0.031071058295554375
-0.06707812005816191   -0.016360067036327232   -0.01211360110612543
-0.06707812005816191   -0.016360067036327232   -0.01211360110612543
-0.06707812005816191   -0.016360067036327232   -0.01211360110612543
-0.06707812005816191   -0.016360067036327232   -0.01211360110612543
-0.149417243273101   0.057660624923485074   0.002041190815619851
-0.149417243273101   0.057660624923485074   0.002041190815619851
-0.149417243273101   0.057660624923485074   0.002041190815619851
-0.149417243273101   0.057660624923485074   0.002041190815619851
-0.42462586648502576   -0.005105331234044934   -0.011680977895001929
-0.42462586648502576   -0.005105331234044934   -0.011680977895001929
-0.42462586648502576   -0.005105331234044934   -0.011680977895001929
-0.42462586648502576   -0.005105331234044934   -0.011680977895001929
-0.4378340832501409   -0.01792156598186209   -0.0069849793725451775
-0.4378340832501409   -0.01792156598186209   -0.0069849793725451775
-0.4378340832501409   -0.01792156598186209   -0.0069849793725451775
-0.4378340832501409   -0.01792156598186209   -0.0069849793725451775
-0.1649139365961836   0.034459731377284926   0.008118827267545634
-0.1649139365961836   0.034459731377284926   0.008118827267545634
-0.1649139365961836   0.034459731377284926   0.008118827267545634
-0.1649139365961836   0.034459731377284926   0.008118827267545634
-0.2934989406055056   0.016907699699377336   0.004512558588451954
-0.2934989406055056   0.016907699699377336   0.004512558588451954
-0.2934989406055056   0.016907699699377336   0.004512558588451954
-0.2934989406055056   0.016907699699377336   0.004512558588451954
-0.16413085795813215   0.03959572109838888   0.006898230736700966
-0.16413085795813215   0.03959572109838888   0.006898230736700966
-0.16413085795813215   0.03959572109838888   0.006898230736700966
-0.16413085795813215   0.03959572109838888   0.006898230736700966
-0.43925606261952793   -0.023696456434301332   -0.008319985767041307
-0.43925606261952793   -0.023696456434301332   -0.008319985767041307
-0.43925606261952793   -0.023696456434301332   -0.008319985767041307
-0.43925606261952793   -0.023696456434301332   -0.008319985767041307
-0.4524320227681192   -0.035807229864407666   -0.0022713451167092474
-0.4524320227681192   -0.035807229864407666   -0.0022713451167092474
-0.4524320227681192   -0.035807229864407666   -0.0022713451167092474
-0.4524320227681192   -0.035807229864407666   -0.0022713451167092474
-0.18038883664750918   0.01579453328831345   0.011535167530753072
-0.18038883664750918   0.01579453328831345   0.011535167530753072
-0.18038883664750918   0.01579453328831345   0.011535167530753072
-0.18038883664750918   0.01579453328831345   0.011535167530753072
-0.30872873768673975   -8.139408546220875e-05   -0.003081240901166113
-0.30872873768673975   -8.139408546220875e-05   -0.003081240901166113
-0.30872873768673975   -8.139408546220875e-05   -0.003081240901166113
-0.30872873768673975   -8.139408546220875e-05   -0.003081240901166113
-0.17933862652438526   0.02148489057884371   0.011095860855844367
-0.17933862652438526   0.02148489057884371   0.011095860855844367
-0.17933862652438526   0.02148489057884371   0.011095860855844367
-0.17933862652438526   0.02148489057884371   0.011095860855844367
-0.45439035494241065   -0.04240570920610512   -0.005464526646469001
-0.45439035494241065   -0.04240570920610512   -0.005464526646469001
-0.45439035494241065   -0.04240570920610512   -0.005464526646469001
-0.45439035494241065   -0.04240570920610512   -0.005464526646469001
-0.46674867572795997   -0.05307282235216898   0.002292872772134344
-0.46674867572795997   -0.05307282235216898   0.002292872772134344
-0.46674867572795997   -0.05307282235216898   0.002292872772134344
-0.46674867572795997   -0.05307282235216898   0.002292872772134344
-0.1956001221489447   -0.0021846880935326423   0.01465998580627162
-0.1956001221489447   -0.0021846880935326423   0.01465998580627162
-0.1956001221489447   -0.0021846880935326423   0.01465998580627162
-0.1956001221489447   -0.0021846880935326423   0.01465998580627162
-0.3247539956083931   -0.017110423395393145   -0.011326718039583905
-0.3247539956083931   -0.017110423395393145   -0.011326718039583905
-0.3247539956083931   -0.017110423395393145   -0.011326718039583905
-0.3247539956083931   -0.017110423395393145   -0.011326718039583905
-0.4031921888517153   0.07237863861166087   0.018003440425844536
-0.4031921888517153   0.07237863861166087   0.018003440425844536
-0.4031921888517153   0.07237863861166087   0.018003440425844536
-0.4031921888517153   0.07237863861166087   0.018003440425844536
-0.6858915056740728   -0.020436850989523643   -0.026637986350262183
-0.6858915056740728   -0.020436850989523643   -0.026637986350262183
-0.6858915056740728   -0.020436850989523643   -0.026637986350262183
-0.6858915056740728   -0.020436850989523643   -0.026637986350262183
-0.6871971003330374   -0.0015283435136599702   0.011063961886339707
-0.6871971003330374   -0.0015283435136599702   0.011063961886339707
-0.6871971003330374   -0.0015283435136599702   0.011063961886339707
-0.6871971003330374   -0.0015283435136599702   0.011063961886339707
-0.4309862964039173   0.01772032209056534   -0.008387933213858376
-0.4309862964039173   0.01772032209056534   -0.008387933213858376
-0.4309862964039173   0.01772032209056534   -0.008387933213858376
-0.4309862964039173   0.01772032209056534   -0.008387933213858376
-0.5490002077896537   0.016998548820417285   0.005934891061985081
-0.5490002077896537   0.016998548820417285   0.005934891061985081
-0.5490002077896537   0.016998548820417285   0.005934891061985081
-0.5490002077896537   0.016998548820417285   0.005934891061985081
-0.4173156408698791   0.05481024109257071   0.022875425454334825
-0.4173156408698791   0.05481024109257071   0.022875425454334825
-0.4173156408698791   0.05481024109257071   0.022875425454334825
-0.4173156408698791   0.05481024109257071   0.022875425454334825
-0.7020938811933644   -0.03984438784194895   -0.025103898087013465
-0.7020938811933644   -0.03984438784194895   -0.025103898087013465
-0.7020938811933644   -0.03984438784194895   -0.025103898087013465
-0.7020938811933644   -0.03984438784194895   -0.025103898087013465
-0.7051697787755945   -0.019162856035546648   0.013601826812111112
-0.7051697787755945   -0.019162856035546648   0.013601826812111112
-0.7051697787755945   -0.019162856035546648   0.013601826812111112
-0.7051697787755945   -0.019162856035546648   0.013601826812111112
-0.4456609614195242   0.0005320050016954132   -0.004755273239841221
-0.4456609614195242   0.0005320050016954132   -0.004755273239841221
-0.4456609614195242   0.0005320050016954132   -0.004755273239841221
-0.4456609614195242   0.0005320050016954132   -0.004755273239841221
-0.561937724135125   0.0011686009064924181   -0.002025627377216982
-0.561937724135125   0.0011686009064924181   -0.002025627377216982
-0.561937724135125   0.0011686009064924181   -0.002025627377216982
-0.561937724135125   0.0011686009064924181   -0.002025627377216982
-0.4316270345395204   0.03834550056801777   0.027600865593859214
-0.4316270345395204   0.03834550056801777   0.027600865593859214
-0.4316270345395204   0.03834550056801777   0.027600865593859214
-0.4316270345395204   0.03834550056801777   0.027600865593859214
-0.7199683054439666   -0.05774095139023672   -0.021812711175059535
-0.7199683054439666   -0.05774095139023672   -0.021812711175059535
-0.7199683054439666   -0.05774095139023672   -0.021812711175059535
-0.7199683054439666   -0.05774095139023672   -0.021812711175059535
-0.7206921602284305   -0.03754838991378537   0.018525834425496962
-0.7206921602284305   -0.03754838991378537   0.018525834425496962
-0.7206921602284305   -0.03754838991378537   0.018525834425496962
-0.7206921602284305   -0.03754838991378537   0.018525834425496962
-0.46051994335981977   -0.0178558210421766   -0.0017804666971651256
-0.46051994335981977   -0.0178558210421766   -0.0017804666971651256
-0.46051994335981977   -0.0178558210421766   -0.0017804666971651256
-0.46051994335981977   -0.0178558210421766   -0.0017804666971651256
-0.5811962312739463   -0.016088851722711985   -0.01070509894988346
-0.5811962312739463   -0.016088851722711985   -0.01070509894988346
-0.5811962312739463   -0.016088851722711985   -0.01070509894988346
-0.5811962312739463   -0.016088851722711985   -0.01070509894988346
-0.655848827023596   0.07124939221803739   0.03188916369456743
-0.655848827023596   0.07124939221803739   0.03188916369456743
-0.655848827023596   0.07124939221803739   0.03188916369456743
-0.655848827023596   0.07124939221803739   0.03188916369456743
-0.923292705906589   -0.04251689950444044   -0.04039798247619278
-0.923292705906589   -0.04251689950444044   -0.04039798247619278
-0.923292705906589   -0.04251689950444044   -0.04039798247619278
-0.923292705906589   -0.04251689950444044   -0.04039798247619278
-0.9300402694674471   0.01170352870292294   0.03352048005076094
-0.9300402694674471   0.01170352870292294   0.03352048005076094
-0.9300402694674471   0.01170352870292294   0.03352048005076094
-0.9300402694674471   0.01170352870292294   0.03352048005076094
-0.694447007914672   -0.002043502445859137   -0.02467041708964915
-0.694447007914672   -0.002043502445859137   -0.02467041708964915
-0.694447007914672   -0.002043502445859137   -0.02467041708964915
-0.694447007914672   -0.002043502445859137   -0.02467041708964915
-0.7664756969753781   0.017059856568317378   0.01858197936764666
-0.7664756969753781   0.017059856568317378   0.01858197936764666
-0.7664756969753781   0.017059856568317378   0.01858197936764666
-0.7664756969753781   0.017059856568317378   0.01858197936764666
-0.6685947376860227   0.06483168780883602   0.037715743798901996
-0.6685947376860227   0.06483168780883602   0.037715743798901996
-0.6685947376860227   0.06483168780883602   0.037715743798901996
-0.6685947376860227   0.06483168780883602   0.037715743798901996
-0.9571979972149542   -0.056477119070628856   -0.03408751091321538
-0.9571979972149542   -0.056477119070628856   -0.03408751091321538
-0.9571979972149542   -0.056477119070628856   -0.03408751091321538
-0.9571979972149542   -0.056477119070628856   -0.03408751091321538
-0.9580366245606553   0.001793246560146719   0.04280530632370527
-0.9580366245606553   0.001793246560146719   0.04280530632370527
-0.9580366245606553   0.001793246560146719   0.04280530632370527
-0.9580366245606553   0.001793246560146719   0.04280530632370527
-0.7106177850405512   -0.011634382716810929   -0.021166677831423425
-0.7106177850405512   -0.011634382716810929   -0.021166677831423425
-0.7106177850405512   -0.011634382716810929   -0.021166677831423425
-0.7106177850405512   -0.011634382716810929   -0.021166677831423425
-0.8022815571672915   0.005342509695953075   0.006727514420849567
-0.8022815571672915   0.005342509695953075   0.006727514420849567
-0.8022815571672915   0.005342509695953075   0.006727514420849567
-0.8022815571672915   0.005342509695953075   0.006727514420849567
-0.6836713436283741   0.057076225653667705   0.044854920858998476
-0.6836713436283741   0.057076225653667705   0.044854920858998476
-0.6836713436283741   0.057076225653667705   0.044854920858998476
-0.6836713436283741   0.057076225653667705   0.044854920858998476
-0.986217535096898   -0.06815183093439396   -0.02815416886296096
-0.986217535096898   -0.06815183093439396   -0.02815416886296096
-0.986217535096898   -0.06815183093439396   -0.02815416886296096
-0.986217535096898   -0.06815183093439396   -0.02815416886296096
-0.9967480635989759   -0.02638175397852756   0.04419115462947182
-0.9967480635989759   -0.02638175397852756   0.04419115462947182
-0.9967480635989759   -0.02638175397852756   0.04419115462947182
-0.9967480635989759   -0.02638175397852756   0.04419115462947182
-0.7273061291535706   -0.033633595395899225   -0.018458804718113037
-0.7273061291535706   -0.033633595395899225   -0.018458804718113037
-0.7273061291535706   -0.033633595395899225   -0.018458804718113037
-0.7273061291535706   -0.033633595395899225   -0.018458804718113037
-0.8139205596462349   -0.007126538429037085   -0.00031614012324676644
-0.8139205596462349   -0.007126538429037085   -0.00031614012324676644
-0.8139205596462349   -0.007126538429037085   -0.00031614012324676644
-0.8139205596462349   -0.007126538429037085   -0.00031614012324676644
0.07120337016620613   0.005854709697795366   -0.04658242959748722
0.07120337016620613   0.005854709697795366   -0.04658242959748722
0.07120337016620613   0.005854709697795366   -0.04658242959748722
0.07120337016620613   0.005854709697795366   -0.04658242959748722
-0.0751651212401851   0.03489920015558628   0.023805366091026074
-0.0751651212401851   0.03489920015558628   0.023805366091026074
-0.0751651212401851   0.03489920015558628   0.023805366091026074
-0.0751651212401851   0.03489920015558628   0.023805366091026074
-0.11312934046072878   -0.04489305466937059   -0.03752614213821702
-0.11312934046072878   -0.04489305466937059   -0.03752614213821702
-0.11312934046072878   -0.04489305466937059   -0.03752614213821702
-0.11312934046072878   -0.04489305466937059   -0.03752614213821702
0.06545147114668504   0.0494656719172506   0.02921934466473565
0.06545147114668504   0.0494656719172506   0.02921934466473565
0.06545147114668504   0.0494656719172506   0.02921934466473565
0.06545147114668504   0.0494656719172506   0.02921934466473565
-0.014550561899565514   0.010857549370457822   0.0040401776173244665
-0.014550561899565514   0.010857549370457822   0.0040401776173244665
-0.014550561899565514   0.010857549370457822   0.0040401776173244665
-0.014550561899565514   0.010857549370457822   0.0040401776173244665
0.03829546511939282   -0.01543488986383152   -0.041660123690643286
0.03829546511939282   -0.01543488986383152   -0.041660123690643286
0.03829546511939282   -0.01543488986383152   -0.041660123690643286
0.03829546511939282   -0.01543488986383152   -0.041660123690643286
-0.08757545066663187   0.01840539087851622   0.026944861284380672
-0.08757545066663187   0.01840539087851622   0.026944861284380672
-0.08757545066663187   0.01840539087851622   0.026944861284380672
-0.08757545066663187   0.01840539087851622   0.026944861284380672
-0.1256454967760628   -0.053016223629142406   -0.03182024998453979
-0.1256454967760628   -0.053016223629142406   -0.03182024998453979
-0.1256454967760628   -0.053016223629142406   -0.03182024998453979
-0.1256454967760628   -0.053016223629142406   -0.03182024998453979
0.0397008517452181   0.03843730569930392   0.0400878704773526
0.0397008517452181   0.03843730569930392   0.0400878704773526
0.0397008517452181   0.03843730569930392   0.0400878704773526
0.0397008517452181   0.03843730569930392   0.0400878704773526
-0.034845988499491394   -0.001314488260857667   -0.005337124448675375
-0.034845988499491394   -0.001314488260857667   -0.005337124448675375
-0.034845988499491394   -0.001314488260857667   -0.005337124448675375
-0.034845988499491394   -0.001314488260857667   -0.005337124448675375
0.011913606870956953   -0.026018802118133934   -0.03439224607651718
0.011913606870956953   -0.026018802118133934   -0.03439224607651718
0.011913606870956953   -0.026018802118133934   -0.03439224607651718
0.011913606870956953   -0.026018802118133934   -0.03439224607651718
-0.10008289213217149   0.009215243957925046   0.03376130564784782
-0.10008289213217149   0.009215243957925046   0.03376130564784782
-0.10008289213217149   0.009215243957925046   0.03376130564784782
-0.10008289213217149   0.009215243957925046   0.03376130564784782
-0.13710839523699847   -0.06547430861623764   -0.026383010176925677
-0.13710839523699847   -0.06547430861623764   -0.026383010176925677
-0.13710839523699847   -0.06547430861623764   -0.026383010176925677
-0.13710839523699847   -0.06547430861623764   -0.026383010176925677
0.003938331848668847   0.015339031630146108   0.04571609063341109
0.003938331848668847   0.015339031630146108   0.04571609063341109
0.003938331848668847   0.015339031630146108   0.04571609063341109
0.003938331848668847   0.015339031630146108   0.04571609063341109
-0.056700373957930754   -0.013558022547221044   -0.016161060812302962
-0.056700373957930754   -0.013558022547221044   -0.016161060812302962
-0.056700373957930754   -0.013558022547221044   -0.016161060812302962
-0.056700373957930754   -0.013558022547221044   -0.016161060812302962
-0.08598796856584309   0.02309132203640677   -0.018500992418084415
-0.08598796856584309   0.02309132203640677   -0.018500992418084415
-0.08598796856584309   0.02309132203640677   -0.018500992418084415
-0.08598796856584309   0.02309132203640677   -0.018500992418084415
-0.22293350418441243   0.00938380004040972   0.006200688004620161
-0.22293350418441243   0.00938380004040972   0.006200688004620161
-0.22293350418441243   0.00938380004040972   0.006200688004620161
-0.22293350418441243   0.00938380004040972   0.006200688004620161
-0.24253346370063517   -0.026149084972459172   -0.0195268414232935
-0.24253346370063517   -0.026149084972459172   -0.0195268414232935
-0.24253346370063517   -0.026149084972459172   -0.0195268414232935
-0.24253346370063517   -0.026149084972459172   -0.0195268414232935
-0.08842728756801972   0.022431645718013194   0.018659421937944533
-0.08842728756801972   0.022431645718013194   0.018659421937944533
-0.08842728756801972   0.022431645718013194   0.018659421937944533
-0.08842728756801972   0.022431645718013194   0.018659421937944533
-0.15964914886382547   0.006731680114059332   0.003596568196132348
-0.15964914886382547   0.006731680114059332   0.003596568196132348
-0.15964914886382547   0.006731680114059332   0.003596568196132348
-0.15964914886382547   0.006731680114059332   0.003596568196132348
-0.09900192618000447   0.003421804779610139   -0.01520393018357762
-0.09900192618000447   0.003421804779610139   -0.01520393018357762
-0.09900192618000447   0.003421804779610139   -0.01520393018357762
-0.09900192618000447   0.003421804779610139   -0.01520393018357762
-0.23327634135061956   -0.008456760296025191   0.009066445650352466
-0.23327634135061956   -0.008456760296025191   0.009066445650352466
-0.23327634135061956   -0.008456760296025191   0.009066445650352466
-0.23327634135061956   -0.008456760296025191   0.009066445650352466
-0.2522809439180705   -0.04209546630012416   -0.014421253841046505
-0.2522809439180705   -0.04209546630012416   -0.014421253841046505
-0.2522809439180705   -0.04209546630012416   -0.014421253841046505
-0.2522809439180705   -0.04209546630012416   -0.014421253841046505
-0.10350865862446267   0.004808813022671433   0.02103890412164556
-0.10350865862446267   0.004808813022671433   0.02103890412164556
-0.10350865862446267   0.004808813022671433   0.02103890412164556
-0.10350865862446267   0.004808813022671433   0.02103890412164556
-0.17196203370042387   -0.009279577578762974   -0.0044397895812961705
-0.17196203370042387   -0.009279577578762974   -0.0044397895812961705
-0.17196203370042387   -0.009279577578762974   -0.0044397895812961705
-0.17196203370042387   -0.009279577578762974   -0.0044397895812961705
-0.11370397343552317   -0.013767994014668775   -0.011360862896316843
-0.11370397343552317   -0.013767994014668775   -0.011360862896316843
-0.11370397343552317   -0.013767994014668775   -0.011360862896316843
-0.11370397343552317   -0.013767994014668775   -0.011360862896316843
-0.243500402008881   -0.024933432164655073   0.012319421569431409
-0.243500402008881   -0.024933432164655073   0.012319421569431409
-0.243500402008881   -0.024933432164655073   0.012319421569431409
-0.243500402008881   -0.024933432164655073   0.012319421569431409
-0.2620926644856674   -0.05849494711033529   -0.009900574464433251
-0.2620926644856674   -0.05849494711033529   -0.009900574464433251
-0.2620926644856674   -0.05849494711033529   -0.009900574464433251
-0.2620926644856674   -0.05849494711033529   -0.009900574464433251
-0.11612339537942137   -0.013035396426742625   0.026103076921464317
-0.11612339537942137   -0.013035396426742625   0.026103076921464317
-0.11612339537942137   -0.013035396426742625   0.026103076921464317
-0.11612339537942137   -0.013035396426742625   0.026103076921464317
-0.1842533974742679   -0.025103238853290022   -0.012609385814338389
-0.1842533974742679   -0.025103238853290022   -0.012609385814338389
-0.1842533974742679   -0.025103238853290022   -0.012609385814338389
-0.1842533974742679   -0.025103238853290022   -0.012609385814338389
-0.21884330589455214   0.037995393634930374   -0.001959914140598984
-0.21884330589455214   0.037995393634930374   -0.001959914140598984
-0.21884330589455214   0.037995393634930374   -0.001959914140598984
-0.21884330589455214   0.037995393634930374   -0.001959914140598984
-0.369313821930184   -0.012682293756959128   -0.010454505989410598
-0.369313821930184   -0.012682293756959128   -0.010454505989410598
-0.369313821930184   -0.012682293756959128   -0.010454505989410598
-0.369313821930184   -0.012682293756959128   -0.010454505989410598
-0.37320684608656207   -0.009268580716666593   -0.0022298237118335285
-0.37320684608656207   -0.009268580716666593   -0.0022298237118335285
-0.37320684608656207   -0.009268580716666593   -0.0022298237118335285
-0.37320684608656207   -0.009268580716666593   -0.0022298237118335285
-0.2323760156064837   0.0022299069690688393   0.0028814071059378304
-0.2323760156064837   0.0022299069690688393   0.0028814071059378304
-0.2323760156064837   0.0022299069690688393   0.0028814071059378304
-0.2323760156064837   0.0022299069690688393   0.0028814071059378304
-0.29780927413129477   0.004274566707745495   0.001242308975922729
-0.29780927413129477   0.004274566707745495   0.001242308975922729
-0.29780927413129477   0.004274566707745495   0.001242308975922729
-0.29780927413129477   0.004274566707745495   0.001242308975922729
-0.228700092288982   0.020647434098099295   0.002843496564415869
-0.228700092288982   0.020647434098099295   0.002843496564415869
-0.228700092288982   0.020647434098099295   0.002843496564415869
-0.228700092288982   0.020647434098099295   0.002843496564415869
-0.37815092063065825   -0.028954259072291537   -0.0072645180766895134
-0.37815092063065825   -0.028954259072291537   -0.0072645180766895134
-0.37815092063065825   -0.028954259072291537   -0.0072645180766895134
-0.37815092063065825   -0.028954259072291537   -0.0072645180766895134
-0.3823482229680329   -0.02640021124158159   0.002520831201801632
-0.3823482229680329   -0.02640021124158159   0.002520831201801632
-0.3823482229680329   -0.02640021124158159   0.002520831201801632
-0.3823482229680329   -0.02640021124158159   0.002520831201801632
-0.24271059014052282   -0.014613249337507704   0.005948298084075217
-0.24271059014052282   -0.014613249337507704   0.005948298084075217
-0.24271059014052282   -0.014613249337507704   0.005948298084075217
-0.24271059014052282   -0.014613249337507704   0.005948298084075217
-0.30771659474964913   -0.011306244688800864   -0.006137989634927579
-0.30771659474964913   -0.011306244688800864   -0.006137989634927579
-0.30771659474964913   -0.011306244688800864   -0.006137989634927579
-0.30771659474964913   -0.011306244688800864   -0.006137989634927579
-0.23892449572025204   0.003194560114337228   0.007070960733584132
-0.23892449572025204   0.003194560114337228   0.007070960733584132
-0.23892449572025204   0.003194560114337228   0.007070960733584132
-0.23892449572025204   0.003194560114337228   0.007070960733584132
-0.3876634006807336   -0.04573710398585129   -0.004718164617431922
-0.3876634006807336   -0.04573710398585129   -0.004718164617431922
-0.3876634006807336   -0.04573710398585129   -0.004718164617431922
-0.3876634006807336   -0.04573710398585129   -0.004718164617431922
-0.39125049430816783   -0.042831085648247474   0.007078370191951275
-0.39125049430816783   -0.042831085648247474   0.007078370191951275
-0.39125049430816783   -0.042831085648247474   0.007078370191951275
-0.39125049430816783   -0.042831085648247474   0.007078370191951275
-0.25263776953751055   -0.03049973444218674   0.009378687608199085
-0.25263776953751055   -0.03049973444218674   0.009378687608199085
-0.25263776953751055   -0.03049973444218674   0.009378687608199085
-0.25263776953751055   -0.03049973444218674   0.009378687608199085
-0.31837761228202205   -0.026982313803925243   -0.014157756890803952
-0.31837761228202205   -0.026982313803925243   -0.014157756890803952
-0.31837761228202205   -0.026982313803925243   -0.014157756890803952
-0.31837761228202205   -0.026982313803925243   -0.014157756890803952
-0.3506698719054125   0.05495971925813207   0.015123231119356123
-0.3506698719054125   0.05495971925813207   0.015123231119356123
-0.3506698719054125   0.05495971925813207   0.015123231119356123
-0.3506698719054125   0.05495971925813207   0.015123231119356123
-0.5099676562436825   -0.021120990309880575   -0.02344176787714504
-0.5099676562436825   -0.021120990309880575   -0.02344176787714504
-0.5099676562436825   -0.021120990309880575   -0.02344176787714504
-0.5099676562436825   -0.021120990309880575   -0.02344176787714504
-0.5031502136963859   0.00808818096196405   0.015615278435573088
-0.5031502136963859   0.00808818096196405   0.015615278435573088
-0.5031502136963859   0.00808818096196405   0.015615278435573088
-0.5031502136963859   0.00808818096196405   0.015615278435573088
-0.3744593719520749   -0.007344897094722979   -0.010416136661341543
-0.3744593719520749   -0.007344897094722979   -0.010416136661341543
-0.3744593719520749   -0.007344897094722979   -0.010416136661341543
-0.3744593719520749   -0.007344897094722979   -0.010416136661341543
-0.43304948488316636   0.008703387264608741   0.002103805078789975
-0.43304948488316636   0.008703387264608741   0.002103805078789975
-0.43304948488316636   0.008703387264608741   0.002103805078789975
-0.43304948488316636   0.008703387264608741   0.002103805078789975
-0.3593786040959991   0.0377066735831581   0.019936131941156537
-0.3593786040959991   0.0377066735831581   0.019936131941156537
-0.3593786040959991   0.0377066735831581   0.019936131941156537
-0.3593786040959991   0.0377066735831581   0.019936131941156537
-0.5200831053428994   -0.03881551350635718   -0.02214548532867279
-0.5200831053428994   -0.03881551350635718   -0.02214548532867279
-0.5200831053428994   -0.03881551350635718   -0.02214548532867279
-0.5200831053428994   -0.03881551350635718   -0.02214548532867279
-0.5153987576915653   -0.008774686217080496   0.01844906693832024
-0.5153987576915653   -0.008774686217080496   0.01844906693832024
-0.5153987576915653   -0.008774686217080496   0.01844906693832024
-0.5153987576915653   -0.008774686217080496   0.01844906693832024
-0.38352139293597254   -0.02266455763015316   -0.007080672249324696
-0.38352139293597254   -0.02266455763015316   -0.007080672249324696
-0.38352139293597254   -0.02266455763015316   -0.007080672249324696
-0.38352139293597254   -0.02266455763015316   -0.007080672249324696
-0.44136763113622474   -0.006309640738063796   -0.0058962525951421485
-0.44136763113622474   -0.006309640738063796   -0.0058962525951421485
-0.44136763113622474   -0.006309640738063796   -0.0058962525951421485
-0.44136763113622474   -0.006309640738063796   -0.0058962525951421485
-0.36827206936764023   0.021884263043731002   0.024617124918452693
-0.36827206936764023   0.021884263043731002   0.024617124918452693
-0.36827206936764023   0.021884263043731002   0.024617124918452693
-0.36827206936764023   0.021884263043731002   0.024617124918452693
-0.5321106433773132   -0.054786069008380206   -0.01909897869911932
-0.5321106433773132   -0.054786069008380206   -0.01909897869911932
-0.5321106433773132   -0.054786069008380206   -0.01909897869911932
-0.5321106433773132   -0.054786069008380206   -0.01909897869911932
-0.5253547960383241   -0.025765689626695093   0.023505043058777486
-0.5253547960383241   -0.025765689626695093   0.023505043058777486
-0.5253547960383241   -0.025765689626695093   0.023505043058777486
-0.5253547960383241   -0.025765689626695093   0.023505043058777486
-0.39261763599211774   -0.03835569416125593   -0.00423272971478976
-0.39261763599211774   -0.03835569416125593   -0.00423272971478976
-0.39261763599211774   -0.03835569416125593   -0.00423272971478976
-0.39261763599211774   -0.03835569416125593   -0.00423272971478976
-0.45389566197504455   -0.021630561997122308   -0.01409865482606551
-0.45389566197504455   -0.021630561997122308   -0.01409865482606551
-0.45389566197504455   -0.021630561997122308   -0.01409865482606551
-0.45389566197504455   -0.021630561997122308   -0.01409865482606551
-0.4831587486862583   0.059571536962407766   0.029910242637686962
-0.4831587486862583   0.059571536962407766   0.029910242637686962
-0.4831587486862583   0.059571536962407766   0.029910242637686962
-0.4831587486862583   0.059571536962407766   0.029910242637686962
-0.6222748682737993   -0.031158927939356   -0.03916774231503309
-0.6222748682737993   -0.031158927939356   -0.03916774231503309
-0.6222748682737993   -0.031158927939356   -0.03916774231503309
-0.6222748682737993   -0.031158927939356   -0.03916774231503309
-0.6227775218361329   0.0238189219120227   0.03297221862119046
-0.6227775218361329   0.0238189219120227   0.03297221862119046
-0.6227775218361329   0.0238189219120227   0.03297221862119046
-0.6227775218361329   0.0238189219120227   0.03297221862119046
-0.516182825098994   -0.017499161691060323   -0.023960435924443316
-0.516182825098994   -0.017499161691060323   -0.023960435924443316
-0.516182825098994   -0.017499161691060323   -0.023960435924443316
-0.516182825098994   -0.017499161691060323   -0.023960435924443316
-0.5383828833989803   0.014102425752881308   0.010445730642622553
-0.5383828833989803   0.014102425752881308   0.010445730642622553
-0.5383828833989803   0.014102425752881308   0.010445730642622553
-0.5383828833989803   0.014102425752881308   0.010445730642622553
-0.4906944122301442   0.05069799454560449   0.03528447218314125
-0.4906944122301442   0.05069799454560449   0.03528447218314125
-0.4906944122301442   0.05069799454560449   0.03528447218314125
-0.4906944122301442   0.05069799454560449   0.03528447218314125
-0.6501910055516495   -0.046303305171314015   -0.03397297287305623
-0.6501910055516495   -0.046303305171314015   -0.03397297287305623
-0.6501910055516495   -0.046303305171314015   -0.03397297287305623
-0.6501910055516495   -0.046303305171314015   -0.03397297287305623
-0.645054412800501   0.01420724297316437   0.04247807837843373
-0.645054412800501   0.01420724297316437   0.04247807837843373
-0.645054412800501   0.01420724297316437   0.04247807837843373
-0.645054412800501   0.01420724297316437   0.04247807837843373
-0.5267921071774394   -0.026306819761518226   -0.020985546946613032
-0.5267921071774394   -0.026306819761518226   -0.020985546946613032
-0.5267921071774394   -0.026306819761518226   -0.020985546946613032
-0.5267921071774394   -0.026306819761518226   -0.020985546946613032
-0.5649139654926153   0.002419522654095972   -0.0006621939198586946
-0.5649139654926153   0.002419522654095972   -0.0006621939198586946
-0.5649139654926153   0.002419522654095972   -0.0006621939198586946
-0.5649139654926153   0.002419522654095972   -0.0006621939198586946
-0.5002452459149705   0.04313487382952201   0.04230706577469143
-0.5002452459149705   0.04313487382952201   0.04230706577469143
-0.5002452459149705   0.04313487382952201   0.04230706577469143
-0.5002452459149705   0.04313487382952201   0.04230706577469143
-0.6735615045801238   -0.05719468113502842   -0.028655456411479707
-0.6735615045801238   -0.05719468113502842   -0.028655456411479707
-0.6735615045801238   -0.05719468113502842   -0.028655456411479707
-0.6735615045801238   -0.05719468113502842   -0.028655456411479707
-0.6779600093503344   -0.011090697913524308   0.04490956289052528
-0.6779600093503344   -0.011090697913524308   0.04490956289052528
-0.6779600093503344   -0.011090697913524308   0.04490956289052528
-0.6779600093503344   -0.011090697913524308   0.04490956289052528
-0.5374458110106721   -0.04458910250462497   -0.01812661892504007
-0.5374458110106721   -0.04458910250462497   -0.01812661892504007
-0.5374458110106721   -0.04458910250462497   -0.01812661892504007
-0.5374458110106721   -0.04458910250462497   -0.01812661892504007
-0.5750790250021539   -0.009161583554205398   -0.008539841994300745
-0.5750790250021539   -0.009161583554205398   -0.008539841994300745
-0.5750790250021539   -0.009161583554205398   -0.008539841994300745
-0.5750790250021539   -0.009161583554205398   -0.008539841994300745
-0.26164070123927285   -0.017057743647518442   -0.049503772925409736
-0.26164070123927285   -0.017057743647518442   -0.049503772925409736
-0.26164070123927285   -0.017057743647518442   -0.049503772925409736
-0.26164070123927285   -0.017057743647518442   -0.049503772925409736
-0.25983506291253433   0.037854835411566576   0.022255843264650466
-0.25983506291253433   0.037854835411566576   0.022255843264650466
-0.25983506291253433   0.037854835411566576   0.022255843264650466
-0.25983506291253433   0.037854835411566576   0.022255843264650466
-0.2925175895791261   -0.03468854446086942   -0.03358267650005327
-0.2925175895791261   -0.03468854446086942   -0.03358267650005327
-0.2925175895791261   -0.03468854446086942   -0.03358267650005327
-0.2925175895791261   -0.03468854446086942   -0.03358267650005327
-0.2671149733544774   0.019944626719560897   0.03340373986722242
-0.2671149733544774   0.019944626719560897   0.03340373986722242
-0.2671149733544774   0.019944626719560897   0.03340373986722242
-0.2671149733544774   0.019944626719560897   0.03340373986722242
-0.25670556865349553   0.006416459310327732   0.022706675538827173
-0.25670556865349553   0.006416459310327732   0.022706675538827173
-0.25670556865349553   0.006416459310327732   0.022706675538827173
-0.25670556865349553   0.006416459310327732   0.022706675538827173
-0.29337412192886797   -0.03644399240653355   -0.04150338387863206
-0.29337412192886797   -0.03644399240653355   -0.04150338387863206
-0.29337412192886797   -0.03644399240653355   -0.04150338387863206
-0.29337412192886797   -0.03644399240653355   -0.04150338387863206
-0.2695108734459145   0.018447642224046698   0.028314717481088533
-0.2695108734459145   0.018447642224046698   0.028314717481088533
-0.2695108734459145   0.018447642224046698   0.028314717481088533
-0.2695108734459145   0.018447642224046698   0.028314717481088533
-0.30237940354205434   -0.043683042653023446   -0.02843361599701176
-0.30237940354205434   -0.043683042653023446   -0.02843361599701176
-0.30237940354205434   -0.043683042653023446   -0.02843361599701176
-0.30237940354205434   -0.043683042653023446   -0.02843361599701176
-0.29246701102297346   0.007709565007684084   0.062139998388873255
-0.29246701102297346   0.007709565007684084   0.062139998388873255
-0.29246701102297346   0.007709565007684084   0.062139998388873255
-0.29246701102297346   0.007709565007684084   0.062139998388873255
-0.2800488559895837   -0.00903226103251854   0.009093895608919766
-0.2800488559895837   -0.00903226103251854   0.009093895608919766
-0.2800488559895837   -0.00903226103251854   0.009093895608919766
-0.2800488559895837   -0.00903226103251854   0.009093895608919766
-0.32261319878241757   -0.048516127984855   -0.03236524741580634
-0.32261319878241757   -0.048516127984855   -0.03236524741580634
-0.32261319878241757   -0.048516127984855   -0.03236524741580634
-0.32261319878241757   -0.048516127984855   -0.03236524741580634
-0.2799448742802785   0.004830991841847741   0.03522499581699658
-0.2799448742802785   0.004830991841847741   0.03522499581699658
-0.2799448742802785   0.004830991841847741   0.03522499581699658
-0.2799448742802785   0.004830991841847741   0.03522499581699658
-0.31045864449772154   -0.06116141717623293   -0.022389177052093687
-0.31045864449772154   -0.06116141717623293   -0.022389177052093687
-0.31045864449772154   -0.06116141717623293   -0.022389177052093687
-0.31045864449772154   -0.06116141717623293   -0.022389177052093687
-0.33186130185931983   -0.03272372455568386   0.05814636008239818
-0.33186130185931983   -0.03272372455568386   0.05814636008239818
-0.33186130185931983   -0.03272372455568386   0.05814636008239818
-0.33186130185931983   -0.03272372455568386   0.05814636008239818
-0.3003308562272517   -0.027290058696489563   -0.012495049267210193
-0.3003308562272517   -0.027290058696489563   -0.012495049267210193
-0.3003308562272517   -0.027290058696489563   -0.012495049267210193
-0.3003308562272517   -0.027290058696489563   -0.012495049267210193
-0.27856663361299916   -0.008076998676210888   -0.02547017614989617
-0.27856663361299916   -0.008076998676210888   -0.02547017614989617
-0.27856663361299916   -0.008076998676210888   -0.02547017614989617
-0.27856663361299916   -0.008076998676210888   -0.02547017614989617
-0.28299721169379727   -0.034796606540758224   -0.001485928090180319
-0.28299721169379727   -0.034796606540758224   -0.001485928090180319
-0.28299721169379727   -0.034796606540758224   -0.001485928090180319
-0.28299721169379727   -0.034796606540758224   -0.001485928090180319
-0.28510025235669223   -0.023184079119680987   -0.01274623746185384
-0.28510025235669223   -0.023184079119680987   -0.01274623746185384
-0.28510025235669223   -0.023184079119680987   -0.01274623746185384
-0.28510025235669223   -0.023184079119680987   -0.01274623746185384
-0.28839386984173854   -0.047188114225400785   -0.00046450804858384764
-0.28839386984173854   -0.047188114225400785   -0.00046450804858384764
-0.28839386984173854   -0.047188114225400785   -0.00046450804858384764
-0.28839386984173854   -0.047188114225400785   -0.00046450804858384764
-0.28135438034674803   -0.029542174410618943   -0.0009670227049664859
-0.28135438034674803   -0.029542174410618943   -0.0009670227049664859
-0.28135438034674803   -0.029542174410618943   -0.0009670227049664859
-0.28135438034674803   -0.029542174410618943   -0.0009670227049664859
-0.2884136915171486   -0.025706554658006926   -0.02204517599302721
-0.2884136915171486   -0.025706554658006926   -0.02204517599302721
-0.2884136915171486   -0.025706554658006926   -0.02204517599302721
-0.2884136915171486   -0.025706554658006926   -0.02204517599302721
-0.28689755673734324   -0.04648276474313577   0.0015659262583459371
-0.28689755673734324   -0.04648276474313577   0.0015659262583459371
-0.28689755673734324   -0.04648276474313577   0.0015659262583459371
-0.28689755673734324   -0.04648276474313577   0.0015659262583459371
-0.28991861740210584   -0.03832821985138986   -0.008236301471017726
-0.28991861740210584   -0.03832821985138986   -0.008236301471017726
-0.28991861740210584   -0.03832821985138986   -0.008236301471017726
-0.28991861740210584   -0.03832821985138986   -0.008236301471017726
-0.29890441906101795   -0.0612401801317598   0.006498443886906555
-0.29890441906101795   -0.0612401801317598   0.006498443886906555
-0.29890441906101795   -0.0612401801317598   0.006498443886906555
-0.29890441906101795   -0.0612401801317598   0.006498443886906555
-0.28786880701286094   -0.04178290711740462   -0.007988881480455956
-0.28786880701286094   -0.04178290711740462   -0.007988881480455956
-0.28786880701286094   -0.04178290711740462   -0.007988881480455956
-0.28786880701286094   -0.04178290711740462   -0.007988881480455956
-0.29960741334507146   -0.041891716899003   -0.01636499076611779
-0.29960741334507146   -0.041891716899003   -0.01636499076611779
-0.29960741334507146   -0.041891716899003   -0.01636499076611779
-0.29960741334507146   -0.041891716899003   -0.01636499076611779
-0.2915389601404847   -0.060000020106579635   0.005333785092274085
-0.2915389601404847   -0.060000020106579635   0.005333785092274085
-0.2915389601404847   -0.060000020106579635   0.005333785092274085
-0.2915389601404847   -0.060000020106579635   0.005333785092274085
-0.29424935676774144   -0.05463535487352234   -0.0037707539241142174
-0.29424935676774144   -0.05463535487352234   -0.0037707539241142174
-0.29424935676774144   -0.05463535487352234   -0.0037707539241142174
-0.29424935676774144   -0.05463535487352234   -0.0037707539241142174
-0.3069531665880285   -0.07906695305578514   0.013043748375919983
-0.3069531665880285   -0.07906695305578514   0.013043748375919983
-0.3069531665880285   -0.07906695305578514   0.013043748375919983
-0.3069531665880285   -0.07906695305578514   0.013043748375919983
-0.2968086038996252   -0.056551835074630324   -0.01691263308963349
-0.2968086038996252   -0.056551835074630324   -0.01691263308963349
-0.2968086038996252   -0.056551835074630324   -0.01691263308963349
-0.2968086038996252   -0.056551835074630324   -0.01691263308963349
-0.27521689400279375   0.007293169826017253   -0.004674116001934396
-0.27521689400279375   0.007293169826017253   -0.004674116001934396
-0.27521689400279375   0.007293169826017253   -0.004674116001934396
-0.27521689400279375   0.007293169826017253   -0.004674116001934396
-0.3119303872276371   -0.05922658269728465   -0.014965397846013848
-0.3119303872276371   -0.05922658269728465   -0.014965397846013848
-0.3119303872276371   -0.05922658269728465   -0.014965397846013848
-0.3119303872276371   -0.05922658269728465   -0.014965397846013848
-0.299233444084777   -0.010935681751630063   0.0039108919807366305
-0.299233444084777   -0.010935681751630063   0.0039108919807366305
-0.299233444084777   -0.010935681751630063   0.0039108919807366305
-0.299233444084777   -0.010935681751630063   0.0039108919807366305
-0.2925422724203624   -0.06392066497712019   -0.009219751922765598
-0.2925422724203624   -0.06392066497712019   -0.009219751922765598
-0.2925422724203624   -0.06392066497712019   -0.009219751922765598
-0.2925422724203624   -0.06392066497712019   -0.009219751922765598
-0.29452441576852545   -0.032702818731143   -0.006644887531808599
-0.29452441576852545   -0.032702818731143   -0.006644887531808599
-0.29452441576852545   -0.032702818731143   -0.006644887531808599
-0.29452441576852545   -0.032702818731143   -0.006644887531808599
-0.27947635042018937   -0.007773835662219945   -3.6971236800437124e-05
-0.27947635042018937   -0.007773835662219945   -3.6971236800437124e-05
-0.27947635042018937   -0.007773835662219945   -3.6971236800437124e-05
-0.27947635042018937   -0.007773835662219945   -3.6971236800437124e-05
-0.31394998964432963   -0.06873313462590987   -0.011874382942746814
-0.31394998964432963   -0.06873313462590987   -0.011874382942746814
-0.31394998964432963   -0.06873313462590987   -0.011874382942746814
-0.31394998964432963   -0.06873313462590987   -0.011874382942746814
-0.3027068731836069   -0.026124100955733066   0.00839032303603246
-0.3027068731836069   -0.026124100955733066   0.00839032303603246
-0.3027068731836069   -0.026124100955733066   0.00839032303603246
-0.3027068731836069   -0.026124100955733066   0.00839032303603246
-0.29705249309254644   -0.07588782642545551   -0.00634607334915864
-0.29705249309254644   -0.07588782642545551   -0.00634607334915864
-0.29705249309254644   -0.07588782642545551   -0.00634607334915864
-0.29705249309254644   -0.07588782642545551   -0.00634607334915864
-0.29820966999104015   -0.044269383016937496   -0.012666373640353522
-0.29820966999104015   -0.044269383016937496   -0.012666373640353522
-0.29820966999104015   -0.044269383016937496   -0.012666373640353522
-0.29820966999104015   -0.044269383016937496   -0.012666373640353522
-0.28435484863127136   -0.02323408012176941   0.004488402653530579
-0.28435484863127136   -0.02323408012176941   0.004488402653530579
-0.28435484863127136   -0.02323408012176941   0.004488402653530579
-0.28435484863127136   -0.02323408012176941   0.004488402653530579
-0.31724843201360625   -0.08062176162814604   -0.009819810441551446
-0.31724843201360625   -0.08062176162814604   -0.009819810441551446
-0.31724843201360625   -0.08062176162814604   -0.009819810441551446
-0.31724843201360625   -0.08062176162814604   -0.009819810441551446
-0.3055414459021486   -0.04040153938506569   0.012773339258442415
-0.3055414459021486   -0.04040153938506569   0.012773339258442415
-0.3055414459021486   -0.04040153938506569   0.012773339258442415
-0.3055414459021486   -0.04040153938506569   0.012773339258442415
-0.3004229954412914   -0.08735940351567935   -0.001914898649707203
-0.3004229954412914   -0.08735940351567935   -0.001914898649707203
-0.3004229954412914   -0.08735940351567935   -0.001914898649707203
-0.3004229954412914   -0.08735940351567935   -0.001914898649707203
-0.3025966560596284   -0.05636443313269378   -0.019281826740924962
-0.3025966560596284   -0.05636443313269378   -0.019281826740924962
-0.3025966560596284   -0.05636443313269378   -0.019281826740924962
-0.3025966560596284   -0.05636443313269378   -0.019281826740924962
-0.2880173202260018   0.030860084468383415   0.014513269996494355
-0.2880173202260018   0.030860084468383415   0.014513269996494355
-0.2880173202260018   0.030860084468383415   0.014513269996494355
-0.2880173202260018   0.030860084468383415   0.014513269996494355
-0.3409038561087546   -0.044247347115767666   -0.020876471827406505
-0.3409038561087546   -0.044247347115767666   -0.020876471827406505
-0.3409038561087546   -0.044247347115767666   -0.020876471827406505
-0.3409038561087546   -0.044247347115767666   -0.020876471827406505
-0.3225839771016752   0.00913046084403311   0.020085258182039142
-0.3225839771016752   0.00913046084403311   0.020085258182039142
-0.3225839771016752   0.00913046084403311   0.020085258182039142
-0.3225839771016752   0.00913046084403311   0.020085258182039142
-0.3102079560535558   -0.0492681287858723   -0.012629220828915225
-0.3102079560535558   -0.0492681287858723   -0.012629220828915225
-0.3102079560535558   -0.0492681287858723   -0.012629220828915225
-0.3102079560535558   -0.0492681287858723   -0.012629220828915225
-0.31539329552850326   -0.013051807654104814   -0.00396794768234808
-0.31539329552850326   -0.013051807654104814   -0.00396794768234808
-0.31539329552850326   -0.013051807654104814   -0.00396794768234808
-0.31539329552850326   -0.013051807654104814   -0.00396794768234808
-0.29097978389737017   0.015235791734762048   0.019007719431378814
-0.29097978389737017   0.015235791734762048   0.019007719431378814
-0.29097978389737017   0.015235791734762048   0.019007719431378814
-0.29097978389737017   0.015235791734762048   0.019007719431378814
-0.34400509876322194   -0.05756640918196236   -0.02032348009969938
-0.34400509876322194   -0.05756640918196236   -0.02032348009969938
-0.34400509876322194   -0.05756640918196236   -0.02032348009969938
-0.34400509876322194   -0.05756640918196236   -0.02032348009969938
-0.32858178593063947   -0.005705130758553591   0.0227768551033401
-0.32858178593063947   -0.005705130758553591   0.0227768551033401
-0.32858178593063947   -0.005705130758553591   0.0227768551033401
-0.32858178593063947   -0.005705130758553591   0.0227768551033401
-0.3132357205992893   -0.0603275939912966   -0.010050421006816176
-0.3132357205992893   -0.0603275939912966   -0.010050421006816176
-0.3132357205992893   -0.0603275939912966   -0.010050421006816176
-0.3132357205992893   -0.0603275939912966   -0.010050421006816176
-0.3184318066990603   -0.025592302222114314   -0.011031057939711403
-0.3184318066990603   -0.025592302222114314   -0.011031057939711403
-0.3184318066990603   -0.025592302222114314   -0.011031057939711403
-0.3184318066990603   -0.025592302222114314   -0.011031057939711403
-0.29422852185440906   0.0012847889844043447   0.02337318974188403
-0.29422852185440906   0.0012847889844043447   0.02337318974188403
-0.29422852185440906   0.0012847889844043447   0.02337318974188403
-0.29422852185440906   0.0012847889844043447   0.02337318974188403
-0.34948905180310086   -0.06921758086183319   -0.018247024155687505
-0.34948905180310086   -0.06921758086183319   -0.018247024155687505
-0.34948905180310086   -0.06921758086183319   -0.018247024155687505
-0.34948905180310086   -0.06921758086183319   -0.018247024155687505
-0.33255861448975554   -0.019941266397720675   0.027780387600524287
-0.33255861448975554   -0.019941266397720675   0.027780387600524287
-0.33255861448975554   -0.019941266397720675   0.027780387600524287
-0.33255861448975554   -0.019941266397720675   0.027780387600524287
-0.3158439696815925   -0.07143854447860606   -0.007702274545240806
-0.3158439696815925   -0.07143854447860606   -0.007702274545240806
-0.3158439696815925   -0.07143854447860606   -0.007702274545240806
-0.3158439696815925   -0.07143854447860606   -0.007702274545240806
-0.3237358375195286   -0.037420118219522784   -0.017877548132934303
-0.3237358375195286   -0.037420118219522784   -0.017877548132934303
-0.3237358375195286   -0.037420118219522784   -0.017877548132934303
-0.3237358375195286   -0.037420118219522784   -0.017877548132934303
-0.31322522601902814   0.04428201272974713   0.028987318775711354
-0.31322522601902814   0.04428201272974713   0.028987318775711354
-0.31322522601902814   0.04428201272974713   0.028987318775711354
-0.31322522601902814   0.04428201272974713   0.028987318775711354
-0.33536539589633335   -0.026774016543545855   -0.030233812224150947
-0.33536539589633335   -0.026774016543545855   -0.030233812224150947
-0.33536539589633335   -0.026774016543545855   -0.030233812224150947
-0.33536539589633335   -0.026774016543545855   -0.030233812224150947
-0.32790145697429035   0.031392650234705236   0.03221725557968076
-0.32790145697429035   0.031392650234705236   0.03221725557968076
-0.32790145697429035   0.031392650234705236   0.03221725557968076
-0.32790145697429035   0.031392650234705236   0.03221725557968076
-0.33896564169062526   -0.03421103699837596   -0.018481566920302277
-0.33896564169062526   -0.03421103699837596   -0.018481566920302277
-0.33896564169062526   -0.03421103699837596   -0.018481566920302277
-0.33896564169062526   -0.03421103699837596   -0.018481566920302277
-0.31766173711413015   0.0078787119665195   0.0012804024994124974
-0.31766173711413015   0.0078787119665195   0.0012804024994124974
-0.31766173711413015   0.0078787119665195   0.0012804024994124974
-0.31766173711413015   0.0078787119665195   0.0012804024994124974
-0.31487354296465186   0.03425696655244418   0.03351092315873698
-0.31487354296465186   0.03425696655244418   0.03351092315873698
-0.31487354296465186   0.03425696655244418   0.03351092315873698
-0.31487354296465186   0.03425696655244418   0.03351092315873698
-0.35378293882218764   -0.03886473643804009   -0.026932766987060534
-0.35378293882218764   -0.03886473643804009   -0.026932766987060534
-0.35378293882218764   -0.03886473643804009   -0.026932766987060534
-0.35378293882218764   -0.03886473643804009   -0.026932766987060534
-0.34234145097919444   0.02307493821103427   0.04147258671790445
-0.34234145097919444   0.02307493821103427   0.04147258671790445
-0.34234145097919444   0.02307493821103427   0.04147258671790445
-0.34234145097919444   0.02307493821103427   0.04147258671790445
-0.34351214030932886   -0.040723700813449865   -0.016856346735218256
-0.34351214030932886   -0.040723700813449865   -0.016856346735218256
-0.34351214030932886   -0.040723700813449865   -0.016856346735218256
-0.34351214030932886   -0.040723700813449865   -0.016856346735218256
-0.33322237777042396   -0.002195535230821638   -0.007067464690780692
-0.33322237777042396   -0.002195535230821638   -0.007067464690780692
-0.33322237777042396   -0.002195535230821638   -0.007067464690780692
-0.33322237777042396   -0.002195535230821638   -0.007067464690780692
-0.31845984676585337   0.02757752145321697   0.04010389871549225
-0.31845984676585337   0.02757752145321697   0.04010389871549225
-0.31845984676585337   0.02757752145321697   0.04010389871549225
-0.31845984676585337   0.02757752145321697   0.04010389871549225
-0.36972199320261945   -0.04755453273558464   -0.024800653452601545
-0.36972199320261945   -0.04755453273558464   -0.024800653452601545
-0.36972199320261945   -0.04755453273558464   -0.024800653452601545
-0.36972199320261945   -0.04755453273558464   -0.024800653452601545
-0.3677631251361039   0.001834780829332902   0.04431011187019637
-0.3677631251361039   0.001834780829332902   0.04431011187019637
-0.3677631251361039   0.001834780829332902   0.04431011187019637
-0.3677631251361039   0.001834780829332902   0.04431011187019637
-0.34766434437341737   -0.053042468098434326   -0.014647060117071106
-0.34766434437341737   -0.053042468098434326   -0.014647060117071106
-0.34766434437341737   -0.053042468098434326   -0.014647060117071106
-0.34766434437341737   -0.053042468098434326   -0.014647060117071106
-0.34059807123803454   -0.011472571721451651   -0.014588858306336557
-0.34059807123803454   -0.011472571721451651   -0.014588858306336557
-0.34059807123803454   -0.011472571721451651   -0.014588858306336557
-0.34059807123803454   -0.011472571721451651   -0.014588858306336557
-0.6696005285056451   -0.061214464230594116   -0.06332518935304221
-0.6696005285056451   -0.061214464230594116   -0.06332518935304221
-0.6696005285056451   -0.061214464230594116   -0.06332518935304221
-0.6696005285056451   -0.061214464230594116   -0.06332518935304221
-0.42507794825691214   0.03617292418881565   0.014918784266907417
-0.42507794825691214   0.03617292418881565   0.014918784266907417
-0.42507794825691214   0.03617292418881565   0.014918784266907417
-0.42507794825691214   0.03617292418881565   0.014918784266907417
-0.446396122326019   -0.028247727279441505   -0.028276881156248018
-0.446396122326019   -0.028247727279441505   -0.028276881156248018
-0.446396122326019   -0.028247727279441505   -0.028276881156248018
-0.446396122326019   -0.028247727279441505   -0.028276881156248018
-0.7120472099384291   -0.08035648695172928   0.07090210114835246
-0.7120472099384291   -0.08035648695172928   0.07090210114835246
-0.7120472099384291   -0.08035648695172928   0.07090210114835246
-0.7120472099384291   -0.08035648695172928   0.07090210114835246
-0.5177934022657704   -0.019756358028302903   0.06879520758655402
-0.5177934022657704   -0.019756358028302903   0.06879520758655402
-0.5177934022657704   -0.019756358028302903   0.06879520758655402
-0.5177934022657704   -0.019756358028302903   0.06879520758655402
-0.7374574916950205   -0.09008815319937888   -0.04641764138694865
-0.7374574916950205   -0.09008815319937888   -0.04641764138694865
-0.7374574916950205   -0.09008815319937888   -0.04641764138694865
-0.7374574916950205   -0.09008815319937888   -0.04641764138694865
-0.4388608145277877   -0.03639103499014904   0.0175429655456123
-0.4388608145277877   -0.03639103499014904   0.0175429655456123
-0.4388608145277877   -0.03639103499014904   0.0175429655456123
-0.4388608145277877   -0.03639103499014904   0.0175429655456123
-0.4532870349925315   -0.04094630012355634   -0.0203193032977554
-0.4532870349925315   -0.04094630012355634   -0.0203193032977554
-0.4532870349925315   -0.04094630012355634   -0.0203193032977554
-0.4532870349925315   -0.04094630012355634   -0.0203193032977554
-0.7347719045648429   -0.11226336186757899   0.0017163991856098681
-0.7347719045648429   -0.11226336186757899   0.0017163991856098681
-0.7347719045648429   -0.11226336186757899   0.0017163991856098681
-0.7347719045648429   -0.11226336186757899   0.0017163991856098681
-0.5733722664811463   -0.06773852176125927   0.01590804887183883
-0.5733722664811463   -0.06773852176125927   0.01590804887183883
-0.5733722664811463   -0.06773852176125927   0.01590804887183883
-0.5733722664811463   -0.06773852176125927   0.01590804887183883
-0.7405032542260825   -0.10180535459028738   -0.03739835639787492
-0.7405032542260825   -0.10180535459028738   -0.03739835639787492
-0.7405032542260825   -0.10180535459028738   -0.03739835639787492
-0.7405032542260825   -0.10180535459028738   -0.03739835639787492
-0.45296651920260006   -0.05681514127215337   -0.0028478831995048803
-0.45296651920260006   -0.05681514127215337   -0.0028478831995048803
-0.45296651920260006   -0.05681514127215337   -0.0028478831995048803
-0.45296651920260006   -0.05681514127215337   -0.0028478831995048803
-0.4536295793547222   -0.07166904248385031   -0.014811952063031708
-0.4536295793547222   -0.07166904248385031   -0.014811952063031708
-0.4536295793547222   -0.07166904248385031   -0.014811952063031708
-0.4536295793547222   -0.07166904248385031   -0.014811952063031708
-0.7524305441978223   -0.17141695945852573   0.011200060717834581
-0.7524305441978223   -0.17141695945852573   0.011200060717834581
-0.7524305441978223   -0.17141695945852573   0.011200060717834581
-0.7524305441978223   -0.17141695945852573   0.011200060717834581
-0.572800149612502   -0.09310605939724982   0.0012094637500137673
-0.572800149612502   -0.09310605939724982   0.0012094637500137673
-0.572800149612502   -0.09310605939724982   0.0012094637500137673
-0.572800149612502   -0.09310605939724982   0.0012094637500137673
-0.4590092360031522   -0.07784564319974   -0.040719087075734295
-0.4590092360031522   -0.07784564319974   -0.040719087075734295
-0.4590092360031522   -0.07784564319974   -0.040719087075734295
-0.4590092360031522   -0.07784564319974   -0.040719087075734295
-0.31563883252775515   -0.20430625294227647   -0.038288958734923884
-0.31563883252775515   -0.20430625294227647   -0.038288958734923884
-0.31563883252775515   -0.20430625294227647   -0.038288958734923884
-0.31563883252775515   -0.20430625294227647   -0.038288958734923884
-0.277225775222515   -0.045350059988951794   -0.0024423314855624018
-0.277225775222515   -0.045350059988951794   -0.0024423314855624018
-0.277225775222515   -0.045350059988951794   -0.0024423314855624018
-0.277225775222515   -0.045350059988951794   -0.0024423314855624018
-0.48806197160860876   -0.21661770800620572   -0.0482361468424362
-0.48806197160860876   -0.21661770800620572   -0.0482361468424362
-0.48806197160860876   -0.21661770800620572   -0.0482361468424362
-0.48806197160860876   -0.21661770800620572   -0.0482361468424362
-0.38052363697887487   -0.1443563506956784   -0.011100287777749226
-0.38052363697887487   -0.1443563506956784   -0.011100287777749226
-0.38052363697887487   -0.1443563506956784   -0.011100287777749226
-0.38052363697887487   -0.1443563506956784   -0.011100287777749226
-0.4586816326326114   -0.08728599763966007   -0.03066616232899204
-0.4586816326326114   -0.08728599763966007   -0.03066616232899204
-0.4586816326326114   -0.08728599763966007   -0.03066616232899204
-0.4586816326326114   -0.08728599763966007   -0.03066616232899204
-0.3084642559680453   -0.17653991212503306   -0.02744488307713633
-0.3084642559680453   -0.17653991212503306   -0.02744488307713633
-0.3084642559680453   -0.17653991212503306   -0.02744488307713633
-0.3084642559680453   -0.17653991212503306   -0.02744488307713633
-0.2803972536716054   -0.05875617486170255   0.00041130484778025
-0.2803972536716054   -0.05875617486170255   0.00041130484778025
-0.2803972536716054   -0.05875617486170255   0.00041130484778025
-0.2803972536716054   -0.05875617486170255   0.00041130484778025
-0.4898252766383641   -0.21548757647667113   -0.028469235173807395
-0.4898252766383641   -0.21548757647667113   -0.028469235173807395
-0.4898252766383641   -0.21548757647667113   -0.028469235173807395
-0.4898252766383641   -0.21548757647667113   -0.028469235173807395
-0.37631032425063027   -0.135312763225343   -0.01179356292319128
-0.37631032425063027   -0.135312763225343   -0.01179356292319128
-0.37631032425063027   -0.135312763225343   -0.01179356292319128
-0.37631032425063027   -0.135312763225343   -0.01179356292319128
-0.4657352416737031   -0.10050613399759342   -0.023000502829576427
-0.4657352416737031   -0.10050613399759342   -0.023000502829576427
-0.4657352416737031   -0.10050613399759342   -0.023000502829576427
-0.4657352416737031   -0.10050613399759342   -0.023000502829576427
-0.3083382919905174   -0.17758862069503065   -0.020461440913451617
-0.3083382919905174   -0.17758862069503065   -0.020461440913451617
-0.3083382919905174   -0.17758862069503065   -0.020461440913451617
-0.3083382919905174   -0.17758862069503065   -0.020461440913451617
-0.2803083791079888   -0.07544871267806598   0.004490162784476059
-0.2803083791079888   -0.07544871267806598   0.004490162784476059
-0.2803083791079888   -0.07544871267806598   0.004490162784476059
-0.2803083791079888   -0.07544871267806598   0.004490162784476059
-0.48862296698993   -0.21902649018365564   -0.04242144253927134
-0.48862296698993   -0.21902649018365564   -0.04242144253927134
-0.48862296698993   -0.21902649018365564   -0.04242144253927134
-0.48862296698993   -0.21902649018365564   -0.04242144253927134
-0.38200444506793585   -0.14554264325577776   -0.02191016913038976
-0.38200444506793585   -0.14554264325577776   -0.02191016913038976
-0.38200444506793585   -0.14554264325577776   -0.02191016913038976
-0.38200444506793585   -0.14554264325577776   -0.02191016913038976
-0.2778482641375232   -0.05012129371272275   -0.0035210760133182334
-0.2778482641375232   -0.05012129371272275   -0.0035210760133182334
-0.2778482641375232   -0.05012129371272275   -0.0035210760133182334
-0.2778482641375232   -0.05012129371272275   -0.0035210760133182334
-0.2332910463968763   -0.15636551816945607   -0.02699243189404863
-0.2332910463968763   -0.15636551816945607   -0.02699243189404863
-0.2332910463968763   -0.15636551816945607   -0.02699243189404863
-0.2332910463968763   -0.15636551816945607   -0.02699243189404863
-0.20105728678309998   -0.04163417677983482   0.010727703426383448
-0.20105728678309998   -0.04163417677983482   0.010727703426383448
-0.20105728678309998   -0.04163417677983482   0.010727703426383448
-0.20105728678309998   -0.04163417677983482   0.010727703426383448
-0.30761463800901007   -0.1699281968035614   -0.029808508603432024
-0.30761463800901007   -0.1699281968035614   -0.029808508603432024
-0.30761463800901007   -0.1699281968035614   -0.029808508603432024
-0.30761463800901007   -0.1699281968035614   -0.029808508603432024
-0.2538325525998483   -0.10596490265735918   -0.012449482398799686
-0.2538325525998483   -0.10596490265735918   -0.012449482398799686
-0.2538325525998483   -0.10596490265735918   -0.012449482398799686
-0.2538325525998483   -0.10596490265735918   -0.012449482398799686
-0.2794431825734718   -0.05936065189087443   0.0004812236615724941
-0.2794431825734718   -0.05936065189087443   0.0004812236615724941
-0.2794431825734718   -0.05936065189087443   0.0004812236615724941
-0.2794431825734718   -0.05936065189087443   0.0004812236615724941
-0.23087709876818033   -0.1538500782420664   -0.026155455036786755
-0.23087709876818033   -0.1538500782420664   -0.026155455036786755
-0.23087709876818033   -0.1538500782420664   -0.026155455036786755
-0.23087709876818033   -0.1538500782420664   -0.026155455036786755
-0.20113492239391   -0.052654214718117376   0.013904414488895622
-0.20113492239391   -0.052654214718117376   0.013904414488895622
-0.20113492239391   -0.052654214718117376   0.013904414488895622
-0.20113492239391   -0.052654214718117376   0.013904414488895622
-0.3085897963074703   -0.17262131206102674   -0.02668627113222012
-0.3085897963074703   -0.17262131206102674   -0.02668627113222012
-0.3085897963074703   -0.17262131206102674   -0.02668627113222012
-0.3085897963074703   -0.17262131206102674   -0.02668627113222012
-0.25338440505963034   -0.1101086398609577   -0.01615564212065
-0.25338440505963034   -0.1101086398609577   -0.01615564212065
-0.25338440505963034   -0.1101086398609577   -0.01615564212065
-0.25338440505963034   -0.1101086398609577   -0.01615564212065
-0.2817999029640865   -0.07053309752099776   0.005174981044670152
-0.2817999029640865   -0.07053309752099776   0.005174981044670152
-0.2817999029640865   -0.07053309752099776   0.005174981044670152
-0.2817999029640865   -0.07053309752099776   0.005174981044670152
-0.2288314731811721   -0.15564908670202462   -0.021583467463507755
-0.2288314731811721   -0.15564908670202462   -0.021583467463507755
-0.2288314731811721   -0.15564908670202462   -0.021583467463507755
-0.2288314731811721   -0.15564908670202462   -0.021583467463507755
-0.1987735593382244   -0.06317357633468096   0.017364801152217793
-0.1987735593382244   -0.06317357633468096   0.017364801152217793
-0.1987735593382244   -0.06317357633468096   0.017364801152217793
-0.1987735593382244   -0.06317357633468096   0.017364801152217793
-0.30492315120257546   -0.1748097681247185   -0.019222642241800883
-0.30492315120257546   -0.1748097681247185   -0.019222642241800883
-0.30492315120257546   -0.1748097681247185   -0.019222642241800883
-0.30492315120257546   -0.1748097681247185   -0.019222642241800883
-0.2526331959831295   -0.1155697711269228   -0.018729609957523763
-0.2526331959831295   -0.1155697711269228   -0.018729609957523763
-0.2526331959831295   -0.1155697711269228   -0.018729609957523763
-0.2526331959831295   -0.1155697711269228   -0.018729609957523763
-0.19419530859062956   -0.006921829544262945   0.019042568511992
-0.19419530859062956   -0.006921829544262945   0.019042568511992
-0.19419530859062956   -0.006921829544262945   0.019042568511992
-0.19419530859062956   -0.006921829544262945   0.019042568511992
-0.18384811338608611   -0.08281709944200963   -0.01617940116428327
-0.18384811338608611   -0.08281709944200963   -0.01617940116428327
-0.18384811338608611   -0.08281709944200963   -0.01617940116428327
-0.18384811338608611   -0.08281709944200963   -0.01617940116428327
-0.15853027960884408   -0.01199709036667096   0.02204829482239505
-0.15853027960884408   -0.01199709036667096   0.02204829482239505
-0.15853027960884408   -0.01199709036667096   0.02204829482239505
-0.15853027960884408   -0.01199709036667096   0.02204829482239505
-0.2162973982173741   -0.0956553599171375   -0.011451670607684622
-0.2162973982173741   -0.0956553599171375   -0.011451670607684622
-0.2162973982173741   -0.0956553599171375   -0.011451670607684622
-0.2162973982173741   -0.0956553599171375   -0.011451670607684622
-0.18884418124236943   -0.04888820166749162   -0.006754986154694206
-0.18884418124236943   -0.04888820166749162   -0.006754986154694206
-0.18884418124236943   -0.04888820166749162   -0.006754986154694206
-0.18884418124236943   -0.04888820166749162   -0.006754986154694206
-0.19431733887436548   -0.019171256621839154   0.02196452281206017
-0.19431733887436548   -0.019171256621839154   0.02196452281206017
-0.19431733887436548   -0.019171256621839154   0.02196452281206017
-0.19431733887436548   -0.019171256621839154   0.02196452281206017
-0.1822662721563523   -0.09023712686646762   -0.018391631415357074
-0.1822662721563523   -0.09023712686646762   -0.018391631415357074
-0.1822662721563523   -0.09023712686646762   -0.018391631415357074
-0.1822662721563523   -0.09023712686646762   -0.018391631415357074
-0.1587657316707728   -0.02268330934707651   0.02370101328576773
-0.1587657316707728   -0.02268330934707651   0.02370101328576773
-0.1587657316707728   -0.02268330934707651   0.02370101328576773
-0.1587657316707728   -0.02268330934707651   0.02370101328576773
-0.21623312970935216   -0.10148682602485384   -0.01275401078157861
-0.21623312970935216   -0.10148682602485384   -0.01275401078157861
-0.21623312970935216   -0.10148682602485384   -0.01275401078157861
-0.21623312970935216   -0.10148682602485384   -0.01275401078157861
-0.18802322664449125   -0.057467966715286076   -0.011467428012781361
-0.18802322664449125   -0.057467966715286076   -0.011467428012781361
-0.18802322664449125   -0.057467966715286076   -0.011467428012781361
-0.18802322664449125   -0.057467966715286076   -0.011467428012781361
-0.19429332965987284   -0.02953116576154706   0.024989329202515023
-0.19429332965987284   -0.02953116576154706   0.024989329202515023
-0.19429332965987284   -0.02953116576154706   0.024989329202515023
-0.19429332965987284   -0.02953116576154706   0.024989329202515023
-0.18176894825020048   -0.09570238614033101   -0.01829599281811617
-0.18176894825020048   -0.09570238614033101   -0.01829599281811617
-0.18176894825020048   -0.09570238614033101   -0.01829599281811617
-0.18176894825020048   -0.09570238614033101   -0.01829599281811617
-0.15741432274043513   -0.032718617307795836   0.027467714367652926
-0.15741432274043513   -0.032718617307795836   0.027467714367652926
-0.15741432274043513   -0.032718617307795836   0.027467714367652926
-0.15741432274043513   -0.032718617307795836   0.027467714367652926
-0.21281802395002045   -0.10731678163714228   -0.008714316604301019
-0.21281802395002045   -0.10731678163714228   -0.008714316604301019
-0.21281802395002045   -0.10731678163714228   -0.008714316604301019
-0.21281802395002045   -0.10731678163714228   -0.008714316604301019
-0.1874642999001843   -0.06485071635070183   -0.014746342344908736
-0.1874642999001843   -0.06485071635070183   -0.014746342344908736
-0.1874642999001843   -0.06485071635070183   -0.014746342344908736
-0.1874642999001843   -0.06485071635070183   -0.014746342344908736
-0.15380434976701696   0.021524515520798475   0.029697801968254355
-0.15380434976701696   0.021524515520798475   0.029697801968254355
-0.15380434976701696   0.021524515520798475   0.029697801968254355
-0.15380434976701696   0.021524515520798475   0.029697801968254355
-0.10250599980598567   -0.027269486811232042   -0.009966382716556234
-0.10250599980598567   -0.027269486811232042   -0.009966382716556234
-0.10250599980598567   -0.027269486811232042   -0.009966382716556234
-0.10250599980598567   -0.027269486811232042   -0.009966382716556234
-0.08955775601794363   0.025232663887779224   0.029329051837792004
-0.08955775601794363   0.025232663887779224   0.029329051837792004
-0.08955775601794363   0.025232663887779224   0.029329051837792004
-0.08955775601794363   0.025232663887779224   0.029329051837792004
-0.16990904328988932   -0.0416787055773834   -0.005163908372118754
-0.16990904328988932   -0.0416787055773834   -0.005163908372118754
-0.16990904328988932   -0.0416787055773834   -0.005163908372118754
-0.16990904328988932   -0.0416787055773834   -0.005163908372118754
-0.1271614802594979   -0.0026730032621798353   -0.005346694553226006
-0.1271614802594979   -0.0026730032621798353   -0.005346694553226006
-0.1271614802594979   -0.0026730032621798353   -0.005346694553226006
-0.1271614802594979   -0.0026730032621798353   -0.005346694553226006
-0.15135912660744594   0.013489977745715604   0.03241699171699152
-0.15135912660744594   0.013489977745715604   0.03241699171699152
-0.15135912660744594   0.013489977745715604   0.03241699171699152
-0.15135912660744594   0.013489977745715604   0.03241699171699152
-0.10828828430896825   -0.030116631043902282   -0.008974294685641898
-0.10828828430896825   -0.030116631043902282   -0.008974294685641898
-0.10828828430896825   -0.030116631043902282   -0.008974294685641898
-0.10828828430896825   -0.030116631043902282   -0.008974294685641898
-0.09352986153572418   0.020023107749881024   0.03689541730781618
-0.09352986153572418   0.020023107749881024   0.03689541730781618
-0.09352986153572418   0.020023107749881024   0.03689541730781618
-0.09352986153572418   0.020023107749881024   0.03689541730781618
-0.16916314647875036   -0.04437149099554445   -0.006597879105652245
-0.16916314647875036   -0.04437149099554445   -0.006597879105652245
-0.16916314647875036   -0.04437149099554445   -0.006597879105652245
-0.16916314647875036   -0.04437149099554445   -0.006597879105652245
-0.13097371293330304   -0.008361449273977127   -0.007571931185792066
-0.13097371293330304   -0.008361449273977127   -0.007571931185792066
-0.13097371293330304   -0.008361449273977127   -0.007571931185792066
-0.13097371293330304   -0.008361449273977127   -0.007571931185792066
-0.1497313307948015   0.008868060083507313   0.03732164823504028
-0.1497313307948015   0.008868060083507313   0.03732164823504028
-0.1497313307948015   0.008868060083507313   0.03732164823504028
-0.1497313307948015   0.008868060083507313   0.03732164823504028
-0.11429207146005918   -0.03454683756955816   -0.012345686994411974
-0.11429207146005918   -0.03454683756955816   -0.012345686994411974
-0.11429207146005918   -0.03454683756955816   -0.012345686994411974
-0.11429207146005918   -0.03454683756955816   -0.012345686994411974
-0.10700335138912867   0.005697852930500319   0.03839355204331341
-0.10700335138912867   0.005697852930500319   0.03839355204331341
-0.10700335138912867   0.005697852930500319   0.03839355204331341
-0.10700335138912867   0.005697852930500319   0.03839355204331341
-0.1668293460869071   -0.04679868709592626   -0.005527332576576546
-0.1668293460869071   -0.04679868709592626   -0.005527332576576546
-0.1668293460869071   -0.04679868709592626   -0.005527332576576546
-0.1668293460869071   -0.04679868709592626   -0.005527332576576546
-0.13282158002965447   -0.012484395195975296   -0.011160803422152497
-0.13282158002965447   -0.012484395195975296   -0.011160803422152497
-0.13282158002965447   -0.012484395195975296   -0.011160803422152497
-0.13282158002965447   -0.012484395195975296   -0.011160803422152497
-1.5816910477891324   -0.22450471497635222   -0.13185631202671194
-1.5816910477891324   -0.22450471497635222   -0.13185631202671194
-1.5816910477891324   -0.22450471497635222   -0.13185631202671194
-1.5816910477891324   -0.22450471497635222   -0.13185631202671194
-0.5494357486239336   -0.8686847561810046   -0.10312638863518825
-0.5494357486239336   -0.8686847561810046   -0.10312638863518825
-0.5494357486239336   -0.8686847561810046   -0.10312638863518825
-0.5494357486239336   -0.8686847561810046   -0.10312638863518825
-0.4240325243180819   -0.03682845126452944   0.000527593964004508
-0.4240325243180819   -0.03682845126452944   0.000527593964004508
-0.4240325243180819   -0.03682845126452944   0.000527593964004508
-0.4240325243180819   -0.03682845126452944   0.000527593964004508
-1.6899839609663345   -1.0201619131962654   -0.54202917483252
-1.6899839609663345   -1.0201619131962654   -0.54202917483252
-1.6899839609663345   -1.0201619131962654   -0.54202917483252
-1.6899839609663345   -1.0201619131962654   -0.54202917483252
-1.03473693283531   -0.5073825335696354   -0.0739498384181072
-1.03473693283531   -0.5073825335696354   -0.0739498384181072
-1.03473693283531   -0.5073825335696354   -0.0739498384181072
-1.03473693283531   -0.5073825335696354   -0.0739498384181072
-1.4697741628233114   -0.2819255976842602   -0.1792164996294197
-1.4697741628233114   -0.2819255976842602   -0.1792164996294197
-1.4697741628233114   -0.2819255976842602   -0.1792164996294197
-1.4697741628233114   -0.2819255976842602   -0.1792164996294197
-0.5935090939234352   -0.7243315382388656   -0.15935216708842076
-0.5935090939234352   -0.7243315382388656   -0.15935216708842076
-0.5935090939234352   -0.7243315382388656   -0.15935216708842076
-0.5935090939234352   -0.7243315382388656   -0.15935216708842076
-0.4327383160916476   -0.048948739129049845   0.01625592440506024
-0.4327383160916476   -0.048948739129049845   0.01625592440506024
-0.4327383160916476   -0.048948739129049845   0.01625592440506024
-0.4327383160916476   -0.048948739129049845   0.01625592440506024
-1.5815419988768151   -0.9105292816645045   -0.49841425610826395
-1.5815419988768151   -0.9105292816645045   -0.49841425610826395
-1.5815419988768151   -0.9105292816645045   -0.49841425610826395
-1.5815419988768151   -0.9105292816645045   -0.49841425610826395
-0.9746765294086972   -0.45769240689657276   0.039320078969631356
-0.9746765294086972   -0.45769240689657276   0.039320078969631356
-0.9746765294086972   -0.45769240689657276   0.039320078969631356
-0.9746765294086972   -0.45769240689657276   0.039320078969631356
-1.380193295731018   -0.2684424369555789   -0.13375758508821478
-1.380193295731018   -0.2684424369555789   -0.13375758508821478
-1.380193295731018   -0.2684424369555789   -0.13375758508821478
-1.380193295731018   -0.2684424369555789   -0.13375758508821478
-0.5776972448632984   -0.6346458094638305   -0.12284164911841008
-0.5776972448632984   -0.6346458094638305   -0.12284164911841008
-0.5776972448632984   -0.6346458094638305   -0.12284164911841008
-0.5776972448632984   -0.6346458094638305   -0.12284164911841008
-0.49764096523310036   -0.12789896316602403   -0.0259995367843788
-0.49764096523310036   -0.12789896316602403   -0.0259995367843788
-0.49764096523310036   -0.12789896316602403   -0.0259995367843788
-0.49764096523310036   -0.12789896316602403   -0.0259995367843788
-1.4415195815300088   -0.7659334509463616   -0.4414906064952741
-1.4415195815300088   -0.7659334509463616   -0.4414906064952741
-1.4415195815300088   -0.7659334509463616   -0.4414906064952741
-1.4415195815300088   -0.7659334509463616   -0.4414906064952741
-0.9029397742063481   -0.3969321078008616   0.16732108370270343
-0.9029397742063481   -0.3969321078008616   0.16732108370270343
-0.9029397742063481   -0.3969321078008616   0.16732108370270343
-0.9029397742063481   -0.3969321078008616   0.16732108370270343
-0.40586527340333106   -0.22123791926086953   -0.032720849452313336
-0.40586527340333106   -0.22123791926086953   -0.032720849452313336
-0.40586527340333106   -0.22123791926086953   -0.032720849452313336
-0.40586527340333106   -0.22123791926086953   -0.032720849452313336
-0.18814415405973287   -0.27579094120043246   -0.046510302409862196
-0.18814415405973287   -0.27579094120043246   -0.046510302409862196
-0.18814415405973287   -0.27579094120043246   -0.046510302409862196
-0.18814415405973287   -0.27579094120043246   -0.046510302409862196
-0.1656511865011609   -0.14163995562964468   0.004241829932921201
-0.1656511865011609   -0.14163995562964468   0.004241829932921201
-0.1656511865011609   -0.14163995562964468   0.004241829932921201
-0.1656511865011609   -0.14163995562964468   0.004241829932921201
-0.4972247331938442   -0.4027622228053017   0.00050032112597026
-0.4972247331938442   -0.4027622228053017   0.00050032112597026
-0.4972247331938442   -0.4027622228053017   0.00050032112597026
-0.4972247331938442   -0.4027622228053017   0.00050032112597026
-0.2668545574261459   -0.19520034535813974   0.08567433012664341
-0.2668545574261459   -0.19520034535813974   0.08567433012664341
-0.2668545574261459   -0.19520034535813974   0.08567433012664341
-0.2668545574261459   -0.19520034535813974   0.08567433012664341
-0.46218171119408424   -0.20600315407576772   -0.021043637604770654
-0.46218171119408424   -0.20600315407576772   -0.021043637604770654
-0.46218171119408424   -0.20600315407576772   -0.021043637604770654
-0.46218171119408424   -0.20600315407576772   -0.021043637604770654
-0.21478207066789134   -0.3524868865261496   -0.030565660004222298
-0.21478207066789134   -0.3524868865261496   -0.030565660004222298
-0.21478207066789134   -0.3524868865261496   -0.030565660004222298
-0.21478207066789134   -0.3524868865261496   -0.030565660004222298
-0.17905817667449136   -0.14676192334147958   0.004391930538285266
-0.17905817667449136   -0.14676192334147958   0.004391930538285266
-0.17905817667449136   -0.14676192334147958   0.004391930538285266
-0.17905817667449136   -0.14676192334147958   0.004391930538285266
-0.5216907621537618   -0.3977773766232035   -0.0796776684113536
-0.5216907621537618   -0.3977773766232035   -0.0796776684113536
-0.5216907621537618   -0.3977773766232035   -0.0796776684113536
-0.5216907621537618   -0.3977773766232035   -0.0796776684113536
-0.3184683187723255   -0.2502429120380232   0.03898491262088291
-0.3184683187723255   -0.2502429120380232   0.03898491262088291
-0.3184683187723255   -0.2502429120380232   0.03898491262088291
-0.3184683187723255   -0.2502429120380232   0.03898491262088291
-0.477088677168386   -0.21511277797454195   -0.0393318421331397
-0.477088677168386   -0.21511277797454195   -0.0393318421331397
-0.477088677168386   -0.21511277797454195   -0.0393318421331397
-0.477088677168386   -0.21511277797454195   -0.0393318421331397
-0.2223533139260802   -0.3281195742563535   -0.030726104804784993
-0.2223533139260802   -0.3281195742563535   -0.030726104804784993
-0.2223533139260802   -0.3281195742563535   -0.030726104804784993
-0.2223533139260802   -0.3281195742563535   -0.030726104804784993
-0.19977722318825394   -0.1514784932481924   0.006472798336368851
-0.19977722318825394   -0.1514784932481924   0.006472798336368851
-0.19977722318825394   -0.1514784932481924   0.006472798336368851
-0.19977722318825394   -0.1514784932481924   0.006472798336368851
-0.5580490308588637   -0.3866299863787211   -0.06930884170050128
-0.5580490308588637   -0.3866299863787211   -0.06930884170050128
-0.5580490308588637   -0.3866299863787211   -0.06930884170050128
-0.5580490308588637   -0.3866299863787211   -0.06930884170050128
-0.33340324614218153   -0.23588365844691261   0.04122228378594833
-0.33340324614218153   -0.23588365844691261   0.04122228378594833
-0.33340324614218153   -0.23588365844691261   0.04122228378594833
-0.33340324614218153   -0.23588365844691261   0.04122228378594833
-0.14815121819524568   -0.13200531583990996   0.009668751552051297
-0.14815121819524568   -0.13200531583990996   0.009668751552051297
-0.14815121819524568   -0.13200531583990996   0.009668751552051297
-0.14815121819524568   -0.13200531583990996   0.009668751552051297
-0.09089225618930565   -0.08668151026392991   -0.022739105104756317
-0.09089225618930565   -0.08668151026392991   -0.022739105104756317
-0.09089225618930565   -0.08668151026392991   -0.022739105104756317
-0.09089225618930565   -0.08668151026392991   -0.022739105104756317
-0.08801090681931296   -0.11810250928527713   0.009716197798299825
-0.08801090681931296   -0.11810250928527713   0.009716197798299825
-0.08801090681931296   -0.11810250928527713   0.009716197798299825
-0.08801090681931296   -0.11810250928527713   0.009716197798299825
-0.1639219655782307   -0.11853695384049462   -0.010215067241574081
-0.1639219655782307   -0.11853695384049462   -0.010215067241574081
-0.1639219655782307   -0.11853695384049462   -0.010215067241574081
-0.1639219655782307   -0.11853695384049462   -0.010215067241574081
-0.10361449014947706   -0.09598894333145028   0.04299186189665574
-0.10361449014947706   -0.09598894333145028   0.04299186189665574
-0.10361449014947706   -0.09598894333145028   0.04299186189665574
-0.10361449014947706   -0.09598894333145028   0.04299186189665574
-0.16265940621857178   -0.1328860779846191   0.010446853700841169
-0.16265940621857178   -0.1328860779846191   0.010446853700841169
-0.16265940621857178   -0.1328860779846191   0.010446853700841169
-0.16265940621857178   -0.1328860779846191   0.010446853700841169
-0.09072187064697099   -0.10520178960915112   -0.01673934101611626
-0.09072187064697099   -0.10520178960915112   -0.01673934101611626
-0.09072187064697099   -0.10520178960915112   -0.01673934101611626
-0.09072187064697099   -0.10520178960915112   -0.01673934101611626
-0.08905847121156099   -0.12164805790709451   0.008648674541531579
-0.08905847121156099   -0.12164805790709451   0.008648674541531579
-0.08905847121156099   -0.12164805790709451   0.008648674541531579
-0.08905847121156099   -0.12164805790709451   0.008648674541531579
-0.17415176478663   -0.13824642653428945   0.020408493170402095
-0.17415176478663   -0.13824642653428945   0.020408493170402095
-0.17415176478663   -0.13824642653428945   0.020408493170402095
-0.17415176478663   -0.13824642653428945   0.020408493170402095
-0.11276845437268673   -0.1069762899376766   0.03635647168836795
-0.11276845437268673   -0.1069762899376766   0.03635647168836795
-0.11276845437268673   -0.1069762899376766   0.03635647168836795
-0.11276845437268673   -0.1069762899376766   0.03635647168836795
-0.17532746372356728   -0.13781239743959867   0.014095969391024935
-0.17532746372356728   -0.13781239743959867   0.014095969391024935
-0.17532746372356728   -0.13781239743959867   0.014095969391024935
-0.17532746372356728   -0.13781239743959867   0.014095969391024935
-0.09545394186791636   -0.12965325659507923   -0.015323480052260544
-0.09545394186791636   -0.12965325659507923   -0.015323480052260544
-0.09545394186791636   -0.12965325659507923   -0.015323480052260544
-0.09545394186791636   -0.12965325659507923   -0.015323480052260544
-0.09017738548774545   -0.12558401359403884   0.012160364696774825
-0.09017738548774545   -0.12558401359403884   0.012160364696774825
-0.09017738548774545   -0.12558401359403884   0.012160364696774825
-0.09017738548774545   -0.12558401359403884   0.012160364696774825
-0.20384423432800852   -0.16995031381391387   0.004609563203317346
-0.20384423432800852   -0.16995031381391387   0.004609563203317346
-0.20384423432800852   -0.16995031381391387   0.004609563203317346
-0.20384423432800852   -0.16995031381391387   0.004609563203317346
-0.12602442337076714   -0.12190828564081528   0.017090773480198218
-0.12602442337076714   -0.12190828564081528   0.017090773480198218
-0.12602442337076714   -0.12190828564081528   0.017090773480198218
-0.12602442337076714   -0.12190828564081528   0.017090773480198218
-0.07441812443749764   -0.05258767728447043   0.02553772067482423
-0.07441812443749764   -0.05258767728447043   0.02553772067482423
-0.07441812443749764   -0.05258767728447043   0.02553772067482423
-0.07441812443749764   -0.05258767728447043   0.02553772067482423
-0.05239522924811447   -0.0005158993209453309   -0.005119018355873077
-0.05239522924811447   -0.0005158993209453309   -0.005119018355873077
-0.05239522924811447   -0.0005158993209453309   -0.005119018355873077
-0.05239522924811447   -0.0005158993209453309   -0.005119018355873077
-0.04970854442152402   -0.056880071388567016   0.01583591823931767
-0.04970854442152402   -0.056880071388567016   0.01583591823931767
-0.04970854442152402   -0.056880071388567016   0.01583591823931767
-0.04970854442152402   -0.056880071388567016   0.01583591823931767
-0.06907080398551031   -0.010539403922293876   -0.0031463933956700964
-0.06907080398551031   -0.010539403922293876   -0.0031463933956700964
-0.06907080398551031   -0.010539403922293876   -0.0031463933956700964
-0.06907080398551031   -0.010539403922293876   -0.0031463933956700964
-0.05676136841321373   -0.028937810899756375   0.012666291048370117
-0.05676136841321373   -0.028937810899756375   0.012666291048370117
-0.05676136841321373   -0.028937810899756375   0.012666291048370117
-0.05676136841321373   -0.028937810899756375   0.012666291048370117
-0.07351392885403697   -0.059990513545877186   0.02408909188527985
-0.07351392885403697   -0.059990513545877186   0.02408909188527985
-0.07351392885403697   -0.059990513545877186   0.02408909188527985
-0.07351392885403697   -0.059990513545877186   0.02408909188527985
-0.04398072636846688   -0.006144268580453256   -0.006260794303510419
-0.04398072636846688   -0.006144268580453256   -0.006260794303510419
-0.04398072636846688   -0.006144268580453256   -0.006260794303510419
-0.04398072636846688   -0.006144268580453256   -0.006260794303510419
-0.04560215118482744   -0.061887608888732674   0.01461109637449489
-0.04560215118482744   -0.061887608888732674   0.01461109637449489
-0.04560215118482744   -0.061887608888732674   0.01461109637449489
-0.04560215118482744   -0.061887608888732674   0.01461109637449489
-0.06964017500930667   -0.020354381989615165   0.004446479635323842
-0.06964017500930667   -0.020354381989615165   0.004446479635323842
-0.06964017500930667   -0.020354381989615165   0.004446479635323842
-0.06964017500930667   -0.020354381989615165   0.004446479635323842
-0.05213963940932022   -0.033183816186548365   0.015053883523945266
-0.05213963940932022   -0.033183816186548365   0.015053883523945266
-0.05213963940932022   -0.033183816186548365   0.015053883523945266
-0.05213963940932022   -0.033183816186548365   0.015053883523945266
-0.07394753654648045   -0.06497320603666318   0.027528495996502964
-0.07394753654648045   -0.06497320603666318   0.027528495996502964
-0.07394753654648045   -0.06497320603666318   0.027528495996502964
-0.07394753654648045   -0.06497320603666318   0.027528495996502964
-0.04170408846867997   -0.01767808366271352   -0.01010811527079462
-0.04170408846867997   -0.01767808366271352   -0.01010811527079462
-0.04170408846867997   -0.01767808366271352   -0.01010811527079462
-0.04170408846867997   -0.01767808366271352   -0.01010811527079462
-0.03821140921708974   -0.0674389551316458   0.01606820119024302
-0.03821140921708974   -0.0674389551316458   0.01606820119024302
-0.03821140921708974   -0.0674389551316458   0.01606820119024302
-0.03821140921708974   -0.0674389551316458   0.01606820119024302
-0.07517260722359193   -0.0442193298100971   0.005819572233600745
-0.07517260722359193   -0.0442193298100971   0.005819572233600745
-0.07517260722359193   -0.0442193298100971   0.005819572233600745
-0.07517260722359193   -0.0442193298100971   0.005819572233600745
-0.05023019263934663   -0.04185448342607283   0.012964901552185382
-0.05023019263934663   -0.04185448342607283   0.012964901552185382
-0.05023019263934663   -0.04185448342607283   0.012964901552185382
-0.05023019263934663   -0.04185448342607283   0.012964901552185382
-0.04797065326566372   -0.00922629042730651   0.025714252662741834
-0.04797065326566372   -0.00922629042730651   0.025714252662741834
-0.04797065326566372   -0.00922629042730651   0.025714252662741834
-0.04797065326566372   -0.00922629042730651   0.025714252662741834
-0.008561480155561374   0.0055150884098169135   -0.0005193772386132403
-0.008561480155561374   0.0055150884098169135   -0.0005193772386132403
-0.008561480155561374   0.0055150884098169135   -0.0005193772386132403
-0.008561480155561374   0.0055150884098169135   -0.0005193772386132403
0.002624554088796663   -0.002954665981553739   0.015922692228335894
0.002624554088796663   -0.002954665981553739   0.015922692228335894
0.002624554088796663   -0.002954665981553739   0.015922692228335894
0.002624554088796663   -0.002954665981553739   0.015922692228335894
-0.04107115600069669   0.004078177330906496   -0.001935388376019205
-0.04107115600069669   0.004078177330906496   -0.001935388376019205
-0.04107115600069669   0.004078177330906496   -0.001935388376019205
-0.04107115600069669   0.004078177330906496   -0.001935388376019205
-0.02413809551027585   -0.0018303818169606925   -0.0019775160700931057
-0.02413809551027585   -0.0018303818169606925   -0.0019775160700931057
-0.02413809551027585   -0.0018303818169606925   -0.0019775160700931057
-0.02413809551027585   -0.0018303818169606925   -0.0019775160700931057
-0.03793164500624207   -0.008901979550665101   0.02674232347782548
-0.03793164500624207   -0.008901979550665101   0.02674232347782548
-0.03793164500624207   -0.008901979550665101   0.02674232347782548
-0.03793164500624207   -0.008901979550665101   0.02674232347782548
0.0009144091274869595   0.011454856933162772   -0.007037555492921468
0.0009144091274869595   0.011454856933162772   -0.007037555492921468
0.0009144091274869595   0.011454856933162772   -0.007037555492921468
0.0009144091274869595   0.011454856933162772   -0.007037555492921468
0.008243565406393677   -0.0036453046918156293   0.019626340527847817
0.008243565406393677   -0.0036453046918156293   0.019626340527847817
0.008243565406393677   -0.0036453046918156293   0.019626340527847817
0.008243565406393677   -0.0036453046918156293   0.019626340527847817
-0.036106116809179925   0.003050565032962028   -0.002846905668969923
-0.036106116809179925   0.003050565032962028   -0.002846905668969923
-0.036106116809179925   0.003050565032962028   -0.002846905668969923
-0.036106116809179925   0.003050565032962028   -0.002846905668969923
-0.015880703792641466   -0.0004573103547237916   0.002521435425545806
-0.015880703792641466   -0.0004573103547237916   0.002521435425545806
-0.015880703792641466   -0.0004573103547237916   0.002521435425545806
-0.015880703792641466   -0.0004573103547237916   0.002521435425545806
-0.03239122404071866   -0.009951588371289982   0.0287297115775884
-0.03239122404071866   -0.009951588371289982   0.0287297115775884
-0.03239122404071866   -0.009951588371289982   0.0287297115775884
-0.03239122404071866   -0.009951588371289982   0.0287297115775884
0.0058092191309408485   0.010637395205444815   -0.00682809074667677
0.0058092191309408485   0.010637395205444815   -0.00682809074667677
0.0058092191309408485   0.010637395205444815   -0.00682809074667677
0.0058092191309408485   0.010637395205444815   -0.00682809074667677
0.01395350752766674   -0.005723011035715853   0.019068194109901675
0.01395350752766674   -0.005723011035715853   0.019068194109901675
0.01395350752766674   -0.005723011035715853   0.019068194109901675
0.01395350752766674   -0.005723011035715853   0.019068194109901675
-0.027975847627364873   0.003028253647675339   -0.0032211996404538285
-0.027975847627364873   0.003028253647675339   -0.0032211996404538285
-0.027975847627364873   0.003028253647675339   -0.0032211996404538285
-0.027975847627364873   0.003028253647675339   -0.0032211996404538285
-0.008516593277065897   0.00037558710956915077   0.00646582070893471
-0.008516593277065897   0.00037558710956915077   0.00646582070893471
-0.008516593277065897   0.00037558710956915077   0.00646582070893471
-0.008516593277065897   0.00037558710956915077   0.00646582070893471
              </DataArray>   
             <DataArray type="Float64" NumberOfComponents="3" Name="Displacements" format="ascii">   
0.0   0.0   0.0
-0.004405735388641336   -0.002892381005672827   -0.0014759884374641132
0.0   0.0   0.0
0.0   0.0   0.0
-0.004405735388641336   -0.002892381005672827   -0.0014759884374641132
-0.0028033668433049518   -0.002599609190832923   -0.0010844378686963383
0.0   0.0   0.0
-0.002747872515055569   -0.0027299541548572765   -0.0009085514639415196
0.0   0.0   0.0
0.0   0.0   0.0
-0.002747872515055569   -0.0027299541548572765   -0.0009085514639415196
0.0   0.0   0.0
0.0   0.0   0.0
-0.002747872515055569   -0.0027299541548572765   -0.0009085514639415196
-0.004610745293984698   -0.0030813290160396096   -0.0011850494901674124
-0.004405735388641336   -0.002892381005672827   -0.0014759884374641132
0.0   0.0   0.0
-0.002747872515055569   -0.0027299541548572765   -0.0009085514639415196
-0.004405735388641336   -0.002892381005672827   -0.0014759884374641132
0.0   0.0   0.0
0.0   0.0   0.0
-0.004610745293984698   -0.0030813290160396096   -0.0011850494901674124
0.0   0.0   0.0
0.0   0.0   0.0
-0.004610745293984698   -0.0030813290160396096   -0.0011850494901674124
-0.002747872515055569   -0.0027299541548572765   -0.0009085514639415196
0.0   0.0   0.0
-0.0027555649031178356   -0.0027967584716911695   -0.0007329249306883622
0.0   0.0   0.0
0.0   0.0   0.0
-0.0027555649031178356   -0.0027967584716911695   -0.0007329249306883622
0.0   0.0   0.0
0.0   0.0   0.0
-0.0027555649031178356   -0.0027967584716911695   -0.0007329249306883622
-0.00475469552889417   -0.0031732128617577883   -0.0009062971012110213
-0.004610745293984698   -0.0030813290160396096   -0.0011850494901674124
0.0   0.0   0.0
-0.0027555649031178356   -0.0027967584716911695   -0.0007329249306883622
-0.004610745293984698   -0.0030813290160396096   -0.0011850494901674124
0.0   0.0   0.0
0.0   0.0   0.0
-0.00475469552889417   -0.0031732128617577883   -0.0009062971012110213
0.0   0.0   0.0
0.0   0.0   0.0
-0.00475469552889417   -0.0031732128617577883   -0.0009062971012110213
-0.0027555649031178356   -0.0027967584716911695   -0.0007329249306883622
0.0   0.0   0.0
-0.0027540521511832724   -0.0028139335206446557   -0.0005513328894102938
0.0   0.0   0.0
0.0   0.0   0.0
-0.0027540521511832724   -0.0028139335206446557   -0.0005513328894102938
0.0   0.0   0.0
0.0   0.0   0.0
-0.0027540521511832724   -0.0028139335206446557   -0.0005513328894102938
-0.005064860656327487   -0.0032428209075415575   -0.0005829127153729244
-0.00475469552889417   -0.0031732128617577883   -0.0009062971012110213
0.0   0.0   0.0
-0.0027540521511832724   -0.0028139335206446557   -0.0005513328894102938
-0.00475469552889417   -0.0031732128617577883   -0.0009062971012110213
0.0   0.0   0.0
0.0   0.0   0.0
-0.0028033668433049518   -0.002599609190832923   -0.0010844378686963383
0.0   0.0   0.0
0.0   0.0   0.0
-0.0028033668433049518   -0.002599609190832923   -0.0010844378686963383
-0.001276734450345769   -0.0024922456582693042   -0.0008248702840579875
0.0   0.0   0.0
-0.0012278894814982378   -0.002577078424575805   -0.0007418291580786199
0.0   0.0   0.0
0.0   0.0   0.0
-0.0012278894814982378   -0.002577078424575805   -0.0007418291580786199
0.0   0.0   0.0
0.0   0.0   0.0
-0.0012278894814982378   -0.002577078424575805   -0.0007418291580786199
-0.002747872515055569   -0.0027299541548572765   -0.0009085514639415196
-0.0028033668433049518   -0.002599609190832923   -0.0010844378686963383
0.0   0.0   0.0
-0.0012278894814982378   -0.002577078424575805   -0.0007418291580786199
-0.0028033668433049518   -0.002599609190832923   -0.0010844378686963383
0.0   0.0   0.0
0.0   0.0   0.0
-0.002747872515055569   -0.0027299541548572765   -0.0009085514639415196
0.0   0.0   0.0
0.0   0.0   0.0
-0.002747872515055569   -0.0027299541548572765   -0.0009085514639415196
-0.0012278894814982378   -0.002577078424575805   -0.0007418291580786199
0.0   0.0   0.0
-0.001200433302569736   -0.002609415903289795   -0.0006609630206726525
0.0   0.0   0.0
0.0   0.0   0.0
-0.001200433302569736   -0.002609415903289795   -0.0006609630206726525
0.0   0.0   0.0
0.0   0.0   0.0
-0.001200433302569736   -0.002609415903289795   -0.0006609630206726525
-0.0027555649031178356   -0.0027967584716911695   -0.0007329249306883622
-0.002747872515055569   -0.0027299541548572765   -0.0009085514639415196
0.0   0.0   0.0
-0.001200433302569736   -0.002609415903289795   -0.0006609630206726525
-0.002747872515055569   -0.0027299541548572765   -0.0009085514639415196
0.0   0.0   0.0
0.0   0.0   0.0
-0.0027555649031178356   -0.0027967584716911695   -0.0007329249306883622
0.0   0.0   0.0
0.0   0.0   0.0
-0.0027555649031178356   -0.0027967584716911695   -0.0007329249306883622
-0.001200433302569736   -0.002609415903289795   -0.0006609630206726525
0.0   0.0   0.0
-0.0011754228686813588   -0.002595930451236969   -0.0005773687986609187
0.0   0.0   0.0
0.0   0.0   0.0
-0.0011754228686813588   -0.002595930451236969   -0.0005773687986609187
0.0   0.0   0.0
0.0   0.0   0.0
-0.0011754228686813588   -0.002595930451236969   -0.0005773687986609187
-0.0027540521511832724   -0.0028139335206446557   -0.0005513328894102938
-0.0027555649031178356   -0.0027967584716911695   -0.0007329249306883622
0.0   0.0   0.0
-0.0011754228686813588   -0.002595930451236969   -0.0005773687986609187
-0.0027555649031178356   -0.0027967584716911695   -0.0007329249306883622
0.0   0.0   0.0
0.0   0.0   0.0
-0.001276734450345769   -0.0024922456582693042   -0.0008248702840579875
0.0   0.0   0.0
0.0   0.0   0.0
-0.001276734450345769   -0.0024922456582693042   -0.0008248702840579875
0.0001655975760225787   -0.0025060107832014697   -0.0006594923615675085
0.0   0.0   0.0
0.00019680170751968897   -0.0025499712257230655   -0.0006709662280898277
0.0   0.0   0.0
0.0   0.0   0.0
0.00019680170751968897   -0.0025499712257230655   -0.0006709662280898277
0.0   0.0   0.0
0.0   0.0   0.0
0.00019680170751968897   -0.0025499712257230655   -0.0006709662280898277
-0.0012278894814982378   -0.002577078424575805   -0.0007418291580786199
-0.001276734450345769   -0.0024922456582693042   -0.0008248702840579875
0.0   0.0   0.0
0.00019680170751968897   -0.0025499712257230655   -0.0006709662280898277
-0.001276734450345769   -0.0024922456582693042   -0.0008248702840579875
0.0   0.0   0.0
0.0   0.0   0.0
-0.0012278894814982378   -0.002577078424575805   -0.0007418291580786199
0.0   0.0   0.0
0.0   0.0   0.0
-0.0012278894814982378   -0.002577078424575805   -0.0007418291580786199
0.00019680170751968897   -0.0025499712257230655   -0.0006709662280898277
0.0   0.0   0.0
0.00022143753304544887   -0.0025463187224734935   -0.0006813360233858883
0.0   0.0   0.0
0.0   0.0   0.0
0.00022143753304544887   -0.0025463187224734935   -0.0006813360233858883
0.0   0.0   0.0
0.0   0.0   0.0
0.00022143753304544887   -0.0025463187224734935   -0.0006813360233858883
-0.001200433302569736   -0.002609415903289795   -0.0006609630206726525
-0.0012278894814982378   -0.002577078424575805   -0.0007418291580786199
0.0   0.0   0.0
0.00022143753304544887   -0.0025463187224734935   -0.0006813360233858883
-0.0012278894814982378   -0.002577078424575805   -0.0007418291580786199
0.0   0.0   0.0
0.0   0.0   0.0
-0.001200433302569736   -0.002609415903289795   -0.0006609630206726525
0.0   0.0   0.0
0.0   0.0   0.0
-0.001200433302569736   -0.002609415903289795   -0.0006609630206726525
0.00022143753304544887   -0.0025463187224734935   -0.0006813360233858883
0.0   0.0   0.0
0.00025456619973860913   -0.0024911497358017383   -0.0006920005248111319
0.0   0.0   0.0
0.0   0.0   0.0
0.00025456619973860913   -0.0024911497358017383   -0.0006920005248111319
0.0   0.0   0.0
0.0   0.0   0.0
0.00025456619973860913   -0.0024911497358017383   -0.0006920005248111319
-0.0011754228686813588   -0.002595930451236969   -0.0005773687986609187
-0.001200433302569736   -0.002609415903289795   -0.0006609630206726525
0.0   0.0   0.0
0.00025456619973860913   -0.0024911497358017383   -0.0006920005248111319
-0.001200433302569736   -0.002609415903289795   -0.0006609630206726525
0.0   0.0   0.0
0.0   0.0   0.0
0.0001655975760225787   -0.0025060107832014697   -0.0006594923615675085
0.0   0.0   0.0
0.0   0.0   0.0
0.0001655975760225787   -0.0025060107832014697   -0.0006594923615675085
0.0017312757451775143   -0.0026278475406236504   -0.0005777428512297279
0.0   0.0   0.0
0.0017343995133993837   -0.0026418103612122013   -0.0006886681745354047
0.0   0.0   0.0
0.0   0.0   0.0
0.0017343995133993837   -0.0026418103612122013   -0.0006886681745354047
0.0   0.0   0.0
0.0   0.0   0.0
0.0017343995133993837   -0.0026418103612122013   -0.0006886681745354047
0.00019680170751968897   -0.0025499712257230655   -0.0006709662280898277
0.0001655975760225787   -0.0025060107832014697   -0.0006594923615675085
0.0   0.0   0.0
0.0017343995133993837   -0.0026418103612122013   -0.0006886681745354047
0.0001655975760225787   -0.0025060107832014697   -0.0006594923615675085
0.0   0.0   0.0
0.0   0.0   0.0
0.00019680170751968897   -0.0025499712257230655   -0.0006709662280898277
0.0   0.0   0.0
0.0   0.0   0.0
0.00019680170751968897   -0.0025499712257230655   -0.0006709662280898277
0.0017343995133993837   -0.0026418103612122013   -0.0006886681745354047
0.0   0.0   0.0
0.0017270103434989439   -0.002604086631024601   -0.0007950931852815862
0.0   0.0   0.0
0.0   0.0   0.0
0.0017270103434989439   -0.002604086631024601   -0.0007950931852815862
0.0   0.0   0.0
0.0   0.0   0.0
0.0017270103434989439   -0.002604086631024601   -0.0007950931852815862
0.00022143753304544887   -0.0025463187224734935   -0.0006813360233858883
0.00019680170751968897   -0.0025499712257230655   -0.0006709662280898277
0.0   0.0   0.0
0.0017270103434989439   -0.002604086631024601   -0.0007950931852815862
0.00019680170751968897   -0.0025499712257230655   -0.0006709662280898277
0.0   0.0   0.0
0.0   0.0   0.0
0.00022143753304544887   -0.0025463187224734935   -0.0006813360233858883
0.0   0.0   0.0
0.0   0.0   0.0
0.00022143753304544887   -0.0025463187224734935   -0.0006813360233858883
0.0017270103434989439   -0.002604086631024601   -0.0007950931852815862
0.0   0.0   0.0
0.00176049482225371   -0.002503134949200039   -0.0008995013175313696
0.0   0.0   0.0
0.0   0.0   0.0
0.00176049482225371   -0.002503134949200039   -0.0008995013175313696
0.0   0.0   0.0
0.0   0.0   0.0
0.00176049482225371   -0.002503134949200039   -0.0008995013175313696
0.00025456619973860913   -0.0024911497358017383   -0.0006920005248111319
0.00022143753304544887   -0.0025463187224734935   -0.0006813360233858883
0.0   0.0   0.0
0.00176049482225371   -0.002503134949200039   -0.0008995013175313696
0.00022143753304544887   -0.0025463187224734935   -0.0006813360233858883
0.0   0.0   0.0
0.0   0.0   0.0
0.0017312757451775143   -0.0026278475406236504   -0.0005777428512297279
0.0   0.0   0.0
0.0   0.0   0.0
0.0017312757451775143   -0.0026278475406236504   -0.0005777428512297279
0.003908841569843484   -0.002936721430679001   -0.0005452314576935577
0.0   0.0   0.0
0.0036710918380029093   -0.0029045985456673967   -0.0007967532701710069
0.0   0.0   0.0
0.0   0.0   0.0
0.0036710918380029093   -0.0029045985456673967   -0.0007967532701710069
0.0   0.0   0.0
0.0   0.0   0.0
0.0036710918380029093   -0.0029045985456673967   -0.0007967532701710069
0.0017343995133993837   -0.0026418103612122013   -0.0006886681745354047
0.0017312757451775143   -0.0026278475406236504   -0.0005777428512297279
0.0   0.0   0.0
0.0036710918380029093   -0.0029045985456673967   -0.0007967532701710069
0.0017312757451775143   -0.0026278475406236504   -0.0005777428512297279
0.0   0.0   0.0
0.0   0.0   0.0
0.0017343995133993837   -0.0026418103612122013   -0.0006886681745354047
0.0   0.0   0.0
0.0   0.0   0.0
0.0017343995133993837   -0.0026418103612122013   -0.0006886681745354047
0.0036710918380029093   -0.0029045985456673967   -0.0007967532701710069
0.0   0.0   0.0
0.003561473551520498   -0.0028442107799779687   -0.0010094569616135073
0.0   0.0   0.0
0.0   0.0   0.0
0.003561473551520498   -0.0028442107799779687   -0.0010094569616135073
0.0   0.0   0.0
0.0   0.0   0.0
0.003561473551520498   -0.0028442107799779687   -0.0010094569616135073
0.0017270103434989439   -0.002604086631024601   -0.0007950931852815862
0.0017343995133993837   -0.0026418103612122013   -0.0006886681745354047
0.0   0.0   0.0
0.003561473551520498   -0.0028442107799779687   -0.0010094569616135073
0.0017343995133993837   -0.0026418103612122013   -0.0006886681745354047
0.0   0.0   0.0
0.0   0.0   0.0
0.0017270103434989439   -0.002604086631024601   -0.0007950931852815862
0.0   0.0   0.0
0.0   0.0   0.0
0.0017270103434989439   -0.002604086631024601   -0.0007950931852815862
0.003561473551520498   -0.0028442107799779687   -0.0010094569616135073
0.0   0.0   0.0
0.0033982554894506347   -0.0026897483624780385   -0.0012345653532350555
0.0   0.0   0.0
0.0   0.0   0.0
0.0033982554894506347   -0.0026897483624780385   -0.0012345653532350555
0.0   0.0   0.0
0.0   0.0   0.0
0.0033982554894506347   -0.0026897483624780385   -0.0012345653532350555
0.00176049482225371   -0.002503134949200039   -0.0008995013175313696
0.0017270103434989439   -0.002604086631024601   -0.0007950931852815862
0.0   0.0   0.0
0.0033982554894506347   -0.0026897483624780385   -0.0012345653532350555
0.0017270103434989439   -0.002604086631024601   -0.0007950931852815862
0.0   0.0   0.0
-0.004405735388641336   -0.002892381005672827   -0.0014759884374641132
-0.008227678802220445   -0.008071275122061133   -0.001988607738029498
-0.0028033668433049518   -0.002599609190832923   -0.0010844378686963383
-0.004610745293984698   -0.0030813290160396096   -0.0011850494901674124
-0.008227678802220445   -0.008071275122061133   -0.001988607738029498
-0.005251349594142717   -0.007808014360534892   -0.001636990682055403
-0.0028033668433049518   -0.002599609190832923   -0.0010844378686963383
-0.005257425653543185   -0.007941350457979439   -0.001474348281709271
-0.004610745293984698   -0.0030813290160396096   -0.0011850494901674124
-0.002747872515055569   -0.0027299541548572765   -0.0009085514639415196
-0.005257425653543185   -0.007941350457979439   -0.001474348281709271
-0.0028033668433049518   -0.002599609190832923   -0.0010844378686963383
-0.004610745293984698   -0.0030813290160396096   -0.0011850494901674124
-0.005257425653543185   -0.007941350457979439   -0.001474348281709271
-0.008474015793542058   -0.008257344971834188   -0.0017245219196038097
-0.008227678802220445   -0.008071275122061133   -0.001988607738029498
-0.004610745293984698   -0.0030813290160396096   -0.0011850494901674124
-0.005257425653543185   -0.007941350457979439   -0.001474348281709271
-0.008227678802220445   -0.008071275122061133   -0.001988607738029498
-0.0028033668433049518   -0.002599609190832923   -0.0010844378686963383
-0.004610745293984698   -0.0030813290160396096   -0.0011850494901674124
-0.008474015793542058   -0.008257344971834188   -0.0017245219196038097
-0.002747872515055569   -0.0027299541548572765   -0.0009085514639415196
-0.00475469552889417   -0.0031732128617577883   -0.0009062971012110213
-0.008474015793542058   -0.008257344971834188   -0.0017245219196038097
-0.005257425653543185   -0.007941350457979439   -0.001474348281709271
-0.002747872515055569   -0.0027299541548572765   -0.0009085514639415196
-0.005277993929079357   -0.0080226453386445   -0.0013180640609983035
-0.00475469552889417   -0.0031732128617577883   -0.0009062971012110213
-0.0027555649031178356   -0.0027967584716911695   -0.0007329249306883622
-0.005277993929079357   -0.0080226453386445   -0.0013180640609983035
-0.002747872515055569   -0.0027299541548572765   -0.0009085514639415196
-0.00475469552889417   -0.0031732128617577883   -0.0009062971012110213
-0.005277993929079357   -0.0080226453386445   -0.0013180640609983035
-0.00864511480327635   -0.008362440883530392   -0.0014659484860301331
-0.008474015793542058   -0.008257344971834188   -0.0017245219196038097
-0.00475469552889417   -0.0031732128617577883   -0.0009062971012110213
-0.005277993929079357   -0.0080226453386445   -0.0013180640609983035
-0.008474015793542058   -0.008257344971834188   -0.0017245219196038097
-0.002747872515055569   -0.0027299541548572765   -0.0009085514639415196
-0.00475469552889417   -0.0031732128617577883   -0.0009062971012110213
-0.00864511480327635   -0.008362440883530392   -0.0014659484860301331
-0.0027555649031178356   -0.0027967584716911695   -0.0007329249306883622
-0.005064860656327487   -0.0032428209075415575   -0.0005829127153729244
-0.00864511480327635   -0.008362440883530392   -0.0014659484860301331
-0.005277993929079357   -0.0080226453386445   -0.0013180640609983035
-0.0027555649031178356   -0.0027967584716911695   -0.0007329249306883622
-0.00526212662008406   -0.008064852130673239   -0.0011717851589342246
-0.005064860656327487   -0.0032428209075415575   -0.0005829127153729244
-0.0027540521511832724   -0.0028139335206446557   -0.0005513328894102938
-0.00526212662008406   -0.008064852130673239   -0.0011717851589342246
-0.0027555649031178356   -0.0027967584716911695   -0.0007329249306883622
-0.005064860656327487   -0.0032428209075415575   -0.0005829127153729244
-0.00526212662008406   -0.008064852130673239   -0.0011717851589342246
-0.008847341154504258   -0.008423585243135344   -0.0012307135372034803
-0.00864511480327635   -0.008362440883530392   -0.0014659484860301331
-0.005064860656327487   -0.0032428209075415575   -0.0005829127153729244
-0.00526212662008406   -0.008064852130673239   -0.0011717851589342246
-0.00864511480327635   -0.008362440883530392   -0.0014659484860301331
-0.0027555649031178356   -0.0027967584716911695   -0.0007329249306883622
-0.0028033668433049518   -0.002599609190832923   -0.0010844378686963383
-0.005251349594142717   -0.007808014360534892   -0.001636990682055403
-0.001276734450345769   -0.0024922456582693042   -0.0008248702840579875
-0.002747872515055569   -0.0027299541548572765   -0.0009085514639415196
-0.005251349594142717   -0.007808014360534892   -0.001636990682055403
-0.0024368330823748424   -0.007685514323015756   -0.0013969790743282465
-0.001276734450345769   -0.0024922456582693042   -0.0008248702840579875
-0.002415681761546797   -0.007770358822222365   -0.0013136213231766277
-0.002747872515055569   -0.0027299541548572765   -0.0009085514639415196
-0.0012278894814982378   -0.002577078424575805   -0.0007418291580786199
-0.002415681761546797   -0.007770358822222365   -0.0013136213231766277
-0.001276734450345769   -0.0024922456582693042   -0.0008248702840579875
-0.002747872515055569   -0.0027299541548572765   -0.0009085514639415196
-0.002415681761546797   -0.007770358822222365   -0.0013136213231766277
-0.005257425653543185   -0.007941350457979439   -0.001474348281709271
-0.005251349594142717   -0.007808014360534892   -0.001636990682055403
-0.002747872515055569   -0.0027299541548572765   -0.0009085514639415196
-0.002415681761546797   -0.007770358822222365   -0.0013136213231766277
-0.005251349594142717   -0.007808014360534892   -0.001636990682055403
-0.001276734450345769   -0.0024922456582693042   -0.0008248702840579875
-0.002747872515055569   -0.0027299541548572765   -0.0009085514639415196
-0.005257425653543185   -0.007941350457979439   -0.001474348281709271
-0.0012278894814982378   -0.002577078424575805   -0.0007418291580786199
-0.0027555649031178356   -0.0027967584716911695   -0.0007329249306883622
-0.005257425653543185   -0.007941350457979439   -0.001474348281709271
-0.002415681761546797   -0.007770358822222365   -0.0013136213231766277
-0.0012278894814982378   -0.002577078424575805   -0.0007418291580786199
-0.0023969238649022492   -0.007811513228199773   -0.0012380616754654491
-0.0027555649031178356   -0.0027967584716911695   -0.0007329249306883622
-0.001200433302569736   -0.002609415903289795   -0.0006609630206726525
-0.0023969238649022492   -0.007811513228199773   -0.0012380616754654491
-0.0012278894814982378   -0.002577078424575805   -0.0007418291580786199
-0.0027555649031178356   -0.0027967584716911695   -0.0007329249306883622
-0.0023969238649022492   -0.007811513228199773   -0.0012380616754654491
-0.005277993929079357   -0.0080226453386445   -0.0013180640609983035
-0.005257425653543185   -0.007941350457979439   -0.001474348281709271
-0.0027555649031178356   -0.0027967584716911695   -0.0007329249306883622
-0.0023969238649022492   -0.007811513228199773   -0.0012380616754654491
-0.005257425653543185   -0.007941350457979439   -0.001474348281709271
-0.0012278894814982378   -0.002577078424575805   -0.0007418291580786199
-0.0027555649031178356   -0.0027967584716911695   -0.0007329249306883622
-0.005277993929079357   -0.0080226453386445   -0.0013180640609983035
-0.001200433302569736   -0.002609415903289795   -0.0006609630206726525
-0.0027540521511832724   -0.0028139335206446557   -0.0005513328894102938
-0.005277993929079357   -0.0080226453386445   -0.0013180640609983035
-0.0023969238649022492   -0.007811513228199773   -0.0012380616754654491
-0.001200433302569736   -0.002609415903289795   -0.0006609630206726525
-0.0023689911624687897   -0.007810528507064363   -0.0011722849617189144
-0.0027540521511832724   -0.0028139335206446557   -0.0005513328894102938
-0.0011754228686813588   -0.002595930451236969   -0.0005773687986609187
-0.0023689911624687897   -0.007810528507064363   -0.0011722849617189144
-0.001200433302569736   -0.002609415903289795   -0.0006609630206726525
-0.0027540521511832724   -0.0028139335206446557   -0.0005513328894102938
-0.0023689911624687897   -0.007810528507064363   -0.0011722849617189144
-0.00526212662008406   -0.008064852130673239   -0.0011717851589342246
-0.005277993929079357   -0.0080226453386445   -0.0013180640609983035
-0.0027540521511832724   -0.0028139335206446557   -0.0005513328894102938
-0.0023689911624687897   -0.007810528507064363   -0.0011722849617189144
-0.005277993929079357   -0.0080226453386445   -0.0013180640609983035
-0.001200433302569736   -0.002609415903289795   -0.0006609630206726525
-0.001276734450345769   -0.0024922456582693042   -0.0008248702840579875
-0.0024368330823748424   -0.007685514323015756   -0.0013969790743282465
0.0001655975760225787   -0.0025060107832014697   -0.0006594923615675085
-0.0012278894814982378   -0.002577078424575805   -0.0007418291580786199
-0.0024368330823748424   -0.007685514323015756   -0.0013969790743282465
0.00027713331407052636   -0.007689169292154716   -0.0012452808537484843
0.0001655975760225787   -0.0025060107832014697   -0.0006594923615675085
0.0003031090060294641   -0.007729334625277143   -0.0012397376804324203
-0.0012278894814982378   -0.002577078424575805   -0.0007418291580786199
0.00019680170751968897   -0.0025499712257230655   -0.0006709662280898277
0.0003031090060294641   -0.007729334625277143   -0.0012397376804324203
0.0001655975760225787   -0.0025060107832014697   -0.0006594923615675085
-0.0012278894814982378   -0.002577078424575805   -0.0007418291580786199
0.0003031090060294641   -0.007729334625277143   -0.0012397376804324203
-0.002415681761546797   -0.007770358822222365   -0.0013136213231766277
-0.0024368330823748424   -0.007685514323015756   -0.0013969790743282465
-0.0012278894814982378   -0.002577078424575805   -0.0007418291580786199
0.0003031090060294641   -0.007729334625277143   -0.0012397376804324203
-0.0024368330823748424   -0.007685514323015756   -0.0013969790743282465
0.0001655975760225787   -0.0025060107832014697   -0.0006594923615675085
-0.0012278894814982378   -0.002577078424575805   -0.0007418291580786199
-0.002415681761546797   -0.007770358822222365   -0.0013136213231766277
0.00019680170751968897   -0.0025499712257230655   -0.0006709662280898277
-0.001200433302569736   -0.002609415903289795   -0.0006609630206726525
-0.002415681761546797   -0.007770358822222365   -0.0013136213231766277
0.0003031090060294641   -0.007729334625277143   -0.0012397376804324203
0.00019680170751968897   -0.0025499712257230655   -0.0006709662280898277
0.00032062746157316096   -0.007726833590227385   -0.0012430447422443456
-0.001200433302569736   -0.002609415903289795   -0.0006609630206726525
0.00022143753304544887   -0.0025463187224734935   -0.0006813360233858883
0.00032062746157316096   -0.007726833590227385   -0.0012430447422443456
0.00019680170751968897   -0.0025499712257230655   -0.0006709662280898277
-0.001200433302569736   -0.002609415903289795   -0.0006609630206726525
0.00032062746157316096   -0.007726833590227385   -0.0012430447422443456
-0.0023969238649022492   -0.007811513228199773   -0.0012380616754654491
-0.002415681761546797   -0.007770358822222365   -0.0013136213231766277
-0.001200433302569736   -0.002609415903289795   -0.0006609630206726525
0.00032062746157316096   -0.007726833590227385   -0.0012430447422443456
-0.002415681761546797   -0.007770358822222365   -0.0013136213231766277
0.00019680170751968897   -0.0025499712257230655   -0.0006709662280898277
-0.001200433302569736   -0.002609415903289795   -0.0006609630206726525
-0.0023969238649022492   -0.007811513228199773   -0.0012380616754654491
0.00022143753304544887   -0.0025463187224734935   -0.0006813360233858883
-0.0011754228686813588   -0.002595930451236969   -0.0005773687986609187
-0.0023969238649022492   -0.007811513228199773   -0.0012380616754654491
0.00032062746157316096   -0.007726833590227385   -0.0012430447422443456
0.00022143753304544887   -0.0025463187224734935   -0.0006813360233858883
0.00033941262129425073   -0.0076803648339172645   -0.0012553418195785392
-0.0011754228686813588   -0.002595930451236969   -0.0005773687986609187
0.00025456619973860913   -0.0024911497358017383   -0.0006920005248111319
0.00033941262129425073   -0.0076803648339172645   -0.0012553418195785392
0.00022143753304544887   -0.0025463187224734935   -0.0006813360233858883
-0.0011754228686813588   -0.002595930451236969   -0.0005773687986609187
0.00033941262129425073   -0.0076803648339172645   -0.0012553418195785392
-0.0023689911624687897   -0.007810528507064363   -0.0011722849617189144
-0.0023969238649022492   -0.007811513228199773   -0.0012380616754654491
-0.0011754228686813588   -0.002595930451236969   -0.0005773687986609187
0.00033941262129425073   -0.0076803648339172645   -0.0012553418195785392
-0.0023969238649022492   -0.007811513228199773   -0.0012380616754654491
0.00022143753304544887   -0.0025463187224734935   -0.0006813360233858883
0.0001655975760225787   -0.0025060107832014697   -0.0006594923615675085
0.00027713331407052636   -0.007689169292154716   -0.0012452808537484843
0.0017312757451775143   -0.0026278475406236504   -0.0005777428512297279
0.00019680170751968897   -0.0025499712257230655   -0.0006709662280898277
0.00027713331407052636   -0.007689169292154716   -0.0012452808537484843
0.003153249055952743   -0.007814428103407869   -0.0011745900376761897
0.0017312757451775143   -0.0026278475406236504   -0.0005777428512297279
0.0031680330760532407   -0.007813992943277094   -0.0012493839472157101
0.00019680170751968897   -0.0025499712257230655   -0.0006709662280898277
0.0017343995133993837   -0.0026418103612122013   -0.0006886681745354047
0.0031680330760532407   -0.007813992943277094   -0.0012493839472157101
0.0017312757451775143   -0.0026278475406236504   -0.0005777428512297279
0.00019680170751968897   -0.0025499712257230655   -0.0006709662280898277
0.0031680330760532407   -0.007813992943277094   -0.0012493839472157101
0.0003031090060294641   -0.007729334625277143   -0.0012397376804324203
0.00027713331407052636   -0.007689169292154716   -0.0012452808537484843
0.00019680170751968897   -0.0025499712257230655   -0.0006709662280898277
0.0031680330760532407   -0.007813992943277094   -0.0012493839472157101
0.00027713331407052636   -0.007689169292154716   -0.0012452808537484843
0.0017312757451775143   -0.0026278475406236504   -0.0005777428512297279
0.00019680170751968897   -0.0025499712257230655   -0.0006709662280898277
0.0003031090060294641   -0.007729334625277143   -0.0012397376804324203
0.0017343995133993837   -0.0026418103612122013   -0.0006886681745354047
0.00022143753304544887   -0.0025463187224734935   -0.0006813360233858883
0.0003031090060294641   -0.007729334625277143   -0.0012397376804324203
0.0031680330760532407   -0.007813992943277094   -0.0012493839472157101
0.0017343995133993837   -0.0026418103612122013   -0.0006886681745354047
0.0031535615400469057   -0.0077717248783252795   -0.0013341908097915876
0.00022143753304544887   -0.0025463187224734935   -0.0006813360233858883
0.0017270103434989439   -0.002604086631024601   -0.0007950931852815862
0.0031535615400469057   -0.0077717248783252795   -0.0013341908097915876
0.0017343995133993837   -0.0026418103612122013   -0.0006886681745354047
0.00022143753304544887   -0.0025463187224734935   -0.0006813360233858883
0.0031535615400469057   -0.0077717248783252795   -0.0013341908097915876
0.00032062746157316096   -0.007726833590227385   -0.0012430447422443456
0.0003031090060294641   -0.007729334625277143   -0.0012397376804324203
0.00022143753304544887   -0.0025463187224734935   -0.0006813360233858883
0.0031535615400469057   -0.0077717248783252795   -0.0013341908097915876
0.0003031090060294641   -0.007729334625277143   -0.0012397376804324203
0.0017343995133993837   -0.0026418103612122013   -0.0006886681745354047
0.00022143753304544887   -0.0025463187224734935   -0.0006813360233858883
0.00032062746157316096   -0.007726833590227385   -0.0012430447422443456
0.0017270103434989439   -0.002604086631024601   -0.0007950931852815862
0.00025456619973860913   -0.0024911497358017383   -0.0006920005248111319
0.00032062746157316096   -0.007726833590227385   -0.0012430447422443456
0.0031535615400469057   -0.0077717248783252795   -0.0013341908097915876
0.0017270103434989439   -0.002604086631024601   -0.0007950931852815862
0.0031453293497048966   -0.007676073146513087   -0.001425872335585138
0.00025456619973860913   -0.0024911497358017383   -0.0006920005248111319
0.00176049482225371   -0.002503134949200039   -0.0008995013175313696
0.0031453293497048966   -0.007676073146513087   -0.001425872335585138
0.0017270103434989439   -0.002604086631024601   -0.0007950931852815862
0.00025456619973860913   -0.0024911497358017383   -0.0006920005248111319
0.0031453293497048966   -0.007676073146513087   -0.001425872335585138
0.00033941262129425073   -0.0076803648339172645   -0.0012553418195785392
0.00032062746157316096   -0.007726833590227385   -0.0012430447422443456
0.00025456619973860913   -0.0024911497358017383   -0.0006920005248111319
0.0031453293497048966   -0.007676073146513087   -0.001425872335585138
0.00032062746157316096   -0.007726833590227385   -0.0012430447422443456
0.0017270103434989439   -0.002604086631024601   -0.0007950931852815862
0.0017312757451775143   -0.0026278475406236504   -0.0005777428512297279
0.003153249055952743   -0.007814428103407869   -0.0011745900376761897
0.003908841569843484   -0.002936721430679001   -0.0005452314576935577
0.0017343995133993837   -0.0026418103612122013   -0.0006886681745354047
0.003153249055952743   -0.007814428103407869   -0.0011745900376761897
0.00662411912927344   -0.008047223290468045   -0.001155736675184191
0.003908841569843484   -0.002936721430679001   -0.0005452314576935577
0.006489614831581406   -0.0080251662743097   -0.0013240273124250478
0.0017343995133993837   -0.0026418103612122013   -0.0006886681745354047
0.0036710918380029093   -0.0029045985456673967   -0.0007967532701710069
0.006489614831581406   -0.0080251662743097   -0.0013240273124250478
0.003908841569843484   -0.002936721430679001   -0.0005452314576935577
0.0017343995133993837   -0.0026418103612122013   -0.0006886681745354047
0.006489614831581406   -0.0080251662743097   -0.0013240273124250478
0.0031680330760532407   -0.007813992943277094   -0.0012493839472157101
0.003153249055952743   -0.007814428103407869   -0.0011745900376761897
0.0017343995133993837   -0.0026418103612122013   -0.0006886681745354047
0.006489614831581406   -0.0080251662743097   -0.0013240273124250478
0.003153249055952743   -0.007814428103407869   -0.0011745900376761897
0.003908841569843484   -0.002936721430679001   -0.0005452314576935577
0.0017343995133993837   -0.0026418103612122013   -0.0006886681745354047
0.0031680330760532407   -0.007813992943277094   -0.0012493839472157101
0.0036710918380029093   -0.0029045985456673967   -0.0007967532701710069
0.0017270103434989439   -0.002604086631024601   -0.0007950931852815862
0.0031680330760532407   -0.007813992943277094   -0.0012493839472157101
0.006489614831581406   -0.0080251662743097   -0.0013240273124250478
0.0036710918380029093   -0.0029045985456673967   -0.0007967532701710069
0.006369388415567238   -0.00796001379746134   -0.0015133837620838711
0.0017270103434989439   -0.002604086631024601   -0.0007950931852815862
0.003561473551520498   -0.0028442107799779687   -0.0010094569616135073
0.006369388415567238   -0.00796001379746134   -0.0015133837620838711
0.0036710918380029093   -0.0029045985456673967   -0.0007967532701710069
0.0017270103434989439   -0.002604086631024601   -0.0007950931852815862
0.006369388415567238   -0.00796001379746134   -0.0015133837620838711
0.0031535615400469057   -0.0077717248783252795   -0.0013341908097915876
0.0031680330760532407   -0.007813992943277094   -0.0012493839472157101
0.0017270103434989439   -0.002604086631024601   -0.0007950931852815862
0.006369388415567238   -0.00796001379746134   -0.0015133837620838711
0.0031680330760532407   -0.007813992943277094   -0.0012493839472157101
0.0036710918380029093   -0.0029045985456673967   -0.0007967532701710069
0.0017270103434989439   -0.002604086631024601   -0.0007950931852815862
0.0031535615400469057   -0.0077717248783252795   -0.0013341908097915876
0.003561473551520498   -0.0028442107799779687   -0.0010094569616135073
0.00176049482225371   -0.002503134949200039   -0.0008995013175313696
0.0031535615400469057   -0.0077717248783252795   -0.0013341908097915876
0.006369388415567238   -0.00796001379746134   -0.0015133837620838711
0.003561473551520498   -0.0028442107799779687   -0.0010094569616135073
0.0061891223698746145   -0.007815117335514467   -0.0017105169883004719
0.00176049482225371   -0.002503134949200039   -0.0008995013175313696
0.0033982554894506347   -0.0026897483624780385   -0.0012345653532350555
0.0061891223698746145   -0.007815117335514467   -0.0017105169883004719
0.003561473551520498   -0.0028442107799779687   -0.0010094569616135073
0.00176049482225371   -0.002503134949200039   -0.0008995013175313696
0.0061891223698746145   -0.007815117335514467   -0.0017105169883004719
0.0031453293497048966   -0.007676073146513087   -0.001425872335585138
0.0031535615400469057   -0.0077717248783252795   -0.0013341908097915876
0.00176049482225371   -0.002503134949200039   -0.0008995013175313696
0.0061891223698746145   -0.007815117335514467   -0.0017105169883004719
0.0031535615400469057   -0.0077717248783252795   -0.0013341908097915876
0.003561473551520498   -0.0028442107799779687   -0.0010094569616135073
-0.008227678802220445   -0.008071275122061133   -0.001988607738029498
-0.011271661545114163   -0.015133295933138044   -0.0022652190213201116
-0.005251349594142717   -0.007808014360534892   -0.001636990682055403
-0.008474015793542058   -0.008257344971834188   -0.0017245219196038097
-0.011271661545114163   -0.015133295933138044   -0.0022652190213201116
-0.007247089176389568   -0.014932166642479854   -0.001980142397872983
-0.005251349594142717   -0.007808014360534892   -0.001636990682055403
-0.007262808952711596   -0.015047216041730024   -0.0018539909316317173
-0.008474015793542058   -0.008257344971834188   -0.0017245219196038097
-0.005257425653543185   -0.007941350457979439   -0.001474348281709271
-0.007262808952711596   -0.015047216041730024   -0.0018539909316317173
-0.005251349594142717   -0.007808014360534892   -0.001636990682055403
-0.008474015793542058   -0.008257344971834188   -0.0017245219196038097
-0.007262808952711596   -0.015047216041730024   -0.0018539909316317173
-0.011471861141002135   -0.015290540277550195   -0.002068348073558724
-0.011271661545114163   -0.015133295933138044   -0.0022652190213201116
-0.008474015793542058   -0.008257344971834188   -0.0017245219196038097
-0.007262808952711596   -0.015047216041730024   -0.0018539909316317173
-0.011271661545114163   -0.015133295933138044   -0.0022652190213201116
-0.005251349594142717   -0.007808014360534892   -0.001636990682055403
-0.008474015793542058   -0.008257344971834188   -0.0017245219196038097
-0.011471861141002135   -0.015290540277550195   -0.002068348073558724
-0.005257425653543185   -0.007941350457979439   -0.001474348281709271
-0.00864511480327635   -0.008362440883530392   -0.0014659484860301331
-0.011471861141002135   -0.015290540277550195   -0.002068348073558724
-0.007262808952711596   -0.015047216041730024   -0.0018539909316317173
-0.005257425653543185   -0.007941350457979439   -0.001474348281709271
-0.007281340955291475   -0.015127299238571725   -0.0017369754968210652
-0.00864511480327635   -0.008362440883530392   -0.0014659484860301331
-0.005277993929079357   -0.0080226453386445   -0.0013180640609983035
-0.007281340955291475   -0.015127299238571725   -0.0017369754968210652
-0.005257425653543185   -0.007941350457979439   -0.001474348281709271
-0.00864511480327635   -0.008362440883530392   -0.0014659484860301331
-0.007281340955291475   -0.015127299238571725   -0.0017369754968210652
-0.0115979914240868   -0.015389164965133146   -0.0018848686242313865
-0.011471861141002135   -0.015290540277550195   -0.002068348073558724
-0.00864511480327635   -0.008362440883530392   -0.0014659484860301331
-0.007281340955291475   -0.015127299238571725   -0.0017369754968210652
-0.011471861141002135   -0.015290540277550195   -0.002068348073558724
-0.005257425653543185   -0.007941350457979439   -0.001474348281709271
-0.00864511480327635   -0.008362440883530392   -0.0014659484860301331
-0.0115979914240868   -0.015389164965133146   -0.0018848686242313865
-0.005277993929079357   -0.0080226453386445   -0.0013180640609983035
-0.008847341154504258   -0.008423585243135344   -0.0012307135372034803
-0.0115979914240868   -0.015389164965133146   -0.0018848686242313865
-0.007281340955291475   -0.015127299238571725   -0.0017369754968210652
-0.005277993929079357   -0.0080226453386445   -0.0013180640609983035
-0.007267511915053209   -0.015180015624994601   -0.0016271492635222039
-0.008847341154504258   -0.008423585243135344   -0.0012307135372034803
-0.00526212662008406   -0.008064852130673239   -0.0011717851589342246
-0.007267511915053209   -0.015180015624994601   -0.0016271492635222039
-0.005277993929079357   -0.0080226453386445   -0.0013180640609983035
-0.008847341154504258   -0.008423585243135344   -0.0012307135372034803
-0.007267511915053209   -0.015180015624994601   -0.0016271492635222039
-0.01174150198563152   -0.015460141058667679   -0.0017160331738094953
-0.0115979914240868   -0.015389164965133146   -0.0018848686242313865
-0.008847341154504258   -0.008423585243135344   -0.0012307135372034803
-0.007267511915053209   -0.015180015624994601   -0.0016271492635222039
-0.0115979914240868   -0.015389164965133146   -0.0018848686242313865
-0.005277993929079357   -0.0080226453386445   -0.0013180640609983035
-0.005251349594142717   -0.007808014360534892   -0.001636990682055403
-0.007247089176389568   -0.014932166642479854   -0.001980142397872983
-0.0024368330823748424   -0.007685514323015756   -0.0013969790743282465
-0.005257425653543185   -0.007941350457979439   -0.001474348281709271
-0.007247089176389568   -0.014932166642479854   -0.001980142397872983
-0.0034527350709477943   -0.014831866542154088   -0.0017820935155372906
-0.0024368330823748424   -0.007685514323015756   -0.0013969790743282465
-0.0034439214963981383   -0.014905415235221483   -0.0017107796148159173
-0.005257425653543185   -0.007941350457979439   -0.001474348281709271
-0.002415681761546797   -0.007770358822222365   -0.0013136213231766277
-0.0034439214963981383   -0.014905415235221483   -0.0017107796148159173
-0.0024368330823748424   -0.007685514323015756   -0.0013969790743282465
-0.005257425653543185   -0.007941350457979439   -0.001474348281709271
-0.0034439214963981383   -0.014905415235221483   -0.0017107796148159173
-0.007262808952711596   -0.015047216041730024   -0.0018539909316317173
-0.007247089176389568   -0.014932166642479854   -0.001980142397872983
-0.005257425653543185   -0.007941350457979439   -0.001474348281709271
-0.0034439214963981383   -0.014905415235221483   -0.0017107796148159173
-0.007247089176389568   -0.014932166642479854   -0.001980142397872983
-0.0024368330823748424   -0.007685514323015756   -0.0013969790743282465
-0.005257425653543185   -0.007941350457979439   -0.001474348281709271
-0.007262808952711596   -0.015047216041730024   -0.0018539909316317173
-0.002415681761546797   -0.007770358822222365   -0.0013136213231766277
-0.005277993929079357   -0.0080226453386445   -0.0013180640609983035
-0.007262808952711596   -0.015047216041730024   -0.0018539909316317173
-0.0034439214963981383   -0.014905415235221483   -0.0017107796148159173
-0.002415681761546797   -0.007770358822222365   -0.0013136213231766277
-0.0034331639899157426   -0.01494862488358203   -0.0016481641661953703
-0.005277993929079357   -0.0080226453386445   -0.0013180640609983035
-0.0023969238649022492   -0.007811513228199773   -0.0012380616754654491
-0.0034331639899157426   -0.01494862488358203   -0.0016481641661953703
-0.002415681761546797   -0.007770358822222365   -0.0013136213231766277
-0.005277993929079357   -0.0080226453386445   -0.0013180640609983035
-0.0034331639899157426   -0.01494862488358203   -0.0016481641661953703
-0.007281340955291475   -0.015127299238571725   -0.0017369754968210652
-0.007262808952711596   -0.015047216041730024   -0.0018539909316317173
-0.005277993929079357   -0.0080226453386445   -0.0013180640609983035
-0.0034331639899157426   -0.01494862488358203   -0.0016481641661953703
-0.007262808952711596   -0.015047216041730024   -0.0018539909316317173
-0.002415681761546797   -0.007770358822222365   -0.0013136213231766277
-0.005277993929079357   -0.0080226453386445   -0.0013180640609983035
-0.007281340955291475   -0.015127299238571725   -0.0017369754968210652
-0.0023969238649022492   -0.007811513228199773   -0.0012380616754654491
-0.00526212662008406   -0.008064852130673239   -0.0011717851589342246
-0.007281340955291475   -0.015127299238571725   -0.0017369754968210652
-0.0034331639899157426   -0.01494862488358203   -0.0016481641661953703
-0.0023969238649022492   -0.007811513228199773   -0.0012380616754654491
-0.003415584121251037   -0.014962113171165026   -0.0015942217988604644
-0.00526212662008406   -0.008064852130673239   -0.0011717851589342246
-0.0023689911624687897   -0.007810528507064363   -0.0011722849617189144
-0.003415584121251037   -0.014962113171165026   -0.0015942217988604644
-0.0023969238649022492   -0.007811513228199773   -0.0012380616754654491
-0.00526212662008406   -0.008064852130673239   -0.0011717851589342246
-0.003415584121251037   -0.014962113171165026   -0.0015942217988604644
-0.007267511915053209   -0.015180015624994601   -0.0016271492635222039
-0.007281340955291475   -0.015127299238571725   -0.0017369754968210652
-0.00526212662008406   -0.008064852130673239   -0.0011717851589342246
-0.003415584121251037   -0.014962113171165026   -0.0015942217988604644
-0.007281340955291475   -0.015127299238571725   -0.0017369754968210652
-0.0023969238649022492   -0.007811513228199773   -0.0012380616754654491
-0.0024368330823748424   -0.007685514323015756   -0.0013969790743282465
-0.0034527350709477943   -0.014831866542154088   -0.0017820935155372906
0.00027713331407052636   -0.007689169292154716   -0.0012452808537484843
-0.002415681761546797   -0.007770358822222365   -0.0013136213231766277
-0.0034527350709477943   -0.014831866542154088   -0.0017820935155372906
0.00023010890761720971   -0.014826524426643015   -0.001659350580184149
0.00027713331407052636   -0.007689169292154716   -0.0012452808537484843
0.00024618534428476693   -0.014859218331327624   -0.0016425816220998308
-0.002415681761546797   -0.007770358822222365   -0.0013136213231766277
0.0003031090060294641   -0.007729334625277143   -0.0012397376804324203
0.00024618534428476693   -0.014859218331327624   -0.0016425816220998308
0.00027713331407052636   -0.007689169292154716   -0.0012452808537484843
-0.002415681761546797   -0.007770358822222365   -0.0013136213231766277
0.00024618534428476693   -0.014859218331327624   -0.0016425816220998308
-0.0034439214963981383   -0.014905415235221483   -0.0017107796148159173
-0.0034527350709477943   -0.014831866542154088   -0.0017820935155372906
-0.002415681761546797   -0.007770358822222365   -0.0013136213231766277
0.00024618534428476693   -0.014859218331327624   -0.0016425816220998308
-0.0034527350709477943   -0.014831866542154088   -0.0017820935155372906
0.00027713331407052636   -0.007689169292154716   -0.0012452808537484843
-0.002415681761546797   -0.007770358822222365   -0.0013136213231766277
-0.0034439214963981383   -0.014905415235221483   -0.0017107796148159173
0.0003031090060294641   -0.007729334625277143   -0.0012397376804324203
-0.0023969238649022492   -0.007811513228199773   -0.0012380616754654491
-0.0034439214963981383   -0.014905415235221483   -0.0017107796148159173
0.00024618534428476693   -0.014859218331327624   -0.0016425816220998308
0.0003031090060294641   -0.007729334625277143   -0.0012397376804324203
0.0002565511404584582   -0.014861694600511385   -0.0016342845166879107
-0.0023969238649022492   -0.007811513228199773   -0.0012380616754654491
0.00032062746157316096   -0.007726833590227385   -0.0012430447422443456
0.0002565511404584582   -0.014861694600511385   -0.0016342845166879107
0.0003031090060294641   -0.007729334625277143   -0.0012397376804324203
-0.0023969238649022492   -0.007811513228199773   -0.0012380616754654491
0.0002565511404584582   -0.014861694600511385   -0.0016342845166879107
-0.0034331639899157426   -0.01494862488358203   -0.0016481641661953703
-0.0034439214963981383   -0.014905415235221483   -0.0017107796148159173
-0.0023969238649022492   -0.007811513228199773   -0.0012380616754654491
0.0002565511404584582   -0.014861694600511385   -0.0016342845166879107
-0.0034439214963981383   -0.014905415235221483   -0.0017107796148159173
0.0003031090060294641   -0.007729334625277143   -0.0012397376804324203
-0.0023969238649022492   -0.007811513228199773   -0.0012380616754654491
-0.0034331639899157426   -0.01494862488358203   -0.0016481641661953703
0.00032062746157316096   -0.007726833590227385   -0.0012430447422443456
-0.0023689911624687897   -0.007810528507064363   -0.0011722849617189144
-0.0034331639899157426   -0.01494862488358203   -0.0016481641661953703
0.0002565511404584582   -0.014861694600511385   -0.0016342845166879107
0.00032062746157316096   -0.007726833590227385   -0.0012430447422443456
0.0002640973862793669   -0.014833502966855499   -0.0016349734177773952
-0.0023689911624687897   -0.007810528507064363   -0.0011722849617189144
0.00033941262129425073   -0.0076803648339172645   -0.0012553418195785392
0.0002640973862793669   -0.014833502966855499   -0.0016349734177773952
0.00032062746157316096   -0.007726833590227385   -0.0012430447422443456
-0.0023689911624687897   -0.007810528507064363   -0.0011722849617189144
0.0002640973862793669   -0.014833502966855499   -0.0016349734177773952
-0.003415584121251037   -0.014962113171165026   -0.0015942217988604644
-0.0034331639899157426   -0.01494862488358203   -0.0016481641661953703
-0.0023689911624687897   -0.007810528507064363   -0.0011722849617189144
0.0002640973862793669   -0.014833502966855499   -0.0016349734177773952
-0.0034331639899157426   -0.01494862488358203   -0.0016481641661953703
0.00032062746157316096   -0.007726833590227385   -0.0012430447422443456
0.00027713331407052636   -0.007689169292154716   -0.0012452808537484843
0.00023010890761720971   -0.014826524426643015   -0.001659350580184149
0.003153249055952743   -0.007814428103407869   -0.0011745900376761897
0.0003031090060294641   -0.007729334625277143   -0.0012397376804324203
0.00023010890761720971   -0.014826524426643015   -0.001659350580184149
0.00407018849001574   -0.014910494182725295   -0.0016098218554244585
0.003153249055952743   -0.007814428103407869   -0.0011745900376761897
0.004084270062482857   -0.014905734386621124   -0.001648729096603176
0.0003031090060294641   -0.007729334625277143   -0.0012397376804324203
0.0031680330760532407   -0.007813992943277094   -0.0012493839472157101
0.004084270062482857   -0.014905734386621124   -0.001648729096603176
0.003153249055952743   -0.007814428103407869   -0.0011745900376761897
0.0003031090060294641   -0.007729334625277143   -0.0012397376804324203
0.004084270062482857   -0.014905734386621124   -0.001648729096603176
0.00024618534428476693   -0.014859218331327624   -0.0016425816220998308
0.00023010890761720971   -0.014826524426643015   -0.001659350580184149
0.0003031090060294641   -0.007729334625277143   -0.0012397376804324203
0.004084270062482857   -0.014905734386621124   -0.001648729096603176
0.00023010890761720971   -0.014826524426643015   -0.001659350580184149
0.003153249055952743   -0.007814428103407869   -0.0011745900376761897
0.0003031090060294641   -0.007729334625277143   -0.0012397376804324203
0.00024618534428476693   -0.014859218331327624   -0.0016425816220998308
0.0031680330760532407   -0.007813992943277094   -0.0012493839472157101
0.00032062746157316096   -0.007726833590227385   -0.0012430447422443456
0.00024618534428476693   -0.014859218331327624   -0.0016425816220998308
0.004084270062482857   -0.014905734386621124   -0.001648729096603176
0.0031680330760532407   -0.007813992943277094   -0.0012493839472157101
0.004074135513550368   -0.014871412010866938   -0.0016954856859182626
0.00032062746157316096   -0.007726833590227385   -0.0012430447422443456
0.0031535615400469057   -0.0077717248783252795   -0.0013341908097915876
0.004074135513550368   -0.014871412010866938   -0.0016954856859182626
0.0031680330760532407   -0.007813992943277094   -0.0012493839472157101
0.00032062746157316096   -0.007726833590227385   -0.0012430447422443456
0.004074135513550368   -0.014871412010866938   -0.0016954856859182626
0.0002565511404584582   -0.014861694600511385   -0.0016342845166879107
0.00024618534428476693   -0.014859218331327624   -0.0016425816220998308
0.00032062746157316096   -0.007726833590227385   -0.0012430447422443456
0.004074135513550368   -0.014871412010866938   -0.0016954856859182626
0.00024618534428476693   -0.014859218331327624   -0.0016425816220998308
0.0031680330760532407   -0.007813992943277094   -0.0012493839472157101
0.00032062746157316096   -0.007726833590227385   -0.0012430447422443456
0.0002565511404584582   -0.014861694600511385   -0.0016342845166879107
0.0031535615400469057   -0.0077717248783252795   -0.0013341908097915876
0.00033941262129425073   -0.0076803648339172645   -0.0012553418195785392
0.0002565511404584582   -0.014861694600511385   -0.0016342845166879107
0.004074135513550368   -0.014871412010866938   -0.0016954856859182626
0.0031535615400469057   -0.0077717248783252795   -0.0013341908097915876
0.0040588371882473604   -0.014800199044123847   -0.0017510221591030045
0.00033941262129425073   -0.0076803648339172645   -0.0012553418195785392
0.0031453293497048966   -0.007676073146513087   -0.001425872335585138
0.0040588371882473604   -0.014800199044123847   -0.0017510221591030045
0.0031535615400469057   -0.0077717248783252795   -0.0013341908097915876
0.00033941262129425073   -0.0076803648339172645   -0.0012553418195785392
0.0040588371882473604   -0.014800199044123847   -0.0017510221591030045
0.0002640973862793669   -0.014833502966855499   -0.0016349734177773952
0.0002565511404584582   -0.014861694600511385   -0.0016342845166879107
0.00033941262129425073   -0.0076803648339172645   -0.0012553418195785392
0.0040588371882473604   -0.014800199044123847   -0.0017510221591030045
0.0002565511404584582   -0.014861694600511385   -0.0016342845166879107
0.0031535615400469057   -0.0077717248783252795   -0.0013341908097915876
0.003153249055952743   -0.007814428103407869   -0.0011745900376761897
0.00407018849001574   -0.014910494182725295   -0.0016098218554244585
0.00662411912927344   -0.008047223290468045   -0.001155736675184191
0.0031680330760532407   -0.007813992943277094   -0.0012493839472157101
0.00407018849001574   -0.014910494182725295   -0.0016098218554244585
0.008443573145058178   -0.01506275367885086   -0.0016109996882116072
0.00662411912927344   -0.008047223290468045   -0.001155736675184191
0.008370454229388617   -0.015036402496397082   -0.0017127261358386543
0.0031680330760532407   -0.007813992943277094   -0.0012493839472157101
0.006489614831581406   -0.0080251662743097   -0.0013240273124250478
0.008370454229388617   -0.015036402496397082   -0.0017127261358386543
0.00662411912927344   -0.008047223290468045   -0.001155736675184191
0.0031680330760532407   -0.007813992943277094   -0.0012493839472157101
0.008370454229388617   -0.015036402496397082   -0.0017127261358386543
0.004084270062482857   -0.014905734386621124   -0.001648729096603176
0.00407018849001574   -0.014910494182725295   -0.0016098218554244585
0.0031680330760532407   -0.007813992943277094   -0.0012493839472157101
0.008370454229388617   -0.015036402496397082   -0.0017127261358386543
0.00407018849001574   -0.014910494182725295   -0.0016098218554244585
0.00662411912927344   -0.008047223290468045   -0.001155736675184191
0.0031680330760532407   -0.007813992943277094   -0.0012493839472157101
0.004084270062482857   -0.014905734386621124   -0.001648729096603176
0.006489614831581406   -0.0080251662743097   -0.0013240273124250478
0.0031535615400469057   -0.0077717248783252795   -0.0013341908097915876
0.004084270062482857   -0.014905734386621124   -0.001648729096603176
0.008370454229388617   -0.015036402496397082   -0.0017127261358386543
0.006489614831581406   -0.0080251662743097   -0.0013240273124250478
0.008297419303369911   -0.01498357237764625   -0.0018286071029769578
0.0031535615400469057   -0.0077717248783252795   -0.0013341908097915876
0.006369388415567238   -0.00796001379746134   -0.0015133837620838711
0.008297419303369911   -0.01498357237764625   -0.0018286071029769578
0.006489614831581406   -0.0080251662743097   -0.0013240273124250478
0.0031535615400469057   -0.0077717248783252795   -0.0013341908097915876
0.008297419303369911   -0.01498357237764625   -0.0018286071029769578
0.004074135513550368   -0.014871412010866938   -0.0016954856859182626
0.004084270062482857   -0.014905734386621124   -0.001648729096603176
0.0031535615400469057   -0.0077717248783252795   -0.0013341908097915876
0.008297419303369911   -0.01498357237764625   -0.0018286071029769578
0.004084270062482857   -0.014905734386621124   -0.001648729096603176
0.006489614831581406   -0.0080251662743097   -0.0013240273124250478
0.0031535615400469057   -0.0077717248783252795   -0.0013341908097915876
0.004074135513550368   -0.014871412010866938   -0.0016954856859182626
0.006369388415567238   -0.00796001379746134   -0.0015133837620838711
0.0031453293497048966   -0.007676073146513087   -0.001425872335585138
0.004074135513550368   -0.014871412010866938   -0.0016954856859182626
0.008297419303369911   -0.01498357237764625   -0.0018286071029769578
0.006369388415567238   -0.00796001379746134   -0.0015133837620838711
0.008167450668984515   -0.014872832225416893   -0.00195865772984015
0.0031453293497048966   -0.007676073146513087   -0.001425872335585138
0.0061891223698746145   -0.007815117335514467   -0.0017105169883004719
0.008167450668984515   -0.014872832225416893   -0.00195865772984015
0.006369388415567238   -0.00796001379746134   -0.0015133837620838711
0.0031453293497048966   -0.007676073146513087   -0.001425872335585138
0.008167450668984515   -0.014872832225416893   -0.00195865772984015
0.0040588371882473604   -0.014800199044123847   -0.0017510221591030045
0.004074135513550368   -0.014871412010866938   -0.0016954856859182626
0.0031453293497048966   -0.007676073146513087   -0.001425872335585138
0.008167450668984515   -0.014872832225416893   -0.00195865772984015
0.004074135513550368   -0.014871412010866938   -0.0016954856859182626
0.006369388415567238   -0.00796001379746134   -0.0015133837620838711
-0.011271661545114163   -0.015133295933138044   -0.0022652190213201116
-0.01345858526991783   -0.02350506264211737   -0.0024160834223242865
-0.007247089176389568   -0.014932166642479854   -0.001980142397872983
-0.011471861141002135   -0.015290540277550195   -0.002068348073558724
-0.01345858526991783   -0.02350506264211737   -0.0024160834223242865
-0.00873637687321908   -0.02337714740699031   -0.002183750258395085
-0.007247089176389568   -0.014932166642479854   -0.001980142397872983
-0.008746671276378572   -0.023476074090146775   -0.002093481794721784
-0.011471861141002135   -0.015290540277550195   -0.002068348073558724
-0.007262808952711596   -0.015047216041730024   -0.0018539909316317173
-0.008746671276378572   -0.023476074090146775   -0.002093481794721784
-0.007247089176389568   -0.014932166642479854   -0.001980142397872983
-0.011471861141002135   -0.015290540277550195   -0.002068348073558724
-0.008746671276378572   -0.023476074090146775   -0.002093481794721784
-0.013593322403198412   -0.023638908589089708   -0.002285422129085137
-0.01345858526991783   -0.02350506264211737   -0.0024160834223242865
-0.011471861141002135   -0.015290540277550195   -0.002068348073558724
-0.008746671276378572   -0.023476074090146775   -0.002093481794721784
-0.01345858526991783   -0.02350506264211737   -0.0024160834223242865
-0.007247089176389568   -0.014932166642479854   -0.001980142397872983
-0.011471861141002135   -0.015290540277550195   -0.002068348073558724
-0.013593322403198412   -0.023638908589089708   -0.002285422129085137
-0.007262808952711596   -0.015047216041730024   -0.0018539909316317173
-0.0115979914240868   -0.015389164965133146   -0.0018848686242313865
-0.013593322403198412   -0.023638908589089708   -0.002285422129085137
-0.008746671276378572   -0.023476074090146775   -0.002093481794721784
-0.007262808952711596   -0.015047216041730024   -0.0018539909316317173
-0.008753947115278346   -0.02355452344354662   -0.00201221246266994
-0.0115979914240868   -0.015389164965133146   -0.0018848686242313865
-0.007281340955291475   -0.015127299238571725   -0.0017369754968210652
-0.008753947115278346   -0.02355452344354662   -0.00201221246266994
-0.007262808952711596   -0.015047216041730024   -0.0018539909316317173
-0.0115979914240868   -0.015389164965133146   -0.0018848686242313865
-0.008753947115278346   -0.02355452344354662   -0.00201221246266994
-0.01367052728554484   -0.023733632977117718   -0.002167308144176275
-0.013593322403198412   -0.023638908589089708   -0.002285422129085137
-0.0115979914240868   -0.015389164965133146   -0.0018848686242313865
-0.008753947115278346   -0.02355452344354662   -0.00201221246266994
-0.013593322403198412   -0.023638908589089708   -0.002285422129085137
-0.007262808952711596   -0.015047216041730024   -0.0018539909316317173
-0.0115979914240868   -0.015389164965133146   -0.0018848686242313865
-0.01367052728554484   -0.023733632977117718   -0.002167308144176275
-0.007281340955291475   -0.015127299238571725   -0.0017369754968210652
-0.01174150198563152   -0.015460141058667679   -0.0017160331738094953
-0.01367052728554484   -0.023733632977117718   -0.002167308144176275
-0.008753947115278346   -0.02355452344354662   -0.00201221246266994
-0.007281340955291475   -0.015127299238571725   -0.0017369754968210652
-0.008735618434398738   -0.02361900356406591   -0.0019387446081316256
-0.01174150198563152   -0.015460141058667679   -0.0017160331738094953
-0.007267511915053209   -0.015180015624994601   -0.0016271492635222039
-0.008735618434398738   -0.02361900356406591   -0.0019387446081316256
-0.007281340955291475   -0.015127299238571725   -0.0017369754968210652
-0.01174150198563152   -0.015460141058667679   -0.0017160331738094953
-0.008735618434398738   -0.02361900356406591   -0.0019387446081316256
-0.013750034123271178   -0.02381858674091592   -0.002063234198223466
-0.01367052728554484   -0.023733632977117718   -0.002167308144176275
-0.01174150198563152   -0.015460141058667679   -0.0017160331738094953
-0.008735618434398738   -0.02361900356406591   -0.0019387446081316256
-0.01367052728554484   -0.023733632977117718   -0.002167308144176275
-0.007281340955291475   -0.015127299238571725   -0.0017369754968210652
-0.007247089176389568   -0.014932166642479854   -0.001980142397872983
-0.00873637687321908   -0.02337714740699031   -0.002183750258395085
-0.0034527350709477943   -0.014831866542154088   -0.0017820935155372906
-0.007262808952711596   -0.015047216041730024   -0.0018539909316317173
-0.00873637687321908   -0.02337714740699031   -0.002183750258395085
-0.004309612190314737   -0.023310992714369594   -0.0020228804050310863
-0.0034527350709477943   -0.014831866542154088   -0.0017820935155372906
-0.004301216962746061   -0.023373050535467434   -0.0019632563891149746
-0.007262808952711596   -0.015047216041730024   -0.0018539909316317173
-0.0034439214963981383   -0.014905415235221483   -0.0017107796148159173
-0.004301216962746061   -0.023373050535467434   -0.0019632563891149746
-0.0034527350709477943   -0.014831866542154088   -0.0017820935155372906
-0.007262808952711596   -0.015047216041730024   -0.0018539909316317173
-0.004301216962746061   -0.023373050535467434   -0.0019632563891149746
-0.008746671276378572   -0.023476074090146775   -0.002093481794721784
-0.00873637687321908   -0.02337714740699031   -0.002183750258395085
-0.007262808952711596   -0.015047216041730024   -0.0018539909316317173
-0.004301216962746061   -0.023373050535467434   -0.0019632563891149746
-0.00873637687321908   -0.02337714740699031   -0.002183750258395085
-0.0034527350709477943   -0.014831866542154088   -0.0017820935155372906
-0.007262808952711596   -0.015047216041730024   -0.0018539909316317173
-0.008746671276378572   -0.023476074090146775   -0.002093481794721784
-0.0034439214963981383   -0.014905415235221483   -0.0017107796148159173
-0.007281340955291475   -0.015127299238571725   -0.0017369754968210652
-0.008746671276378572   -0.023476074090146775   -0.002093481794721784
-0.004301216962746061   -0.023373050535467434   -0.0019632563891149746
-0.0034439214963981383   -0.014905415235221483   -0.0017107796148159173
-0.004289827854203605   -0.023417946452658357   -0.0019124951047573772
-0.007281340955291475   -0.015127299238571725   -0.0017369754968210652
-0.0034331639899157426   -0.01494862488358203   -0.0016481641661953703
-0.004289827854203605   -0.023417946452658357   -0.0019124951047573772
-0.0034439214963981383   -0.014905415235221483   -0.0017107796148159173
-0.007281340955291475   -0.015127299238571725   -0.0017369754968210652
-0.004289827854203605   -0.023417946452658357   -0.0019124951047573772
-0.008753947115278346   -0.02355452344354662   -0.00201221246266994
-0.008746671276378572   -0.023476074090146775   -0.002093481794721784
-0.007281340955291475   -0.015127299238571725   -0.0017369754968210652
-0.004289827854203605   -0.023417946452658357   -0.0019124951047573772
-0.008746671276378572   -0.023476074090146775   -0.002093481794721784
-0.0034439214963981383   -0.014905415235221483   -0.0017107796148159173
-0.007281340955291475   -0.015127299238571725   -0.0017369754968210652
-0.008753947115278346   -0.02355452344354662   -0.00201221246266994
-0.0034331639899157426   -0.01494862488358203   -0.0016481641661953703
-0.007267511915053209   -0.015180015624994601   -0.0016271492635222039
-0.008753947115278346   -0.02355452344354662   -0.00201221246266994
-0.004289827854203605   -0.023417946452658357   -0.0019124951047573772
-0.0034331639899157426   -0.01494862488358203   -0.0016481641661953703
-0.004272936660440667   -0.023445975000999455   -0.0018707442440901454
-0.007267511915053209   -0.015180015624994601   -0.0016271492635222039
-0.003415584121251037   -0.014962113171165026   -0.0015942217988604644
-0.004272936660440667   -0.023445975000999455   -0.0018707442440901454
-0.0034331639899157426   -0.01494862488358203   -0.0016481641661953703
-0.007267511915053209   -0.015180015624994601   -0.0016271492635222039
-0.004272936660440667   -0.023445975000999455   -0.0018707442440901454
-0.008735618434398738   -0.02361900356406591   -0.0019387446081316256
-0.008753947115278346   -0.02355452344354662   -0.00201221246266994
-0.007267511915053209   -0.015180015624994601   -0.0016271492635222039
-0.004272936660440667   -0.023445975000999455   -0.0018707442440901454
-0.008753947115278346   -0.02355452344354662   -0.00201221246266994
-0.0034331639899157426   -0.01494862488358203   -0.0016481641661953703
-0.0034527350709477943   -0.014831866542154088   -0.0017820935155372906
-0.004309612190314737   -0.023310992714369594   -0.0020228804050310863
0.00023010890761720971   -0.014826524426643015   -0.001659350580184149
-0.0034439214963981383   -0.014905415235221483   -0.0017107796148159173
-0.004309612190314737   -0.023310992714369594   -0.0020228804050310863
-3.111057610293829e-06   -0.023299589413744846   -0.0019292435162445805
0.00023010890761720971   -0.014826524426643015   -0.001659350580184149
1.2519038613266732e-05   -0.023324572837341337   -0.0019005048046862394
-0.0034439214963981383   -0.014905415235221483   -0.0017107796148159173
0.00024618534428476693   -0.014859218331327624   -0.0016425816220998308
1.2519038613266732e-05   -0.023324572837341337   -0.0019005048046862394
0.00023010890761720971   -0.014826524426643015   -0.001659350580184149
-0.0034439214963981383   -0.014905415235221483   -0.0017107796148159173
1.2519038613266732e-05   -0.023324572837341337   -0.0019005048046862394
-0.004301216962746061   -0.023373050535467434   -0.0019632563891149746
-0.004309612190314737   -0.023310992714369594   -0.0020228804050310863
-0.0034439214963981383   -0.014905415235221483   -0.0017107796148159173
1.2519038613266732e-05   -0.023324572837341337   -0.0019005048046862394
-0.004309612190314737   -0.023310992714369594   -0.0020228804050310863
0.00023010890761720971   -0.014826524426643015   -0.001659350580184149
-0.0034439214963981383   -0.014905415235221483   -0.0017107796148159173
-0.004301216962746061   -0.023373050535467434   -0.0019632563891149746
0.00024618534428476693   -0.014859218331327624   -0.0016425816220998308
-0.0034331639899157426   -0.01494862488358203   -0.0016481641661953703
-0.004301216962746061   -0.023373050535467434   -0.0019632563891149746
1.2519038613266732e-05   -0.023324572837341337   -0.0019005048046862394
0.00024618534428476693   -0.014859218331327624   -0.0016425816220998308
2.3704264011451415e-05   -0.023332275748993346   -0.0018805172835790035
-0.0034331639899157426   -0.01494862488358203   -0.0016481641661953703
0.0002565511404584582   -0.014861694600511385   -0.0016342845166879107
2.3704264011451415e-05   -0.023332275748993346   -0.0018805172835790035
0.00024618534428476693   -0.014859218331327624   -0.0016425816220998308
-0.0034331639899157426   -0.01494862488358203   -0.0016481641661953703
2.3704264011451415e-05   -0.023332275748993346   -0.0018805172835790035
-0.004289827854203605   -0.023417946452658357   -0.0019124951047573772
-0.004301216962746061   -0.023373050535467434   -0.0019632563891149746
-0.0034331639899157426   -0.01494862488358203   -0.0016481641661953703
2.3704264011451415e-05   -0.023332275748993346   -0.0018805172835790035
-0.004301216962746061   -0.023373050535467434   -0.0019632563891149746
0.00024618534428476693   -0.014859218331327624   -0.0016425816220998308
-0.0034331639899157426   -0.01494862488358203   -0.0016481641661953703
-0.004289827854203605   -0.023417946452658357   -0.0019124951047573772
0.0002565511404584582   -0.014861694600511385   -0.0016342845166879107
-0.003415584121251037   -0.014962113171165026   -0.0015942217988604644
-0.004289827854203605   -0.023417946452658357   -0.0019124951047573772
2.3704264011451415e-05   -0.023332275748993346   -0.0018805172835790035
0.0002565511404584582   -0.014861694600511385   -0.0016342845166879107
3.088405171747289e-05   -0.02332246101219489   -0.0018696675479386864
-0.003415584121251037   -0.014962113171165026   -0.0015942217988604644
0.0002640973862793669   -0.014833502966855499   -0.0016349734177773952
3.088405171747289e-05   -0.02332246101219489   -0.0018696675479386864
0.0002565511404584582   -0.014861694600511385   -0.0016342845166879107
-0.003415584121251037   -0.014962113171165026   -0.0015942217988604644
3.088405171747289e-05   -0.02332246101219489   -0.0018696675479386864
-0.004272936660440667   -0.023445975000999455   -0.0018707442440901454
-0.004289827854203605   -0.023417946452658357   -0.0019124951047573772
-0.003415584121251037   -0.014962113171165026   -0.0015942217988604644
3.088405171747289e-05   -0.02332246101219489   -0.0018696675479386864
-0.004289827854203605   -0.023417946452658357   -0.0019124951047573772
0.0002565511404584582   -0.014861694600511385   -0.0016342845166879107
0.00023010890761720971   -0.014826524426643015   -0.001659350580184149
-3.111057610293829e-06   -0.023299589413744846   -0.0019292435162445805
0.00407018849001574   -0.014910494182725295   -0.0016098218554244585
0.00024618534428476693   -0.014859218331327624   -0.0016425816220998308
-3.111057610293829e-06   -0.023299589413744846   -0.0019292435162445805
0.004451494549357627   -0.023338254855125407   -0.001902469993794647
0.00407018849001574   -0.014910494182725295   -0.0016098218554244585
0.004470591719396429   -0.023328312416298933   -0.00190526583785672
0.00024618534428476693   -0.014859218331327624   -0.0016425816220998308
0.004084270062482857   -0.014905734386621124   -0.001648729096603176
0.004470591719396429   -0.023328312416298933   -0.00190526583785672
0.00407018849001574   -0.014910494182725295   -0.0016098218554244585
0.00024618534428476693   -0.014859218331327624   -0.0016425816220998308
0.004470591719396429   -0.023328312416298933   -0.00190526583785672
1.2519038613266732e-05   -0.023324572837341337   -0.0019005048046862394
-3.111057610293829e-06   -0.023299589413744846   -0.0019292435162445805
0.00024618534428476693   -0.014859218331327624   -0.0016425816220998308
0.004470591719396429   -0.023328312416298933   -0.00190526583785672
-3.111057610293829e-06   -0.023299589413744846   -0.0019292435162445805
0.00407018849001574   -0.014910494182725295   -0.0016098218554244585
0.00024618534428476693   -0.014859218331327624   -0.0016425816220998308
1.2519038613266732e-05   -0.023324572837341337   -0.0019005048046862394
0.004084270062482857   -0.014905734386621124   -0.001648729096603176
0.0002565511404584582   -0.014861694600511385   -0.0016342845166879107
1.2519038613266732e-05   -0.023324572837341337   -0.0019005048046862394
0.004470591719396429   -0.023328312416298933   -0.00190526583785672
0.004084270062482857   -0.014905734386621124   -0.001648729096603176
0.0044722923053459665   -0.023302420493677093   -0.001916341188522288
0.0002565511404584582   -0.014861694600511385   -0.0016342845166879107
0.004074135513550368   -0.014871412010866938   -0.0016954856859182626
0.0044722923053459665   -0.023302420493677093   -0.001916341188522288
0.004084270062482857   -0.014905734386621124   -0.001648729096603176
0.0002565511404584582   -0.014861694600511385   -0.0016342845166879107
0.0044722923053459665   -0.023302420493677093   -0.001916341188522288
2.3704264011451415e-05   -0.023332275748993346   -0.0018805172835790035
1.2519038613266732e-05   -0.023324572837341337   -0.0019005048046862394
0.0002565511404584582   -0.014861694600511385   -0.0016342845166879107
0.0044722923053459665   -0.023302420493677093   -0.001916341188522288
1.2519038613266732e-05   -0.023324572837341337   -0.0019005048046862394
0.004084270062482857   -0.014905734386621124   -0.001648729096603176
0.0002565511404584582   -0.014861694600511385   -0.0016342845166879107
2.3704264011451415e-05   -0.023332275748993346   -0.0018805172835790035
0.004074135513550368   -0.014871412010866938   -0.0016954856859182626
0.0002640973862793669   -0.014833502966855499   -0.0016349734177773952
2.3704264011451415e-05   -0.023332275748993346   -0.0018805172835790035
0.0044722923053459665   -0.023302420493677093   -0.001916341188522288
0.004074135513550368   -0.014871412010866938   -0.0016954856859182626
0.0044627899184178565   -0.02325410704625886   -0.001936012131226576
0.0002640973862793669   -0.014833502966855499   -0.0016349734177773952
0.0040588371882473604   -0.014800199044123847   -0.0017510221591030045
0.0044627899184178565   -0.02325410704625886   -0.001936012131226576
0.004074135513550368   -0.014871412010866938   -0.0016954856859182626
0.0002640973862793669   -0.014833502966855499   -0.0016349734177773952
0.0044627899184178565   -0.02325410704625886   -0.001936012131226576
3.088405171747289e-05   -0.02332246101219489   -0.0018696675479386864
2.3704264011451415e-05   -0.023332275748993346   -0.0018805172835790035
0.0002640973862793669   -0.014833502966855499   -0.0016349734177773952
0.0044627899184178565   -0.02325410704625886   -0.001936012131226576
2.3704264011451415e-05   -0.023332275748993346   -0.0018805172835790035
0.004074135513550368   -0.014871412010866938   -0.0016954856859182626
0.00407018849001574   -0.014910494182725295   -0.0016098218554244585
0.004451494549357627   -0.023338254855125407   -0.001902469993794647
0.008443573145058178   -0.01506275367885086   -0.0016109996882116072
0.004084270062482857   -0.014905734386621124   -0.001648729096603176
0.004451494549357627   -0.023338254855125407   -0.001902469993794647
0.009370452874164279   -0.02340927384529121   -0.0019279981752420355
0.008443573145058178   -0.01506275367885086   -0.0016109996882116072
0.009362210621111118   -0.02337566829041418   -0.001964794475941663
0.004084270062482857   -0.014905734386621124   -0.001648729096603176
0.008370454229388617   -0.015036402496397082   -0.0017127261358386543
0.009362210621111118   -0.02337566829041418   -0.001964794475941663
0.008443573145058178   -0.01506275367885086   -0.0016109996882116072
0.004084270062482857   -0.014905734386621124   -0.001648729096603176
0.009362210621111118   -0.02337566829041418   -0.001964794475941663
0.004470591719396429   -0.023328312416298933   -0.00190526583785672
0.004451494549357627   -0.023338254855125407   -0.001902469993794647
0.004084270062482857   -0.014905734386621124   -0.001648729096603176
0.009362210621111118   -0.02337566829041418   -0.001964794475941663
0.004451494549357627   -0.023338254855125407   -0.001902469993794647
0.008443573145058178   -0.01506275367885086   -0.0016109996882116072
0.004084270062482857   -0.014905734386621124   -0.001648729096603176
0.004470591719396429   -0.023328312416298933   -0.00190526583785672
0.008370454229388617   -0.015036402496397082   -0.0017127261358386543
0.004074135513550368   -0.014871412010866938   -0.0016954856859182626
0.004470591719396429   -0.023328312416298933   -0.00190526583785672
0.009362210621111118   -0.02337566829041418   -0.001964794475941663
0.008370454229388617   -0.015036402496397082   -0.0017127261358386543
0.009339122545244407   -0.02333344641064789   -0.0020150253002144307
0.004074135513550368   -0.014871412010866938   -0.0016954856859182626
0.008297419303369911   -0.01498357237764625   -0.0018286071029769578
0.009339122545244407   -0.02333344641064789   -0.0020150253002144307
0.008370454229388617   -0.015036402496397082   -0.0017127261358386543
0.004074135513550368   -0.014871412010866938   -0.0016954856859182626
0.009339122545244407   -0.02333344641064789   -0.0020150253002144307
0.0044722923053459665   -0.023302420493677093   -0.001916341188522288
0.004470591719396429   -0.023328312416298933   -0.00190526583785672
0.004074135513550368   -0.014871412010866938   -0.0016954856859182626
0.009339122545244407   -0.02333344641064789   -0.0020150253002144307
0.004470591719396429   -0.023328312416298933   -0.00190526583785672
0.008370454229388617   -0.015036402496397082   -0.0017127261358386543
0.004074135513550368   -0.014871412010866938   -0.0016954856859182626
0.0044722923053459665   -0.023302420493677093   -0.001916341188522288
0.008297419303369911   -0.01498357237764625   -0.0018286071029769578
0.0040588371882473604   -0.014800199044123847   -0.0017510221591030045
0.0044722923053459665   -0.023302420493677093   -0.001916341188522288
0.009339122545244407   -0.02333344641064789   -0.0020150253002144307
0.008297419303369911   -0.01498357237764625   -0.0018286071029769578
0.009275545124410683   -0.023253042648139682   -0.002078593199116521
0.0040588371882473604   -0.014800199044123847   -0.0017510221591030045
0.008167450668984515   -0.014872832225416893   -0.00195865772984015
0.009275545124410683   -0.023253042648139682   -0.002078593199116521
0.008297419303369911   -0.01498357237764625   -0.0018286071029769578
0.0040588371882473604   -0.014800199044123847   -0.0017510221591030045
0.009275545124410683   -0.023253042648139682   -0.002078593199116521
0.0044627899184178565   -0.02325410704625886   -0.001936012131226576
0.0044722923053459665   -0.023302420493677093   -0.001916341188522288
0.0040588371882473604   -0.014800199044123847   -0.0017510221591030045
0.009275545124410683   -0.023253042648139682   -0.002078593199116521
0.0044722923053459665   -0.023302420493677093   -0.001916341188522288
0.008297419303369911   -0.01498357237764625   -0.0018286071029769578
-0.01345858526991783   -0.02350506264211737   -0.0024160834223242865
-0.014781849440580468   -0.0326158919493587   -0.0024606450099518605
-0.00873637687321908   -0.02337714740699031   -0.002183750258395085
-0.013593322403198412   -0.023638908589089708   -0.002285422129085137
-0.014781849440580468   -0.0326158919493587   -0.0024606450099518605
-0.0097138283876822   -0.032563813251346385   -0.00227567091977775
-0.00873637687321908   -0.02337714740699031   -0.002183750258395085
-0.009709767639789047   -0.032648157738656196   -0.0022203246180829833
-0.013593322403198412   -0.023638908589089708   -0.002285422129085137
-0.008746671276378572   -0.023476074090146775   -0.002093481794721784
-0.009709767639789047   -0.032648157738656196   -0.0022203246180829833
-0.00873637687321908   -0.02337714740699031   -0.002183750258395085
-0.013593322403198412   -0.023638908589089708   -0.002285422129085137
-0.009709767639789047   -0.032648157738656196   -0.0022203246180829833
-0.014844637202981459   -0.03272928469710673   -0.00239332809039686
-0.014781849440580468   -0.0326158919493587   -0.0024606450099518605
-0.013593322403198412   -0.023638908589089708   -0.002285422129085137
-0.009709767639789047   -0.032648157738656196   -0.0022203246180829833
-0.014781849440580468   -0.0326158919493587   -0.0024606450099518605
-0.00873637687321908   -0.02337714740699031   -0.002183750258395085
-0.013593322403198412   -0.023638908589089708   -0.002285422129085137
-0.014844637202981459   -0.03272928469710673   -0.00239332809039686
-0.008746671276378572   -0.023476074090146775   -0.002093481794721784
-0.01367052728554484   -0.023733632977117718   -0.002167308144176275
-0.014844637202981459   -0.03272928469710673   -0.00239332809039686
-0.009709767639789047   -0.032648157738656196   -0.0022203246180829833
-0.008746671276378572   -0.023476074090146775   -0.002093481794721784
-0.009696548801316353   -0.032725993735188384   -0.0021741692220356543
-0.01367052728554484   -0.023733632977117718   -0.002167308144176275
-0.008753947115278346   -0.02355452344354662   -0.00201221246266994
-0.009696548801316353   -0.032725993735188384   -0.0021741692220356543
-0.008746671276378572   -0.023476074090146775   -0.002093481794721784
-0.01367052728554484   -0.023733632977117718   -0.002167308144176275
-0.009696548801316353   -0.032725993735188384   -0.0021741692220356543
-0.014864469736748915   -0.032821804766492185   -0.0023392390555826764
-0.014844637202981459   -0.03272928469710673   -0.00239332809039686
-0.01367052728554484   -0.023733632977117718   -0.002167308144176275
-0.009696548801316353   -0.032725993735188384   -0.0021741692220356543
-0.014844637202981459   -0.03272928469710673   -0.00239332809039686
-0.008746671276378572   -0.023476074090146775   -0.002093481794721784
-0.01367052728554484   -0.023733632977117718   -0.002167308144176275
-0.014864469736748915   -0.032821804766492185   -0.0023392390555826764
-0.008753947115278346   -0.02355452344354662   -0.00201221246266994
-0.013750034123271178   -0.02381858674091592   -0.002063234198223466
-0.014864469736748915   -0.032821804766492185   -0.0023392390555826764
-0.009696548801316353   -0.032725993735188384   -0.0021741692220356543
-0.008753947115278346   -0.02355452344354662   -0.00201221246266994
-0.009664274527573123   -0.032803257012510016   -0.0021365582965939735
-0.013750034123271178   -0.02381858674091592   -0.002063234198223466
-0.008735618434398738   -0.02361900356406591   -0.0019387446081316256
-0.009664274527573123   -0.032803257012510016   -0.0021365582965939735
-0.008753947115278346   -0.02355452344354662   -0.00201221246266994
-0.013750034123271178   -0.02381858674091592   -0.002063234198223466
-0.009664274527573123   -0.032803257012510016   -0.0021365582965939735
-0.014870925780608253   -0.03292233193822376   -0.002299516752759515
-0.014864469736748915   -0.032821804766492185   -0.0023392390555826764
-0.013750034123271178   -0.02381858674091592   -0.002063234198223466
-0.009664274527573123   -0.032803257012510016   -0.0021365582965939735
-0.014864469736748915   -0.032821804766492185   -0.0023392390555826764
-0.008753947115278346   -0.02355452344354662   -0.00201221246266994
-0.00873637687321908   -0.02337714740699031   -0.002183750258395085
-0.0097138283876822   -0.032563813251346385   -0.00227567091977775
-0.004309612190314737   -0.023310992714369594   -0.0020228804050310863
-0.008746671276378572   -0.023476074090146775   -0.002093481794721784
-0.0097138283876822   -0.032563813251346385   -0.00227567091977775
-0.005006038431262354   -0.032533873886019096   -0.0021497494674833488
-0.004309612190314737   -0.023310992714369594   -0.0020228804050310863
-0.004988258780026855   -0.032584905964881616   -0.002101460334891574
-0.008746671276378572   -0.023476074090146775   -0.002093481794721784
-0.004301216962746061   -0.023373050535467434   -0.0019632563891149746
-0.004988258780026855   -0.032584905964881616   -0.002101460334891574
-0.004309612190314737   -0.023310992714369594   -0.0020228804050310863
-0.008746671276378572   -0.023476074090146775   -0.002093481794721784
-0.004988258780026855   -0.032584905964881616   -0.002101460334891574
-0.009709767639789047   -0.032648157738656196   -0.0022203246180829833
-0.0097138283876822   -0.032563813251346385   -0.00227567091977775
-0.008746671276378572   -0.023476074090146775   -0.002093481794721784
-0.004988258780026855   -0.032584905964881616   -0.002101460334891574
-0.0097138283876822   -0.032563813251346385   -0.00227567091977775
-0.004309612190314737   -0.023310992714369594   -0.0020228804050310863
-0.008746671276378572   -0.023476074090146775   -0.002093481794721784
-0.009709767639789047   -0.032648157738656196   -0.0022203246180829833
-0.004301216962746061   -0.023373050535467434   -0.0019632563891149746
-0.008753947115278346   -0.02355452344354662   -0.00201221246266994
-0.009709767639789047   -0.032648157738656196   -0.0022203246180829833
-0.004988258780026855   -0.032584905964881616   -0.002101460334891574
-0.004301216962746061   -0.023373050535467434   -0.0019632563891149746
-0.004966503407961987   -0.0326317604154274   -0.002062368448736018
-0.008753947115278346   -0.02355452344354662   -0.00201221246266994
-0.004289827854203605   -0.023417946452658357   -0.0019124951047573772
-0.004966503407961987   -0.0326317604154274   -0.002062368448736018
-0.004301216962746061   -0.023373050535467434   -0.0019632563891149746
-0.008753947115278346   -0.02355452344354662   -0.00201221246266994
-0.004966503407961987   -0.0326317604154274   -0.002062368448736018
-0.009696548801316353   -0.032725993735188384   -0.0021741692220356543
-0.009709767639789047   -0.032648157738656196   -0.0022203246180829833
-0.008753947115278346   -0.02355452344354662   -0.00201221246266994
-0.004966503407961987   -0.0326317604154274   -0.002062368448736018
-0.009709767639789047   -0.032648157738656196   -0.0022203246180829833
-0.004301216962746061   -0.023373050535467434   -0.0019632563891149746
-0.008753947115278346   -0.02355452344354662   -0.00201221246266994
-0.009696548801316353   -0.032725993735188384   -0.0021741692220356543
-0.004289827854203605   -0.023417946452658357   -0.0019124951047573772
-0.008735618434398738   -0.02361900356406591   -0.0019387446081316256
-0.009696548801316353   -0.032725993735188384   -0.0021741692220356543
-0.004966503407961987   -0.0326317604154274   -0.002062368448736018
-0.004289827854203605   -0.023417946452658357   -0.0019124951047573772
-0.0049403990888141945   -0.032674591763039225   -0.002032696082393735
-0.008735618434398738   -0.02361900356406591   -0.0019387446081316256
-0.004272936660440667   -0.023445975000999455   -0.0018707442440901454
-0.0049403990888141945   -0.032674591763039225   -0.002032696082393735
-0.004289827854203605   -0.023417946452658357   -0.0019124951047573772
-0.008735618434398738   -0.02361900356406591   -0.0019387446081316256
-0.0049403990888141945   -0.032674591763039225   -0.002032696082393735
-0.009664274527573123   -0.032803257012510016   -0.0021365582965939735
-0.009696548801316353   -0.032725993735188384   -0.0021741692220356543
-0.008735618434398738   -0.02361900356406591   -0.0019387446081316256
-0.0049403990888141945   -0.032674591763039225   -0.002032696082393735
-0.009696548801316353   -0.032725993735188384   -0.0021741692220356543
-0.004289827854203605   -0.023417946452658357   -0.0019124951047573772
-0.004309612190314737   -0.023310992714369594   -0.0020228804050310863
-0.005006038431262354   -0.032533873886019096   -0.0021497494674833488
-3.111057610293829e-06   -0.023299589413744846   -0.0019292435162445805
-0.004301216962746061   -0.023373050535467434   -0.0019632563891149746
-0.005006038431262354   -0.032533873886019096   -0.0021497494674833488
-0.0004256506249696547   -0.032516688429422   -0.002084678962391436
-3.111057610293829e-06   -0.023299589413744846   -0.0019292435162445805
-0.000400878299738902   -0.03253378421027907   -0.0020439323092810062
-0.004301216962746061   -0.023373050535467434   -0.0019632563891149746
1.2519038613266732e-05   -0.023324572837341337   -0.0019005048046862394
-0.000400878299738902   -0.03253378421027907   -0.0020439323092810062
-3.111057610293829e-06   -0.023299589413744846   -0.0019292435162445805
-0.004301216962746061   -0.023373050535467434   -0.0019632563891149746
-0.000400878299738902   -0.03253378421027907   -0.0020439323092810062
-0.004988258780026855   -0.032584905964881616   -0.002101460334891574
-0.005006038431262354   -0.032533873886019096   -0.0021497494674833488
-0.004301216962746061   -0.023373050535467434   -0.0019632563891149746
-0.000400878299738902   -0.03253378421027907   -0.0020439323092810062
-0.005006038431262354   -0.032533873886019096   -0.0021497494674833488
-3.111057610293829e-06   -0.023299589413744846   -0.0019292435162445805
-0.004301216962746061   -0.023373050535467434   -0.0019632563891149746
-0.004988258780026855   -0.032584905964881616   -0.002101460334891574
1.2519038613266732e-05   -0.023324572837341337   -0.0019005048046862394
-0.004289827854203605   -0.023417946452658357   -0.0019124951047573772
-0.004988258780026855   -0.032584905964881616   -0.002101460334891574
-0.000400878299738902   -0.03253378421027907   -0.0020439323092810062
1.2519038613266732e-05   -0.023324572837341337   -0.0019005048046862394
-0.0003794006289982144   -0.03254640538553189   -0.002012304570059832
-0.004289827854203605   -0.023417946452658357   -0.0019124951047573772
2.3704264011451415e-05   -0.023332275748993346   -0.0018805172835790035
-0.0003794006289982144   -0.03254640538553189   -0.002012304570059832
1.2519038613266732e-05   -0.023324572837341337   -0.0019005048046862394
-0.004289827854203605   -0.023417946452658357   -0.0019124951047573772
-0.0003794006289982144   -0.03254640538553189   -0.002012304570059832
-0.004966503407961987   -0.0326317604154274   -0.002062368448736018
-0.004988258780026855   -0.032584905964881616   -0.002101460334891574
-0.004289827854203605   -0.023417946452658357   -0.0019124951047573772
-0.0003794006289982144   -0.03254640538553189   -0.002012304570059832
-0.004988258780026855   -0.032584905964881616   -0.002101460334891574
1.2519038613266732e-05   -0.023324572837341337   -0.0019005048046862394
-0.004289827854203605   -0.023417946452658357   -0.0019124951047573772
-0.004966503407961987   -0.0326317604154274   -0.002062368448736018
2.3704264011451415e-05   -0.023332275748993346   -0.0018805172835790035
-0.004272936660440667   -0.023445975000999455   -0.0018707442440901454
-0.004966503407961987   -0.0326317604154274   -0.002062368448736018
-0.0003794006289982144   -0.03254640538553189   -0.002012304570059832
2.3704264011451415e-05   -0.023332275748993346   -0.0018805172835790035
-0.00036297581002007426   -0.03255448645163074   -0.0019901275707196776
-0.004272936660440667   -0.023445975000999455   -0.0018707442440901454
3.088405171747289e-05   -0.02332246101219489   -0.0018696675479386864
-0.00036297581002007426   -0.03255448645163074   -0.0019901275707196776
2.3704264011451415e-05   -0.023332275748993346   -0.0018805172835790035
-0.004272936660440667   -0.023445975000999455   -0.0018707442440901454
-0.00036297581002007426   -0.03255448645163074   -0.0019901275707196776
-0.0049403990888141945   -0.032674591763039225   -0.002032696082393735
-0.004966503407961987   -0.0326317604154274   -0.002062368448736018
-0.004272936660440667   -0.023445975000999455   -0.0018707442440901454
-0.00036297581002007426   -0.03255448645163074   -0.0019901275707196776
-0.004966503407961987   -0.0326317604154274   -0.002062368448736018
2.3704264011451415e-05   -0.023332275748993346   -0.0018805172835790035
-3.111057610293829e-06   -0.023299589413744846   -0.0019292435162445805
-0.0004256506249696547   -0.032516688429422   -0.002084678962391436
0.004451494549357627   -0.023338254855125407   -0.001902469993794647
1.2519038613266732e-05   -0.023324572837341337   -0.0019005048046862394
-0.0004256506249696547   -0.032516688429422   -0.002084678962391436
0.0042944897998931034   -0.0325092945744179   -0.00208104084405291
0.004451494549357627   -0.023338254855125407   -0.001902469993794647
0.004327262992133331   -0.03249351209117604   -0.0020482138212567468
1.2519038613266732e-05   -0.023324572837341337   -0.0019005048046862394
0.004470591719396429   -0.023328312416298933   -0.00190526583785672
0.004327262992133331   -0.03249351209117604   -0.0020482138212567468
0.004451494549357627   -0.023338254855125407   -0.001902469993794647
1.2519038613266732e-05   -0.023324572837341337   -0.0019005048046862394
0.004327262992133331   -0.03249351209117604   -0.0020482138212567468
-0.000400878299738902   -0.03253378421027907   -0.0020439323092810062
-0.0004256506249696547   -0.032516688429422   -0.002084678962391436
1.2519038613266732e-05   -0.023324572837341337   -0.0019005048046862394
0.004327262992133331   -0.03249351209117604   -0.0020482138212567468
-0.0004256506249696547   -0.032516688429422   -0.002084678962391436
0.004451494549357627   -0.023338254855125407   -0.001902469993794647
1.2519038613266732e-05   -0.023324572837341337   -0.0019005048046862394
-0.000400878299738902   -0.03253378421027907   -0.0020439323092810062
0.004470591719396429   -0.023328312416298933   -0.00190526583785672
2.3704264011451415e-05   -0.023332275748993346   -0.0018805172835790035
-0.000400878299738902   -0.03253378421027907   -0.0020439323092810062
0.004327262992133331   -0.03249351209117604   -0.0020482138212567468
0.004470591719396429   -0.023328312416298933   -0.00190526583785672
0.0043492950148591855   -0.03247515575652969   -0.0020242435745446564
2.3704264011451415e-05   -0.023332275748993346   -0.0018805172835790035
0.0044722923053459665   -0.023302420493677093   -0.001916341188522288
0.0043492950148591855   -0.03247515575652969   -0.0020242435745446564
0.004470591719396429   -0.023328312416298933   -0.00190526583785672
2.3704264011451415e-05   -0.023332275748993346   -0.0018805172835790035
0.0043492950148591855   -0.03247515575652969   -0.0020242435745446564
-0.0003794006289982144   -0.03254640538553189   -0.002012304570059832
-0.000400878299738902   -0.03253378421027907   -0.0020439323092810062
2.3704264011451415e-05   -0.023332275748993346   -0.0018805172835790035
0.0043492950148591855   -0.03247515575652969   -0.0020242435745446564
-0.000400878299738902   -0.03253378421027907   -0.0020439323092810062
0.004470591719396429   -0.023328312416298933   -0.00190526583785672
2.3704264011451415e-05   -0.023332275748993346   -0.0018805172835790035
-0.0003794006289982144   -0.03254640538553189   -0.002012304570059832
0.0044722923053459665   -0.023302420493677093   -0.001916341188522288
3.088405171747289e-05   -0.02332246101219489   -0.0018696675479386864
-0.0003794006289982144   -0.03254640538553189   -0.002012304570059832
0.0043492950148591855   -0.03247515575652969   -0.0020242435745446564
0.0044722923053459665   -0.023302420493677093   -0.001916341188522288
0.0043539835167423204   -0.03244821627127898   -0.002008949052191821
3.088405171747289e-05   -0.02332246101219489   -0.0018696675479386864
0.0044627899184178565   -0.02325410704625886   -0.001936012131226576
0.0043539835167423204   -0.03244821627127898   -0.002008949052191821
0.0044722923053459665   -0.023302420493677093   -0.001916341188522288
3.088405171747289e-05   -0.02332246101219489   -0.0018696675479386864
0.0043539835167423204   -0.03244821627127898   -0.002008949052191821
-0.00036297581002007426   -0.03255448645163074   -0.0019901275707196776
-0.0003794006289982144   -0.03254640538553189   -0.002012304570059832
3.088405171747289e-05   -0.02332246101219489   -0.0018696675479386864
0.0043539835167423204   -0.03244821627127898   -0.002008949052191821
-0.0003794006289982144   -0.03254640538553189   -0.002012304570059832
0.0044722923053459665   -0.023302420493677093   -0.001916341188522288
0.004451494549357627   -0.023338254855125407   -0.001902469993794647
0.0042944897998931034   -0.0325092945744179   -0.00208104084405291
0.009370452874164279   -0.02340927384529121   -0.0019279981752420355
0.004470591719396429   -0.023328312416298933   -0.00190526583785672
0.0042944897998931034   -0.0325092945744179   -0.00208104084405291
0.009409518382170827   -0.03249898795258772   -0.002132713033785512
0.009370452874164279   -0.02340927384529121   -0.0019279981752420355
0.009473609264260299   -0.03245721219870463   -0.002105725170634249
0.004470591719396429   -0.023328312416298933   -0.00190526583785672
0.009362210621111118   -0.02337566829041418   -0.001964794475941663
0.009473609264260299   -0.03245721219870463   -0.002105725170634249
0.009370452874164279   -0.02340927384529121   -0.0019279981752420355
0.004470591719396429   -0.023328312416298933   -0.00190526583785672
0.009473609264260299   -0.03245721219870463   -0.002105725170634249
0.004327262992133331   -0.03249351209117604   -0.0020482138212567468
0.0042944897998931034   -0.0325092945744179   -0.00208104084405291
0.004470591719396429   -0.023328312416298933   -0.00190526583785672
0.009473609264260299   -0.03245721219870463   -0.002105725170634249
0.0042944897998931034   -0.0325092945744179   -0.00208104084405291
0.009370452874164279   -0.02340927384529121   -0.0019279981752420355
0.004470591719396429   -0.023328312416298933   -0.00190526583785672
0.004327262992133331   -0.03249351209117604   -0.0020482138212567468
0.009362210621111118   -0.02337566829041418   -0.001964794475941663
0.0044722923053459665   -0.023302420493677093   -0.001916341188522288
0.004327262992133331   -0.03249351209117604   -0.0020482138212567468
0.009473609264260299   -0.03245721219870463   -0.002105725170634249
0.009362210621111118   -0.02337566829041418   -0.001964794475941663
0.009507639154783901   -0.0324242405952191   -0.0020921972689118707
0.0044722923053459665   -0.023302420493677093   -0.001916341188522288
0.009339122545244407   -0.02333344641064789   -0.0020150253002144307
0.009507639154783901   -0.0324242405952191   -0.0020921972689118707
0.009362210621111118   -0.02337566829041418   -0.001964794475941663
0.0044722923053459665   -0.023302420493677093   -0.001916341188522288
0.009507639154783901   -0.0324242405952191   -0.0020921972689118707
0.0043492950148591855   -0.03247515575652969   -0.0020242435745446564
0.004327262992133331   -0.03249351209117604   -0.0020482138212567468
0.0044722923053459665   -0.023302420493677093   -0.001916341188522288
0.009507639154783901   -0.0324242405952191   -0.0020921972689118707
0.004327262992133331   -0.03249351209117604   -0.0020482138212567468
0.009362210621111118   -0.02337566829041418   -0.001964794475941663
0.0044722923053459665   -0.023302420493677093   -0.001916341188522288
0.0043492950148591855   -0.03247515575652969   -0.0020242435745446564
0.009339122545244407   -0.02333344641064789   -0.0020150253002144307
0.0044627899184178565   -0.02325410704625886   -0.001936012131226576
0.0043492950148591855   -0.03247515575652969   -0.0020242435745446564
0.009507639154783901   -0.0324242405952191   -0.0020921972689118707
0.009339122545244407   -0.02333344641064789   -0.0020150253002144307
0.009516157132032728   -0.032371398166475406   -0.0020923587972962263
0.0044627899184178565   -0.02325410704625886   -0.001936012131226576
0.009275545124410683   -0.023253042648139682   -0.002078593199116521
0.009516157132032728   -0.032371398166475406   -0.0020923587972962263
0.009339122545244407   -0.02333344641064789   -0.0020150253002144307
0.0044627899184178565   -0.02325410704625886   -0.001936012131226576
0.009516157132032728   -0.032371398166475406   -0.0020923587972962263
0.0043539835167423204   -0.03244821627127898   -0.002008949052191821
0.0043492950148591855   -0.03247515575652969   -0.0020242435745446564
0.0044627899184178565   -0.02325410704625886   -0.001936012131226576
0.009516157132032728   -0.032371398166475406   -0.0020923587972962263
0.0043492950148591855   -0.03247515575652969   -0.0020242435745446564
0.009339122545244407   -0.02333344641064789   -0.0020150253002144307
-0.014781849440580468   -0.0326158919493587   -0.0024606450099518605
-0.015242193015822051   -0.04188894279632421   -0.002419389423347592
-0.0097138283876822   -0.032563813251346385   -0.00227567091977775
-0.014844637202981459   -0.03272928469710673   -0.00239332809039686
-0.015242193015822051   -0.04188894279632421   -0.002419389423347592
-0.010180990830857365   -0.04191322190996117   -0.00228269399066394
-0.0097138283876822   -0.032563813251346385   -0.00227567091977775
-0.010153567433698779   -0.04198270435653059   -0.0022617176054005638
-0.014844637202981459   -0.03272928469710673   -0.00239332809039686
-0.009709767639789047   -0.032648157738656196   -0.0022203246180829833
-0.010153567433698779   -0.04198270435653059   -0.0022617176054005638
-0.0097138283876822   -0.032563813251346385   -0.00227567091977775
-0.014844637202981459   -0.03272928469710673   -0.00239332809039686
-0.010153567433698779   -0.04198270435653059   -0.0022617176054005638
-0.01522444919611217   -0.04198191669949115   -0.002415111188968894
-0.015242193015822051   -0.04188894279632421   -0.002419389423347592
-0.014844637202981459   -0.03272928469710673   -0.00239332809039686
-0.010153567433698779   -0.04198270435653059   -0.0022617176054005638
-0.015242193015822051   -0.04188894279632421   -0.002419389423347592
-0.0097138283876822   -0.032563813251346385   -0.00227567091977775
-0.014844637202981459   -0.03272928469710673   -0.00239332809039686
-0.01522444919611217   -0.04198191669949115   -0.002415111188968894
-0.009709767639789047   -0.032648157738656196   -0.0022203246180829833
-0.014864469736748915   -0.032821804766492185   -0.0023392390555826764
-0.01522444919611217   -0.04198191669949115   -0.002415111188968894
-0.010153567433698779   -0.04198270435653059   -0.0022617176054005638
-0.009709767639789047   -0.032648157738656196   -0.0022203246180829833
-0.010110870318296829   -0.042059722892682776   -0.002250207616372299
-0.014864469736748915   -0.032821804766492185   -0.0023392390555826764
-0.009696548801316353   -0.032725993735188384   -0.0021741692220356543
-0.010110870318296829   -0.042059722892682776   -0.002250207616372299
-0.009709767639789047   -0.032648157738656196   -0.0022203246180829833
-0.014864469736748915   -0.032821804766492185   -0.0023392390555826764
-0.010110870318296829   -0.042059722892682776   -0.002250207616372299
-0.015177707733944784   -0.04207223259820328   -0.0024249785598981044
-0.01522444919611217   -0.04198191669949115   -0.002415111188968894
-0.014864469736748915   -0.032821804766492185   -0.0023392390555826764
-0.010110870318296829   -0.042059722892682776   -0.002250207616372299
-0.01522444919611217   -0.04198191669949115   -0.002415111188968894
-0.009709767639789047   -0.032648157738656196   -0.0022203246180829833
-0.014864469736748915   -0.032821804766492185   -0.0023392390555826764
-0.015177707733944784   -0.04207223259820328   -0.0024249785598981044
-0.009696548801316353   -0.032725993735188384   -0.0021741692220356543
-0.014870925780608253   -0.03292233193822376   -0.002299516752759515
-0.015177707733944784   -0.04207223259820328   -0.0024249785598981044
-0.010110870318296829   -0.042059722892682776   -0.002250207616372299
-0.009696548801316353   -0.032725993735188384   -0.0021741692220356543
-0.010055621825929596   -0.04214958310420001   -0.0022480079841219443
-0.014870925780608253   -0.03292233193822376   -0.002299516752759515
-0.009664274527573123   -0.032803257012510016   -0.0021365582965939735
-0.010055621825929596   -0.04214958310420001   -0.0022480079841219443
-0.009696548801316353   -0.032725993735188384   -0.0021741692220356543
-0.014870925780608253   -0.03292233193822376   -0.002299516752759515
-0.010055621825929596   -0.04214958310420001   -0.0022480079841219443
-0.01510196624569315   -0.04218861055855256   -0.0024497098688442275
-0.015177707733944784   -0.04207223259820328   -0.0024249785598981044
-0.014870925780608253   -0.03292233193822376   -0.002299516752759515
-0.010055621825929596   -0.04214958310420001   -0.0022480079841219443
-0.015177707733944784   -0.04207223259820328   -0.0024249785598981044
-0.009696548801316353   -0.032725993735188384   -0.0021741692220356543
-0.0097138283876822   -0.032563813251346385   -0.00227567091977775
-0.010180990830857365   -0.04191322190996117   -0.00228269399066394
-0.005006038431262354   -0.032533873886019096   -0.0021497494674833488
-0.009709767639789047   -0.032648157738656196   -0.0022203246180829833
-0.010180990830857365   -0.04191322190996117   -0.00228269399066394
-0.005544793713589122   -0.04191845342530922   -0.0021918465211765775
-0.005006038431262354   -0.032533873886019096   -0.0021497494674833488
-0.005508152152454116   -0.04195829004307399   -0.0021545556442317143
-0.009709767639789047   -0.032648157738656196   -0.0022203246180829833
-0.004988258780026855   -0.032584905964881616   -0.002101460334891574
-0.005508152152454116   -0.04195829004307399   -0.0021545556442317143
-0.005006038431262354   -0.032533873886019096   -0.0021497494674833488
-0.009709767639789047   -0.032648157738656196   -0.0022203246180829833
-0.005508152152454116   -0.04195829004307399   -0.0021545556442317143
-0.010153567433698779   -0.04198270435653059   -0.0022617176054005638
-0.010180990830857365   -0.04191322190996117   -0.00228269399066394
-0.009709767639789047   -0.032648157738656196   -0.0022203246180829833
-0.005508152152454116   -0.04195829004307399   -0.0021545556442317143
-0.010180990830857365   -0.04191322190996117   -0.00228269399066394
-0.005006038431262354   -0.032533873886019096   -0.0021497494674833488
-0.009709767639789047   -0.032648157738656196   -0.0022203246180829833
-0.010153567433698779   -0.04198270435653059   -0.0022617176054005638
-0.004988258780026855   -0.032584905964881616   -0.002101460334891574
-0.009696548801316353   -0.032725993735188384   -0.0021741692220356543
-0.010153567433698779   -0.04198270435653059   -0.0022617176054005638
-0.005508152152454116   -0.04195829004307399   -0.0021545556442317143
-0.004988258780026855   -0.032584905964881616   -0.002101460334891574
-0.005466778248357867   -0.04200676062304123   -0.002126766000746043
-0.009696548801316353   -0.032725993735188384   -0.0021741692220356543
-0.004966503407961987   -0.0326317604154274   -0.002062368448736018
-0.005466778248357867   -0.04200676062304123   -0.002126766000746043
-0.004988258780026855   -0.032584905964881616   -0.002101460334891574
-0.009696548801316353   -0.032725993735188384   -0.0021741692220356543
-0.005466778248357867   -0.04200676062304123   -0.002126766000746043
-0.010110870318296829   -0.042059722892682776   -0.002250207616372299
-0.010153567433698779   -0.04198270435653059   -0.0022617176054005638
-0.009696548801316353   -0.032725993735188384   -0.0021741692220356543
-0.005466778248357867   -0.04200676062304123   -0.002126766000746043
-0.010153567433698779   -0.04198270435653059   -0.0022617176054005638
-0.004988258780026855   -0.032584905964881616   -0.002101460334891574
-0.009696548801316353   -0.032725993735188384   -0.0021741692220356543
-0.010110870318296829   -0.042059722892682776   -0.002250207616372299
-0.004966503407961987   -0.0326317604154274   -0.002062368448736018
-0.009664274527573123   -0.032803257012510016   -0.0021365582965939735
-0.010110870318296829   -0.042059722892682776   -0.002250207616372299
-0.005466778248357867   -0.04200676062304123   -0.002126766000746043
-0.004966503407961987   -0.0326317604154274   -0.002062368448736018
-0.0054222019377586535   -0.04206401635134244   -0.002108787065086683
-0.009664274527573123   -0.032803257012510016   -0.0021365582965939735
-0.0049403990888141945   -0.032674591763039225   -0.002032696082393735
-0.0054222019377586535   -0.04206401635134244   -0.002108787065086683
-0.004966503407961987   -0.0326317604154274   -0.002062368448736018
-0.009664274527573123   -0.032803257012510016   -0.0021365582965939735
-0.0054222019377586535   -0.04206401635134244   -0.002108787065086683
-0.010055621825929596   -0.04214958310420001   -0.0022480079841219443
-0.010110870318296829   -0.042059722892682776   -0.002250207616372299
-0.009664274527573123   -0.032803257012510016   -0.0021365582965939735
-0.0054222019377586535   -0.04206401635134244   -0.002108787065086683
-0.010110870318296829   -0.042059722892682776   -0.002250207616372299
-0.004966503407961987   -0.0326317604154274   -0.002062368448736018
-0.005006038431262354   -0.032533873886019096   -0.0021497494674833488
-0.005544793713589122   -0.04191845342530922   -0.0021918465211765775
-0.0004256506249696547   -0.032516688429422   -0.002084678962391436
-0.004988258780026855   -0.032584905964881616   -0.002101460334891574
-0.005544793713589122   -0.04191845342530922   -0.0021918465211765775
-0.0010397268631596398   -0.04189382985368855   -0.0021547812539735754
-0.0004256506249696547   -0.032516688429422   -0.002084678962391436
-0.0009964212533188214   -0.041903017779219294   -0.002101988372689515
-0.004988258780026855   -0.032584905964881616   -0.002101460334891574
-0.000400878299738902   -0.03253378421027907   -0.0020439323092810062
-0.0009964212533188214   -0.041903017779219294   -0.002101988372689515
-0.0004256506249696547   -0.032516688429422   -0.002084678962391436
-0.004988258780026855   -0.032584905964881616   -0.002101460334891574
-0.0009964212533188214   -0.041903017779219294   -0.002101988372689515
-0.005508152152454116   -0.04195829004307399   -0.0021545556442317143
-0.005544793713589122   -0.04191845342530922   -0.0021918465211765775
-0.004988258780026855   -0.032584905964881616   -0.002101460334891574
-0.0009964212533188214   -0.041903017779219294   -0.002101988372689515
-0.005544793713589122   -0.04191845342530922   -0.0021918465211765775
-0.0004256506249696547   -0.032516688429422   -0.002084678962391436
-0.004988258780026855   -0.032584905964881616   -0.002101460334891574
-0.005508152152454116   -0.04195829004307399   -0.0021545556442317143
-0.000400878299738902   -0.03253378421027907   -0.0020439323092810062
-0.004966503407961987   -0.0326317604154274   -0.002062368448736018
-0.005508152152454116   -0.04195829004307399   -0.0021545556442317143
-0.0009964212533188214   -0.041903017779219294   -0.002101988372689515
-0.000400878299738902   -0.03253378421027907   -0.0020439323092810062
-0.0009554454150514311   -0.04192016706549119   -0.0020586306834195255
-0.004966503407961987   -0.0326317604154274   -0.002062368448736018
-0.0003794006289982144   -0.03254640538553189   -0.002012304570059832
-0.0009554454150514311   -0.04192016706549119   -0.0020586306834195255
-0.000400878299738902   -0.03253378421027907   -0.0020439323092810062
-0.004966503407961987   -0.0326317604154274   -0.002062368448736018
-0.0009554454150514311   -0.04192016706549119   -0.0020586306834195255
-0.005466778248357867   -0.04200676062304123   -0.002126766000746043
-0.005508152152454116   -0.04195829004307399   -0.0021545556442317143
-0.004966503407961987   -0.0326317604154274   -0.002062368448736018
-0.0009554454150514311   -0.04192016706549119   -0.0020586306834195255
-0.005508152152454116   -0.04195829004307399   -0.0021545556442317143
-0.000400878299738902   -0.03253378421027907   -0.0020439323092810062
-0.004966503407961987   -0.0326317604154274   -0.002062368448736018
-0.005466778248357867   -0.04200676062304123   -0.002126766000746043
-0.0003794006289982144   -0.03254640538553189   -0.002012304570059832
-0.0049403990888141945   -0.032674591763039225   -0.002032696082393735
-0.005466778248357867   -0.04200676062304123   -0.002126766000746043
-0.0009554454150514311   -0.04192016706549119   -0.0020586306834195255
-0.0003794006289982144   -0.03254640538553189   -0.002012304570059832
-0.0009206325725662555   -0.041945667468735945   -0.0020250370874506625
-0.0049403990888141945   -0.032674591763039225   -0.002032696082393735
-0.00036297581002007426   -0.03255448645163074   -0.0019901275707196776
-0.0009206325725662555   -0.041945667468735945   -0.0020250370874506625
-0.0003794006289982144   -0.03254640538553189   -0.002012304570059832
-0.0049403990888141945   -0.032674591763039225   -0.002032696082393735
-0.0009206325725662555   -0.041945667468735945   -0.0020250370874506625
-0.0054222019377586535   -0.04206401635134244   -0.002108787065086683
-0.005466778248357867   -0.04200676062304123   -0.002126766000746043
-0.0049403990888141945   -0.032674591763039225   -0.002032696082393735
-0.0009206325725662555   -0.041945667468735945   -0.0020250370874506625
-0.005466778248357867   -0.04200676062304123   -0.002126766000746043
-0.0003794006289982144   -0.03254640538553189   -0.002012304570059832
-0.0004256506249696547   -0.032516688429422   -0.002084678962391436
-0.0010397268631596398   -0.04189382985368855   -0.0021547812539735754
0.0042944897998931034   -0.0325092945744179   -0.00208104084405291
-0.000400878299738902   -0.03253378421027907   -0.0020439323092810062
-0.0010397268631596398   -0.04189382985368855   -0.0021547812539735754
0.003600831111678971   -0.04183911651406888   -0.002173280195275158
0.0042944897998931034   -0.0325092945744179   -0.00208104084405291
0.0036560397346851637   -0.041817548431501664   -0.0021052555784269286
-0.000400878299738902   -0.03253378421027907   -0.0020439323092810062
0.004327262992133331   -0.03249351209117604   -0.0020482138212567468
0.0036560397346851637   -0.041817548431501664   -0.0021052555784269286
0.0042944897998931034   -0.0325092945744179   -0.00208104084405291
-0.000400878299738902   -0.03253378421027907   -0.0020439323092810062
0.0036560397346851637   -0.041817548431501664   -0.0021052555784269286
-0.0009964212533188214   -0.041903017779219294   -0.002101988372689515
-0.0010397268631596398   -0.04189382985368855   -0.0021547812539735754
-0.000400878299738902   -0.03253378421027907   -0.0020439323092810062
0.0036560397346851637   -0.041817548431501664   -0.0021052555784269286
-0.0010397268631596398   -0.04189382985368855   -0.0021547812539735754
0.0042944897998931034   -0.0325092945744179   -0.00208104084405291
-0.000400878299738902   -0.03253378421027907   -0.0020439323092810062
-0.0009964212533188214   -0.041903017779219294   -0.002101988372689515
0.004327262992133331   -0.03249351209117604   -0.0020482138212567468
-0.0003794006289982144   -0.03254640538553189   -0.002012304570059832
-0.0009964212533188214   -0.041903017779219294   -0.002101988372689515
0.0036560397346851637   -0.041817548431501664   -0.0021052555784269286
0.004327262992133331   -0.03249351209117604   -0.0020482138212567468
0.0037070895689671948   -0.04180632943817661   -0.002046637171826065
-0.0003794006289982144   -0.03254640538553189   -0.002012304570059832
0.0043492950148591855   -0.03247515575652969   -0.0020242435745446564
0.0037070895689671948   -0.04180632943817661   -0.002046637171826065
0.004327262992133331   -0.03249351209117604   -0.0020482138212567468
-0.0003794006289982144   -0.03254640538553189   -0.002012304570059832
0.0037070895689671948   -0.04180632943817661   -0.002046637171826065
-0.0009554454150514311   -0.04192016706549119   -0.0020586306834195255
-0.0009964212533188214   -0.041903017779219294   -0.002101988372689515
-0.0003794006289982144   -0.03254640538553189   -0.002012304570059832
0.0037070895689671948   -0.04180632943817661   -0.002046637171826065
-0.0009964212533188214   -0.041903017779219294   -0.002101988372689515
0.004327262992133331   -0.03249351209117604   -0.0020482138212567468
-0.0003794006289982144   -0.03254640538553189   -0.002012304570059832
-0.0009554454150514311   -0.04192016706549119   -0.0020586306834195255
0.0043492950148591855   -0.03247515575652969   -0.0020242435745446564
-0.00036297581002007426   -0.03255448645163074   -0.0019901275707196776
-0.0009554454150514311   -0.04192016706549119   -0.0020586306834195255
0.0037070895689671948   -0.04180632943817661   -0.002046637171826065
0.0043492950148591855   -0.03247515575652969   -0.0020242435745446564
0.0037345680974211555   -0.04180004497447218   -0.0019968108784353352
-0.00036297581002007426   -0.03255448645163074   -0.0019901275707196776
0.0043539835167423204   -0.03244821627127898   -0.002008949052191821
0.0037345680974211555   -0.04180004497447218   -0.0019968108784353352
0.0043492950148591855   -0.03247515575652969   -0.0020242435745446564
-0.00036297581002007426   -0.03255448645163074   -0.0019901275707196776
0.0037345680974211555   -0.04180004497447218   -0.0019968108784353352
-0.0009206325725662555   -0.041945667468735945   -0.0020250370874506625
-0.0009554454150514311   -0.04192016706549119   -0.0020586306834195255
-0.00036297581002007426   -0.03255448645163074   -0.0019901275707196776
0.0037345680974211555   -0.04180004497447218   -0.0019968108784353352
-0.0009554454150514311   -0.04192016706549119   -0.0020586306834195255
0.0043492950148591855   -0.03247515575652969   -0.0020242435745446564
0.0042944897998931034   -0.0325092945744179   -0.00208104084405291
0.003600831111678971   -0.04183911651406888   -0.002173280195275158
0.009409518382170827   -0.03249898795258772   -0.002132713033785512
0.004327262992133331   -0.03249351209117604   -0.0020482138212567468
0.003600831111678971   -0.04183911651406888   -0.002173280195275158
0.008568971156373752   -0.041747145915797645   -0.0022502796176744663
0.009409518382170827   -0.03249898795258772   -0.002132713033785512
0.00871290346425726   -0.04169768818670978   -0.0021609484311709854
0.004327262992133331   -0.03249351209117604   -0.0020482138212567468
0.009473609264260299   -0.03245721219870463   -0.002105725170634249
0.00871290346425726   -0.04169768818670978   -0.0021609484311709854
0.009409518382170827   -0.03249898795258772   -0.002132713033785512
0.004327262992133331   -0.03249351209117604   -0.0020482138212567468
0.00871290346425726   -0.04169768818670978   -0.0021609484311709854
0.0036560397346851637   -0.041817548431501664   -0.0021052555784269286
0.003600831111678971   -0.04183911651406888   -0.002173280195275158
0.004327262992133331   -0.03249351209117604   -0.0020482138212567468
0.00871290346425726   -0.04169768818670978   -0.0021609484311709854
0.003600831111678971   -0.04183911651406888   -0.002173280195275158
0.009409518382170827   -0.03249898795258772   -0.002132713033785512
0.004327262992133331   -0.03249351209117604   -0.0020482138212567468
0.0036560397346851637   -0.041817548431501664   -0.0021052555784269286
0.009473609264260299   -0.03245721219870463   -0.002105725170634249
0.0043492950148591855   -0.03247515575652969   -0.0020242435745446564
0.0036560397346851637   -0.041817548431501664   -0.0021052555784269286
0.00871290346425726   -0.04169768818670978   -0.0021609484311709854
0.009473609264260299   -0.03245721219870463   -0.002105725170634249
0.008811873167841194   -0.04167369991629328   -0.0020850158676523397
0.0043492950148591855   -0.03247515575652969   -0.0020242435745446564
0.009507639154783901   -0.0324242405952191   -0.0020921972689118707
0.008811873167841194   -0.04167369991629328   -0.0020850158676523397
0.009473609264260299   -0.03245721219870463   -0.002105725170634249
0.0043492950148591855   -0.03247515575652969   -0.0020242435745446564
0.008811873167841194   -0.04167369991629328   -0.0020850158676523397
0.0037070895689671948   -0.04180632943817661   -0.002046637171826065
0.0036560397346851637   -0.041817548431501664   -0.0021052555784269286
0.0043492950148591855   -0.03247515575652969   -0.0020242435745446564
0.008811873167841194   -0.04167369991629328   -0.0020850158676523397
0.0036560397346851637   -0.041817548431501664   -0.0021052555784269286
0.009473609264260299   -0.03245721219870463   -0.002105725170634249
0.0043492950148591855   -0.03247515575652969   -0.0020242435745446564
0.0037070895689671948   -0.04180632943817661   -0.002046637171826065
0.009507639154783901   -0.0324242405952191   -0.0020921972689118707
0.0043539835167423204   -0.03244821627127898   -0.002008949052191821
0.0037070895689671948   -0.04180632943817661   -0.002046637171826065
0.008811873167841194   -0.04167369991629328   -0.0020850158676523397
0.009507639154783901   -0.0324242405952191   -0.0020921972689118707
0.008899842614698698   -0.04164764694480482   -0.0020230388731356293
0.0043539835167423204   -0.03244821627127898   -0.002008949052191821
0.009516157132032728   -0.032371398166475406   -0.0020923587972962263
0.008899842614698698   -0.04164764694480482   -0.0020230388731356293
0.009507639154783901   -0.0324242405952191   -0.0020921972689118707
0.0043539835167423204   -0.03244821627127898   -0.002008949052191821
0.008899842614698698   -0.04164764694480482   -0.0020230388731356293
0.0037345680974211555   -0.04180004497447218   -0.0019968108784353352
0.0037070895689671948   -0.04180632943817661   -0.002046637171826065
0.0043539835167423204   -0.03244821627127898   -0.002008949052191821
0.008899842614698698   -0.04164764694480482   -0.0020230388731356293
0.0037070895689671948   -0.04180632943817661   -0.002046637171826065
0.009507639154783901   -0.0324242405952191   -0.0020921972689118707
-0.015242193015822051   -0.04188894279632421   -0.002419389423347592
-0.01483302429791635   -0.05074209050225418   -0.002313423804475409
-0.010180990830857365   -0.04191322190996117   -0.00228269399066394
-0.01522444919611217   -0.04198191669949115   -0.002415111188968894
-0.01483302429791635   -0.05074209050225418   -0.002313423804475409
-0.010138892036850696   -0.05084405328864315   -0.002231148434523283
-0.010180990830857365   -0.04191322190996117   -0.00228269399066394
-0.010079447847336446   -0.050895905499262796   -0.002243612853499222
-0.01522444919611217   -0.04198191669949115   -0.002415111188968894
-0.010153567433698779   -0.04198270435653059   -0.0022617176054005638
-0.010079447847336446   -0.050895905499262796   -0.002243612853499222
-0.010180990830857365   -0.04191322190996117   -0.00228269399066394
-0.01522444919611217   -0.04198191669949115   -0.002415111188968894
-0.010079447847336446   -0.050895905499262796   -0.002243612853499222
-0.014725707037922408   -0.05081210470055452   -0.002372281003719154
-0.01483302429791635   -0.05074209050225418   -0.002313423804475409
-0.01522444919611217   -0.04198191669949115   -0.002415111188968894
-0.010079447847336446   -0.050895905499262796   -0.002243612853499222
-0.01483302429791635   -0.05074209050225418   -0.002313423804475409
-0.010180990830857365   -0.04191322190996117   -0.00228269399066394
-0.01522444919611217   -0.04198191669949115   -0.002415111188968894
-0.014725707037922408   -0.05081210470055452   -0.002372281003719154
-0.010153567433698779   -0.04198270435653059   -0.0022617176054005638
-0.015177707733944784   -0.04207223259820328   -0.0024249785598981044
-0.014725707037922408   -0.05081210470055452   -0.002372281003719154
-0.010079447847336446   -0.050895905499262796   -0.002243612853499222
-0.010153567433698779   -0.04198270435653059   -0.0022617176054005638
-0.009998996635827756   -0.05096976793474164   -0.0022657773436971134
-0.015177707733944784   -0.04207223259820328   -0.0024249785598981044
-0.010110870318296829   -0.042059722892682776   -0.002250207616372299
-0.009998996635827756   -0.05096976793474164   -0.0022657773436971134
-0.010153567433698779   -0.04198270435653059   -0.0022617176054005638
-0.015177707733944784   -0.04207223259820328   -0.0024249785598981044
-0.009998996635827756   -0.05096976793474164   -0.0022657773436971134
-0.014603275852510807   -0.05089808511530801   -0.002446392667363233
-0.014725707037922408   -0.05081210470055452   -0.002372281003719154
-0.015177707733944784   -0.04207223259820328   -0.0024249785598981044
-0.009998996635827756   -0.05096976793474164   -0.0022657773436971134
-0.014725707037922408   -0.05081210470055452   -0.002372281003719154
-0.010153567433698779   -0.04198270435653059   -0.0022617176054005638
-0.015177707733944784   -0.04207223259820328   -0.0024249785598981044
-0.014603275852510807   -0.05089808511530801   -0.002446392667363233
-0.010110870318296829   -0.042059722892682776   -0.002250207616372299
-0.01510196624569315   -0.04218861055855256   -0.0024497098688442275
-0.014603275852510807   -0.05089808511530801   -0.002446392667363233
-0.009998996635827756   -0.05096976793474164   -0.0022657773436971134
-0.010110870318296829   -0.042059722892682776   -0.002250207616372299
-0.00991268700959368   -0.05107014830049364   -0.00229792585156846
-0.01510196624569315   -0.04218861055855256   -0.0024497098688442275
-0.010055621825929596   -0.04214958310420001   -0.0022480079841219443
-0.00991268700959368   -0.05107014830049364   -0.00229792585156846
-0.010110870318296829   -0.042059722892682776   -0.002250207616372299
-0.01510196624569315   -0.04218861055855256   -0.0024497098688442275
-0.00991268700959368   -0.05107014830049364   -0.00229792585156846
-0.014436609982951836   -0.05102899029266162   -0.002536043598036863
-0.014603275852510807   -0.05089808511530801   -0.002446392667363233
-0.01510196624569315   -0.04218861055855256   -0.0024497098688442275
-0.00991268700959368   -0.05107014830049364   -0.00229792585156846
-0.014603275852510807   -0.05089808511530801   -0.002446392667363233
-0.010110870318296829   -0.042059722892682776   -0.002250207616372299
-0.010180990830857365   -0.04191322190996117   -0.00228269399066394
-0.010138892036850696   -0.05084405328864315   -0.002231148434523283
-0.005544793713589122   -0.04191845342530922   -0.0021918465211765775
-0.010153567433698779   -0.04198270435653059   -0.0022617176054005638
-0.010138892036850696   -0.05084405328864315   -0.002231148434523283
-0.005930766619366505   -0.05088434474768524   -0.0021785018034883646
-0.005544793713589122   -0.04191845342530922   -0.0021918465211765775
-0.005866050874257227   -0.05091128583532722   -0.0021513464347853936
-0.010153567433698779   -0.04198270435653059   -0.0022617176054005638
-0.005508152152454116   -0.04195829004307399   -0.0021545556442317143
-0.005866050874257227   -0.05091128583532722   -0.0021513464347853936
-0.005544793713589122   -0.04191845342530922   -0.0021918465211765775
-0.010153567433698779   -0.04198270435653059   -0.0022617176054005638
-0.005866050874257227   -0.05091128583532722   -0.0021513464347853936
-0.010079447847336446   -0.050895905499262796   -0.002243612853499222
-0.010138892036850696   -0.05084405328864315   -0.002231148434523283
-0.010153567433698779   -0.04198270435653059   -0.0022617176054005638
-0.005866050874257227   -0.05091128583532722   -0.0021513464347853936
-0.010138892036850696   -0.05084405328864315   -0.002231148434523283
-0.005544793713589122   -0.04191845342530922   -0.0021918465211765775
-0.010153567433698779   -0.04198270435653059   -0.0022617176054005638
-0.010079447847336446   -0.050895905499262796   -0.002243612853499222
-0.005508152152454116   -0.04195829004307399   -0.0021545556442317143
-0.010110870318296829   -0.042059722892682776   -0.002250207616372299
-0.010079447847336446   -0.050895905499262796   -0.002243612853499222
-0.005866050874257227   -0.05091128583532722   -0.0021513464347853936
-0.005508152152454116   -0.04195829004307399   -0.0021545556442317143
-0.005796442090996116   -0.050959386207147316   -0.0021337725507065445
-0.010110870318296829   -0.042059722892682776   -0.002250207616372299
-0.005466778248357867   -0.04200676062304123   -0.002126766000746043
-0.005796442090996116   -0.050959386207147316   -0.0021337725507065445
-0.005508152152454116   -0.04195829004307399   -0.0021545556442317143
-0.010110870318296829   -0.042059722892682776   -0.002250207616372299
-0.005796442090996116   -0.050959386207147316   -0.0021337725507065445
-0.009998996635827756   -0.05096976793474164   -0.0022657773436971134
-0.010079447847336446   -0.050895905499262796   -0.002243612853499222
-0.010110870318296829   -0.042059722892682776   -0.002250207616372299
-0.005796442090996116   -0.050959386207147316   -0.0021337725507065445
-0.010079447847336446   -0.050895905499262796   -0.002243612853499222
-0.005508152152454116   -0.04195829004307399   -0.0021545556442317143
-0.010110870318296829   -0.042059722892682776   -0.002250207616372299
-0.009998996635827756   -0.05096976793474164   -0.0022657773436971134
-0.005466778248357867   -0.04200676062304123   -0.002126766000746043
-0.010055621825929596   -0.04214958310420001   -0.0022480079841219443
-0.009998996635827756   -0.05096976793474164   -0.0022657773436971134
-0.005796442090996116   -0.050959386207147316   -0.0021337725507065445
-0.005466778248357867   -0.04200676062304123   -0.002126766000746043
-0.005724892873372761   -0.0510292524960533   -0.002126250140214138
-0.010055621825929596   -0.04214958310420001   -0.0022480079841219443
-0.0054222019377586535   -0.04206401635134244   -0.002108787065086683
-0.005724892873372761   -0.0510292524960533   -0.002126250140214138
-0.005466778248357867   -0.04200676062304123   -0.002126766000746043
-0.010055621825929596   -0.04214958310420001   -0.0022480079841219443
-0.005724892873372761   -0.0510292524960533   -0.002126250140214138
-0.00991268700959368   -0.05107014830049364   -0.00229792585156846
-0.009998996635827756   -0.05096976793474164   -0.0022657773436971134
-0.010055621825929596   -0.04214958310420001   -0.0022480079841219443
-0.005724892873372761   -0.0510292524960533   -0.002126250140214138
-0.009998996635827756   -0.05096976793474164   -0.0022657773436971134
-0.005466778248357867   -0.04200676062304123   -0.002126766000746043
-0.005544793713589122   -0.04191845342530922   -0.0021918465211765775
-0.005930766619366505   -0.05088434474768524   -0.0021785018034883646
-0.0010397268631596398   -0.04189382985368855   -0.0021547812539735754
-0.005508152152454116   -0.04195829004307399   -0.0021545556442317143
-0.005930766619366505   -0.05088434474768524   -0.0021785018034883646
-0.0018500291350536226   -0.05085330733804008   -0.0021698803731658735
-0.0010397268631596398   -0.04189382985368855   -0.0021547812539735754
-0.001778452990893422   -0.05085388510321658   -0.0021044642113353675
-0.005508152152454116   -0.04195829004307399   -0.0021545556442317143
-0.0009964212533188214   -0.041903017779219294   -0.002101988372689515
-0.001778452990893422   -0.05085388510321658   -0.0021044642113353675
-0.0010397268631596398   -0.04189382985368855   -0.0021547812539735754
-0.005508152152454116   -0.04195829004307399   -0.0021545556442317143
-0.001778452990893422   -0.05085388510321658   -0.0021044642113353675
-0.005866050874257227   -0.05091128583532722   -0.0021513464347853936
-0.005930766619366505   -0.05088434474768524   -0.0021785018034883646
-0.005508152152454116   -0.04195829004307399   -0.0021545556442317143
-0.001778452990893422   -0.05085388510321658   -0.0021044642113353675
-0.005930766619366505   -0.05088434474768524   -0.0021785018034883646
-0.0010397268631596398   -0.04189382985368855   -0.0021547812539735754
-0.005508152152454116   -0.04195829004307399   -0.0021545556442317143
-0.005866050874257227   -0.05091128583532722   -0.0021513464347853936
-0.0009964212533188214   -0.041903017779219294   -0.002101988372689515
-0.005466778248357867   -0.04200676062304123   -0.002126766000746043
-0.005866050874257227   -0.05091128583532722   -0.0021513464347853936
-0.001778452990893422   -0.05085388510321658   -0.0021044642113353675
-0.0009964212533188214   -0.041903017779219294   -0.002101988372689515
-0.0017087479024108633   -0.05087407710680474   -0.002048654185588796
-0.005466778248357867   -0.04200676062304123   -0.002126766000746043
-0.0009554454150514311   -0.04192016706549119   -0.0020586306834195255
-0.0017087479024108633   -0.05087407710680474   -0.002048654185588796
-0.0009964212533188214   -0.041903017779219294   -0.002101988372689515
-0.005466778248357867   -0.04200676062304123   -0.002126766000746043
-0.0017087479024108633   -0.05087407710680474   -0.002048654185588796
-0.005796442090996116   -0.050959386207147316   -0.0021337725507065445
-0.005866050874257227   -0.05091128583532722   -0.0021513464347853936
-0.005466778248357867   -0.04200676062304123   -0.002126766000746043
-0.0017087479024108633   -0.05087407710680474   -0.002048654185588796
-0.005866050874257227   -0.05091128583532722   -0.0021513464347853936
-0.0009964212533188214   -0.041903017779219294   -0.002101988372689515
-0.005466778248357867   -0.04200676062304123   -0.002126766000746043
-0.005796442090996116   -0.050959386207147316   -0.0021337725507065445
-0.0009554454150514311   -0.04192016706549119   -0.0020586306834195255
-0.0054222019377586535   -0.04206401635134244   -0.002108787065086683
-0.005796442090996116   -0.050959386207147316   -0.0021337725507065445
-0.0017087479024108633   -0.05087407710680474   -0.002048654185588796
-0.0009554454150514311   -0.04192016706549119   -0.0020586306834195255
-0.0016465408639084018   -0.05091555229422973   -0.00200278381690414
-0.0054222019377586535   -0.04206401635134244   -0.002108787065086683
-0.0009206325725662555   -0.041945667468735945   -0.0020250370874506625
-0.0016465408639084018   -0.05091555229422973   -0.00200278381690414
-0.0009554454150514311   -0.04192016706549119   -0.0020586306834195255
-0.0054222019377586535   -0.04206401635134244   -0.002108787065086683
-0.0016465408639084018   -0.05091555229422973   -0.00200278381690414
-0.005724892873372761   -0.0510292524960533   -0.002126250140214138
-0.005796442090996116   -0.050959386207147316   -0.0021337725507065445
-0.0054222019377586535   -0.04206401635134244   -0.002108787065086683
-0.0016465408639084018   -0.05091555229422973   -0.00200278381690414
-0.005796442090996116   -0.050959386207147316   -0.0021337725507065445
-0.0009554454150514311   -0.04192016706549119   -0.0020586306834195255
-0.0010397268631596398   -0.04189382985368855   -0.0021547812539735754
-0.0018500291350536226   -0.05085330733804008   -0.0021698803731658735
0.003600831111678971   -0.04183911651406888   -0.002173280195275158
-0.0009964212533188214   -0.041903017779219294   -0.002101988372689515
-0.0018500291350536226   -0.05085330733804008   -0.0021698803731658735
0.002371149455652089   -0.05075302147127271   -0.002208738346470931
0.003600831111678971   -0.04183911651406888   -0.002173280195275158
0.0024586679084421027   -0.050725458402713954   -0.0021054172356235806
-0.0009964212533188214   -0.041903017779219294   -0.002101988372689515
0.0036560397346851637   -0.041817548431501664   -0.0021052555784269286
0.0024586679084421027   -0.050725458402713954   -0.0021054172356235806
0.003600831111678971   -0.04183911651406888   -0.002173280195275158
-0.0009964212533188214   -0.041903017779219294   -0.002101988372689515
0.0024586679084421027   -0.050725458402713954   -0.0021054172356235806
-0.001778452990893422   -0.05085388510321658   -0.0021044642113353675
-0.0018500291350536226   -0.05085330733804008   -0.0021698803731658735
-0.0009964212533188214   -0.041903017779219294   -0.002101988372689515
0.0024586679084421027   -0.050725458402713954   -0.0021054172356235806
-0.0018500291350536226   -0.05085330733804008   -0.0021698803731658735
0.003600831111678971   -0.04183911651406888   -0.002173280195275158
-0.0009964212533188214   -0.041903017779219294   -0.002101988372689515
-0.001778452990893422   -0.05085388510321658   -0.0021044642113353675
0.0036560397346851637   -0.041817548431501664   -0.0021052555784269286
-0.0009554454150514311   -0.04192016706549119   -0.0020586306834195255
-0.001778452990893422   -0.05085388510321658   -0.0021044642113353675
0.0024586679084421027   -0.050725458402713954   -0.0021054172356235806
0.0036560397346851637   -0.041817548431501664   -0.0021052555784269286
0.002548424794129273   -0.0507203060896646   -0.002012316323231626
-0.0009554454150514311   -0.04192016706549119   -0.0020586306834195255
0.0037070895689671948   -0.04180632943817661   -0.002046637171826065
0.002548424794129273   -0.0507203060896646   -0.002012316323231626
0.0036560397346851637   -0.041817548431501664   -0.0021052555784269286
-0.0009554454150514311   -0.04192016706549119   -0.0020586306834195255
0.002548424794129273   -0.0507203060896646   -0.002012316323231626
-0.0017087479024108633   -0.05087407710680474   -0.002048654185588796
-0.001778452990893422   -0.05085388510321658   -0.0021044642113353675
-0.0009554454150514311   -0.04192016706549119   -0.0020586306834195255
0.002548424794129273   -0.0507203060896646   -0.002012316323231626
-0.001778452990893422   -0.05085388510321658   -0.0021044642113353675
0.0036560397346851637   -0.041817548431501664   -0.0021052555784269286
-0.0009554454150514311   -0.04192016706549119   -0.0020586306834195255
-0.0017087479024108633   -0.05087407710680474   -0.002048654185588796
0.0037070895689671948   -0.04180632943817661   -0.002046637171826065
-0.0009206325725662555   -0.041945667468735945   -0.0020250370874506625
-0.0017087479024108633   -0.05087407710680474   -0.002048654185588796
0.002548424794129273   -0.0507203060896646   -0.002012316323231626
0.0037070895689671948   -0.04180632943817661   -0.002046637171826065
0.0026081454603707416   -0.05073343294566228   -0.0019280874861591665
-0.0009206325725662555   -0.041945667468735945   -0.0020250370874506625
0.0037345680974211555   -0.04180004497447218   -0.0019968108784353352
0.0026081454603707416   -0.05073343294566228   -0.0019280874861591665
0.0037070895689671948   -0.04180632943817661   -0.002046637171826065
-0.0009206325725662555   -0.041945667468735945   -0.0020250370874506625
0.0026081454603707416   -0.05073343294566228   -0.0019280874861591665
-0.0016465408639084018   -0.05091555229422973   -0.00200278381690414
-0.0017087479024108633   -0.05087407710680474   -0.002048654185588796
-0.0009206325725662555   -0.041945667468735945   -0.0020250370874506625
0.0026081454603707416   -0.05073343294566228   -0.0019280874861591665
-0.0017087479024108633   -0.05087407710680474   -0.002048654185588796
0.0037070895689671948   -0.04180632943817661   -0.002046637171826065
0.003600831111678971   -0.04183911651406888   -0.002173280195275158
0.002371149455652089   -0.05075302147127271   -0.002208738346470931
0.008568971156373752   -0.041747145915797645   -0.0022502796176744663
0.0036560397346851637   -0.041817548431501664   -0.0021052555784269286
0.002371149455652089   -0.05075302147127271   -0.002208738346470931
0.006861214656893168   -0.050580594078520426   -0.0023088798985194925
0.008568971156373752   -0.041747145915797645   -0.0022502796176744663
0.007094078519009028   -0.05052380822410215   -0.002158513686104405
0.0036560397346851637   -0.041817548431501664   -0.0021052555784269286
0.00871290346425726   -0.04169768818670978   -0.0021609484311709854
0.007094078519009028   -0.05052380822410215   -0.002158513686104405
0.008568971156373752   -0.041747145915797645   -0.0022502796176744663
0.0036560397346851637   -0.041817548431501664   -0.0021052555784269286
0.007094078519009028   -0.05052380822410215   -0.002158513686104405
0.0024586679084421027   -0.050725458402713954   -0.0021054172356235806
0.002371149455652089   -0.05075302147127271   -0.002208738346470931
0.0036560397346851637   -0.041817548431501664   -0.0021052555784269286
0.007094078519009028   -0.05052380822410215   -0.002158513686104405
0.002371149455652089   -0.05075302147127271   -0.002208738346470931
0.008568971156373752   -0.041747145915797645   -0.0022502796176744663
0.0036560397346851637   -0.041817548431501664   -0.0021052555784269286
0.0024586679084421027   -0.050725458402713954   -0.0021054172356235806
0.00871290346425726   -0.04169768818670978   -0.0021609484311709854
0.0037070895689671948   -0.04180632943817661   -0.002046637171826065
0.0024586679084421027   -0.050725458402713954   -0.0021054172356235806
0.007094078519009028   -0.05052380822410215   -0.002158513686104405
0.00871290346425726   -0.04169768818670978   -0.0021609484311709854
0.007266549997418562   -0.05050818287761698   -0.002021741495105082
0.0037070895689671948   -0.04180632943817661   -0.002046637171826065
0.008811873167841194   -0.04167369991629328   -0.0020850158676523397
0.007266549997418562   -0.05050818287761698   -0.002021741495105082
0.00871290346425726   -0.04169768818670978   -0.0021609484311709854
0.0037070895689671948   -0.04180632943817661   -0.002046637171826065
0.007266549997418562   -0.05050818287761698   -0.002021741495105082
0.002548424794129273   -0.0507203060896646   -0.002012316323231626
0.0024586679084421027   -0.050725458402713954   -0.0021054172356235806
0.0037070895689671948   -0.04180632943817661   -0.002046637171826065
0.007266549997418562   -0.05050818287761698   -0.002021741495105082
0.0024586679084421027   -0.050725458402713954   -0.0021054172356235806
0.00871290346425726   -0.04169768818670978   -0.0021609484311709854
0.0037070895689671948   -0.04180632943817661   -0.002046637171826065
0.002548424794129273   -0.0507203060896646   -0.002012316323231626
0.008811873167841194   -0.04167369991629328   -0.0020850158676523397
0.0037345680974211555   -0.04180004497447218   -0.0019968108784353352
0.002548424794129273   -0.0507203060896646   -0.002012316323231626
0.007266549997418562   -0.05050818287761698   -0.002021741495105082
0.008811873167841194   -0.04167369991629328   -0.0020850158676523397
0.007441471546733446   -0.05050804708446065   -0.0018991846340535269
0.0037345680974211555   -0.04180004497447218   -0.0019968108784353352
0.008899842614698698   -0.04164764694480482   -0.0020230388731356293
0.007441471546733446   -0.05050804708446065   -0.0018991846340535269
0.008811873167841194   -0.04167369991629328   -0.0020850158676523397
0.0037345680974211555   -0.04180004497447218   -0.0019968108784353352
0.007441471546733446   -0.05050804708446065   -0.0018991846340535269
0.0026081454603707416   -0.05073343294566228   -0.0019280874861591665
0.002548424794129273   -0.0507203060896646   -0.002012316323231626
0.0037345680974211555   -0.04180004497447218   -0.0019968108784353352
0.007441471546733446   -0.05050804708446065   -0.0018991846340535269
0.002548424794129273   -0.0507203060896646   -0.002012316323231626
0.008811873167841194   -0.04167369991629328   -0.0020850158676523397
-0.01483302429791635   -0.05074209050225418   -0.002313423804475409
-0.013537210965960823   -0.058574484299676315   -0.0021575477924460564
-0.010138892036850696   -0.05084405328864315   -0.002231148434523283
-0.014725707037922408   -0.05081210470055452   -0.002372281003719154
-0.013537210965960823   -0.058574484299676315   -0.0021575477924460564
-0.009586803497908067   -0.05875833690748074   -0.002144319950875739
-0.010138892036850696   -0.05084405328864315   -0.002231148434523283
-0.00948831015593918   -0.0587849229590771   -0.0021878079465024462
-0.014725707037922408   -0.05081210470055452   -0.002372281003719154
-0.010079447847336446   -0.050895905499262796   -0.002243612853499222
-0.00948831015593918   -0.0587849229590771   -0.0021878079465024462
-0.010138892036850696   -0.05084405328864315   -0.002231148434523283
-0.014725707037922408   -0.05081210470055452   -0.002372281003719154
-0.00948831015593918   -0.0587849229590771   -0.0021878079465024462
-0.013331995295299456   -0.058613930669391856   -0.002279325171089523
-0.013537210965960823   -0.058574484299676315   -0.0021575477924460564
-0.014725707037922408   -0.05081210470055452   -0.002372281003719154
-0.00948831015593918   -0.0587849229590771   -0.0021878079465024462
-0.013537210965960823   -0.058574484299676315   -0.0021575477924460564
-0.010138892036850696   -0.05084405328864315   -0.002231148434523283
-0.014725707037922408   -0.05081210470055452   -0.002372281003719154
-0.013331995295299456   -0.058613930669391856   -0.002279325171089523
-0.010079447847336446   -0.050895905499262796   -0.002243612853499222
-0.014603275852510807   -0.05089808511530801   -0.002446392667363233
-0.013331995295299456   -0.058613930669391856   -0.002279325171089523
-0.00948831015593918   -0.0587849229590771   -0.0021878079465024462
-0.010079447847336446   -0.050895905499262796   -0.002243612853499222
-0.009364597102031006   -0.05884864825638005   -0.0022411344306873366
-0.014603275852510807   -0.05089808511530801   -0.002446392667363233
-0.009998996635827756   -0.05096976793474164   -0.0022657773436971134
-0.009364597102031006   -0.05884864825638005   -0.0022411344306873366
-0.010079447847336446   -0.050895905499262796   -0.002243612853499222
-0.014603275852510807   -0.05089808511530801   -0.002446392667363233
-0.009364597102031006   -0.05884864825638005   -0.0022411344306873366
-0.01312733914763298   -0.058688718115071196   -0.002417122062034063
-0.013331995295299456   -0.058613930669391856   -0.002279325171089523
-0.014603275852510807   -0.05089808511530801   -0.002446392667363233
-0.009364597102031006   -0.05884864825638005   -0.0022411344306873366
-0.013331995295299456   -0.058613930669391856   -0.002279325171089523
-0.010079447847336446   -0.050895905499262796   -0.002243612853499222
-0.014603275852510807   -0.05089808511530801   -0.002446392667363233
-0.01312733914763298   -0.058688718115071196   -0.002417122062034063
-0.009998996635827756   -0.05096976793474164   -0.0022657773436971134
-0.014436609982951836   -0.05102899029266162   -0.002536043598036863
-0.01312733914763298   -0.058688718115071196   -0.002417122062034063
-0.009364597102031006   -0.05884864825638005   -0.0022411344306873366
-0.009998996635827756   -0.05096976793474164   -0.0022657773436971134
-0.009242539009774552   -0.058953132963567065   -0.0023042069139039482
-0.014436609982951836   -0.05102899029266162   -0.002536043598036863
-0.00991268700959368   -0.05107014830049364   -0.00229792585156846
-0.009242539009774552   -0.058953132963567065   -0.0023042069139039482
-0.009998996635827756   -0.05096976793474164   -0.0022657773436971134
-0.014436609982951836   -0.05102899029266162   -0.002536043598036863
-0.009242539009774552   -0.058953132963567065   -0.0023042069139039482
-0.01286519874111843   -0.05882817479873621   -0.0025706462625345278
-0.01312733914763298   -0.058688718115071196   -0.002417122062034063
-0.014436609982951836   -0.05102899029266162   -0.002536043598036863
-0.009242539009774552   -0.058953132963567065   -0.0023042069139039482
-0.01312733914763298   -0.058688718115071196   -0.002417122062034063
-0.009998996635827756   -0.05096976793474164   -0.0022657773436971134
-0.010138892036850696   -0.05084405328864315   -0.002231148434523283
-0.009586803497908067   -0.05875833690748074   -0.002144319950875739
-0.005930766619366505   -0.05088434474768524   -0.0021785018034883646
-0.010079447847336446   -0.050895905499262796   -0.002243612853499222
-0.009586803497908067   -0.05875833690748074   -0.002144319950875739
-0.006165773784790375   -0.05884438533815152   -0.0021390931154621844
-0.005930766619366505   -0.05088434474768524   -0.0021785018034883646
-0.006064734411701795   -0.05885309259817339   -0.0021196149425914686
-0.010079447847336446   -0.050895905499262796   -0.002243612853499222
-0.005866050874257227   -0.05091128583532722   -0.0021513464347853936
-0.006064734411701795   -0.05885309259817339   -0.0021196149425914686
-0.005930766619366505   -0.05088434474768524   -0.0021785018034883646
-0.010079447847336446   -0.050895905499262796   -0.002243612853499222
-0.006064734411701795   -0.05885309259817339   -0.0021196149425914686
-0.00948831015593918   -0.0587849229590771   -0.0021878079465024462
-0.009586803497908067   -0.05875833690748074   -0.002144319950875739
-0.010079447847336446   -0.050895905499262796   -0.002243612853499222
-0.006064734411701795   -0.05885309259817339   -0.0021196149425914686
-0.009586803497908067   -0.05875833690748074   -0.002144319950875739
-0.005930766619366505   -0.05088434474768524   -0.0021785018034883646
-0.010079447847336446   -0.050895905499262796   -0.002243612853499222
-0.00948831015593918   -0.0587849229590771   -0.0021878079465024462
-0.005866050874257227   -0.05091128583532722   -0.0021513464347853936
-0.009998996635827756   -0.05096976793474164   -0.0022657773436971134
-0.00948831015593918   -0.0587849229590771   -0.0021878079465024462
-0.006064734411701795   -0.05885309259817339   -0.0021196149425914686
-0.005866050874257227   -0.05091128583532722   -0.0021513464347853936
-0.005960444371345206   -0.05889496504883487   -0.00210968389345441
-0.009998996635827756   -0.05096976793474164   -0.0022657773436971134
-0.005796442090996116   -0.050959386207147316   -0.0021337725507065445
-0.005960444371345206   -0.05889496504883487   -0.00210968389345441
-0.005866050874257227   -0.05091128583532722   -0.0021513464347853936
-0.009998996635827756   -0.05096976793474164   -0.0022657773436971134
-0.005960444371345206   -0.05889496504883487   -0.00210968389345441
-0.009364597102031006   -0.05884864825638005   -0.0022411344306873366
-0.00948831015593918   -0.0587849229590771   -0.0021878079465024462
-0.009998996635827756   -0.05096976793474164   -0.0022657773436971134
-0.005960444371345206   -0.05889496504883487   -0.00210968389345441
-0.00948831015593918   -0.0587849229590771   -0.0021878079465024462
-0.005866050874257227   -0.05091128583532722   -0.0021513464347853936
-0.009998996635827756   -0.05096976793474164   -0.0022657773436971134
-0.009364597102031006   -0.05884864825638005   -0.0022411344306873366
-0.005796442090996116   -0.050959386207147316   -0.0021337725507065445
-0.00991268700959368   -0.05107014830049364   -0.00229792585156846
-0.009364597102031006   -0.05884864825638005   -0.0022411344306873366
-0.005960444371345206   -0.05889496504883487   -0.00210968389345441
-0.005796442090996116   -0.050959386207147316   -0.0021337725507065445
-0.005856322072914671   -0.05897195033425894   -0.002109179733174343
-0.00991268700959368   -0.05107014830049364   -0.00229792585156846
-0.005724892873372761   -0.0510292524960533   -0.002126250140214138
-0.005856322072914671   -0.05897195033425894   -0.002109179733174343
-0.005796442090996116   -0.050959386207147316   -0.0021337725507065445
-0.00991268700959368   -0.05107014830049364   -0.00229792585156846
-0.005856322072914671   -0.05897195033425894   -0.002109179733174343
-0.009242539009774552   -0.058953132963567065   -0.0023042069139039482
-0.009364597102031006   -0.05884864825638005   -0.0022411344306873366
-0.00991268700959368   -0.05107014830049364   -0.00229792585156846
-0.005856322072914671   -0.05897195033425894   -0.002109179733174343
-0.009364597102031006   -0.05884864825638005   -0.0022411344306873366
-0.005796442090996116   -0.050959386207147316   -0.0021337725507065445
-0.005930766619366505   -0.05088434474768524   -0.0021785018034883646
-0.006165773784790375   -0.05884438533815152   -0.0021390931154621844
-0.0018500291350536226   -0.05085330733804008   -0.0021698803731658735
-0.005866050874257227   -0.05091128583532722   -0.0021513464347853936
-0.006165773784790375   -0.05884438533815152   -0.0021390931154621844
-0.0028582675990904095   -0.05882862243520883   -0.0021636908817655675
-0.0018500291350536226   -0.05085330733804008   -0.0021698803731658735
-0.002747595655866834   -0.05881724477921991   -0.0020834543546856175
-0.005866050874257227   -0.05091128583532722   -0.0021513464347853936
-0.001778452990893422   -0.05085388510321658   -0.0021044642113353675
-0.002747595655866834   -0.05881724477921991   -0.0020834543546856175
-0.0018500291350536226   -0.05085330733804008   -0.0021698803731658735
-0.005866050874257227   -0.05091128583532722   -0.0021513464347853936
-0.002747595655866834   -0.05881724477921991   -0.0020834543546856175
-0.006064734411701795   -0.05885309259817339   -0.0021196149425914686
-0.006165773784790375   -0.05884438533815152   -0.0021390931154621844
-0.005866050874257227   -0.05091128583532722   -0.0021513464347853936
-0.002747595655866834   -0.05881724477921991   -0.0020834543546856175
-0.006165773784790375   -0.05884438533815152   -0.0021390931154621844
-0.0018500291350536226   -0.05085330733804008   -0.0021698803731658735
-0.005866050874257227   -0.05091128583532722   -0.0021513464347853936
-0.006064734411701795   -0.05885309259817339   -0.0021196149425914686
-0.001778452990893422   -0.05085388510321658   -0.0021044642113353675
-0.005796442090996116   -0.050959386207147316   -0.0021337725507065445
-0.006064734411701795   -0.05885309259817339   -0.0021196149425914686
-0.002747595655866834   -0.05881724477921991   -0.0020834543546856175
-0.001778452990893422   -0.05085388510321658   -0.0021044642113353675
-0.0026401796217518842   -0.05883586481897451   -0.0020133949214644997
-0.005796442090996116   -0.050959386207147316   -0.0021337725507065445
-0.0017087479024108633   -0.05087407710680474   -0.002048654185588796
-0.0026401796217518842   -0.05883586481897451   -0.0020133949214644997
-0.001778452990893422   -0.05085388510321658   -0.0021044642113353675
-0.005796442090996116   -0.050959386207147316   -0.0021337725507065445
-0.0026401796217518842   -0.05883586481897451   -0.0020133949214644997
-0.005960444371345206   -0.05889496504883487   -0.00210968389345441
-0.006064734411701795   -0.05885309259817339   -0.0021196149425914686
-0.005796442090996116   -0.050959386207147316   -0.0021337725507065445
-0.0026401796217518842   -0.05883586481897451   -0.0020133949214644997
-0.006064734411701795   -0.05885309259817339   -0.0021196149425914686
-0.001778452990893422   -0.05085388510321658   -0.0021044642113353675
-0.005796442090996116   -0.050959386207147316   -0.0021337725507065445
-0.005960444371345206   -0.05889496504883487   -0.00210968389345441
-0.0017087479024108633   -0.05087407710680474   -0.002048654185588796
-0.005724892873372761   -0.0510292524960533   -0.002126250140214138
-0.005960444371345206   -0.05889496504883487   -0.00210968389345441
-0.0026401796217518842   -0.05883586481897451   -0.0020133949214644997
-0.0017087479024108633   -0.05087407710680474   -0.002048654185588796
-0.002543126040807256   -0.05888882070596882   -0.0019526323917370212
-0.005724892873372761   -0.0510292524960533   -0.002126250140214138
-0.0016465408639084018   -0.05091555229422973   -0.00200278381690414
-0.002543126040807256   -0.05888882070596882   -0.0019526323917370212
-0.0017087479024108633   -0.05087407710680474   -0.002048654185588796
-0.005724892873372761   -0.0510292524960533   -0.002126250140214138
-0.002543126040807256   -0.05888882070596882   -0.0019526323917370212
-0.005856322072914671   -0.05897195033425894   -0.002109179733174343
-0.005960444371345206   -0.05889496504883487   -0.00210968389345441
-0.005724892873372761   -0.0510292524960533   -0.002126250140214138
-0.002543126040807256   -0.05888882070596882   -0.0019526323917370212
-0.005960444371345206   -0.05889496504883487   -0.00210968389345441
-0.0017087479024108633   -0.05087407710680474   -0.002048654185588796
-0.0018500291350536226   -0.05085330733804008   -0.0021698803731658735
-0.0028582675990904095   -0.05882862243520883   -0.0021636908817655675
0.002371149455652089   -0.05075302147127271   -0.002208738346470931
-0.001778452990893422   -0.05085388510321658   -0.0021044642113353675
-0.0028582675990904095   -0.05882862243520883   -0.0021636908817655675
0.0006039027740969844   -0.05870740319692998   -0.0022234913009175593
0.002371149455652089   -0.05075302147127271   -0.002208738346470931
0.0007385502791817132   -0.05867052785402253   -0.002082700836751758
-0.001778452990893422   -0.05085388510321658   -0.0021044642113353675
0.0024586679084421027   -0.050725458402713954   -0.0021054172356235806
0.0007385502791817132   -0.05867052785402253   -0.002082700836751758
0.002371149455652089   -0.05075302147127271   -0.002208738346470931
-0.001778452990893422   -0.05085388510321658   -0.0021044642113353675
0.0007385502791817132   -0.05867052785402253   -0.002082700836751758
-0.002747595655866834   -0.05881724477921991   -0.0020834543546856175
-0.0028582675990904095   -0.05882862243520883   -0.0021636908817655675
-0.001778452990893422   -0.05085388510321658   -0.0021044642113353675
0.0007385502791817132   -0.05867052785402253   -0.002082700836751758
-0.0028582675990904095   -0.05882862243520883   -0.0021636908817655675
0.002371149455652089   -0.05075302147127271   -0.002208738346470931
-0.001778452990893422   -0.05085388510321658   -0.0021044642113353675
-0.002747595655866834   -0.05881724477921991   -0.0020834543546856175
0.0024586679084421027   -0.050725458402713954   -0.0021054172356235806
-0.0017087479024108633   -0.05087407710680474   -0.002048654185588796
-0.002747595655866834   -0.05881724477921991   -0.0020834543546856175
0.0007385502791817132   -0.05867052785402253   -0.002082700836751758
0.0024586679084421027   -0.050725458402713954   -0.0021054172356235806
0.0008804717432538   -0.05866719051629282   -0.0019548091448997767
-0.0017087479024108633   -0.05087407710680474   -0.002048654185588796
0.002548424794129273   -0.0507203060896646   -0.002012316323231626
0.0008804717432538   -0.05866719051629282   -0.0019548091448997767
0.0024586679084421027   -0.050725458402713954   -0.0021054172356235806
-0.0017087479024108633   -0.05087407710680474   -0.002048654185588796
0.0008804717432538   -0.05866719051629282   -0.0019548091448997767
-0.0026401796217518842   -0.05883586481897451   -0.0020133949214644997
-0.002747595655866834   -0.05881724477921991   -0.0020834543546856175
-0.0017087479024108633   -0.05087407710680474   -0.002048654185588796
0.0008804717432538   -0.05866719051629282   -0.0019548091448997767
-0.002747595655866834   -0.05881724477921991   -0.0020834543546856175
0.0024586679084421027   -0.050725458402713954   -0.0021054172356235806
-0.0017087479024108633   -0.05087407710680474   -0.002048654185588796
-0.0026401796217518842   -0.05883586481897451   -0.0020133949214644997
0.002548424794129273   -0.0507203060896646   -0.002012316323231626
-0.0016465408639084018   -0.05091555229422973   -0.00200278381690414
-0.0026401796217518842   -0.05883586481897451   -0.0020133949214644997
0.0008804717432538   -0.05866719051629282   -0.0019548091448997767
0.002548424794129273   -0.0507203060896646   -0.002012316323231626
0.000984267682355132   -0.05869586164223703   -0.0018357980280318056
-0.0016465408639084018   -0.05091555229422973   -0.00200278381690414
0.0026081454603707416   -0.05073343294566228   -0.0019280874861591665
0.000984267682355132   -0.05869586164223703   -0.0018357980280318056
0.002548424794129273   -0.0507203060896646   -0.002012316323231626
-0.0016465408639084018   -0.05091555229422973   -0.00200278381690414
0.000984267682355132   -0.05869586164223703   -0.0018357980280318056
-0.002543126040807256   -0.05888882070596882   -0.0019526323917370212
-0.0026401796217518842   -0.05883586481897451   -0.0020133949214644997
-0.0016465408639084018   -0.05091555229422973   -0.00200278381690414
0.000984267682355132   -0.05869586164223703   -0.0018357980280318056
-0.0026401796217518842   -0.05883586481897451   -0.0020133949214644997
0.002548424794129273   -0.0507203060896646   -0.002012316323231626
0.002371149455652089   -0.05075302147127271   -0.002208738346470931
0.0006039027740969844   -0.05870740319692998   -0.0022234913009175593
0.006861214656893168   -0.050580594078520426   -0.0023088798985194925
0.0024586679084421027   -0.050725458402713954   -0.0021054172356235806
0.0006039027740969844   -0.05870740319692998   -0.0022234913009175593
0.004294353991750907   -0.05846924382211732   -0.0023512352542557043
0.006861214656893168   -0.050580594078520426   -0.0023088798985194925
0.004635566641399594   -0.05839848907479195   -0.0021357491313771207
0.0024586679084421027   -0.050725458402713954   -0.0021054172356235806
0.007094078519009028   -0.05052380822410215   -0.002158513686104405
0.004635566641399594   -0.05839848907479195   -0.0021357491313771207
0.006861214656893168   -0.050580594078520426   -0.0023088798985194925
0.0024586679084421027   -0.050725458402713954   -0.0021054172356235806
0.004635566641399594   -0.05839848907479195   -0.0021357491313771207
0.0007385502791817132   -0.05867052785402253   -0.002082700836751758
0.0006039027740969844   -0.05870740319692998   -0.0022234913009175593
0.0024586679084421027   -0.050725458402713954   -0.0021054172356235806
0.004635566641399594   -0.05839848907479195   -0.0021357491313771207
0.0006039027740969844   -0.05870740319692998   -0.0022234913009175593
0.006861214656893168   -0.050580594078520426   -0.0023088798985194925
0.0024586679084421027   -0.050725458402713954   -0.0021054172356235806
0.0007385502791817132   -0.05867052785402253   -0.002082700836751758
0.007094078519009028   -0.05052380822410215   -0.002158513686104405
0.002548424794129273   -0.0507203060896646   -0.002012316323231626
0.0007385502791817132   -0.05867052785402253   -0.002082700836751758
0.004635566641399594   -0.05839848907479195   -0.0021357491313771207
0.007094078519009028   -0.05052380822410215   -0.002158513686104405
0.004897195401976202   -0.05838623673274813   -0.0019362594414559858
0.002548424794129273   -0.0507203060896646   -0.002012316323231626
0.007266549997418562   -0.05050818287761698   -0.002021741495105082
0.004897195401976202   -0.05838623673274813   -0.0019362594414559858
0.007094078519009028   -0.05052380822410215   -0.002158513686104405
0.002548424794129273   -0.0507203060896646   -0.002012316323231626
0.004897195401976202   -0.05838623673274813   -0.0019362594414559858
0.0008804717432538   -0.05866719051629282   -0.0019548091448997767
0.0007385502791817132   -0.05867052785402253   -0.002082700836751758
0.002548424794129273   -0.0507203060896646   -0.002012316323231626
0.004897195401976202   -0.05838623673274813   -0.0019362594414559858
0.0007385502791817132   -0.05867052785402253   -0.002082700836751758
0.007094078519009028   -0.05052380822410215   -0.002158513686104405
0.002548424794129273   -0.0507203060896646   -0.002012316323231626
0.0008804717432538   -0.05866719051629282   -0.0019548091448997767
0.007266549997418562   -0.05050818287761698   -0.002021741495105082
0.0026081454603707416   -0.05073343294566228   -0.0019280874861591665
0.0008804717432538   -0.05866719051629282   -0.0019548091448997767
0.004897195401976202   -0.05838623673274813   -0.0019362594414559858
0.007266549997418562   -0.05050818287761698   -0.002021741495105082
0.005168328196070757   -0.05840724798099171   -0.0017543947263292338
0.0026081454603707416   -0.05073343294566228   -0.0019280874861591665
0.007441471546733446   -0.05050804708446065   -0.0018991846340535269
0.005168328196070757   -0.05840724798099171   -0.0017543947263292338
0.007266549997418562   -0.05050818287761698   -0.002021741495105082
0.0026081454603707416   -0.05073343294566228   -0.0019280874861591665
0.005168328196070757   -0.05840724798099171   -0.0017543947263292338
0.000984267682355132   -0.05869586164223703   -0.0018357980280318056
0.0008804717432538   -0.05866719051629282   -0.0019548091448997767
0.0026081454603707416   -0.05073343294566228   -0.0019280874861591665
0.005168328196070757   -0.05840724798099171   -0.0017543947263292338
0.0008804717432538   -0.05866719051629282   -0.0019548091448997767
0.007266549997418562   -0.05050818287761698   -0.002021741495105082
-0.013537210965960823   -0.058574484299676315   -0.0021575477924460564
-0.011339366297529444   -0.06472189741339436   -0.0019576604889902905
-0.009586803497908067   -0.05875833690748074   -0.002144319950875739
-0.013331995295299456   -0.058613930669391856   -0.002279325171089523
-0.011339366297529444   -0.06472189741339436   -0.0019576604889902905
-0.008527822073385965   -0.06499405126594704   -0.0020392712847386515
-0.009586803497908067   -0.05875833690748074   -0.002144319950875739
-0.0083860575942366   -0.06498006494761208   -0.0021061928900068133
-0.013331995295299456   -0.058613930669391856   -0.002279325171089523
-0.00948831015593918   -0.0587849229590771   -0.0021878079465024462
-0.0083860575942366   -0.06498006494761208   -0.0021061928900068133
-0.009586803497908067   -0.05875833690748074   -0.002144319950875739
-0.013331995295299456   -0.058613930669391856   -0.002279325171089523
-0.0083860575942366   -0.06498006494761208   -0.0021061928900068133
-0.011033618697736084   -0.0647142577000218   -0.002138091309727777
-0.011339366297529444   -0.06472189741339436   -0.0019576604889902905
-0.013331995295299456   -0.058613930669391856   -0.002279325171089523
-0.0083860575942366   -0.06498006494761208   -0.0021061928900068133
-0.011339366297529444   -0.06472189741339436   -0.0019576604889902905
-0.009586803497908067   -0.05875833690748074   -0.002144319950875739
-0.013331995295299456   -0.058613930669391856   -0.002279325171089523
-0.011033618697736084   -0.0647142577000218   -0.002138091309727777
-0.00948831015593918   -0.0587849229590771   -0.0021878079465024462
-0.01312733914763298   -0.058688718115071196   -0.002417122062034063
-0.011033618697736084   -0.0647142577000218   -0.002138091309727777
-0.0083860575942366   -0.06498006494761208   -0.0021061928900068133
-0.00948831015593918   -0.0587849229590771   -0.0021878079465024462
-0.008219297092991911   -0.06501929306136459   -0.0021831619343287536
-0.01312733914763298   -0.058688718115071196   -0.002417122062034063
-0.009364597102031006   -0.05884864825638005   -0.0022411344306873366
-0.008219297092991911   -0.06501929306136459   -0.0021831619343287536
-0.00948831015593918   -0.0587849229590771   -0.0021878079465024462
-0.01312733914763298   -0.058688718115071196   -0.002417122062034063
-0.008219297092991911   -0.06501929306136459   -0.0021831619343287536
-0.01075180805396389   -0.06476271696801006   -0.0023326742299155383
-0.011033618697736084   -0.0647142577000218   -0.002138091309727777
-0.01312733914763298   -0.058688718115071196   -0.002417122062034063
-0.008219297092991911   -0.06501929306136459   -0.0021831619343287536
-0.011033618697736084   -0.0647142577000218   -0.002138091309727777
-0.00948831015593918   -0.0587849229590771   -0.0021878079465024462
-0.01312733914763298   -0.058688718115071196   -0.002417122062034063
-0.01075180805396389   -0.06476271696801006   -0.0023326742299155383
-0.009364597102031006   -0.05884864825638005   -0.0022411344306873366
-0.01286519874111843   -0.05882817479873621   -0.0025706462625345278
-0.01075180805396389   -0.06476271696801006   -0.0023326742299155383
-0.008219297092991911   -0.06501929306136459   -0.0021831619343287536
-0.009364597102031006   -0.05884864825638005   -0.0022411344306873366
-0.008068013890680945   -0.06511263292879149   -0.0022695362643307144
-0.01286519874111843   -0.05882817479873621   -0.0025706462625345278
-0.009242539009774552   -0.058953132963567065   -0.0023042069139039482
-0.008068013890680945   -0.06511263292879149   -0.0022695362643307144
-0.009364597102031006   -0.05884864825638005   -0.0022411344306873366
-0.01286519874111843   -0.05882817479873621   -0.0025706462625345278
-0.008068013890680945   -0.06511263292879149   -0.0022695362643307144
-0.010408077570450572   -0.06489205150736448   -0.0025405782102561995
-0.01075180805396389   -0.06476271696801006   -0.0023326742299155383
-0.01286519874111843   -0.05882817479873621   -0.0025706462625345278
-0.008068013890680945   -0.06511263292879149   -0.0022695362643307144
-0.01075180805396389   -0.06476271696801006   -0.0023326742299155383
-0.009364597102031006   -0.05884864825638005   -0.0022411344306873366
-0.009586803497908067   -0.05875833690748074   -0.002144319950875739
-0.008527822073385965   -0.06499405126594704   -0.0020392712847386515
-0.006165773784790375   -0.05884438533815152   -0.0021390931154621844
-0.00948831015593918   -0.0587849229590771   -0.0021878079465024462
-0.008527822073385965   -0.06499405126594704   -0.0020392712847386515
-0.006230188175656998   -0.06517030744071527   -0.0021031447045246916
-0.006165773784790375   -0.05884438533815152   -0.0021390931154621844
-0.006084738234263596   -0.06514786763359619   -0.002082677479612855
-0.00948831015593918   -0.0587849229590771   -0.0021878079465024462
-0.006064734411701795   -0.05885309259817339   -0.0021196149425914686
-0.006084738234263596   -0.06514786763359619   -0.002082677479612855
-0.006165773784790375   -0.05884438533815152   -0.0021390931154621844
-0.00948831015593918   -0.0587849229590771   -0.0021878079465024462
-0.006084738234263596   -0.06514786763359619   -0.002082677479612855
-0.0083860575942366   -0.06498006494761208   -0.0021061928900068133
-0.008527822073385965   -0.06499405126594704   -0.0020392712847386515
-0.00948831015593918   -0.0587849229590771   -0.0021878079465024462
-0.006084738234263596   -0.06514786763359619   -0.002082677479612855
-0.008527822073385965   -0.06499405126594704   -0.0020392712847386515
-0.006165773784790375   -0.05884438533815152   -0.0021390931154621844
-0.00948831015593918   -0.0587849229590771   -0.0021878079465024462
-0.0083860575942366   -0.06498006494761208   -0.0021061928900068133
-0.006064734411701795   -0.05885309259817339   -0.0021196149425914686
-0.009364597102031006   -0.05884864825638005   -0.0022411344306873366
-0.0083860575942366   -0.06498006494761208   -0.0021061928900068133
-0.006084738234263596   -0.06514786763359619   -0.002082677479612855
-0.006064734411701795   -0.05885309259817339   -0.0021196149425914686
-0.0059413210320111215   -0.06517136848650958   -0.002071970607503226
-0.009364597102031006   -0.05884864825638005   -0.0022411344306873366
-0.005960444371345206   -0.05889496504883487   -0.00210968389345441
-0.0059413210320111215   -0.06517136848650958   -0.002071970607503226
-0.006064734411701795   -0.05885309259817339   -0.0021196149425914686
-0.009364597102031006   -0.05884864825638005   -0.0022411344306873366
-0.0059413210320111215   -0.06517136848650958   -0.002071970607503226
-0.008219297092991911   -0.06501929306136459   -0.0021831619343287536
-0.0083860575942366   -0.06498006494761208   -0.0021061928900068133
-0.009364597102031006   -0.05884864825638005   -0.0022411344306873366
-0.0059413210320111215   -0.06517136848650958   -0.002071970607503226
-0.0083860575942366   -0.06498006494761208   -0.0021061928900068133
-0.006064734411701795   -0.05885309259817339   -0.0021196149425914686
-0.009364597102031006   -0.05884864825638005   -0.0022411344306873366
-0.008219297092991911   -0.06501929306136459   -0.0021831619343287536
-0.005960444371345206   -0.05889496504883487   -0.00210968389345441
-0.009242539009774552   -0.058953132963567065   -0.0023042069139039482
-0.008219297092991911   -0.06501929306136459   -0.0021831619343287536
-0.0059413210320111215   -0.06517136848650958   -0.002071970607503226
-0.005960444371345206   -0.05889496504883487   -0.00210968389345441
-0.005809346106689665   -0.06524233114447751   -0.0020730664381114223
-0.009242539009774552   -0.058953132963567065   -0.0023042069139039482
-0.005856322072914671   -0.05897195033425894   -0.002109179733174343
-0.005809346106689665   -0.06524233114447751   -0.0020730664381114223
-0.005960444371345206   -0.05889496504883487   -0.00210968389345441
-0.009242539009774552   -0.058953132963567065   -0.0023042069139039482
-0.005809346106689665   -0.06524233114447751   -0.0020730664381114223
-0.008068013890680945   -0.06511263292879149   -0.0022695362643307144
-0.008219297092991911   -0.06501929306136459   -0.0021831619343287536
-0.009242539009774552   -0.058953132963567065   -0.0023042069139039482
-0.005809346106689665   -0.06524233114447751   -0.0020730664381114223
-0.008219297092991911   -0.06501929306136459   -0.0021831619343287536
-0.005960444371345206   -0.05889496504883487   -0.00210968389345441
-0.006165773784790375   -0.05884438533815152   -0.0021390931154621844
-0.006230188175656998   -0.06517030744071527   -0.0021031447045246916
-0.0028582675990904095   -0.05882862243520883   -0.0021636908817655675
-0.006064734411701795   -0.05885309259817339   -0.0021196149425914686
-0.006230188175656998   -0.06517030744071527   -0.0021031447045246916
-0.0040294835603769535   -0.06526268988992626   -0.0021786722296767815
-0.0028582675990904095   -0.05882862243520883   -0.0021636908817655675
-0.003865524738633746   -0.06523028496149935   -0.0020757831904398717
-0.006064734411701795   -0.05885309259817339   -0.0021196149425914686
-0.002747595655866834   -0.05881724477921991   -0.0020834543546856175
-0.003865524738633746   -0.06523028496149935   -0.0020757831904398717
-0.0028582675990904095   -0.05882862243520883   -0.0021636908817655675
-0.006064734411701795   -0.05885309259817339   -0.0021196149425914686
-0.003865524738633746   -0.06523028496149935   -0.0020757831904398717
-0.006084738234263596   -0.06514786763359619   -0.002082677479612855
-0.006230188175656998   -0.06517030744071527   -0.0021031447045246916
-0.006064734411701795   -0.05885309259817339   -0.0021196149425914686
-0.003865524738633746   -0.06523028496149935   -0.0020757831904398717
-0.006230188175656998   -0.06517030744071527   -0.0021031447045246916
-0.0028582675990904095   -0.05882862243520883   -0.0021636908817655675
-0.006064734411701795   -0.05885309259817339   -0.0021196149425914686
-0.006084738234263596   -0.06514786763359619   -0.002082677479612855
-0.002747595655866834   -0.05881724477921991   -0.0020834543546856175
-0.005960444371345206   -0.05889496504883487   -0.00210968389345441
-0.006084738234263596   -0.06514786763359619   -0.002082677479612855
-0.003865524738633746   -0.06523028496149935   -0.0020757831904398717
-0.002747595655866834   -0.05881724477921991   -0.0020834543546856175
-0.0037092210238133232   -0.06523828871417658   -0.001981526730421346
-0.005960444371345206   -0.05889496504883487   -0.00210968389345441
-0.0026401796217518842   -0.05883586481897451   -0.0020133949214644997
-0.0037092210238133232   -0.06523828871417658   -0.001981526730421346
-0.002747595655866834   -0.05881724477921991   -0.0020834543546856175
-0.005960444371345206   -0.05889496504883487   -0.00210968389345441
-0.0037092210238133232   -0.06523828871417658   -0.001981526730421346
-0.0059413210320111215   -0.06517136848650958   -0.002071970607503226
-0.006084738234263596   -0.06514786763359619   -0.002082677479612855
-0.005960444371345206   -0.05889496504883487   -0.00210968389345441
-0.0037092210238133232   -0.06523828871417658   -0.001981526730421346
-0.006084738234263596   -0.06514786763359619   -0.002082677479612855
-0.002747595655866834   -0.05881724477921991   -0.0020834543546856175
-0.005960444371345206   -0.05889496504883487   -0.00210968389345441
-0.0059413210320111215   -0.06517136848650958   -0.002071970607503226
-0.0026401796217518842   -0.05883586481897451   -0.0020133949214644997
-0.005856322072914671   -0.05897195033425894   -0.002109179733174343
-0.0059413210320111215   -0.06517136848650958   -0.002071970607503226
-0.0037092210238133232   -0.06523828871417658   -0.001981526730421346
-0.0026401796217518842   -0.05883586481897451   -0.0020133949214644997
-0.0035792069772888502   -0.06529455332255174   -0.0019012850753631636
-0.005856322072914671   -0.05897195033425894   -0.002109179733174343
-0.002543126040807256   -0.05888882070596882   -0.0019526323917370212
-0.0035792069772888502   -0.06529455332255174   -0.0019012850753631636
-0.0026401796217518842   -0.05883586481897451   -0.0020133949214644997
-0.005856322072914671   -0.05897195033425894   -0.002109179733174343
-0.0035792069772888502   -0.06529455332255174   -0.0019012850753631636
-0.005809346106689665   -0.06524233114447751   -0.0020730664381114223
-0.0059413210320111215   -0.06517136848650958   -0.002071970607503226
-0.005856322072914671   -0.05897195033425894   -0.002109179733174343
-0.0035792069772888502   -0.06529455332255174   -0.0019012850753631636
-0.0059413210320111215   -0.06517136848650958   -0.002071970607503226
-0.0026401796217518842   -0.05883586481897451   -0.0020133949214644997
-0.0028582675990904095   -0.05882862243520883   -0.0021636908817655675
-0.0040294835603769535   -0.06526268988992626   -0.0021786722296767815
0.0006039027740969844   -0.05870740319692998   -0.0022234913009175593
-0.002747595655866834   -0.05881724477921991   -0.0020834543546856175
-0.0040294835603769535   -0.06526268988992626   -0.0021786722296767815
-0.0016895842502628144   -0.06523887876022087   -0.002267679972451967
0.0006039027740969844   -0.05870740319692998   -0.0022234913009175593
-0.0014790738689831546   -0.06518806937566334   -0.002085928286523716
-0.002747595655866834   -0.05881724477921991   -0.0020834543546856175
0.0007385502791817132   -0.05867052785402253   -0.002082700836751758
-0.0014790738689831546   -0.06518806937566334   -0.002085928286523716
0.0006039027740969844   -0.05870740319692998   -0.0022234913009175593
-0.002747595655866834   -0.05881724477921991   -0.0020834543546856175
-0.0014790738689831546   -0.06518806937566334   -0.002085928286523716
-0.003865524738633746   -0.06523028496149935   -0.0020757831904398717
-0.0040294835603769535   -0.06526268988992626   -0.0021786722296767815
-0.002747595655866834   -0.05881724477921991   -0.0020834543546856175
-0.0014790738689831546   -0.06518806937566334   -0.002085928286523716
-0.0040294835603769535   -0.06526268988992626   -0.0021786722296767815
0.0006039027740969844   -0.05870740319692998   -0.0022234913009175593
-0.002747595655866834   -0.05881724477921991   -0.0020834543546856175
-0.003865524738633746   -0.06523028496149935   -0.0020757831904398717
0.0007385502791817132   -0.05867052785402253   -0.002082700836751758
-0.0026401796217518842   -0.05883586481897451   -0.0020133949214644997
-0.003865524738633746   -0.06523028496149935   -0.0020757831904398717
-0.0014790738689831546   -0.06518806937566334   -0.002085928286523716
0.0007385502791817132   -0.05867052785402253   -0.002082700836751758
-0.001263803553810526   -0.06517913294135518   -0.0019134084847011142
-0.0026401796217518842   -0.05883586481897451   -0.0020133949214644997
0.0008804717432538   -0.05866719051629282   -0.0019548091448997767
-0.001263803553810526   -0.06517913294135518   -0.0019134084847011142
0.0007385502791817132   -0.05867052785402253   -0.002082700836751758
-0.0026401796217518842   -0.05883586481897451   -0.0020133949214644997
-0.001263803553810526   -0.06517913294135518   -0.0019134084847011142
-0.0037092210238133232   -0.06523828871417658   -0.001981526730421346
-0.003865524738633746   -0.06523028496149935   -0.0020757831904398717
-0.0026401796217518842   -0.05883586481897451   -0.0020133949214644997
-0.001263803553810526   -0.06517913294135518   -0.0019134084847011142
-0.003865524738633746   -0.06523028496149935   -0.0020757831904398717
0.0007385502791817132   -0.05867052785402253   -0.002082700836751758
-0.0026401796217518842   -0.05883586481897451   -0.0020133949214644997
-0.0037092210238133232   -0.06523828871417658   -0.001981526730421346
0.0008804717432538   -0.05866719051629282   -0.0019548091448997767
-0.002543126040807256   -0.05888882070596882   -0.0019526323917370212
-0.0037092210238133232   -0.06523828871417658   -0.001981526730421346
-0.001263803553810526   -0.06517913294135518   -0.0019134084847011142
0.0008804717432538   -0.05866719051629282   -0.0019548091448997767
-0.0011043857688930122   -0.06522107281443289   -0.0017566993584646503
-0.002543126040807256   -0.05888882070596882   -0.0019526323917370212
0.000984267682355132   -0.05869586164223703   -0.0018357980280318056
-0.0011043857688930122   -0.06522107281443289   -0.0017566993584646503
0.0008804717432538   -0.05866719051629282   -0.0019548091448997767
-0.002543126040807256   -0.05888882070596882   -0.0019526323917370212
-0.0011043857688930122   -0.06522107281443289   -0.0017566993584646503
-0.0035792069772888502   -0.06529455332255174   -0.0019012850753631636
-0.0037092210238133232   -0.06523828871417658   -0.001981526730421346
-0.002543126040807256   -0.05888882070596882   -0.0019526323917370212
-0.0011043857688930122   -0.06522107281443289   -0.0017566993584646503
-0.0037092210238133232   -0.06523828871417658   -0.001981526730421346
0.0008804717432538   -0.05866719051629282   -0.0019548091448997767
0.0006039027740969844   -0.05870740319692998   -0.0022234913009175593
-0.0016895842502628144   -0.06523887876022087   -0.002267679972451967
0.004294353991750907   -0.05846924382211732   -0.0023512352542557043
0.0007385502791817132   -0.05867052785402253   -0.002082700836751758
-0.0016895842502628144   -0.06523887876022087   -0.002267679972451967
0.0008282227477010085   -0.06501396693218242   -0.002449942763104628
0.004294353991750907   -0.05846924382211732   -0.0023512352542557043
0.0013191958562294558   -0.06490344622720925   -0.0021526593196139845
0.0007385502791817132   -0.05867052785402253   -0.002082700836751758
0.004635566641399594   -0.05839848907479195   -0.0021357491313771207
0.0013191958562294558   -0.06490344622720925   -0.0021526593196139845
0.004294353991750907   -0.05846924382211732   -0.0023512352542557043
0.0007385502791817132   -0.05867052785402253   -0.002082700836751758
0.0013191958562294558   -0.06490344622720925   -0.0021526593196139845
-0.0014790738689831546   -0.06518806937566334   -0.002085928286523716
-0.0016895842502628144   -0.06523887876022087   -0.002267679972451967
0.0007385502791817132   -0.05867052785402253   -0.002082700836751758
0.0013191958562294558   -0.06490344622720925   -0.0021526593196139845
-0.0016895842502628144   -0.06523887876022087   -0.002267679972451967
0.004294353991750907   -0.05846924382211732   -0.0023512352542557043
0.0007385502791817132   -0.05867052785402253   -0.002082700836751758
-0.0014790738689831546   -0.06518806937566334   -0.002085928286523716
0.004635566641399594   -0.05839848907479195   -0.0021357491313771207
0.0008804717432538   -0.05866719051629282   -0.0019548091448997767
-0.0014790738689831546   -0.06518806937566334   -0.002085928286523716
0.0013191958562294558   -0.06490344622720925   -0.0021526593196139845
0.004635566641399594   -0.05839848907479195   -0.0021357491313771207
0.001705019515253163   -0.06488108578864997   -0.0018734992949104201
0.0008804717432538   -0.05866719051629282   -0.0019548091448997767
0.004897195401976202   -0.05838623673274813   -0.0019362594414559858
0.001705019515253163   -0.06488108578864997   -0.0018734992949104201
0.004635566641399594   -0.05839848907479195   -0.0021357491313771207
0.0008804717432538   -0.05866719051629282   -0.0019548091448997767
0.001705019515253163   -0.06488108578864997   -0.0018734992949104201
-0.001263803553810526   -0.06517913294135518   -0.0019134084847011142
-0.0014790738689831546   -0.06518806937566334   -0.002085928286523716
0.0008804717432538   -0.05866719051629282   -0.0019548091448997767
0.001705019515253163   -0.06488108578864997   -0.0018734992949104201
-0.0014790738689831546   -0.06518806937566334   -0.002085928286523716
0.004635566641399594   -0.05839848907479195   -0.0021357491313771207
0.0008804717432538   -0.05866719051629282   -0.0019548091448997767
-0.001263803553810526   -0.06517913294135518   -0.0019134084847011142
0.004897195401976202   -0.05838623673274813   -0.0019362594414559858
0.000984267682355132   -0.05869586164223703   -0.0018357980280318056
-0.001263803553810526   -0.06517913294135518   -0.0019134084847011142
0.001705019515253163   -0.06488108578864997   -0.0018734992949104201
0.004897195401976202   -0.05838623673274813   -0.0019362594414559858
0.002106058772291922   -0.06490000055474146   -0.0016185135277719284
0.000984267682355132   -0.05869586164223703   -0.0018357980280318056
0.005168328196070757   -0.05840724798099171   -0.0017543947263292338
0.002106058772291922   -0.06490000055474146   -0.0016185135277719284
0.004897195401976202   -0.05838623673274813   -0.0019362594414559858
0.000984267682355132   -0.05869586164223703   -0.0018357980280318056
0.002106058772291922   -0.06490000055474146   -0.0016185135277719284
-0.0011043857688930122   -0.06522107281443289   -0.0017566993584646503
-0.001263803553810526   -0.06517913294135518   -0.0019134084847011142
0.000984267682355132   -0.05869586164223703   -0.0018357980280318056
0.002106058772291922   -0.06490000055474146   -0.0016185135277719284
-0.001263803553810526   -0.06517913294135518   -0.0019134084847011142
0.004897195401976202   -0.05838623673274813   -0.0019362594414559858
-0.011339366297529444   -0.06472189741339436   -0.0019576604889902905
-0.008318778828644211   -0.06837665588594595   -0.0017228558298366034
-0.008527822073385965   -0.06499405126594704   -0.0020392712847386515
-0.011033618697736084   -0.0647142577000218   -0.002138091309727777
-0.008318778828644211   -0.06837665588594595   -0.0017228558298366034
-0.00700969389259742   -0.06872077798044236   -0.00192954691525302
-0.008527822073385965   -0.06499405126594704   -0.0020392712847386515
-0.006830903333791746   -0.06865285498517029   -0.002000779941285981
-0.011033618697736084   -0.0647142577000218   -0.002138091309727777
-0.0083860575942366   -0.06498006494761208   -0.0021061928900068133
-0.006830903333791746   -0.06865285498517029   -0.002000779941285981
-0.008527822073385965   -0.06499405126594704   -0.0020392712847386515
-0.011033618697736084   -0.0647142577000218   -0.002138091309727777
-0.006830903333791746   -0.06865285498517029   -0.002000779941285981
-0.007937847702267348   -0.06830012389971743   -0.0019393055065644207
-0.008318778828644211   -0.06837665588594595   -0.0017228558298366034
-0.011033618697736084   -0.0647142577000218   -0.002138091309727777
-0.006830903333791746   -0.06865285498517029   -0.002000779941285981
-0.008318778828644211   -0.06837665588594595   -0.0017228558298366034
-0.008527822073385965   -0.06499405126594704   -0.0020392712847386515
-0.011033618697736084   -0.0647142577000218   -0.002138091309727777
-0.007937847702267348   -0.06830012389971743   -0.0019393055065644207
-0.0083860575942366   -0.06498006494761208   -0.0021061928900068133
-0.01075180805396389   -0.06476271696801006   -0.0023326742299155383
-0.007937847702267348   -0.06830012389971743   -0.0019393055065644207
-0.006830903333791746   -0.06865285498517029   -0.002000779941285981
-0.0083860575942366   -0.06498006494761208   -0.0021061928900068133
-0.006632848219283019   -0.06865631095544317   -0.002072736626889887
-0.01075180805396389   -0.06476271696801006   -0.0023326742299155383
-0.008219297092991911   -0.06501929306136459   -0.0021831619343287536
-0.006632848219283019   -0.06865631095544317   -0.002072736626889887
-0.0083860575942366   -0.06498006494761208   -0.0021061928900068133
-0.01075180805396389   -0.06476271696801006   -0.0023326742299155383
-0.006632848219283019   -0.06865631095544317   -0.002072736626889887
-0.007609188672598075   -0.06830678316752949   -0.0021549303207904
-0.007937847702267348   -0.06830012389971743   -0.0019393055065644207
-0.01075180805396389   -0.06476271696801006   -0.0023326742299155383
-0.006632848219283019   -0.06865631095544317   -0.002072736626889887
-0.007937847702267348   -0.06830012389971743   -0.0019393055065644207
-0.0083860575942366   -0.06498006494761208   -0.0021061928900068133
-0.01075180805396389   -0.06476271696801006   -0.0023326742299155383
-0.007609188672598075   -0.06830678316752949   -0.0021549303207904
-0.008219297092991911   -0.06501929306136459   -0.0021831619343287536
-0.010408077570450572   -0.06489205150736448   -0.0025405782102561995
-0.007609188672598075   -0.06830678316752949   -0.0021549303207904
-0.006632848219283019   -0.06865631095544317   -0.002072736626889887
-0.008219297092991911   -0.06501929306136459   -0.0021831619343287536
-0.0064488790867512314   -0.06873148203120587   -0.0021457180186737744
-0.010408077570450572   -0.06489205150736448   -0.0025405782102561995
-0.008068013890680945   -0.06511263292879149   -0.0022695362643307144
-0.0064488790867512314   -0.06873148203120587   -0.0021457180186737744
-0.008219297092991911   -0.06501929306136459   -0.0021831619343287536
-0.010408077570450572   -0.06489205150736448   -0.0025405782102561995
-0.0064488790867512314   -0.06873148203120587   -0.0021457180186737744
-0.007219327858296252   -0.0684014213346521   -0.00237519683357869
-0.007609188672598075   -0.06830678316752949   -0.0021549303207904
-0.010408077570450572   -0.06489205150736448   -0.0025405782102561995
-0.0064488790867512314   -0.06873148203120587   -0.0021457180186737744
-0.007609188672598075   -0.06830678316752949   -0.0021549303207904
-0.008219297092991911   -0.06501929306136459   -0.0021831619343287536
-0.008527822073385965   -0.06499405126594704   -0.0020392712847386515
-0.00700969389259742   -0.06872077798044236   -0.00192954691525302
-0.006230188175656998   -0.06517030744071527   -0.0021031447045246916
-0.0083860575942366   -0.06498006494761208   -0.0021061928900068133
-0.00700969389259742   -0.06872077798044236   -0.00192954691525302
-0.006050585549105496   -0.06906576193140486   -0.002112194415548813
-0.006230188175656998   -0.06517030744071527   -0.0021031447045246916
-0.005861988093763835   -0.06899605036610246   -0.0020623965420691255
-0.0083860575942366   -0.06498006494761208   -0.0021061928900068133
-0.006084738234263596   -0.06514786763359619   -0.002082677479612855
-0.005861988093763835   -0.06899605036610246   -0.0020623965420691255
-0.006230188175656998   -0.06517030744071527   -0.0021031447045246916
-0.0083860575942366   -0.06498006494761208   -0.0021061928900068133
-0.005861988093763835   -0.06899605036610246   -0.0020623965420691255
-0.006830903333791746   -0.06865285498517029   -0.002000779941285981
-0.00700969389259742   -0.06872077798044236   -0.00192954691525302
-0.0083860575942366   -0.06498006494761208   -0.0021061928900068133
-0.005861988093763835   -0.06899605036610246   -0.0020623965420691255
-0.00700969389259742   -0.06872077798044236   -0.00192954691525302
-0.006230188175656998   -0.06517030744071527   -0.0021031447045246916
-0.0083860575942366   -0.06498006494761208   -0.0021061928900068133
-0.006830903333791746   -0.06865285498517029   -0.002000779941285981
-0.006084738234263596   -0.06514786763359619   -0.002082677479612855
-0.008219297092991911   -0.06501929306136459   -0.0021831619343287536
-0.006830903333791746   -0.06865285498517029   -0.002000779941285981
-0.005861988093763835   -0.06899605036610246   -0.0020623965420691255
-0.006084738234263596   -0.06514786763359619   -0.002082677479612855
-0.005679623930817763   -0.06899487426185881   -0.00201198216459492
-0.008219297092991911   -0.06501929306136459   -0.0021831619343287536
-0.0059413210320111215   -0.06517136848650958   -0.002071970607503226
-0.005679623930817763   -0.06899487426185881   -0.00201198216459492
-0.006084738234263596   -0.06514786763359619   -0.002082677479612855
-0.008219297092991911   -0.06501929306136459   -0.0021831619343287536
-0.005679623930817763   -0.06899487426185881   -0.00201198216459492
-0.006632848219283019   -0.06865631095544317   -0.002072736626889887
-0.006830903333791746   -0.06865285498517029   -0.002000779941285981
-0.008219297092991911   -0.06501929306136459   -0.0021831619343287536
-0.005679623930817763   -0.06899487426185881   -0.00201198216459492
-0.006830903333791746   -0.06865285498517029   -0.002000779941285981
-0.006084738234263596   -0.06514786763359619   -0.002082677479612855
-0.008219297092991911   -0.06501929306136459   -0.0021831619343287536
-0.006632848219283019   -0.06865631095544317   -0.002072736626889887
-0.0059413210320111215   -0.06517136848650958   -0.002071970607503226
-0.008068013890680945   -0.06511263292879149   -0.0022695362643307144
-0.006632848219283019   -0.06865631095544317   -0.002072736626889887
-0.005679623930817763   -0.06899487426185881   -0.00201198216459492
-0.0059413210320111215   -0.06517136848650958   -0.002071970607503226
-0.00548951638379717   -0.06906080759497724   -0.001963565547060938
-0.008068013890680945   -0.06511263292879149   -0.0022695362643307144
-0.005809346106689665   -0.06524233114447751   -0.0020730664381114223
-0.00548951638379717   -0.06906080759497724   -0.001963565547060938
-0.0059413210320111215   -0.06517136848650958   -0.002071970607503226
-0.008068013890680945   -0.06511263292879149   -0.0022695362643307144
-0.00548951638379717   -0.06906080759497724   -0.001963565547060938
-0.0064488790867512314   -0.06873148203120587   -0.0021457180186737744
-0.006632848219283019   -0.06865631095544317   -0.002072736626889887
-0.008068013890680945   -0.06511263292879149   -0.0022695362643307144
-0.00548951638379717   -0.06906080759497724   -0.001963565547060938
-0.006632848219283019   -0.06865631095544317   -0.002072736626889887
-0.0059413210320111215   -0.06517136848650958   -0.002071970607503226
-0.006230188175656998   -0.06517030744071527   -0.0021031447045246916
-0.006050585549105496   -0.06906576193140486   -0.002112194415548813
-0.0040294835603769535   -0.06526268988992626   -0.0021786722296767815
-0.006084738234263596   -0.06514786763359619   -0.002082677479612855
-0.006050585549105496   -0.06906576193140486   -0.002112194415548813
-0.00517454446577935   -0.06948167396482592   -0.002313384952984449
-0.0040294835603769535   -0.06526268988992626   -0.0021786722296767815
-0.004943369388062468   -0.06942113360210875   -0.002135775297004092
-0.006084738234263596   -0.06514786763359619   -0.002082677479612855
-0.003865524738633746   -0.06523028496149935   -0.0020757831904398717
-0.004943369388062468   -0.06942113360210875   -0.002135775297004092
-0.0040294835603769535   -0.06526268988992626   -0.0021786722296767815
-0.006084738234263596   -0.06514786763359619   -0.002082677479612855
-0.004943369388062468   -0.06942113360210875   -0.002135775297004092
-0.005861988093763835   -0.06899605036610246   -0.0020623965420691255
-0.006050585549105496   -0.06906576193140486   -0.002112194415548813
-0.006084738234263596   -0.06514786763359619   -0.002082677479612855
-0.004943369388062468   -0.06942113360210875   -0.002135775297004092
-0.006050585549105496   -0.06906576193140486   -0.002112194415548813
-0.0040294835603769535   -0.06526268988992626   -0.0021786722296767815
-0.006084738234263596   -0.06514786763359619   -0.002082677479612855
-0.005861988093763835   -0.06899605036610246   -0.0020623965420691255
-0.003865524738633746   -0.06523028496149935   -0.0020757831904398717
-0.0059413210320111215   -0.06517136848650958   -0.002071970607503226
-0.005861988093763835   -0.06899605036610246   -0.0020623965420691255
-0.004943369388062468   -0.06942113360210875   -0.002135775297004092
-0.003865524738633746   -0.06523028496149935   -0.0020757831904398717
-0.004729137325176282   -0.06941793652659824   -0.001958749182920037
-0.0059413210320111215   -0.06517136848650958   -0.002071970607503226
-0.0037092210238133232   -0.06523828871417658   -0.001981526730421346
-0.004729137325176282   -0.06941793652659824   -0.001958749182920037
-0.003865524738633746   -0.06523028496149935   -0.0020757831904398717
-0.0059413210320111215   -0.06517136848650958   -0.002071970607503226
-0.004729137325176282   -0.06941793652659824   -0.001958749182920037
-0.005679623930817763   -0.06899487426185881   -0.00201198216459492
-0.005861988093763835   -0.06899605036610246   -0.0020623965420691255
-0.0059413210320111215   -0.06517136848650958   -0.002071970607503226
-0.004729137325176282   -0.06941793652659824   -0.001958749182920037
-0.005861988093763835   -0.06899605036610246   -0.0020623965420691255
-0.003865524738633746   -0.06523028496149935   -0.0020757831904398717
-0.0059413210320111215   -0.06517136848650958   -0.002071970607503226
-0.005679623930817763   -0.06899487426185881   -0.00201198216459492
-0.0037092210238133232   -0.06523828871417658   -0.001981526730421346
-0.005809346106689665   -0.06524233114447751   -0.0020730664381114223
-0.005679623930817763   -0.06899487426185881   -0.00201198216459492
-0.004729137325176282   -0.06941793652659824   -0.001958749182920037
-0.0037092210238133232   -0.06523828871417658   -0.001981526730421346
-0.004499171490220921   -0.06946899716183727   -0.0017813568723557653
-0.005809346106689665   -0.06524233114447751   -0.0020730664381114223
-0.0035792069772888502   -0.06529455332255174   -0.0019012850753631636
-0.004499171490220921   -0.06946899716183727   -0.0017813568723557653
-0.0037092210238133232   -0.06523828871417658   -0.001981526730421346
-0.005809346106689665   -0.06524233114447751   -0.0020730664381114223
-0.004499171490220921   -0.06946899716183727   -0.0017813568723557653
-0.00548951638379717   -0.06906080759497724   -0.001963565547060938
-0.005679623930817763   -0.06899487426185881   -0.00201198216459492
-0.005809346106689665   -0.06524233114447751   -0.0020730664381114223
-0.004499171490220921   -0.06946899716183727   -0.0017813568723557653
-0.005679623930817763   -0.06899487426185881   -0.00201198216459492
-0.0037092210238133232   -0.06523828871417658   -0.001981526730421346
-0.0040294835603769535   -0.06526268988992626   -0.0021786722296767815
-0.00517454446577935   -0.06948167396482592   -0.002313384952984449
-0.0016895842502628144   -0.06523887876022087   -0.002267679972451967
-0.003865524738633746   -0.06523028496149935   -0.0020757831904398717
-0.00517454446577935   -0.06948167396482592   -0.002313384952984449
-0.004312365230469962   -0.07   -0.0024681575066548187
-0.0016895842502628144   -0.06523887876022087   -0.002267679972451967
-0.004021547570074565   -0.07   -0.002198234577148294
-0.003865524738633746   -0.06523028496149935   -0.0020757831904398717
-0.0014790738689831546   -0.06518806937566334   -0.002085928286523716
-0.004021547570074565   -0.07   -0.002198234577148294
-0.0016895842502628144   -0.06523887876022087   -0.002267679972451967
-0.003865524738633746   -0.06523028496149935   -0.0020757831904398717
-0.004021547570074565   -0.07   -0.002198234577148294
-0.004943369388062468   -0.06942113360210875   -0.002135775297004092
-0.00517454446577935   -0.06948167396482592   -0.002313384952984449
-0.003865524738633746   -0.06523028496149935   -0.0020757831904398717
-0.004021547570074565   -0.07   -0.002198234577148294
-0.00517454446577935   -0.06948167396482592   -0.002313384952984449
-0.0016895842502628144   -0.06523887876022087   -0.002267679972451967
-0.003865524738633746   -0.06523028496149935   -0.0020757831904398717
-0.004943369388062468   -0.06942113360210875   -0.002135775297004092
-0.0014790738689831546   -0.06518806937566334   -0.002085928286523716
-0.0037092210238133232   -0.06523828871417658   -0.001981526730421346
-0.004943369388062468   -0.06942113360210875   -0.002135775297004092
-0.004021547570074565   -0.07   -0.002198234577148294
-0.0014790738689831546   -0.06518806937566334   -0.002085928286523716
-0.003729299198511736   -0.07   -0.0019251122280274661
-0.0037092210238133232   -0.06523828871417658   -0.001981526730421346
-0.001263803553810526   -0.06517913294135518   -0.0019134084847011142
-0.003729299198511736   -0.07   -0.0019251122280274661
-0.0014790738689831546   -0.06518806937566334   -0.002085928286523716
-0.0037092210238133232   -0.06523828871417658   -0.001981526730421346
-0.003729299198511736   -0.07   -0.0019251122280274661
-0.004729137325176282   -0.06941793652659824   -0.001958749182920037
-0.004943369388062468   -0.06942113360210875   -0.002135775297004092
-0.0037092210238133232   -0.06523828871417658   -0.001981526730421346
-0.003729299198511736   -0.07   -0.0019251122280274661
-0.004943369388062468   -0.06942113360210875   -0.002135775297004092
-0.0014790738689831546   -0.06518806937566334   -0.002085928286523716
-0.0037092210238133232   -0.06523828871417658   -0.001981526730421346
-0.004729137325176282   -0.06941793652659824   -0.001958749182920037
-0.001263803553810526   -0.06517913294135518   -0.0019134084847011142
-0.0035792069772888502   -0.06529455332255174   -0.0019012850753631636
-0.004729137325176282   -0.06941793652659824   -0.001958749182920037
-0.003729299198511736   -0.07   -0.0019251122280274661
-0.001263803553810526   -0.06517913294135518   -0.0019134084847011142
-0.0034436802325625913   -0.07   -0.0016556048338112457
-0.0035792069772888502   -0.06529455332255174   -0.0019012850753631636
-0.0011043857688930122   -0.06522107281443289   -0.0017566993584646503
-0.0034436802325625913   -0.07   -0.0016556048338112457
-0.001263803553810526   -0.06517913294135518   -0.0019134084847011142
-0.0035792069772888502   -0.06529455332255174   -0.0019012850753631636
-0.0034436802325625913   -0.07   -0.0016556048338112457
-0.004499171490220921   -0.06946899716183727   -0.0017813568723557653
-0.004729137325176282   -0.06941793652659824   -0.001958749182920037
-0.0035792069772888502   -0.06529455332255174   -0.0019012850753631636
-0.0034436802325625913   -0.07   -0.0016556048338112457
-0.004729137325176282   -0.06941793652659824   -0.001958749182920037
-0.001263803553810526   -0.06517913294135518   -0.0019134084847011142
-0.0016895842502628144   -0.06523887876022087   -0.002267679972451967
-0.004312365230469962   -0.07   -0.0024681575066548187
0.0008282227477010085   -0.06501396693218242   -0.002449942763104628
-0.0014790738689831546   -0.06518806937566334   -0.002085928286523716
-0.004312365230469962   -0.07   -0.0024681575066548187
-0.003686426608722661   -0.07   -0.0026556009105808717
0.0008282227477010085   -0.06501396693218242   -0.002449942763104628
-0.003077983952219278   -0.07   -0.0022650180475512127
-0.0014790738689831546   -0.06518806937566334   -0.002085928286523716
0.0013191958562294558   -0.06490344622720925   -0.0021526593196139845
-0.003077983952219278   -0.07   -0.0022650180475512127
0.0008282227477010085   -0.06501396693218242   -0.002449942763104628
-0.0014790738689831546   -0.06518806937566334   -0.002085928286523716
-0.003077983952219278   -0.07   -0.0022650180475512127
-0.004021547570074565   -0.07   -0.002198234577148294
-0.004312365230469962   -0.07   -0.0024681575066548187
-0.0014790738689831546   -0.06518806937566334   -0.002085928286523716
-0.003077983952219278   -0.07   -0.0022650180475512127
-0.004312365230469962   -0.07   -0.0024681575066548187
0.0008282227477010085   -0.06501396693218242   -0.002449942763104628
-0.0014790738689831546   -0.06518806937566334   -0.002085928286523716
-0.004021547570074565   -0.07   -0.002198234577148294
0.0013191958562294558   -0.06490344622720925   -0.0021526593196139845
-0.001263803553810526   -0.06517913294135518   -0.0019134084847011142
-0.004021547570074565   -0.07   -0.002198234577148294
-0.003077983952219278   -0.07   -0.0022650180475512127
0.0013191958562294558   -0.06490344622720925   -0.0021526593196139845
-0.0025927638078709334   -0.07   -0.0018913815804224084
-0.001263803553810526   -0.06517913294135518   -0.0019134084847011142
0.001705019515253163   -0.06488108578864997   -0.0018734992949104201
-0.0025927638078709334   -0.07   -0.0018913815804224084
0.0013191958562294558   -0.06490344622720925   -0.0021526593196139845
-0.001263803553810526   -0.06517913294135518   -0.0019134084847011142
-0.0025927638078709334   -0.07   -0.0018913815804224084
-0.003729299198511736   -0.07   -0.0019251122280274661
-0.004021547570074565   -0.07   -0.002198234577148294
-0.001263803553810526   -0.06517913294135518   -0.0019134084847011142
-0.0025927638078709334   -0.07   -0.0018913815804224084
-0.004021547570074565   -0.07   -0.002198234577148294
0.0013191958562294558   -0.06490344622720925   -0.0021526593196139845
-0.001263803553810526   -0.06517913294135518   -0.0019134084847011142
-0.003729299198511736   -0.07   -0.0019251122280274661
0.001705019515253163   -0.06488108578864997   -0.0018734992949104201
-0.0011043857688930122   -0.06522107281443289   -0.0017566993584646503
-0.003729299198511736   -0.07   -0.0019251122280274661
-0.0025927638078709334   -0.07   -0.0018913815804224084
0.001705019515253163   -0.06488108578864997   -0.0018734992949104201
-0.0019933847445566715   -0.07   -0.0015035008065251996
-0.0011043857688930122   -0.06522107281443289   -0.0017566993584646503
0.002106058772291922   -0.06490000055474146   -0.0016185135277719284
-0.0019933847445566715   -0.07   -0.0015035008065251996
0.001705019515253163   -0.06488108578864997   -0.0018734992949104201
-0.0011043857688930122   -0.06522107281443289   -0.0017566993584646503
-0.0019933847445566715   -0.07   -0.0015035008065251996
-0.0034436802325625913   -0.07   -0.0016556048338112457
-0.003729299198511736   -0.07   -0.0019251122280274661
-0.0011043857688930122   -0.06522107281443289   -0.0017566993584646503
-0.0019933847445566715   -0.07   -0.0015035008065251996
-0.003729299198511736   -0.07   -0.0019251122280274661
0.001705019515253163   -0.06488108578864997   -0.0018734992949104201
-0.008318778828644211   -0.06837665588594595   -0.0017228558298366034
-0.0049770019112752644   -0.06856422469994747   -0.0014746835628392002
-0.00700969389259742   -0.06872077798044236   -0.00192954691525302
-0.007937847702267348   -0.06830012389971743   -0.0019393055065644207
-0.0049770019112752644   -0.06856422469994747   -0.0014746835628392002
-0.005276193786131835   -0.06882955195223715   -0.0017408251928327679
-0.00700969389259742   -0.06872077798044236   -0.00192954691525302
-0.005140946988626516   -0.06873677831960899   -0.001837966105422781
-0.007937847702267348   -0.06830012389971743   -0.0019393055065644207
-0.006830903333791746   -0.06865285498517029   -0.002000779941285981
-0.005140946988626516   -0.06873677831960899   -0.001837966105422781
-0.00700969389259742   -0.06872077798044236   -0.00192954691525302
-0.007937847702267348   -0.06830012389971743   -0.0019393055065644207
-0.005140946988626516   -0.06873677831960899   -0.001837966105422781
-0.004631719509294563   -0.06844508954802093   -0.001702110939066032
-0.0049770019112752644   -0.06856422469994747   -0.0014746835628392002
-0.007937847702267348   -0.06830012389971743   -0.0019393055065644207
-0.005140946988626516   -0.06873677831960899   -0.001837966105422781
-0.0049770019112752644   -0.06856422469994747   -0.0014746835628392002
-0.00700969389259742   -0.06872077798044236   -0.00192954691525302
-0.007937847702267348   -0.06830012389971743   -0.0019393055065644207
-0.004631719509294563   -0.06844508954802093   -0.001702110939066032
-0.006830903333791746   -0.06865285498517029   -0.002000779941285981
-0.007609188672598075   -0.06830678316752949   -0.0021549303207904
-0.004631719509294563   -0.06844508954802093   -0.001702110939066032
-0.005140946988626516   -0.06873677831960899   -0.001837966105422781
-0.006830903333791746   -0.06865285498517029   -0.002000779941285981
-0.004982288969422802   -0.06870262998257884   -0.0019276032097932283
-0.007609188672598075   -0.06830678316752949   -0.0021549303207904
-0.006632848219283019   -0.06865631095544317   -0.002072736626889887
-0.004982288969422802   -0.06870262998257884   -0.0019276032097932283
-0.006830903333791746   -0.06865285498517029   -0.002000779941285981
-0.007609188672598075   -0.06830678316752949   -0.0021549303207904
-0.004982288969422802   -0.06870262998257884   -0.0019276032097932283
-0.004344313694163641   -0.06840852772024121   -0.0019202273949572811
-0.004631719509294563   -0.06844508954802093   -0.001702110939066032
-0.007609188672598075   -0.06830678316752949   -0.0021549303207904
-0.004982288969422802   -0.06870262998257884   -0.0019276032097932283
-0.004631719509294563   -0.06844508954802093   -0.001702110939066032
-0.006830903333791746   -0.06865285498517029   -0.002000779941285981
-0.007609188672598075   -0.06830678316752949   -0.0021549303207904
-0.004344313694163641   -0.06840852772024121   -0.0019202273949572811
-0.006632848219283019   -0.06865631095544317   -0.002072736626889887
-0.007219327858296252   -0.0684014213346521   -0.00237519683357869
-0.004344313694163641   -0.06840852772024121   -0.0019202273949572811
-0.004982288969422802   -0.06870262998257884   -0.0019276032097932283
-0.006632848219283019   -0.06865631095544317   -0.002072736626889887
-0.004846388788531735   -0.06872760504851975   -0.002009269174441786
-0.007219327858296252   -0.0684014213346521   -0.00237519683357869
-0.0064488790867512314   -0.06873148203120587   -0.0021457180186737744
-0.004846388788531735   -0.06872760504851975   -0.002009269174441786
-0.006632848219283019   -0.06865631095544317   -0.002072736626889887
-0.007219327858296252   -0.0684014213346521   -0.00237519683357869
-0.004846388788531735   -0.06872760504851975   -0.002009269174441786
-0.004019091628484903   -0.06843968100490871   -0.002128066862468779
-0.004344313694163641   -0.06840852772024121   -0.0019202273949572811
-0.007219327858296252   -0.0684014213346521   -0.00237519683357869
-0.004846388788531735   -0.06872760504851975   -0.002009269174441786
-0.004344313694163641   -0.06840852772024121   -0.0019202273949572811
-0.006632848219283019   -0.06865631095544317   -0.002072736626889887
-0.00700969389259742   -0.06872077798044236   -0.00192954691525302
-0.005276193786131835   -0.06882955195223715   -0.0017408251928327679
-0.006050585549105496   -0.06906576193140486   -0.002112194415548813
-0.006830903333791746   -0.06865285498517029   -0.002000779941285981
-0.005276193786131835   -0.06882955195223715   -0.0017408251928327679
-0.005682273548332159   -0.068993432786819   -0.001953595665571299
-0.006050585549105496   -0.06906576193140486   -0.002112194415548813
-0.005562588515775143   -0.06891058457188383   -0.0019561177140228693
-0.006830903333791746   -0.06865285498517029   -0.002000779941285981
-0.005861988093763835   -0.06899605036610246   -0.0020623965420691255
-0.005562588515775143   -0.06891058457188383   -0.0019561177140228693
-0.006050585549105496   -0.06906576193140486   -0.002112194415548813
-0.006830903333791746   -0.06865285498517029   -0.002000779941285981
-0.005562588515775143   -0.06891058457188383   -0.0019561177140228693
-0.005140946988626516   -0.06873677831960899   -0.001837966105422781
-0.005276193786131835   -0.06882955195223715   -0.0017408251928327679
-0.006830903333791746   -0.06865285498517029   -0.002000779941285981
-0.005562588515775143   -0.06891058457188383   -0.0019561177140228693
-0.005276193786131835   -0.06882955195223715   -0.0017408251928327679
-0.006050585549105496   -0.06906576193140486   -0.002112194415548813
-0.006830903333791746   -0.06865285498517029   -0.002000779941285981
-0.005140946988626516   -0.06873677831960899   -0.001837966105422781
-0.005861988093763835   -0.06899605036610246   -0.0020623965420691255
-0.006632848219283019   -0.06865631095544317   -0.002072736626889887
-0.005140946988626516   -0.06873677831960899   -0.001837966105422781
-0.005562588515775143   -0.06891058457188383   -0.0019561177140228693
-0.005861988093763835   -0.06899605036610246   -0.0020623965420691255
-0.00542937692543815   -0.06888083298644906   -0.0019489114538218312
-0.006632848219283019   -0.06865631095544317   -0.002072736626889887
-0.005679623930817763   -0.06899487426185881   -0.00201198216459492
-0.00542937692543815   -0.06888083298644906   -0.0019489114538218312
-0.005861988093763835   -0.06899605036610246   -0.0020623965420691255
-0.006632848219283019   -0.06865631095544317   -0.002072736626889887
-0.00542937692543815   -0.06888083298644906   -0.0019489114538218312
-0.004982288969422802   -0.06870262998257884   -0.0019276032097932283
-0.005140946988626516   -0.06873677831960899   -0.001837966105422781
-0.006632848219283019   -0.06865631095544317   -0.002072736626889887
-0.00542937692543815   -0.06888083298644906   -0.0019489114538218312
-0.005140946988626516   -0.06873677831960899   -0.001837966105422781
-0.005861988093763835   -0.06899605036610246   -0.0020623965420691255
-0.006632848219283019   -0.06865631095544317   -0.002072736626889887
-0.004982288969422802   -0.06870262998257884   -0.0019276032097932283
-0.005679623930817763   -0.06899487426185881   -0.00201198216459492
-0.0064488790867512314   -0.06873148203120587   -0.0021457180186737744
-0.004982288969422802   -0.06870262998257884   -0.0019276032097932283
-0.00542937692543815   -0.06888083298644906   -0.0019489114538218312
-0.005679623930817763   -0.06899487426185881   -0.00201198216459492
-0.005293942606888365   -0.06890175999300195   -0.0019340711401501902
-0.0064488790867512314   -0.06873148203120587   -0.0021457180186737744
-0.00548951638379717   -0.06906080759497724   -0.001963565547060938
-0.005293942606888365   -0.06890175999300195   -0.0019340711401501902
-0.005679623930817763   -0.06899487426185881   -0.00201198216459492
-0.0064488790867512314   -0.06873148203120587   -0.0021457180186737744
-0.005293942606888365   -0.06890175999300195   -0.0019340711401501902
-0.004846388788531735   -0.06872760504851975   -0.002009269174441786
-0.004982288969422802   -0.06870262998257884   -0.0019276032097932283
-0.0064488790867512314   -0.06873148203120587   -0.0021457180186737744
-0.005293942606888365   -0.06890175999300195   -0.0019340711401501902
-0.004982288969422802   -0.06870262998257884   -0.0019276032097932283
-0.005679623930817763   -0.06899487426185881   -0.00201198216459492
-0.006050585549105496   -0.06906576193140486   -0.002112194415548813
-0.005682273548332159   -0.068993432786819   -0.001953595665571299
-0.00517454446577935   -0.06948167396482592   -0.002313384952984449
-0.005861988093763835   -0.06899605036610246   -0.0020623965420691255
-0.005682273548332159   -0.068993432786819   -0.001953595665571299
-0.006117734652566127   -0.06906207176501929   -0.002163035817874815
-0.00517454446577935   -0.06948167396482592   -0.002313384952984449
-0.005993753093642644   -0.06898305490519842   -0.0020745736978484653
-0.005861988093763835   -0.06899605036610246   -0.0020623965420691255
-0.004943369388062468   -0.06942113360210875   -0.002135775297004092
-0.005993753093642644   -0.06898305490519842   -0.0020745736978484653
-0.00517454446577935   -0.06948167396482592   -0.002313384952984449
-0.005861988093763835   -0.06899605036610246   -0.0020623965420691255
-0.005993753093642644   -0.06898305490519842   -0.0020745736978484653
-0.005562588515775143   -0.06891058457188383   -0.0019561177140228693
-0.005682273548332159   -0.068993432786819   -0.001953595665571299
-0.005861988093763835   -0.06899605036610246   -0.0020623965420691255
-0.005993753093642644   -0.06898305490519842   -0.0020745736978484653
-0.005682273548332159   -0.068993432786819   -0.001953595665571299
-0.00517454446577935   -0.06948167396482592   -0.002313384952984449
-0.005861988093763835   -0.06899605036610246   -0.0020623965420691255
-0.005562588515775143   -0.06891058457188383   -0.0019561177140228693
-0.004943369388062468   -0.06942113360210875   -0.002135775297004092
-0.005679623930817763   -0.06899487426185881   -0.00201198216459492
-0.005562588515775143   -0.06891058457188383   -0.0019561177140228693
-0.005993753093642644   -0.06898305490519842   -0.0020745736978484653
-0.004943369388062468   -0.06942113360210875   -0.002135775297004092
-0.005845055803923223   -0.06895800054185468   -0.0019742629172383175
-0.005679623930817763   -0.06899487426185881   -0.00201198216459492
-0.004729137325176282   -0.06941793652659824   -0.001958749182920037
-0.005845055803923223   -0.06895800054185468   -0.0019742629172383175
-0.004943369388062468   -0.06942113360210875   -0.002135775297004092
-0.005679623930817763   -0.06899487426185881   -0.00201198216459492
-0.005845055803923223   -0.06895800054185468   -0.0019742629172383175
-0.00542937692543815   -0.06888083298644906   -0.0019489114538218312
-0.005562588515775143   -0.06891058457188383   -0.0019561177140228693
-0.005679623930817763   -0.06899487426185881   -0.00201198216459492
-0.005845055803923223   -0.06895800054185468   -0.0019742629172383175
-0.005562588515775143   -0.06891058457188383   -0.0019561177140228693
-0.004943369388062468   -0.06942113360210875   -0.002135775297004092
-0.005679623930817763   -0.06899487426185881   -0.00201198216459492
-0.00542937692543815   -0.06888083298644906   -0.0019489114538218312
-0.004729137325176282   -0.06941793652659824   -0.001958749182920037
-0.00548951638379717   -0.06906080759497724   -0.001963565547060938
-0.00542937692543815   -0.06888083298644906   -0.0019489114538218312
-0.005845055803923223   -0.06895800054185468   -0.0019742629172383175
-0.004729137325176282   -0.06941793652659824   -0.001958749182920037
-0.005692147333101115   -0.06897844854526523   -0.0018674287488873512
-0.00548951638379717   -0.06906080759497724   -0.001963565547060938
-0.004499171490220921   -0.06946899716183727   -0.0017813568723557653
-0.005692147333101115   -0.06897844854526523   -0.0018674287488873512
-0.004729137325176282   -0.06941793652659824   -0.001958749182920037
-0.00548951638379717   -0.06906080759497724   -0.001963565547060938
-0.005692147333101115   -0.06897844854526523   -0.0018674287488873512
-0.005293942606888365   -0.06890175999300195   -0.0019340711401501902
-0.00542937692543815   -0.06888083298644906   -0.0019489114538218312
-0.00548951638379717   -0.06906080759497724   -0.001963565547060938
-0.005692147333101115   -0.06897844854526523   -0.0018674287488873512
-0.00542937692543815   -0.06888083298644906   -0.0019489114538218312
-0.004729137325176282   -0.06941793652659824   -0.001958749182920037
-0.00517454446577935   -0.06948167396482592   -0.002313384952984449
-0.006117734652566127   -0.06906207176501929   -0.002163035817874815
-0.004312365230469962   -0.07   -0.0024681575066548187
-0.004943369388062468   -0.06942113360210875   -0.002135775297004092
-0.006117734652566127   -0.06906207176501929   -0.002163035817874815
-0.00674849041872035   -0.06898747837861924   -0.002362088723856423
-0.004312365230469962   -0.07   -0.0024681575066548187
-0.00658655096234652   -0.06891284418936518   -0.0021869874437425137
-0.004943369388062468   -0.06942113360210875   -0.002135775297004092
-0.004021547570074565   -0.07   -0.002198234577148294
-0.00658655096234652   -0.06891284418936518   -0.0021869874437425137
-0.004312365230469962   -0.07   -0.0024681575066548187
-0.004943369388062468   -0.06942113360210875   -0.002135775297004092
-0.00658655096234652   -0.06891284418936518   -0.0021869874437425137
-0.005993753093642644   -0.06898305490519842   -0.0020745736978484653
-0.006117734652566127   -0.06906207176501929   -0.002163035817874815
-0.004943369388062468   -0.06942113360210875   -0.002135775297004092
-0.00658655096234652   -0.06891284418936518   -0.0021869874437425137
-0.006117734652566127   -0.06906207176501929   -0.002163035817874815
-0.004312365230469962   -0.07   -0.0024681575066548187
-0.004943369388062468   -0.06942113360210875   -0.002135775297004092
-0.005993753093642644   -0.06898305490519842   -0.0020745736978484653
-0.004021547570074565   -0.07   -0.002198234577148294
-0.004729137325176282   -0.06941793652659824   -0.001958749182920037
-0.005993753093642644   -0.06898305490519842   -0.0020745736978484653
-0.00658655096234652   -0.06891284418936518   -0.0021869874437425137
-0.004021547570074565   -0.07   -0.002198234577148294
-0.006372842262451505   -0.06889591782675425   -0.001998686516816305
-0.004729137325176282   -0.06941793652659824   -0.001958749182920037
-0.003729299198511736   -0.07   -0.0019251122280274661
-0.006372842262451505   -0.06889591782675425   -0.001998686516816305
-0.004021547570074565   -0.07   -0.002198234577148294
-0.004729137325176282   -0.06941793652659824   -0.001958749182920037
-0.006372842262451505   -0.06889591782675425   -0.001998686516816305
-0.005845055803923223   -0.06895800054185468   -0.0019742629172383175
-0.005993753093642644   -0.06898305490519842   -0.0020745736978484653
-0.004729137325176282   -0.06941793652659824   -0.001958749182920037
-0.006372842262451505   -0.06889591782675425   -0.001998686516816305
-0.005993753093642644   -0.06898305490519842   -0.0020745736978484653
-0.004021547570074565   -0.07   -0.002198234577148294
-0.004729137325176282   -0.06941793652659824   -0.001958749182920037
-0.005845055803923223   -0.06895800054185468   -0.0019742629172383175
-0.003729299198511736   -0.07   -0.0019251122280274661
-0.004499171490220921   -0.06946899716183727   -0.0017813568723557653
-0.005845055803923223   -0.06895800054185468   -0.0019742629172383175
-0.006372842262451505   -0.06889591782675425   -0.001998686516816305
-0.003729299198511736   -0.07   -0.0019251122280274661
-0.006171861258121741   -0.06892557491811775   -0.0018031270886948512
-0.004499171490220921   -0.06946899716183727   -0.0017813568723557653
-0.0034436802325625913   -0.07   -0.0016556048338112457
-0.006171861258121741   -0.06892557491811775   -0.0018031270886948512
-0.003729299198511736   -0.07   -0.0019251122280274661
-0.004499171490220921   -0.06946899716183727   -0.0017813568723557653
-0.006171861258121741   -0.06892557491811775   -0.0018031270886948512
-0.005692147333101115   -0.06897844854526523   -0.0018674287488873512
-0.005845055803923223   -0.06895800054185468   -0.0019742629172383175
-0.004499171490220921   -0.06946899716183727   -0.0017813568723557653
-0.006171861258121741   -0.06892557491811775   -0.0018031270886948512
-0.005845055803923223   -0.06895800054185468   -0.0019742629172383175
-0.003729299198511736   -0.07   -0.0019251122280274661
-0.004312365230469962   -0.07   -0.0024681575066548187
-0.00674849041872035   -0.06898747837861924   -0.002362088723856423
-0.003686426608722661   -0.07   -0.0026556009105808717
-0.004021547570074565   -0.07   -0.002198234577148294
-0.00674849041872035   -0.06898747837861924   -0.002362088723856423
-0.007975442156833013   -0.06864994711786575   -0.0025732752253275035
-0.003686426608722661   -0.07   -0.0026556009105808717
-0.007544613165073682   -0.06858698309711027   -0.0022860054575862027
-0.004021547570074565   -0.07   -0.002198234577148294
-0.003077983952219278   -0.07   -0.0022650180475512127
-0.007544613165073682   -0.06858698309711027   -0.0022860054575862027
-0.003686426608722661   -0.07   -0.0026556009105808717
-0.004021547570074565   -0.07   -0.002198234577148294
-0.007544613165073682   -0.06858698309711027   -0.0022860054575862027
-0.00658655096234652   -0.06891284418936518   -0.0021869874437425137
-0.00674849041872035   -0.06898747837861924   -0.002362088723856423
-0.004021547570074565   -0.07   -0.002198234577148294
-0.007544613165073682   -0.06858698309711027   -0.0022860054575862027
-0.00674849041872035   -0.06898747837861924   -0.002362088723856423
-0.003686426608722661   -0.07   -0.0026556009105808717
-0.004021547570074565   -0.07   -0.002198234577148294
-0.00658655096234652   -0.06891284418936518   -0.0021869874437425137
-0.003077983952219278   -0.07   -0.0022650180475512127
-0.003729299198511736   -0.07   -0.0019251122280274661
-0.00658655096234652   -0.06891284418936518   -0.0021869874437425137
-0.007544613165073682   -0.06858698309711027   -0.0022860054575862027
-0.003077983952219278   -0.07   -0.0022650180475512127
-0.0071488298401838676   -0.0685783802045154   -0.0019794066684432586
-0.003729299198511736   -0.07   -0.0019251122280274661
-0.0025927638078709334   -0.07   -0.0018913815804224084
-0.0071488298401838676   -0.0685783802045154   -0.0019794066684432586
-0.003077983952219278   -0.07   -0.0022650180475512127
-0.003729299198511736   -0.07   -0.0019251122280274661
-0.0071488298401838676   -0.0685783802045154   -0.0019794066684432586
-0.006372842262451505   -0.06889591782675425   -0.001998686516816305
-0.00658655096234652   -0.06891284418936518   -0.0021869874437425137
-0.003729299198511736   -0.07   -0.0019251122280274661
-0.0071488298401838676   -0.0685783802045154   -0.0019794066684432586
-0.00658655096234652   -0.06891284418936518   -0.0021869874437425137
-0.003077983952219278   -0.07   -0.0022650180475512127
-0.003729299198511736   -0.07   -0.0019251122280274661
-0.006372842262451505   -0.06889591782675425   -0.001998686516816305
-0.0025927638078709334   -0.07   -0.0018913815804224084
-0.0034436802325625913   -0.07   -0.0016556048338112457
-0.006372842262451505   -0.06889591782675425   -0.001998686516816305
-0.0071488298401838676   -0.0685783802045154   -0.0019794066684432586
-0.0025927638078709334   -0.07   -0.0018913815804224084
-0.006648986387337282   -0.06866099796614661   -0.0016587759816494587
-0.0034436802325625913   -0.07   -0.0016556048338112457
-0.0019933847445566715   -0.07   -0.0015035008065251996
-0.006648986387337282   -0.06866099796614661   -0.0016587759816494587
-0.0025927638078709334   -0.07   -0.0018913815804224084
-0.0034436802325625913   -0.07   -0.0016556048338112457
-0.006648986387337282   -0.06866099796614661   -0.0016587759816494587
-0.006171861258121741   -0.06892557491811775   -0.0018031270886948512
-0.006372842262451505   -0.06889591782675425   -0.001998686516816305
-0.0034436802325625913   -0.07   -0.0016556048338112457
-0.006648986387337282   -0.06866099796614661   -0.0016587759816494587
-0.006372842262451505   -0.06889591782675425   -0.001998686516816305
-0.0025927638078709334   -0.07   -0.0018913815804224084
-0.0049770019112752644   -0.06856422469994747   -0.0014746835628392002
-0.002036613106488583   -0.06597900098270257   -0.0012740564975037376
-0.005276193786131835   -0.06882955195223715   -0.0017408251928327679
-0.004631719509294563   -0.06844508954802093   -0.001702110939066032
-0.002036613106488583   -0.06597900098270257   -0.0012740564975037376
-0.0037892989310537822   -0.06617923790371348   -0.001556767365941304
-0.005276193786131835   -0.06882955195223715   -0.0017408251928327679
-0.003693225805818575   -0.0660669726210992   -0.0016433970619944272
-0.004631719509294563   -0.06844508954802093   -0.001702110939066032
-0.005140946988626516   -0.06873677831960899   -0.001837966105422781
-0.003693225805818575   -0.0660669726210992   -0.0016433970619944272
-0.005276193786131835   -0.06882955195223715   -0.0017408251928327679
-0.004631719509294563   -0.06844508954802093   -0.001702110939066032
-0.003693225805818575   -0.0660669726210992   -0.0016433970619944272
-0.0017612412870889114   -0.0658400610538449   -0.0014706706281986247
-0.002036613106488583   -0.06597900098270257   -0.0012740564975037376
-0.004631719509294563   -0.06844508954802093   -0.001702110939066032
-0.003693225805818575   -0.0660669726210992   -0.0016433970619944272
-0.002036613106488583   -0.06597900098270257   -0.0012740564975037376
-0.005276193786131835   -0.06882955195223715   -0.0017408251928327679
-0.004631719509294563   -0.06844508954802093   -0.001702110939066032
-0.0017612412870889114   -0.0658400610538449   -0.0014706706281986247
-0.005140946988626516   -0.06873677831960899   -0.001837966105422781
-0.004344313694163641   -0.06840852772024121   -0.0019202273949572811
-0.0017612412870889114   -0.0658400610538449   -0.0014706706281986247
-0.003693225805818575   -0.0660669726210992   -0.0016433970619944272
-0.005140946988626516   -0.06873677831960899   -0.001837966105422781
-0.00358504416722202   -0.06600485802351286   -0.0017222284965417126
-0.004344313694163641   -0.06840852772024121   -0.0019202273949572811
-0.004982288969422802   -0.06870262998257884   -0.0019276032097932283
-0.00358504416722202   -0.06600485802351286   -0.0017222284965417126
-0.005140946988626516   -0.06873677831960899   -0.001837966105422781
-0.004344313694163641   -0.06840852772024121   -0.0019202273949572811
-0.00358504416722202   -0.06600485802351286   -0.0017222284965417126
-0.0015445540666760582   -0.06577398945296355   -0.0016557263688501578
-0.0017612412870889114   -0.0658400610538449   -0.0014706706281986247
-0.004344313694163641   -0.06840852772024121   -0.0019202273949572811
-0.00358504416722202   -0.06600485802351286   -0.0017222284965417126
-0.0017612412870889114   -0.0658400610538449   -0.0014706706281986247
-0.005140946988626516   -0.06873677831960899   -0.001837966105422781
-0.004344313694163641   -0.06840852772024121   -0.0019202273949572811
-0.0015445540666760582   -0.06577398945296355   -0.0016557263688501578
-0.004982288969422802   -0.06870262998257884   -0.0019276032097932283
-0.004019091628484903   -0.06843968100490871   -0.002128066862468779
-0.0015445540666760582   -0.06577398945296355   -0.0016557263688501578
-0.00358504416722202   -0.06600485802351286   -0.0017222284965417126
-0.004982288969422802   -0.06870262998257884   -0.0019276032097932283
-0.0035021076087846576   -0.06599115775446508   -0.0017935115353586502
-0.004019091628484903   -0.06843968100490871   -0.002128066862468779
-0.004846388788531735   -0.06872760504851975   -0.002009269174441786
-0.0035021076087846576   -0.06599115775446508   -0.0017935115353586502
-0.004982288969422802   -0.06870262998257884   -0.0019276032097932283
-0.004019091628484903   -0.06843968100490871   -0.002128066862468779
-0.0035021076087846576   -0.06599115775446508   -0.0017935115353586502
-0.00130786065583008   -0.0657617846677089   -0.001828736040723429
-0.0015445540666760582   -0.06577398945296355   -0.0016557263688501578
-0.004019091628484903   -0.06843968100490871   -0.002128066862468779
-0.0035021076087846576   -0.06599115775446508   -0.0017935115353586502
-0.0015445540666760582   -0.06577398945296355   -0.0016557263688501578
-0.004982288969422802   -0.06870262998257884   -0.0019276032097932283
-0.005276193786131835   -0.06882955195223715   -0.0017408251928327679
-0.0037892989310537822   -0.06617923790371348   -0.001556767365941304
-0.005682273548332159   -0.068993432786819   -0.001953595665571299
-0.005140946988626516   -0.06873677831960899   -0.001837966105422781
-0.0037892989310537822   -0.06617923790371348   -0.001556767365941304
-0.005519821151542592   -0.06624984586001978   -0.0017873279211439639
-0.005682273548332159   -0.068993432786819   -0.001953595665571299
-0.005439057303419503   -0.06615190676711058   -0.0017920786020369107
-0.005140946988626516   -0.06873677831960899   -0.001837966105422781
-0.005562588515775143   -0.06891058457188383   -0.0019561177140228693
-0.005439057303419503   -0.06615190676711058   -0.0017920786020369107
-0.005682273548332159   -0.068993432786819   -0.001953595665571299
-0.005140946988626516   -0.06873677831960899   -0.001837966105422781
-0.005439057303419503   -0.06615190676711058   -0.0017920786020369107
-0.003693225805818575   -0.0660669726210992   -0.0016433970619944272
-0.0037892989310537822   -0.06617923790371348   -0.001556767365941304
-0.005140946988626516   -0.06873677831960899   -0.001837966105422781
-0.005439057303419503   -0.06615190676711058   -0.0017920786020369107
-0.0037892989310537822   -0.06617923790371348   -0.001556767365941304
-0.005682273548332159   -0.068993432786819   -0.001953595665571299
-0.005140946988626516   -0.06873677831960899   -0.001837966105422781
-0.003693225805818575   -0.0660669726210992   -0.0016433970619944272
-0.005562588515775143   -0.06891058457188383   -0.0019561177140228693
-0.004982288969422802   -0.06870262998257884   -0.0019276032097932283
-0.003693225805818575   -0.0660669726210992   -0.0016433970619944272
-0.005439057303419503   -0.06615190676711058   -0.0017920786020369107
-0.005562588515775143   -0.06891058457188383   -0.0019561177140228693
-0.005355522695432138   -0.06609917530734255   -0.0017896068725063666
-0.004982288969422802   -0.06870262998257884   -0.0019276032097932283
-0.00542937692543815   -0.06888083298644906   -0.0019489114538218312
-0.005355522695432138   -0.06609917530734255   -0.0017896068725063666
-0.005562588515775143   -0.06891058457188383   -0.0019561177140228693
-0.004982288969422802   -0.06870262998257884   -0.0019276032097932283
-0.005355522695432138   -0.06609917530734255   -0.0017896068725063666
-0.00358504416722202   -0.06600485802351286   -0.0017222284965417126
-0.003693225805818575   -0.0660669726210992   -0.0016433970619944272
-0.004982288969422802   -0.06870262998257884   -0.0019276032097932283
-0.005355522695432138   -0.06609917530734255   -0.0017896068725063666
-0.003693225805818575   -0.0660669726210992   -0.0016433970619944272
-0.005562588515775143   -0.06891058457188383   -0.0019561177140228693
-0.004982288969422802   -0.06870262998257884   -0.0019276032097932283
-0.00358504416722202   -0.06600485802351286   -0.0017222284965417126
-0.00542937692543815   -0.06888083298644906   -0.0019489114538218312
-0.004846388788531735   -0.06872760504851975   -0.002009269174441786
-0.00358504416722202   -0.06600485802351286   -0.0017222284965417126
-0.005355522695432138   -0.06609917530734255   -0.0017896068725063666
-0.00542937692543815   -0.06888083298644906   -0.0019489114538218312
-0.005274965077502435   -0.06608947866411652   -0.0017798464478034155
-0.004846388788531735   -0.06872760504851975   -0.002009269174441786
-0.005293942606888365   -0.06890175999300195   -0.0019340711401501902
-0.005274965077502435   -0.06608947866411652   -0.0017798464478034155
-0.00542937692543815   -0.06888083298644906   -0.0019489114538218312
-0.004846388788531735   -0.06872760504851975   -0.002009269174441786
-0.005274965077502435   -0.06608947866411652   -0.0017798464478034155
-0.0035021076087846576   -0.06599115775446508   -0.0017935115353586502
-0.00358504416722202   -0.06600485802351286   -0.0017222284965417126
-0.004846388788531735   -0.06872760504851975   -0.002009269174441786
-0.005274965077502435   -0.06608947866411652   -0.0017798464478034155
-0.00358504416722202   -0.06600485802351286   -0.0017222284965417126
-0.00542937692543815   -0.06888083298644906   -0.0019489114538218312
-0.005682273548332159   -0.068993432786819   -0.001953595665571299
-0.005519821151542592   -0.06624984586001978   -0.0017873279211439639
-0.006117734652566127   -0.06906207176501929   -0.002163035817874815
-0.005562588515775143   -0.06891058457188383   -0.0019561177140228693
-0.005519821151542592   -0.06624984586001978   -0.0017873279211439639
-0.00723843190060852   -0.06618699603037212   -0.00200311882644114
-0.006117734652566127   -0.06906207176501929   -0.002163035817874815
-0.0071583062490501535   -0.06610000589706572   -0.001929355624534615
-0.005562588515775143   -0.06891058457188383   -0.0019561177140228693
-0.005993753093642644   -0.06898305490519842   -0.0020745736978484653
-0.0071583062490501535   -0.06610000589706572   -0.001929355624534615
-0.006117734652566127   -0.06906207176501929   -0.002163035817874815
-0.005562588515775143   -0.06891058457188383   -0.0019561177140228693
-0.0071583062490501535   -0.06610000589706572   -0.001929355624534615
-0.005439057303419503   -0.06615190676711058   -0.0017920786020369107
-0.005519821151542592   -0.06624984586001978   -0.0017873279211439639
-0.005562588515775143   -0.06891058457188383   -0.0019561177140228693
-0.0071583062490501535   -0.06610000589706572   -0.001929355624534615
-0.005519821151542592   -0.06624984586001978   -0.0017873279211439639
-0.006117734652566127   -0.06906207176501929   -0.002163035817874815
-0.005562588515775143   -0.06891058457188383   -0.0019561177140228693
-0.005439057303419503   -0.06615190676711058   -0.0017920786020369107
-0.005993753093642644   -0.06898305490519842   -0.0020745736978484653
-0.00542937692543815   -0.06888083298644906   -0.0019489114538218312
-0.005439057303419503   -0.06615190676711058   -0.0017920786020369107
-0.0071583062490501535   -0.06610000589706572   -0.001929355624534615
-0.005993753093642644   -0.06898305490519842   -0.0020745736978484653
-0.007068387643590704   -0.06605746653451232   -0.0018484776067434069
-0.00542937692543815   -0.06888083298644906   -0.0019489114538218312
-0.005845055803923223   -0.06895800054185468   -0.0019742629172383175
-0.007068387643590704   -0.06605746653451232   -0.0018484776067434069
-0.005993753093642644   -0.06898305490519842   -0.0020745736978484653
-0.00542937692543815   -0.06888083298644906   -0.0019489114538218312
-0.007068387643590704   -0.06605746653451232   -0.0018484776067434069
-0.005355522695432138   -0.06609917530734255   -0.0017896068725063666
-0.005439057303419503   -0.06615190676711058   -0.0017920786020369107
-0.00542937692543815   -0.06888083298644906   -0.0019489114538218312
-0.007068387643590704   -0.06605746653451232   -0.0018484776067434069
-0.005439057303419503   -0.06615190676711058   -0.0017920786020369107
-0.005993753093642644   -0.06898305490519842   -0.0020745736978484653
-0.00542937692543815   -0.06888083298644906   -0.0019489114538218312
-0.005355522695432138   -0.06609917530734255   -0.0017896068725063666
-0.005845055803923223   -0.06895800054185468   -0.0019742629172383175
-0.005293942606888365   -0.06890175999300195   -0.0019340711401501902
-0.005355522695432138   -0.06609917530734255   -0.0017896068725063666
-0.007068387643590704   -0.06605746653451232   -0.0018484776067434069
-0.005845055803923223   -0.06895800054185468   -0.0019742629172383175
-0.006978103195494133   -0.06605510720629036   -0.0017596180506092185
-0.005293942606888365   -0.06890175999300195   -0.0019340711401501902
-0.005692147333101115   -0.06897844854526523   -0.0018674287488873512
-0.006978103195494133   -0.06605510720629036   -0.0017596180506092185
-0.005845055803923223   -0.06895800054185468   -0.0019742629172383175
-0.005293942606888365   -0.06890175999300195   -0.0019340711401501902
-0.006978103195494133   -0.06605510720629036   -0.0017596180506092185
-0.005274965077502435   -0.06608947866411652   -0.0017798464478034155
-0.005355522695432138   -0.06609917530734255   -0.0017896068725063666
-0.005293942606888365   -0.06890175999300195   -0.0019340711401501902
-0.006978103195494133   -0.06605510720629036   -0.0017596180506092185
-0.005355522695432138   -0.06609917530734255   -0.0017896068725063666
-0.005845055803923223   -0.06895800054185468   -0.0019742629172383175
-0.006117734652566127   -0.06906207176501929   -0.002163035817874815
-0.00723843190060852   -0.06618699603037212   -0.00200311882644114
-0.00674849041872035   -0.06898747837861924   -0.002362088723856423
-0.005993753093642644   -0.06898305490519842   -0.0020745736978484653
-0.00723843190060852   -0.06618699603037212   -0.00200311882644114
-0.00912644722424257   -0.06598237894007837   -0.00220135579227755
-0.00674849041872035   -0.06898747837861924   -0.002362088723856423
-0.009028344646270408   -0.06590635637073144   -0.0020508205890081396
-0.005993753093642644   -0.06898305490519842   -0.0020745736978484653
-0.00658655096234652   -0.06891284418936518   -0.0021869874437425137
-0.009028344646270408   -0.06590635637073144   -0.0020508205890081396
-0.00674849041872035   -0.06898747837861924   -0.002362088723856423
-0.005993753093642644   -0.06898305490519842   -0.0020745736978484653
-0.009028344646270408   -0.06590635637073144   -0.0020508205890081396
-0.0071583062490501535   -0.06610000589706572   -0.001929355624534615
-0.00723843190060852   -0.06618699603037212   -0.00200311882644114
-0.005993753093642644   -0.06898305490519842   -0.0020745736978484653
-0.009028344646270408   -0.06590635637073144   -0.0020508205890081396
-0.00723843190060852   -0.06618699603037212   -0.00200311882644114
-0.00674849041872035   -0.06898747837861924   -0.002362088723856423
-0.005993753093642644   -0.06898305490519842   -0.0020745736978484653
-0.0071583062490501535   -0.06610000589706572   -0.001929355624534615
-0.00658655096234652   -0.06891284418936518   -0.0021869874437425137
-0.005845055803923223   -0.06895800054185468   -0.0019742629172383175
-0.0071583062490501535   -0.06610000589706572   -0.001929355624534615
-0.009028344646270408   -0.06590635637073144   -0.0020508205890081396
-0.00658655096234652   -0.06891284418936518   -0.0021869874437425137
-0.008892880799638514   -0.06587396853653647   -0.0018936945955743047
-0.005845055803923223   -0.06895800054185468   -0.0019742629172383175
-0.006372842262451505   -0.06889591782675425   -0.001998686516816305
-0.008892880799638514   -0.06587396853653647   -0.0018936945955743047
-0.00658655096234652   -0.06891284418936518   -0.0021869874437425137
-0.005845055803923223   -0.06895800054185468   -0.0019742629172383175
-0.008892880799638514   -0.06587396853653647   -0.0018936945955743047
-0.007068387643590704   -0.06605746653451232   -0.0018484776067434069
-0.0071583062490501535   -0.06610000589706572   -0.001929355624534615
-0.005845055803923223   -0.06895800054185468   -0.0019742629172383175
-0.008892880799638514   -0.06587396853653647   -0.0018936945955743047
-0.0071583062490501535   -0.06610000589706572   -0.001929355624534615
-0.00658655096234652   -0.06891284418936518   -0.0021869874437425137
-0.005845055803923223   -0.06895800054185468   -0.0019742629172383175
-0.007068387643590704   -0.06605746653451232   -0.0018484776067434069
-0.006372842262451505   -0.06889591782675425   -0.001998686516816305
-0.005692147333101115   -0.06897844854526523   -0.0018674287488873512
-0.007068387643590704   -0.06605746653451232   -0.0018484776067434069
-0.008892880799638514   -0.06587396853653647   -0.0018936945955743047
-0.006372842262451505   -0.06889591782675425   -0.001998686516816305
-0.008774675372228778   -0.06588526533933374   -0.0017256045150521601
-0.005692147333101115   -0.06897844854526523   -0.0018674287488873512
-0.006171861258121741   -0.06892557491811775   -0.0018031270886948512
-0.008774675372228778   -0.06588526533933374   -0.0017256045150521601
-0.006372842262451505   -0.06889591782675425   -0.001998686516816305
-0.005692147333101115   -0.06897844854526523   -0.0018674287488873512
-0.008774675372228778   -0.06588526533933374   -0.0017256045150521601
-0.006978103195494133   -0.06605510720629036   -0.0017596180506092185
-0.007068387643590704   -0.06605746653451232   -0.0018484776067434069
-0.005692147333101115   -0.06897844854526523   -0.0018674287488873512
-0.008774675372228778   -0.06588526533933374   -0.0017256045150521601
-0.007068387643590704   -0.06605746653451232   -0.0018484776067434069
-0.006372842262451505   -0.06889591782675425   -0.001998686516816305
-0.00674849041872035   -0.06898747837861924   -0.002362088723856423
-0.00912644722424257   -0.06598237894007837   -0.00220135579227755
-0.007975442156833013   -0.06864994711786575   -0.0025732752253275035
-0.00658655096234652   -0.06891284418936518   -0.0021869874437425137
-0.00912644722424257   -0.06598237894007837   -0.00220135579227755
-0.01155772767011013   -0.06564960483627388   -0.0023916919785116537
-0.007975442156833013   -0.06864994711786575   -0.0025732752253275035
-0.011241513997548122   -0.06556715720363056   -0.0021540155617220235
-0.00658655096234652   -0.06891284418936518   -0.0021869874437425137
-0.007544613165073682   -0.06858698309711027   -0.0022860054575862027
-0.011241513997548122   -0.06556715720363056   -0.0021540155617220235
-0.007975442156833013   -0.06864994711786575   -0.0025732752253275035
-0.00658655096234652   -0.06891284418936518   -0.0021869874437425137
-0.011241513997548122   -0.06556715720363056   -0.0021540155617220235
-0.009028344646270408   -0.06590635637073144   -0.0020508205890081396
-0.00912644722424257   -0.06598237894007837   -0.00220135579227755
-0.00658655096234652   -0.06891284418936518   -0.0021869874437425137
-0.011241513997548122   -0.06556715720363056   -0.0021540155617220235
-0.00912644722424257   -0.06598237894007837   -0.00220135579227755
-0.007975442156833013   -0.06864994711786575   -0.0025732752253275035
-0.00658655096234652   -0.06891284418936518   -0.0021869874437425137
-0.009028344646270408   -0.06590635637073144   -0.0020508205890081396
-0.007544613165073682   -0.06858698309711027   -0.0022860054575862027
-0.006372842262451505   -0.06889591782675425   -0.001998686516816305
-0.009028344646270408   -0.06590635637073144   -0.0020508205890081396
-0.011241513997548122   -0.06556715720363056   -0.0021540155617220235
-0.007544613165073682   -0.06858698309711027   -0.0022860054575862027
-0.010958126706238169   -0.0655371994692619   -0.001902513774560401
-0.006372842262451505   -0.06889591782675425   -0.001998686516816305
-0.0071488298401838676   -0.0685783802045154   -0.0019794066684432586
-0.010958126706238169   -0.0655371994692619   -0.001902513774560401
-0.007544613165073682   -0.06858698309711027   -0.0022860054575862027
-0.006372842262451505   -0.06889591782675425   -0.001998686516816305
-0.010958126706238169   -0.0655371994692619   -0.001902513774560401
-0.008892880799638514   -0.06587396853653647   -0.0018936945955743047
-0.009028344646270408   -0.06590635637073144   -0.0020508205890081396
-0.006372842262451505   -0.06889591782675425   -0.001998686516816305
-0.010958126706238169   -0.0655371994692619   -0.001902513774560401
-0.009028344646270408   -0.06590635637073144   -0.0020508205890081396
-0.007544613165073682   -0.06858698309711027   -0.0022860054575862027
-0.006372842262451505   -0.06889591782675425   -0.001998686516816305
-0.008892880799638514   -0.06587396853653647   -0.0018936945955743047
-0.0071488298401838676   -0.0685783802045154   -0.0019794066684432586
-0.006171861258121741   -0.06892557491811775   -0.0018031270886948512
-0.008892880799638514   -0.06587396853653647   -0.0018936945955743047
-0.010958126706238169   -0.0655371994692619   -0.001902513774560401
-0.0071488298401838676   -0.0685783802045154   -0.0019794066684432586
-0.010590849421990617   -0.06557520511580678   -0.0016395743295312478
-0.006171861258121741   -0.06892557491811775   -0.0018031270886948512
-0.006648986387337282   -0.06866099796614661   -0.0016587759816494587
-0.010590849421990617   -0.06557520511580678   -0.0016395743295312478
-0.0071488298401838676   -0.0685783802045154   -0.0019794066684432586
-0.006171861258121741   -0.06892557491811775   -0.0018031270886948512
-0.010590849421990617   -0.06557520511580678   -0.0016395743295312478
-0.008774675372228778   -0.06588526533933374   -0.0017256045150521601
-0.008892880799638514   -0.06587396853653647   -0.0018936945955743047
-0.006171861258121741   -0.06892557491811775   -0.0018031270886948512
-0.010590849421990617   -0.06557520511580678   -0.0016395743295312478
-0.008892880799638514   -0.06587396853653647   -0.0018936945955743047
-0.0071488298401838676   -0.0685783802045154   -0.0019794066684432586
-0.002036613106488583   -0.06597900098270257   -0.0012740564975037376
0.0003493304609113669   -0.061217737311553735   -0.0010537638600226222
-0.0037892989310537822   -0.06617923790371348   -0.001556767365941304
-0.0017612412870889114   -0.0658400610538449   -0.0014706706281986247
0.0003493304609113669   -0.061217737311553735   -0.0010537638600226222
-0.0026082214427862477   -0.06136464223336931   -0.001331335813745726
-0.0037892989310537822   -0.06617923790371348   -0.001556767365941304
-0.002557276619849701   -0.06124698409354347   -0.001400084650126781
-0.0017612412870889114   -0.0658400610538449   -0.0014706706281986247
-0.003693225805818575   -0.0660669726210992   -0.0016433970619944272
-0.002557276619849701   -0.06124698409354347   -0.001400084650126781
-0.0037892989310537822   -0.06617923790371348   -0.001556767365941304
-0.0017612412870889114   -0.0658400610538449   -0.0014706706281986247
-0.002557276619849701   -0.06124698409354347   -0.001400084650126781
0.0005417151564749377   -0.06107656322824107   -0.001210380021504516
0.0003493304609113669   -0.061217737311553735   -0.0010537638600226222
-0.0017612412870889114   -0.0658400610538449   -0.0014706706281986247
-0.002557276619849701   -0.06124698409354347   -0.001400084650126781
0.0003493304609113669   -0.061217737311553735   -0.0010537638600226222
-0.0037892989310537822   -0.06617923790371348   -0.001556767365941304
-0.0017612412870889114   -0.0658400610538449   -0.0014706706281986247
0.0005417151564749377   -0.06107656322824107   -0.001210380021504516
-0.003693225805818575   -0.0660669726210992   -0.0016433970619944272
-0.0015445540666760582   -0.06577398945296355   -0.0016557263688501578
0.0005417151564749377   -0.06107656322824107   -0.001210380021504516
-0.002557276619849701   -0.06124698409354347   -0.001400084650126781
-0.003693225805818575   -0.0660669726210992   -0.0016433970619944272
-0.002499246346187022   -0.06117023541424258   -0.0014608376977790366
-0.0015445540666760582   -0.06577398945296355   -0.0016557263688501578
-0.00358504416722202   -0.06600485802351286   -0.0017222284965417126
-0.002499246346187022   -0.06117023541424258   -0.0014608376977790366
-0.003693225805818575   -0.0660669726210992   -0.0016433970619944272
-0.0015445540666760582   -0.06577398945296355   -0.0016557263688501578
-0.002499246346187022   -0.06117023541424258   -0.0014608376977790366
0.0006832440493716836   -0.060995095424369705   -0.0013558046282902934
0.0005417151564749377   -0.06107656322824107   -0.001210380021504516
-0.0015445540666760582   -0.06577398945296355   -0.0016557263688501578
-0.002499246346187022   -0.06117023541424258   -0.0014608376977790366
0.0005417151564749377   -0.06107656322824107   -0.001210380021504516
-0.003693225805818575   -0.0660669726210992   -0.0016433970619944272
-0.0015445540666760582   -0.06577398945296355   -0.0016557263688501578
0.0006832440493716836   -0.060995095424369705   -0.0013558046282902934
-0.00358504416722202   -0.06600485802351286   -0.0017222284965417126
-0.00130786065583008   -0.0657617846677089   -0.001828736040723429
0.0006832440493716836   -0.060995095424369705   -0.0013558046282902934
-0.002499246346187022   -0.06117023541424258   -0.0014608376977790366
-0.00358504416722202   -0.06600485802351286   -0.0017222284965417126
-0.00246455024091388   -0.06113212175481669   -0.0015143845306490411
-0.00130786065583008   -0.0657617846677089   -0.001828736040723429
-0.0035021076087846576   -0.06599115775446508   -0.0017935115353586502
-0.00246455024091388   -0.06113212175481669   -0.0015143845306490411
-0.00358504416722202   -0.06600485802351286   -0.0017222284965417126
-0.00130786065583008   -0.0657617846677089   -0.001828736040723429
-0.00246455024091388   -0.06113212175481669   -0.0015143845306490411
0.0008348041517239251   -0.06095510033740019   -0.001489983760261992
0.0006832440493716836   -0.060995095424369705   -0.0013558046282902934
-0.00130786065583008   -0.0657617846677089   -0.001828736040723429
-0.00246455024091388   -0.06113212175481669   -0.0015143845306490411
0.0006832440493716836   -0.060995095424369705   -0.0013558046282902934
-0.00358504416722202   -0.06600485802351286   -0.0017222284965417126
-0.0037892989310537822   -0.06617923790371348   -0.001556767365941304
-0.0026082214427862477   -0.06136464223336931   -0.001331335813745726
-0.005519821151542592   -0.06624984586001978   -0.0017873279211439639
-0.003693225805818575   -0.0660669726210992   -0.0016433970619944272
-0.0026082214427862477   -0.06136464223336931   -0.001331335813745726
-0.00546970184098402   -0.061392750895658106   -0.0015599973116583448
-0.005519821151542592   -0.06624984586001978   -0.0017873279211439639
-0.005432265356047213   -0.061291761086099635   -0.0015617513566230424
-0.003693225805818575   -0.0660669726210992   -0.0016433970619944272
-0.005439057303419503   -0.06615190676711058   -0.0017920786020369107
-0.005432265356047213   -0.061291761086099635   -0.0015617513566230424
-0.005519821151542592   -0.06624984586001978   -0.0017873279211439639
-0.003693225805818575   -0.0660669726210992   -0.0016433970619944272
-0.005432265356047213   -0.061291761086099635   -0.0015617513566230424
-0.002557276619849701   -0.06124698409354347   -0.001400084650126781
-0.0026082214427862477   -0.06136464223336931   -0.001331335813745726
-0.003693225805818575   -0.0660669726210992   -0.0016433970619944272
-0.005432265356047213   -0.061291761086099635   -0.0015617513566230424
-0.0026082214427862477   -0.06136464223336931   -0.001331335813745726
-0.005519821151542592   -0.06624984586001978   -0.0017873279211439639
-0.003693225805818575   -0.0660669726210992   -0.0016433970619944272
-0.002557276619849701   -0.06124698409354347   -0.001400084650126781
-0.005439057303419503   -0.06615190676711058   -0.0017920786020369107
-0.00358504416722202   -0.06600485802351286   -0.0017222284965417126
-0.002557276619849701   -0.06124698409354347   -0.001400084650126781
-0.005432265356047213   -0.061291761086099635   -0.0015617513566230424
-0.005439057303419503   -0.06615190676711058   -0.0017920786020369107
-0.005393767192972039   -0.06122738609205448   -0.0015558440989827138
-0.00358504416722202   -0.06600485802351286   -0.0017222284965417126
-0.005355522695432138   -0.06609917530734255   -0.0017896068725063666
-0.005393767192972039   -0.06122738609205448   -0.0015558440989827138
-0.005439057303419503   -0.06615190676711058   -0.0017920786020369107
-0.00358504416722202   -0.06600485802351286   -0.0017222284965417126
-0.005393767192972039   -0.06122738609205448   -0.0015558440989827138
-0.002499246346187022   -0.06117023541424258   -0.0014608376977790366
-0.002557276619849701   -0.06124698409354347   -0.001400084650126781
-0.00358504416722202   -0.06600485802351286   -0.0017222284965417126
-0.005393767192972039   -0.06122738609205448   -0.0015558440989827138
-0.002557276619849701   -0.06124698409354347   -0.001400084650126781
-0.005439057303419503   -0.06615190676711058   -0.0017920786020369107
-0.00358504416722202   -0.06600485802351286   -0.0017222284965417126
-0.002499246346187022   -0.06117023541424258   -0.0014608376977790366
-0.005355522695432138   -0.06609917530734255   -0.0017896068725063666
-0.0035021076087846576   -0.06599115775446508   -0.0017935115353586502
-0.002499246346187022   -0.06117023541424258   -0.0014608376977790366
-0.005393767192972039   -0.06122738609205448   -0.0015558440989827138
-0.005355522695432138   -0.06609917530734255   -0.0017896068725063666
-0.00536009582322603   -0.061199023397759525   -0.0015427865266571259
-0.0035021076087846576   -0.06599115775446508   -0.0017935115353586502
-0.005274965077502435   -0.06608947866411652   -0.0017798464478034155
-0.00536009582322603   -0.061199023397759525   -0.0015427865266571259
-0.005355522695432138   -0.06609917530734255   -0.0017896068725063666
-0.0035021076087846576   -0.06599115775446508   -0.0017935115353586502
-0.00536009582322603   -0.061199023397759525   -0.0015427865266571259
-0.00246455024091388   -0.06113212175481669   -0.0015143845306490411
-0.002499246346187022   -0.06117023541424258   -0.0014608376977790366
-0.0035021076087846576   -0.06599115775446508   -0.0017935115353586502
-0.00536009582322603   -0.061199023397759525   -0.0015427865266571259
-0.002499246346187022   -0.06117023541424258   -0.0014608376977790366
-0.005355522695432138   -0.06609917530734255   -0.0017896068725063666
-0.005519821151542592   -0.06624984586001978   -0.0017873279211439639
-0.00546970184098402   -0.061392750895658106   -0.0015599973116583448
-0.00723843190060852   -0.06618699603037212   -0.00200311882644114
-0.005439057303419503   -0.06615190676711058   -0.0017920786020369107
-0.00546970184098402   -0.061392750895658106   -0.0015599973116583448
-0.008286275785982778   -0.06130159040187004   -0.0017663979689344954
-0.00723843190060852   -0.06618699603037212   -0.00200311882644114
-0.008251423755404394   -0.061214461038850955   -0.0017027719579863045
-0.005439057303419503   -0.06615190676711058   -0.0017920786020369107
-0.0071583062490501535   -0.06610000589706572   -0.001929355624534615
-0.008251423755404394   -0.061214461038850955   -0.0017027719579863045
-0.00723843190060852   -0.06618699603037212   -0.00200311882644114
-0.005439057303419503   -0.06615190676711058   -0.0017920786020369107
-0.008251423755404394   -0.061214461038850955   -0.0017027719579863045
-0.005432265356047213   -0.061291761086099635   -0.0015617513566230424
-0.00546970184098402   -0.061392750895658106   -0.0015599973116583448
-0.005439057303419503   -0.06615190676711058   -0.0017920786020369107
-0.008251423755404394   -0.061214461038850955   -0.0017027719579863045
-0.00546970184098402   -0.061392750895658106   -0.0015599973116583448
-0.00723843190060852   -0.06618699603037212   -0.00200311882644114
-0.005439057303419503   -0.06615190676711058   -0.0017920786020369107
-0.005432265356047213   -0.061291761086099635   -0.0015617513566230424
-0.0071583062490501535   -0.06610000589706572   -0.001929355624534615
-0.005355522695432138   -0.06609917530734255   -0.0017896068725063666
-0.005432265356047213   -0.061291761086099635   -0.0015617513566230424
-0.008251423755404394   -0.061214461038850955   -0.0017027719579863045
-0.0071583062490501535   -0.06610000589706572   -0.001929355624534615
-0.0082093085460704   -0.061163544088909554   -0.001631651351202374
-0.005355522695432138   -0.06609917530734255   -0.0017896068725063666
-0.007068387643590704   -0.06605746653451232   -0.0018484776067434069
-0.0082093085460704   -0.061163544088909554   -0.001631651351202374
-0.0071583062490501535   -0.06610000589706572   -0.001929355624534615
-0.005355522695432138   -0.06609917530734255   -0.0017896068725063666
-0.0082093085460704   -0.061163544088909554   -0.001631651351202374
-0.005393767192972039   -0.06122738609205448   -0.0015558440989827138
-0.005432265356047213   -0.061291761086099635   -0.0015617513566230424
-0.005355522695432138   -0.06609917530734255   -0.0017896068725063666
-0.0082093085460704   -0.061163544088909554   -0.001631651351202374
-0.005432265356047213   -0.061291761086099635   -0.0015617513566230424
-0.0071583062490501535   -0.06610000589706572   -0.001929355624534615
-0.005355522695432138   -0.06609917530734255   -0.0017896068725063666
-0.005393767192972039   -0.06122738609205448   -0.0015558440989827138
-0.007068387643590704   -0.06605746653451232   -0.0018484776067434069
-0.005274965077502435   -0.06608947866411652   -0.0017798464478034155
-0.005393767192972039   -0.06122738609205448   -0.0015558440989827138
-0.0082093085460704   -0.061163544088909554   -0.001631651351202374
-0.007068387643590704   -0.06605746653451232   -0.0018484776067434069
-0.008168350693612365   -0.06114716005218448   -0.0015532668255228395
-0.005274965077502435   -0.06608947866411652   -0.0017798464478034155
-0.006978103195494133   -0.06605510720629036   -0.0017596180506092185
-0.008168350693612365   -0.06114716005218448   -0.0015532668255228395
-0.007068387643590704   -0.06605746653451232   -0.0018484776067434069
-0.005274965077502435   -0.06608947866411652   -0.0017798464478034155
-0.008168350693612365   -0.06114716005218448   -0.0015532668255228395
-0.00536009582322603   -0.061199023397759525   -0.0015427865266571259
-0.005393767192972039   -0.06122738609205448   -0.0015558440989827138
-0.005274965077502435   -0.06608947866411652   -0.0017798464478034155
-0.008168350693612365   -0.06114716005218448   -0.0015532668255228395
-0.005393767192972039   -0.06122738609205448   -0.0015558440989827138
-0.007068387643590704   -0.06605746653451232   -0.0018484776067434069
-0.00723843190060852   -0.06618699603037212   -0.00200311882644114
-0.008286275785982778   -0.06130159040187004   -0.0017663979689344954
-0.00912644722424257   -0.06598237894007837   -0.00220135579227755
-0.0071583062490501535   -0.06610000589706572   -0.001929355624534615
-0.008286275785982778   -0.06130159040187004   -0.0017663979689344954
-0.011237837775879703   -0.061094381208680895   -0.001949758424903205
-0.00912644722424257   -0.06598237894007837   -0.00220135579227755
-0.011192292715832912   -0.06102047911828517   -0.0018206671270678024
-0.0071583062490501535   -0.06610000589706572   -0.001929355624534615
-0.009028344646270408   -0.06590635637073144   -0.0020508205890081396
-0.011192292715832912   -0.06102047911828517   -0.0018206671270678024
-0.00912644722424257   -0.06598237894007837   -0.00220135579227755
-0.0071583062490501535   -0.06610000589706572   -0.001929355624534615
-0.011192292715832912   -0.06102047911828517   -0.0018206671270678024
-0.008251423755404394   -0.061214461038850955   -0.0017027719579863045
-0.008286275785982778   -0.06130159040187004   -0.0017663979689344954
-0.0071583062490501535   -0.06610000589706572   -0.001929355624534615
-0.011192292715832912   -0.06102047911828517   -0.0018206671270678024
-0.008286275785982778   -0.06130159040187004   -0.0017663979689344954
-0.00912644722424257   -0.06598237894007837   -0.00220135579227755
-0.0071583062490501535   -0.06610000589706572   -0.001929355624534615
-0.008251423755404394   -0.061214461038850955   -0.0017027719579863045
-0.009028344646270408   -0.06590635637073144   -0.0020508205890081396
-0.007068387643590704   -0.06605746653451232   -0.0018484776067434069
-0.008251423755404394   -0.061214461038850955   -0.0017027719579863045
-0.011192292715832912   -0.06102047911828517   -0.0018206671270678024
-0.009028344646270408   -0.06590635637073144   -0.0020508205890081396
-0.01111507116567185   -0.0609817634557355   -0.0016852337354842902
-0.007068387643590704   -0.06605746653451232   -0.0018484776067434069
-0.008892880799638514   -0.06587396853653647   -0.0018936945955743047
-0.01111507116567185   -0.0609817634557355   -0.0016852337354842902
-0.009028344646270408   -0.06590635637073144   -0.0020508205890081396
-0.007068387643590704   -0.06605746653451232   -0.0018484776067434069
-0.01111507116567185   -0.0609817634557355   -0.0016852337354842902
-0.0082093085460704   -0.061163544088909554   -0.001631651351202374
-0.008251423755404394   -0.061214461038850955   -0.0017027719579863045
-0.007068387643590704   -0.06605746653451232   -0.0018484776067434069
-0.01111507116567185   -0.0609817634557355   -0.0016852337354842902
-0.008251423755404394   -0.061214461038850955   -0.0017027719579863045
-0.009028344646270408   -0.06590635637073144   -0.0020508205890081396
-0.007068387643590704   -0.06605746653451232   -0.0018484776067434069
-0.0082093085460704   -0.061163544088909554   -0.001631651351202374
-0.008892880799638514   -0.06587396853653647   -0.0018936945955743047
-0.006978103195494133   -0.06605510720629036   -0.0017596180506092185
-0.0082093085460704   -0.061163544088909554   -0.001631651351202374
-0.01111507116567185   -0.0609817634557355   -0.0016852337354842902
-0.008892880799638514   -0.06587396853653647   -0.0018936945955743047
-0.01105236837700977   -0.06098028658774571   -0.0015414790129956299
-0.006978103195494133   -0.06605510720629036   -0.0017596180506092185
-0.008774675372228778   -0.06588526533933374   -0.0017256045150521601
-0.01105236837700977   -0.06098028658774571   -0.0015414790129956299
-0.008892880799638514   -0.06587396853653647   -0.0018936945955743047
-0.006978103195494133   -0.06605510720629036   -0.0017596180506092185
-0.01105236837700977   -0.06098028658774571   -0.0015414790129956299
-0.008168350693612365   -0.06114716005218448   -0.0015532668255228395
-0.0082093085460704   -0.061163544088909554   -0.001631651351202374
-0.006978103195494133   -0.06605510720629036   -0.0017596180506092185
-0.01105236837700977   -0.06098028658774571   -0.0015414790129956299
-0.0082093085460704   -0.061163544088909554   -0.001631651351202374
-0.008892880799638514   -0.06587396853653647   -0.0018936945955743047
-0.00912644722424257   -0.06598237894007837   -0.00220135579227755
-0.011237837775879703   -0.061094381208680895   -0.001949758424903205
-0.01155772767011013   -0.06564960483627388   -0.0023916919785116537
-0.009028344646270408   -0.06590635637073144   -0.0020508205890081396
-0.011237837775879703   -0.061094381208680895   -0.001949758424903205
-0.014679990883284949   -0.06079597045142463   -0.0021207620740730927
-0.01155772767011013   -0.06564960483627388   -0.0023916919785116537
-0.014446546773900802   -0.060718878180729824   -0.0019186919763757384
-0.009028344646270408   -0.06590635637073144   -0.0020508205890081396
-0.011241513997548122   -0.06556715720363056   -0.0021540155617220235
-0.014446546773900802   -0.060718878180729824   -0.0019186919763757384
-0.01155772767011013   -0.06564960483627388   -0.0023916919785116537
-0.009028344646270408   -0.06590635637073144   -0.0020508205890081396
-0.014446546773900802   -0.060718878180729824   -0.0019186919763757384
-0.011192292715832912   -0.06102047911828517   -0.0018206671270678024
-0.011237837775879703   -0.061094381208680895   -0.001949758424903205
-0.009028344646270408   -0.06590635637073144   -0.0020508205890081396
-0.014446546773900802   -0.060718878180729824   -0.0019186919763757384
-0.011237837775879703   -0.061094381208680895   -0.001949758424903205
-0.01155772767011013   -0.06564960483627388   -0.0023916919785116537
-0.009028344646270408   -0.06590635637073144   -0.0020508205890081396
-0.011192292715832912   -0.06102047911828517   -0.0018206671270678024
-0.011241513997548122   -0.06556715720363056   -0.0021540155617220235
-0.008892880799638514   -0.06587396853653647   -0.0018936945955743047
-0.011192292715832912   -0.06102047911828517   -0.0018206671270678024
-0.014446546773900802   -0.060718878180729824   -0.0019186919763757384
-0.011241513997548122   -0.06556715720363056   -0.0021540155617220235
-0.014243967709705768   -0.0606834749762776   -0.001706162673538285
-0.008892880799638514   -0.06587396853653647   -0.0018936945955743047
-0.010958126706238169   -0.0655371994692619   -0.001902513774560401
-0.014243967709705768   -0.0606834749762776   -0.001706162673538285
-0.011241513997548122   -0.06556715720363056   -0.0021540155617220235
-0.008892880799638514   -0.06587396853653647   -0.0018936945955743047
-0.014243967709705768   -0.0606834749762776   -0.001706162673538285
-0.01111507116567185   -0.0609817634557355   -0.0016852337354842902
-0.011192292715832912   -0.06102047911828517   -0.0018206671270678024
-0.008892880799638514   -0.06587396853653647   -0.0018936945955743047
-0.014243967709705768   -0.0606834749762776   -0.001706162673538285
-0.011192292715832912   -0.06102047911828517   -0.0018206671270678024
-0.011241513997548122   -0.06556715720363056   -0.0021540155617220235
-0.008892880799638514   -0.06587396853653647   -0.0018936945955743047
-0.01111507116567185   -0.0609817634557355   -0.0016852337354842902
-0.010958126706238169   -0.0655371994692619   -0.001902513774560401
-0.008774675372228778   -0.06588526533933374   -0.0017256045150521601
-0.01111507116567185   -0.0609817634557355   -0.0016852337354842902
-0.014243967709705768   -0.0606834749762776   -0.001706162673538285
-0.010958126706238169   -0.0655371994692619   -0.001902513774560401
-0.013971052637443809   -0.060704980682957745   -0.0014845280043956639
-0.008774675372228778   -0.06588526533933374   -0.0017256045150521601
-0.010590849421990617   -0.06557520511580678   -0.0016395743295312478
-0.013971052637443809   -0.060704980682957745   -0.0014845280043956639
-0.010958126706238169   -0.0655371994692619   -0.001902513774560401
-0.008774675372228778   -0.06588526533933374   -0.0017256045150521601
-0.013971052637443809   -0.060704980682957745   -0.0014845280043956639
-0.01105236837700977   -0.06098028658774571   -0.0015414790129956299
-0.01111507116567185   -0.0609817634557355   -0.0016852337354842902
-0.008774675372228778   -0.06588526533933374   -0.0017256045150521601
-0.013971052637443809   -0.060704980682957745   -0.0014845280043956639
-0.01111507116567185   -0.0609817634557355   -0.0016852337354842902
-0.010958126706238169   -0.0655371994692619   -0.001902513774560401
0.0003493304609113669   -0.061217737311553735   -0.0010537638600226222
0.002161648436055288   -0.05475137461480498   -0.0008029657472559172
-0.0026082214427862477   -0.06136464223336931   -0.001331335813745726
0.0005417151564749377   -0.06107656322824107   -0.001210380021504516
0.002161648436055288   -0.05475137461480498   -0.0008029657472559172
-0.0017551195076670068   -0.05484853783404735   -0.0010679172188064717
-0.0026082214427862477   -0.06136464223336931   -0.001331335813745726
-0.0017444888509840894   -0.05473150884203122   -0.00111560455676846
0.0005417151564749377   -0.06107656322824107   -0.001210380021504516
-0.002557276619849701   -0.06124698409354347   -0.001400084650126781
-0.0017444888509840894   -0.05473150884203122   -0.00111560455676846
-0.0026082214427862477   -0.06136464223336931   -0.001331335813745726
0.0005417151564749377   -0.06107656322824107   -0.001210380021504516
-0.0017444888509840894   -0.05473150884203122   -0.00111560455676846
0.002276027036132071   -0.05461360616911818   -0.0009188624041925786
0.002161648436055288   -0.05475137461480498   -0.0008029657472559172
0.0005417151564749377   -0.06107656322824107   -0.001210380021504516
-0.0017444888509840894   -0.05473150884203122   -0.00111560455676846
0.002161648436055288   -0.05475137461480498   -0.0008029657472559172
-0.0026082214427862477   -0.06136464223336931   -0.001331335813745726
0.0005417151564749377   -0.06107656322824107   -0.001210380021504516
0.002276027036132071   -0.05461360616911818   -0.0009188624041925786
-0.002557276619849701   -0.06124698409354347   -0.001400084650126781
0.0006832440493716836   -0.060995095424369705   -0.0013558046282902934
0.002276027036132071   -0.05461360616911818   -0.0009188624041925786
-0.0017444888509840894   -0.05473150884203122   -0.00111560455676846
-0.002557276619849701   -0.06124698409354347   -0.001400084650126781
-0.001730961528288339   -0.05464676418469915   -0.0011559820811918471
0.0006832440493716836   -0.060995095424369705   -0.0013558046282902934
-0.002499246346187022   -0.06117023541424258   -0.0014608376977790366
-0.001730961528288339   -0.05464676418469915   -0.0011559820811918471
-0.002557276619849701   -0.06124698409354347   -0.001400084650126781
0.0006832440493716836   -0.060995095424369705   -0.0013558046282902934
-0.001730961528288339   -0.05464676418469915   -0.0011559820811918471
0.0023491842960493502   -0.05452332498176448   -0.0010244285221118106
0.002276027036132071   -0.05461360616911818   -0.0009188624041925786
0.0006832440493716836   -0.060995095424369705   -0.0013558046282902934
-0.001730961528288339   -0.05464676418469915   -0.0011559820811918471
0.002276027036132071   -0.05461360616911818   -0.0009188624041925786
-0.002557276619849701   -0.06124698409354347   -0.001400084650126781
0.0006832440493716836   -0.060995095424369705   -0.0013558046282902934
0.0023491842960493502   -0.05452332498176448   -0.0010244285221118106
-0.002499246346187022   -0.06117023541424258   -0.0014608376977790366
0.0008348041517239251   -0.06095510033740019   -0.001489983760261992
0.0023491842960493502   -0.05452332498176448   -0.0010244285221118106
-0.001730961528288339   -0.05464676418469915   -0.0011559820811918471
-0.002499246346187022   -0.06117023541424258   -0.0014608376977790366
-0.0017373612562293396   -0.05459158676299557   -0.0011895828894338
0.0008348041517239251   -0.06095510033740019   -0.001489983760261992
-0.00246455024091388   -0.06113212175481669   -0.0015143845306490411
-0.0017373612562293396   -0.05459158676299557   -0.0011895828894338
-0.002499246346187022   -0.06117023541424258   -0.0014608376977790366
0.0008348041517239251   -0.06095510033740019   -0.001489983760261992
-0.0017373612562293396   -0.05459158676299557   -0.0011895828894338
0.0024243420884574314   -0.05446299187909423   -0.0011198813077733748
0.0023491842960493502   -0.05452332498176448   -0.0010244285221118106
0.0008348041517239251   -0.06095510033740019   -0.001489983760261992
-0.0017373612562293396   -0.05459158676299557   -0.0011895828894338
0.0023491842960493502   -0.05452332498176448   -0.0010244285221118106
-0.002499246346187022   -0.06117023541424258   -0.0014608376977790366
-0.0026082214427862477   -0.06136464223336931   -0.001331335813745726
-0.0017551195076670068   -0.05484853783404735   -0.0010679172188064717
-0.00546970184098402   -0.061392750895658106   -0.0015599973116583448
-0.002557276619849701   -0.06124698409354347   -0.001400084650126781
-0.0017551195076670068   -0.05484853783404735   -0.0010679172188064717
-0.00552446343977438   -0.05484907587213774   -0.0012863732513808375
-0.00546970184098402   -0.061392750895658106   -0.0015599973116583448
-0.005524931208675697   -0.054750079725060706   -0.0012818705875241975
-0.002557276619849701   -0.06124698409354347   -0.001400084650126781
-0.005432265356047213   -0.061291761086099635   -0.0015617513566230424
-0.005524931208675697   -0.054750079725060706   -0.0012818705875241975
-0.00546970184098402   -0.061392750895658106   -0.0015599973116583448
-0.002557276619849701   -0.06124698409354347   -0.001400084650126781
-0.005524931208675697   -0.054750079725060706   -0.0012818705875241975
-0.0017444888509840894   -0.05473150884203122   -0.00111560455676846
-0.0017551195076670068   -0.05484853783404735   -0.0010679172188064717
-0.002557276619849701   -0.06124698409354347   -0.001400084650126781
-0.005524931208675697   -0.054750079725060706   -0.0012818705875241975
-0.0017551195076670068   -0.05484853783404735   -0.0010679172188064717
-0.00546970184098402   -0.061392750895658106   -0.0015599973116583448
-0.002557276619849701   -0.06124698409354347   -0.001400084650126781
-0.0017444888509840894   -0.05473150884203122   -0.00111560455676846
-0.005432265356047213   -0.061291761086099635   -0.0015617513566230424
-0.002499246346187022   -0.06117023541424258   -0.0014608376977790366
-0.0017444888509840894   -0.05473150884203122   -0.00111560455676846
-0.005524931208675697   -0.054750079725060706   -0.0012818705875241975
-0.005432265356047213   -0.061291761086099635   -0.0015617513566230424
-0.005525145107907051   -0.05467954325256755   -0.0012700859891950056
-0.002499246346187022   -0.06117023541424258   -0.0014608376977790366
-0.005393767192972039   -0.06122738609205448   -0.0015558440989827138
-0.005525145107907051   -0.05467954325256755   -0.0012700859891950056
-0.005432265356047213   -0.061291761086099635   -0.0015617513566230424
-0.002499246346187022   -0.06117023541424258   -0.0014608376977790366
-0.005525145107907051   -0.05467954325256755   -0.0012700859891950056
-0.001730961528288339   -0.05464676418469915   -0.0011559820811918471
-0.0017444888509840894   -0.05473150884203122   -0.00111560455676846
-0.002499246346187022   -0.06117023541424258   -0.0014608376977790366
-0.005525145107907051   -0.05467954325256755   -0.0012700859891950056
-0.0017444888509840894   -0.05473150884203122   -0.00111560455676846
-0.005432265356047213   -0.061291761086099635   -0.0015617513566230424
-0.002499246346187022   -0.06117023541424258   -0.0014608376977790366
-0.001730961528288339   -0.05464676418469915   -0.0011559820811918471
-0.005393767192972039   -0.06122738609205448   -0.0015558440989827138
-0.00246455024091388   -0.06113212175481669   -0.0015143845306490411
-0.001730961528288339   -0.05464676418469915   -0.0011559820811918471
-0.005525145107907051   -0.05467954325256755   -0.0012700859891950056
-0.005393767192972039   -0.06122738609205448   -0.0015558440989827138
-0.005530396647339287   -0.05463751699791596   -0.0012513979821756251
-0.00246455024091388   -0.06113212175481669   -0.0015143845306490411
-0.00536009582322603   -0.061199023397759525   -0.0015427865266571259
-0.005530396647339287   -0.05463751699791596   -0.0012513979821756251
-0.005393767192972039   -0.06122738609205448   -0.0015558440989827138
-0.00246455024091388   -0.06113212175481669   -0.0015143845306490411
-0.005530396647339287   -0.05463751699791596   -0.0012513979821756251
-0.0017373612562293396   -0.05459158676299557   -0.0011895828894338
-0.001730961528288339   -0.05464676418469915   -0.0011559820811918471
-0.00246455024091388   -0.06113212175481669   -0.0015143845306490411
-0.005530396647339287   -0.05463751699791596   -0.0012513979821756251
-0.001730961528288339   -0.05464676418469915   -0.0011559820811918471
-0.005393767192972039   -0.06122738609205448   -0.0015558440989827138
-0.00546970184098402   -0.061392750895658106   -0.0015599973116583448
-0.00552446343977438   -0.05484907587213774   -0.0012863732513808375
-0.008286275785982778   -0.06130159040187004   -0.0017663979689344954
-0.005432265356047213   -0.061291761086099635   -0.0015617513566230424
-0.00552446343977438   -0.05484907587213774   -0.0012863732513808375
-0.00922985225637461   -0.05475523051664155   -0.001477716661813001
-0.008286275785982778   -0.06130159040187004   -0.0017663979689344954
-0.009233111925573606   -0.054672072651457314   -0.0014216544613006804
-0.005432265356047213   -0.061291761086099635   -0.0015617513566230424
-0.008251423755404394   -0.061214461038850955   -0.0017027719579863045
-0.009233111925573606   -0.054672072651457314   -0.0014216544613006804
-0.008286275785982778   -0.06130159040187004   -0.0017663979689344954
-0.005432265356047213   -0.061291761086099635   -0.0015617513566230424
-0.009233111925573606   -0.054672072651457314   -0.0014216544613006804
-0.005524931208675697   -0.054750079725060706   -0.0012818705875241975
-0.00552446343977438   -0.05484907587213774   -0.0012863732513808375
-0.005432265356047213   -0.061291761086099635   -0.0015617513566230424
-0.009233111925573606   -0.054672072651457314   -0.0014216544613006804
-0.00552446343977438   -0.05484907587213774   -0.0012863732513808375
-0.008286275785982778   -0.06130159040187004   -0.0017663979689344954
-0.005432265356047213   -0.061291761086099635   -0.0015617513566230424
-0.005524931208675697   -0.054750079725060706   -0.0012818705875241975
-0.008251423755404394   -0.061214461038850955   -0.0017027719579863045
-0.005393767192972039   -0.06122738609205448   -0.0015558440989827138
-0.005524931208675697   -0.054750079725060706   -0.0012818705875241975
-0.009233111925573606   -0.054672072651457314   -0.0014216544613006804
-0.008251423755404394   -0.061214461038850955   -0.0017027719579863045
-0.009230058289104056   -0.054617122767002944   -0.0013584520581423674
-0.005393767192972039   -0.06122738609205448   -0.0015558440989827138
-0.0082093085460704   -0.061163544088909554   -0.001631651351202374
-0.009230058289104056   -0.054617122767002944   -0.0013584520581423674
-0.008251423755404394   -0.061214461038850955   -0.0017027719579863045
-0.005393767192972039   -0.06122738609205448   -0.0015558440989827138
-0.009230058289104056   -0.054617122767002944   -0.0013584520581423674
-0.005525145107907051   -0.05467954325256755   -0.0012700859891950056
-0.005524931208675697   -0.054750079725060706   -0.0012818705875241975
-0.005393767192972039   -0.06122738609205448   -0.0015558440989827138
-0.009230058289104056   -0.054617122767002944   -0.0013584520581423674
-0.005524931208675697   -0.054750079725060706   -0.0012818705875241975
-0.008251423755404394   -0.061214461038850955   -0.0017027719579863045
-0.005393767192972039   -0.06122738609205448   -0.0015558440989827138
-0.005525145107907051   -0.05467954325256755   -0.0012700859891950056
-0.0082093085460704   -0.061163544088909554   -0.001631651351202374
-0.00536009582322603   -0.061199023397759525   -0.0015427865266571259
-0.005525145107907051   -0.05467954325256755   -0.0012700859891950056
-0.009230058289104056   -0.054617122767002944   -0.0013584520581423674
-0.0082093085460704   -0.061163544088909554   -0.001631651351202374
-0.00922814477335271   -0.054589886352329774   -0.0012883174611544761
-0.00536009582322603   -0.061199023397759525   -0.0015427865266571259
-0.008168350693612365   -0.06114716005218448   -0.0015532668255228395
-0.00922814477335271   -0.054589886352329774   -0.0012883174611544761
-0.0082093085460704   -0.061163544088909554   -0.001631651351202374
-0.00536009582322603   -0.061199023397759525   -0.0015427865266571259
-0.00922814477335271   -0.054589886352329774   -0.0012883174611544761
-0.005530396647339287   -0.05463751699791596   -0.0012513979821756251
-0.005525145107907051   -0.05467954325256755   -0.0012700859891950056
-0.00536009582322603   -0.061199023397759525   -0.0015427865266571259
-0.00922814477335271   -0.054589886352329774   -0.0012883174611544761
-0.005525145107907051   -0.05467954325256755   -0.0012700859891950056
-0.0082093085460704   -0.061163544088909554   -0.001631651351202374
-0.008286275785982778   -0.06130159040187004   -0.0017663979689344954
-0.00922985225637461   -0.05475523051664155   -0.001477716661813001
-0.011237837775879703   -0.061094381208680895   -0.001949758424903205
-0.008251423755404394   -0.061214461038850955   -0.0017027719579863045
-0.00922985225637461   -0.05475523051664155   -0.001477716661813001
-0.013050693377202055   -0.054570547374951456   -0.001642315315794923
-0.011237837775879703   -0.061094381208680895   -0.001949758424903205
-0.013046160159506576   -0.054502552055374326   -0.0015340819199810144
-0.008251423755404394   -0.061214461038850955   -0.0017027719579863045
-0.011192292715832912   -0.06102047911828517   -0.0018206671270678024
-0.013046160159506576   -0.054502552055374326   -0.0015340819199810144
-0.011237837775879703   -0.061094381208680895   -0.001949758424903205
-0.008251423755404394   -0.061214461038850955   -0.0017027719579863045
-0.013046160159506576   -0.054502552055374326   -0.0015340819199810144
-0.009233111925573606   -0.054672072651457314   -0.0014216544613006804
-0.00922985225637461   -0.05475523051664155   -0.001477716661813001
-0.008251423755404394   -0.061214461038850955   -0.0017027719579863045
-0.013046160159506576   -0.054502552055374326   -0.0015340819199810144
-0.00922985225637461   -0.05475523051664155   -0.001477716661813001
-0.011237837775879703   -0.061094381208680895   -0.001949758424903205
-0.008251423755404394   -0.061214461038850955   -0.0017027719579863045
-0.009233111925573606   -0.054672072651457314   -0.0014216544613006804
-0.011192292715832912   -0.06102047911828517   -0.0018206671270678024
-0.0082093085460704   -0.061163544088909554   -0.001631651351202374
-0.009233111925573606   -0.054672072651457314   -0.0014216544613006804
-0.013046160159506576   -0.054502552055374326   -0.0015340819199810144
-0.011192292715832912   -0.06102047911828517   -0.0018206671270678024
-0.013014081940441624   -0.054461735144805117   -0.001419784904166562
-0.0082093085460704   -0.061163544088909554   -0.001631651351202374
-0.01111507116567185   -0.0609817634557355   -0.0016852337354842902
-0.013014081940441624   -0.054461735144805117   -0.001419784904166562
-0.011192292715832912   -0.06102047911828517   -0.0018206671270678024
-0.0082093085460704   -0.061163544088909554   -0.001631651351202374
-0.013014081940441624   -0.054461735144805117   -0.001419784904166562
-0.009230058289104056   -0.054617122767002944   -0.0013584520581423674
-0.009233111925573606   -0.054672072651457314   -0.0014216544613006804
-0.0082093085460704   -0.061163544088909554   -0.001631651351202374
-0.013014081940441624   -0.054461735144805117   -0.001419784904166562
-0.009233111925573606   -0.054672072651457314   -0.0014216544613006804
-0.011192292715832912   -0.06102047911828517   -0.0018206671270678024
-0.0082093085460704   -0.061163544088909554   -0.001631651351202374
-0.009230058289104056   -0.054617122767002944   -0.0013584520581423674
-0.01111507116567185   -0.0609817634557355   -0.0016852337354842902
-0.008168350693612365   -0.06114716005218448   -0.0015532668255228395
-0.009230058289104056   -0.054617122767002944   -0.0013584520581423674
-0.013014081940441624   -0.054461735144805117   -0.001419784904166562
-0.01111507116567185   -0.0609817634557355   -0.0016852337354842902
-0.012992651108697916   -0.05445096149894872   -0.0012979982319930867
-0.008168350693612365   -0.06114716005218448   -0.0015532668255228395
-0.01105236837700977   -0.06098028658774571   -0.0015414790129956299
-0.012992651108697916   -0.05445096149894872   -0.0012979982319930867
-0.01111507116567185   -0.0609817634557355   -0.0016852337354842902
-0.008168350693612365   -0.06114716005218448   -0.0015532668255228395
-0.012992651108697916   -0.05445096149894872   -0.0012979982319930867
-0.00922814477335271   -0.054589886352329774   -0.0012883174611544761
-0.009230058289104056   -0.054617122767002944   -0.0013584520581423674
-0.008168350693612365   -0.06114716005218448   -0.0015532668255228395
-0.012992651108697916   -0.05445096149894872   -0.0012979982319930867
-0.009230058289104056   -0.054617122767002944   -0.0013584520581423674
-0.01111507116567185   -0.0609817634557355   -0.0016852337354842902
-0.011237837775879703   -0.061094381208680895   -0.001949758424903205
-0.013050693377202055   -0.054570547374951456   -0.001642315315794923
-0.014679990883284949   -0.06079597045142463   -0.0021207620740730927
-0.011192292715832912   -0.06102047911828517   -0.0018206671270678024
-0.013050693377202055   -0.054570547374951456   -0.001642315315794923
-0.017318530117360315   -0.054315957620397114   -0.0017907599385872548
-0.014679990883284949   -0.06079597045142463   -0.0021207620740730927
-0.01715880174984562   -0.05424921598914692   -0.0016251728125271205
-0.011192292715832912   -0.06102047911828517   -0.0018206671270678024
-0.014446546773900802   -0.060718878180729824   -0.0019186919763757384
-0.01715880174984562   -0.05424921598914692   -0.0016251728125271205
-0.014679990883284949   -0.06079597045142463   -0.0021207620740730927
-0.011192292715832912   -0.06102047911828517   -0.0018206671270678024
-0.01715880174984562   -0.05424921598914692   -0.0016251728125271205
-0.013046160159506576   -0.054502552055374326   -0.0015340819199810144
-0.013050693377202055   -0.054570547374951456   -0.001642315315794923
-0.011192292715832912   -0.06102047911828517   -0.0018206671270678024
-0.01715880174984562   -0.05424921598914692   -0.0016251728125271205
-0.013050693377202055   -0.054570547374951456   -0.001642315315794923
-0.014679990883284949   -0.06079597045142463   -0.0021207620740730927
-0.011192292715832912   -0.06102047911828517   -0.0018206671270678024
-0.013046160159506576   -0.054502552055374326   -0.0015340819199810144
-0.014446546773900802   -0.060718878180729824   -0.0019186919763757384
-0.01111507116567185   -0.0609817634557355   -0.0016852337354842902
-0.013046160159506576   -0.054502552055374326   -0.0015340819199810144
-0.01715880174984562   -0.05424921598914692   -0.0016251728125271205
-0.014446546773900802   -0.060718878180729824   -0.0019186919763757384
-0.017022214996164884   -0.05421355517127088   -0.001449392383715032
-0.01111507116567185   -0.0609817634557355   -0.0016852337354842902
-0.014243967709705768   -0.0606834749762776   -0.001706162673538285
-0.017022214996164884   -0.05421355517127088   -0.001449392383715032
-0.014446546773900802   -0.060718878180729824   -0.0019186919763757384
-0.01111507116567185   -0.0609817634557355   -0.0016852337354842902
-0.017022214996164884   -0.05421355517127088   -0.001449392383715032
-0.013014081940441624   -0.054461735144805117   -0.001419784904166562
-0.013046160159506576   -0.054502552055374326   -0.0015340819199810144
-0.01111507116567185   -0.0609817634557355   -0.0016852337354842902
-0.017022214996164884   -0.05421355517127088   -0.001449392383715032
-0.013046160159506576   -0.054502552055374326   -0.0015340819199810144
-0.014446546773900802   -0.060718878180729824   -0.0019186919763757384
-0.01111507116567185   -0.0609817634557355   -0.0016852337354842902
-0.013014081940441624   -0.054461735144805117   -0.001419784904166562
-0.014243967709705768   -0.0606834749762776   -0.001706162673538285
-0.01105236837700977   -0.06098028658774571   -0.0015414790129956299
-0.013014081940441624   -0.054461735144805117   -0.001419784904166562
-0.017022214996164884   -0.05421355517127088   -0.001449392383715032
-0.014243967709705768   -0.0606834749762776   -0.001706162673538285
-0.016825119530151936   -0.05422554138364173   -0.0012648165899957942
-0.01105236837700977   -0.06098028658774571   -0.0015414790129956299
-0.013971052637443809   -0.060704980682957745   -0.0014845280043956639
-0.016825119530151936   -0.05422554138364173   -0.0012648165899957942
-0.014243967709705768   -0.0606834749762776   -0.001706162673538285
-0.01105236837700977   -0.06098028658774571   -0.0015414790129956299
-0.016825119530151936   -0.05422554138364173   -0.0012648165899957942
-0.012992651108697916   -0.05445096149894872   -0.0012979982319930867
-0.013014081940441624   -0.054461735144805117   -0.001419784904166562
-0.01105236837700977   -0.06098028658774571   -0.0015414790129956299
-0.016825119530151936   -0.05422554138364173   -0.0012648165899957942
-0.013014081940441624   -0.054461735144805117   -0.001419784904166562
-0.014243967709705768   -0.0606834749762776   -0.001706162673538285
0.002161648436055288   -0.05475137461480498   -0.0008029657472559172
0.0034112590175633993   -0.04697144062009225   -0.000534926095358099
-0.0017551195076670068   -0.05484853783404735   -0.0010679172188064717
0.002276027036132071   -0.05461360616911818   -0.0009188624041925786
0.0034112590175633993   -0.04697144062009225   -0.000534926095358099
-0.001236546048327222   -0.047019287035968804   -0.0007841941682929682
-0.0017551195076670068   -0.05484853783404735   -0.0010679172188064717
-0.0012583513619460712   -0.046905113548107995   -0.0008099264122725146
0.002276027036132071   -0.05461360616911818   -0.0009188624041925786
-0.0017444888509840894   -0.05473150884203122   -0.00111560455676846
-0.0012583513619460712   -0.046905113548107995   -0.0008099264122725146
-0.0017551195076670068   -0.05484853783404735   -0.0010679172188064717
0.002276027036132071   -0.05461360616911818   -0.0009188624041925786
-0.0012583513619460712   -0.046905113548107995   -0.0008099264122725146
0.0034565791383656982   -0.04683870866642607   -0.0006109155412103701
0.0034112590175633993   -0.04697144062009225   -0.000534926095358099
0.002276027036132071   -0.05461360616911818   -0.0009188624041925786
-0.0012583513619460712   -0.046905113548107995   -0.0008099264122725146
0.0034112590175633993   -0.04697144062009225   -0.000534926095358099
-0.0017551195076670068   -0.05484853783404735   -0.0010679172188064717
0.002276027036132071   -0.05461360616911818   -0.0009188624041925786
0.0034565791383656982   -0.04683870866642607   -0.0006109155412103701
-0.0017444888509840894   -0.05473150884203122   -0.00111560455676846
0.0023491842960493502   -0.05452332498176448   -0.0010244285221118106
0.0034565791383656982   -0.04683870866642607   -0.0006109155412103701
-0.0012583513619460712   -0.046905113548107995   -0.0008099264122725146
-0.0017444888509840894   -0.05473150884203122   -0.00111560455676846
-0.0012812609995995156   -0.04681487576940302   -0.0008291303430642413
0.0023491842960493502   -0.05452332498176448   -0.0010244285221118106
-0.001730961528288339   -0.05464676418469915   -0.0011559820811918471
-0.0012812609995995156   -0.04681487576940302   -0.0008291303430642413
-0.0017444888509840894   -0.05473150884203122   -0.00111560455676846
0.0023491842960493502   -0.05452332498176448   -0.0010244285221118106
-0.0012812609995995156   -0.04681487576940302   -0.0008291303430642413
0.0034704476071526656   -0.04674208597704211   -0.0006772730928464893
0.0034565791383656982   -0.04683870866642607   -0.0006109155412103701
0.0023491842960493502   -0.05452332498176448   -0.0010244285221118106
-0.0012812609995995156   -0.04681487576940302   -0.0008291303430642413
0.0034565791383656982   -0.04683870866642607   -0.0006109155412103701
-0.0017444888509840894   -0.05473150884203122   -0.00111560455676846
0.0023491842960493502   -0.05452332498176448   -0.0010244285221118106
0.0034704476071526656   -0.04674208597704211   -0.0006772730928464893
-0.001730961528288339   -0.05464676418469915   -0.0011559820811918471
0.0024243420884574314   -0.05446299187909423   -0.0011198813077733748
0.0034704476071526656   -0.04674208597704211   -0.0006772730928464893
-0.0012812609995995156   -0.04681487576940302   -0.0008291303430642413
-0.001730961528288339   -0.05464676418469915   -0.0011559820811918471
-0.0013203254979222315   -0.0467457335919554   -0.0008420265490899064
0.0024243420884574314   -0.05446299187909423   -0.0011198813077733748
-0.0017373612562293396   -0.05459158676299557   -0.0011895828894338
-0.0013203254979222315   -0.0467457335919554   -0.0008420265490899064
-0.001730961528288339   -0.05464676418469915   -0.0011559820811918471
0.0024243420884574314   -0.05446299187909423   -0.0011198813077733748
-0.0013203254979222315   -0.0467457335919554   -0.0008420265490899064
0.003478347821400217   -0.04666451573108848   -0.0007344549112372668
0.0034704476071526656   -0.04674208597704211   -0.0006772730928464893
0.0024243420884574314   -0.05446299187909423   -0.0011198813077733748
-0.0013203254979222315   -0.0467457335919554   -0.0008420265490899064
0.0034704476071526656   -0.04674208597704211   -0.0006772730928464893
-0.001730961528288339   -0.05464676418469915   -0.0011559820811918471
-0.0017551195076670068   -0.05484853783404735   -0.0010679172188064717
-0.001236546048327222   -0.047019287035968804   -0.0007841941682929682
-0.00552446343977438   -0.05484907587213774   -0.0012863732513808375
-0.0017444888509840894   -0.05473150884203122   -0.00111560455676846
-0.001236546048327222   -0.047019287035968804   -0.0007841941682929682
-0.005691824806752574   -0.046994777485097027   -0.0009893909979876874
-0.00552446343977438   -0.05484907587213774   -0.0012863732513808375
-0.005722099610381173   -0.046899385088899494   -0.0009773812721422558
-0.0017444888509840894   -0.05473150884203122   -0.00111560455676846
-0.005524931208675697   -0.054750079725060706   -0.0012818705875241975
-0.005722099610381173   -0.046899385088899494   -0.0009773812721422558
-0.00552446343977438   -0.05484907587213774   -0.0012863732513808375
-0.0017444888509840894   -0.05473150884203122   -0.00111560455676846
-0.005722099610381173   -0.046899385088899494   -0.0009773812721422558
-0.0012583513619460712   -0.046905113548107995   -0.0008099264122725146
-0.001236546048327222   -0.047019287035968804   -0.0007841941682929682
-0.0017444888509840894   -0.05473150884203122   -0.00111560455676846
-0.005722099610381173   -0.046899385088899494   -0.0009773812721422558
-0.001236546048327222   -0.047019287035968804   -0.0007841941682929682
-0.00552446343977438   -0.05484907587213774   -0.0012863732513808375
-0.0017444888509840894   -0.05473150884203122   -0.00111560455676846
-0.0012583513619460712   -0.046905113548107995   -0.0008099264122725146
-0.005524931208675697   -0.054750079725060706   -0.0012818705875241975
-0.001730961528288339   -0.05464676418469915   -0.0011559820811918471
-0.0012583513619460712   -0.046905113548107995   -0.0008099264122725146
-0.005722099610381173   -0.046899385088899494   -0.0009773812721422558
-0.005524931208675697   -0.054750079725060706   -0.0012818705875241975
-0.005752790481742493   -0.0468245099154306   -0.000958650260299706
-0.001730961528288339   -0.05464676418469915   -0.0011559820811918471
-0.005525145107907051   -0.05467954325256755   -0.0012700859891950056
-0.005752790481742493   -0.0468245099154306   -0.000958650260299706
-0.005524931208675697   -0.054750079725060706   -0.0012818705875241975
-0.001730961528288339   -0.05464676418469915   -0.0011559820811918471
-0.005752790481742493   -0.0468245099154306   -0.000958650260299706
-0.0012812609995995156   -0.04681487576940302   -0.0008291303430642413
-0.0012583513619460712   -0.046905113548107995   -0.0008099264122725146
-0.001730961528288339   -0.05464676418469915   -0.0011559820811918471
-0.005752790481742493   -0.0468245099154306   -0.000958650260299706
-0.0012583513619460712   -0.046905113548107995   -0.0008099264122725146
-0.005524931208675697   -0.054750079725060706   -0.0012818705875241975
-0.001730961528288339   -0.05464676418469915   -0.0011559820811918471
-0.0012812609995995156   -0.04681487576940302   -0.0008291303430642413
-0.005525145107907051   -0.05467954325256755   -0.0012700859891950056
-0.0017373612562293396   -0.05459158676299557   -0.0011895828894338
-0.0012812609995995156   -0.04681487576940302   -0.0008291303430642413
-0.005752790481742493   -0.0468245099154306   -0.000958650260299706
-0.005525145107907051   -0.05467954325256755   -0.0012700859891950056
-0.005788264036625678   -0.046770500102173936   -0.0009335226937243511
-0.0017373612562293396   -0.05459158676299557   -0.0011895828894338
-0.005530396647339287   -0.05463751699791596   -0.0012513979821756251
-0.005788264036625678   -0.046770500102173936   -0.0009335226937243511
-0.005525145107907051   -0.05467954325256755   -0.0012700859891950056
-0.0017373612562293396   -0.05459158676299557   -0.0011895828894338
-0.005788264036625678   -0.046770500102173936   -0.0009335226937243511
-0.0013203254979222315   -0.0467457335919554   -0.0008420265490899064
-0.0012812609995995156   -0.04681487576940302   -0.0008291303430642413
-0.0017373612562293396   -0.05459158676299557   -0.0011895828894338
-0.005788264036625678   -0.046770500102173936   -0.0009335226937243511
-0.0012812609995995156   -0.04681487576940302   -0.0008291303430642413
-0.005525145107907051   -0.05467954325256755   -0.0012700859891950056
-0.00552446343977438   -0.05484907587213774   -0.0012863732513808375
-0.005691824806752574   -0.046994777485097027   -0.0009893909979876874
-0.00922985225637461   -0.05475523051664155   -0.001477716661813001
-0.005524931208675697   -0.054750079725060706   -0.0012818705875241975
-0.005691824806752574   -0.046994777485097027   -0.0009893909979876874
-0.010071826269791829   -0.046902407341547575   -0.0011649371540799196
-0.00922985225637461   -0.05475523051664155   -0.001477716661813001
-0.010104496133360287   -0.04682407528691079   -0.0011153693387242923
-0.005524931208675697   -0.054750079725060706   -0.0012818705875241975
-0.009233111925573606   -0.054672072651457314   -0.0014216544613006804
-0.010104496133360287   -0.04682407528691079   -0.0011153693387242923
-0.00922985225637461   -0.05475523051664155   -0.001477716661813001
-0.005524931208675697   -0.054750079725060706   -0.0012818705875241975
-0.010104496133360287   -0.04682407528691079   -0.0011153693387242923
-0.005722099610381173   -0.046899385088899494   -0.0009773812721422558
-0.005691824806752574   -0.046994777485097027   -0.0009893909979876874
-0.005524931208675697   -0.054750079725060706   -0.0012818705875241975
-0.010104496133360287   -0.04682407528691079   -0.0011153693387242923
-0.005691824806752574   -0.046994777485097027   -0.0009893909979876874
-0.00922985225637461   -0.05475523051664155   -0.001477716661813001
-0.005524931208675697   -0.054750079725060706   -0.0012818705875241975
-0.005722099610381173   -0.046899385088899494   -0.0009773812721422558
-0.009233111925573606   -0.054672072651457314   -0.0014216544613006804
-0.005525145107907051   -0.05467954325256755   -0.0012700859891950056
-0.005722099610381173   -0.046899385088899494   -0.0009773812721422558
-0.010104496133360287   -0.04682407528691079   -0.0011153693387242923
-0.009233111925573606   -0.054672072651457314   -0.0014216544613006804
-0.010131558851509207   -0.046766064568738844   -0.001059199429766815
-0.005525145107907051   -0.05467954325256755   -0.0012700859891950056
-0.009230058289104056   -0.054617122767002944   -0.0013584520581423674
-0.010131558851509207   -0.046766064568738844   -0.001059199429766815
-0.009233111925573606   -0.054672072651457314   -0.0014216544613006804
-0.005525145107907051   -0.05467954325256755   -0.0012700859891950056
-0.010131558851509207   -0.046766064568738844   -0.001059199429766815
-0.005752790481742493   -0.0468245099154306   -0.000958650260299706
-0.005722099610381173   -0.046899385088899494   -0.0009773812721422558
-0.005525145107907051   -0.05467954325256755   -0.0012700859891950056
-0.010131558851509207   -0.046766064568738844   -0.001059199429766815
-0.005722099610381173   -0.046899385088899494   -0.0009773812721422558
-0.009233111925573606   -0.054672072651457314   -0.0014216544613006804
-0.005525145107907051   -0.05467954325256755   -0.0012700859891950056
-0.005752790481742493   -0.0468245099154306   -0.000958650260299706
-0.009230058289104056   -0.054617122767002944   -0.0013584520581423674
-0.005530396647339287   -0.05463751699791596   -0.0012513979821756251
-0.005752790481742493   -0.0468245099154306   -0.000958650260299706
-0.010131558851509207   -0.046766064568738844   -0.001059199429766815
-0.009230058289104056   -0.054617122767002944   -0.0013584520581423674
-0.010159409918794373   -0.04672828984962376   -0.0009966215897266738
-0.005530396647339287   -0.05463751699791596   -0.0012513979821756251
-0.00922814477335271   -0.054589886352329774   -0.0012883174611544761
-0.010159409918794373   -0.04672828984962376   -0.0009966215897266738
-0.009230058289104056   -0.054617122767002944   -0.0013584520581423674
-0.005530396647339287   -0.05463751699791596   -0.0012513979821756251
-0.010159409918794373   -0.04672828984962376   -0.0009966215897266738
-0.005788264036625678   -0.046770500102173936   -0.0009335226937243511
-0.005752790481742493   -0.0468245099154306   -0.000958650260299706
-0.005530396647339287   -0.05463751699791596   -0.0012513979821756251
-0.010159409918794373   -0.04672828984962376   -0.0009966215897266738
-0.005752790481742493   -0.0468245099154306   -0.000958650260299706
-0.009230058289104056   -0.054617122767002944   -0.0013584520581423674
-0.00922985225637461   -0.05475523051664155   -0.001477716661813001
-0.010071826269791829   -0.046902407341547575   -0.0011649371540799196
-0.013050693377202055   -0.054570547374951456   -0.001642315315794923
-0.009233111925573606   -0.054672072651457314   -0.0014216544613006804
-0.010071826269791829   -0.046902407341547575   -0.0011649371540799196
-0.014556002534494121   -0.04674401541049086   -0.0013115072302861495
-0.013050693377202055   -0.054570547374951456   -0.001642315315794923
-0.014583020388990987   -0.04668234565704258   -0.001223869391266315
-0.009233111925573606   -0.054672072651457314   -0.0014216544613006804
-0.013046160159506576   -0.054502552055374326   -0.0015340819199810144
-0.014583020388990987   -0.04668234565704258   -0.001223869391266315
-0.013050693377202055   -0.054570547374951456   -0.001642315315794923
-0.009233111925573606   -0.054672072651457314   -0.0014216544613006804
-0.014583020388990987   -0.04668234565704258   -0.001223869391266315
-0.010104496133360287   -0.04682407528691079   -0.0011153693387242923
-0.010071826269791829   -0.046902407341547575   -0.0011649371540799196
-0.009233111925573606   -0.054672072651457314   -0.0014216544613006804
-0.014583020388990987   -0.04668234565704258   -0.001223869391266315
-0.010071826269791829   -0.046902407341547575   -0.0011649371540799196
-0.013050693377202055   -0.054570547374951456   -0.001642315315794923
-0.009233111925573606   -0.054672072651457314   -0.0014216544613006804
-0.010104496133360287   -0.04682407528691079   -0.0011153693387242923
-0.013046160159506576   -0.054502552055374326   -0.0015340819199810144
-0.009230058289104056   -0.054617122767002944   -0.0013584520581423674
-0.010104496133360287   -0.04682407528691079   -0.0011153693387242923
-0.014583020388990987   -0.04668234565704258   -0.001223869391266315
-0.013046160159506576   -0.054502552055374326   -0.0015340819199810144
-0.014586447578114807   -0.04663975636977367   -0.0011305429167231234
-0.009230058289104056   -0.054617122767002944   -0.0013584520581423674
-0.013014081940441624   -0.054461735144805117   -0.001419784904166562
-0.014586447578114807   -0.04663975636977367   -0.0011305429167231234
-0.013046160159506576   -0.054502552055374326   -0.0015340819199810144
-0.009230058289104056   -0.054617122767002944   -0.0013584520581423674
-0.014586447578114807   -0.04663975636977367   -0.0011305429167231234
-0.010131558851509207   -0.046766064568738844   -0.001059199429766815
-0.010104496133360287   -0.04682407528691079   -0.0011153693387242923
-0.009230058289104056   -0.054617122767002944   -0.0013584520581423674
-0.014586447578114807   -0.04663975636977367   -0.0011305429167231234
-0.010104496133360287   -0.04682407528691079   -0.0011153693387242923
-0.013046160159506576   -0.054502552055374326   -0.0015340819199810144
-0.009230058289104056   -0.054617122767002944   -0.0013584520581423674
-0.010131558851509207   -0.046766064568738844   -0.001059199429766815
-0.013014081940441624   -0.054461735144805117   -0.001419784904166562
-0.00922814477335271   -0.054589886352329774   -0.0012883174611544761
-0.010131558851509207   -0.046766064568738844   -0.001059199429766815
-0.014586447578114807   -0.04663975636977367   -0.0011305429167231234
-0.013014081940441624   -0.054461735144805117   -0.001419784904166562
-0.014596579432283692   -0.046619224610846235   -0.0010303226903073757
-0.00922814477335271   -0.054589886352329774   -0.0012883174611544761
-0.012992651108697916   -0.05445096149894872   -0.0012979982319930867
-0.014596579432283692   -0.046619224610846235   -0.0010303226903073757
-0.013014081940441624   -0.054461735144805117   -0.001419784904166562
-0.00922814477335271   -0.054589886352329774   -0.0012883174611544761
-0.014596579432283692   -0.046619224610846235   -0.0010303226903073757
-0.010159409918794373   -0.04672828984962376   -0.0009966215897266738
-0.010131558851509207   -0.046766064568738844   -0.001059199429766815
-0.00922814477335271   -0.054589886352329774   -0.0012883174611544761
-0.014596579432283692   -0.046619224610846235   -0.0010303226903073757
-0.010131558851509207   -0.046766064568738844   -0.001059199429766815
-0.013014081940441624   -0.054461735144805117   -0.001419784904166562
-0.013050693377202055   -0.054570547374951456   -0.001642315315794923
-0.014556002534494121   -0.04674401541049086   -0.0013115072302861495
-0.017318530117360315   -0.054315957620397114   -0.0017907599385872548
-0.013046160159506576   -0.054502552055374326   -0.0015340819199810144
-0.014556002534494121   -0.04674401541049086   -0.0013115072302861495
-0.01944597899967866   -0.0465361977516034   -0.0014367158561407053
-0.017318530117360315   -0.054315957620397114   -0.0017907599385872548
-0.01935223098650916   -0.04647986422249884   -0.001308807830107922
-0.013046160159506576   -0.054502552055374326   -0.0015340819199810144
-0.01715880174984562   -0.05424921598914692   -0.0016251728125271205
-0.01935223098650916   -0.04647986422249884   -0.001308807830107922
-0.017318530117360315   -0.054315957620397114   -0.0017907599385872548
-0.013046160159506576   -0.054502552055374326   -0.0015340819199810144
-0.01935223098650916   -0.04647986422249884   -0.001308807830107922
-0.014583020388990987   -0.04668234565704258   -0.001223869391266315
-0.014556002534494121   -0.04674401541049086   -0.0013115072302861495
-0.013046160159506576   -0.054502552055374326   -0.0015340819199810144
-0.01935223098650916   -0.04647986422249884   -0.001308807830107922
-0.014556002534494121   -0.04674401541049086   -0.0013115072302861495
-0.017318530117360315   -0.054315957620397114   -0.0017907599385872548
-0.013046160159506576   -0.054502552055374326   -0.0015340819199810144
-0.014583020388990987   -0.04668234565704258   -0.001223869391266315
-0.01715880174984562   -0.05424921598914692   -0.0016251728125271205
-0.013014081940441624   -0.054461735144805117   -0.001419784904166562
-0.014583020388990987   -0.04668234565704258   -0.001223869391266315
-0.01935223098650916   -0.04647986422249884   -0.001308807830107922
-0.01715880174984562   -0.05424921598914692   -0.0016251728125271205
-0.01927320334318831   -0.04644381342609076   -0.0011709668513542075
-0.013014081940441624   -0.054461735144805117   -0.001419784904166562
-0.017022214996164884   -0.05421355517127088   -0.001449392383715032
-0.01927320334318831   -0.04644381342609076   -0.0011709668513542075
-0.01715880174984562   -0.05424921598914692   -0.0016251728125271205
-0.013014081940441624   -0.054461735144805117   -0.001419784904166562
-0.01927320334318831   -0.04644381342609076   -0.0011709668513542075
-0.014586447578114807   -0.04663975636977367   -0.0011305429167231234
-0.014583020388990987   -0.04668234565704258   -0.001223869391266315
-0.013014081940441624   -0.054461735144805117   -0.001419784904166562
-0.01927320334318831   -0.04644381342609076   -0.0011709668513542075
-0.014583020388990987   -0.04668234565704258   -0.001223869391266315
-0.01715880174984562   -0.05424921598914692   -0.0016251728125271205
-0.013014081940441624   -0.054461735144805117   -0.001419784904166562
-0.014586447578114807   -0.04663975636977367   -0.0011305429167231234
-0.017022214996164884   -0.05421355517127088   -0.001449392383715032
-0.012992651108697916   -0.05445096149894872   -0.0012979982319930867
-0.014586447578114807   -0.04663975636977367   -0.0011305429167231234
-0.01927320334318831   -0.04644381342609076   -0.0011709668513542075
-0.017022214996164884   -0.05421355517127088   -0.001449392383715032
-0.01914286970479796   -0.04644523560609495   -0.001024431446086261
-0.012992651108697916   -0.05445096149894872   -0.0012979982319930867
-0.016825119530151936   -0.05422554138364173   -0.0012648165899957942
-0.01914286970479796   -0.04644523560609495   -0.001024431446086261
-0.017022214996164884   -0.05421355517127088   -0.001449392383715032
-0.012992651108697916   -0.05445096149894872   -0.0012979982319930867
-0.01914286970479796   -0.04644523560609495   -0.001024431446086261
-0.014596579432283692   -0.046619224610846235   -0.0010303226903073757
-0.014586447578114807   -0.04663975636977367   -0.0011305429167231234
-0.012992651108697916   -0.05445096149894872   -0.0012979982319930867
-0.01914286970479796   -0.04644523560609495   -0.001024431446086261
-0.014586447578114807   -0.04663975636977367   -0.0011305429167231234
-0.017022214996164884   -0.05421355517127088   -0.001449392383715032
0.0034112590175633993   -0.04697144062009225   -0.000534926095358099
0.004106167710169575   -0.038239475871759236   -0.00027256613844524736
-0.001236546048327222   -0.047019287035968804   -0.0007841941682929682
0.0034565791383656982   -0.04683870866642607   -0.0006109155412103701
0.004106167710169575   -0.038239475871759236   -0.00027256613844524736
-0.001054474473819379   -0.0382384894531189   -0.0005036928416064652
-0.001236546048327222   -0.047019287035968804   -0.0007841941682929682
-0.0011005562699629822   -0.03812806366286301   -0.0005071802757125884
0.0034565791383656982   -0.04683870866642607   -0.0006109155412103701
-0.0012583513619460712   -0.046905113548107995   -0.0008099264122725146
-0.0011005562699629822   -0.03812806366286301   -0.0005071802757125884
-0.001236546048327222   -0.047019287035968804   -0.0007841941682929682
0.0034565791383656982   -0.04683870866642607   -0.0006109155412103701
-0.0011005562699629822   -0.03812806366286301   -0.0005071802757125884
0.0040914704151587935   -0.038112414943976526   -0.0003090761770614356
0.004106167710169575   -0.038239475871759236   -0.00027256613844524736
0.0034565791383656982   -0.04683870866642607   -0.0006109155412103701
-0.0011005562699629822   -0.03812806366286301   -0.0005071802757125884
0.004106167710169575   -0.038239475871759236   -0.00027256613844524736
-0.001236546048327222   -0.047019287035968804   -0.0007841941682929682
0.0034565791383656982   -0.04683870866642607   -0.0006109155412103701
0.0040914704151587935   -0.038112414943976526   -0.0003090761770614356
-0.0012583513619460712   -0.046905113548107995   -0.0008099264122725146
0.0034704476071526656   -0.04674208597704211   -0.0006772730928464893
0.0040914704151587935   -0.038112414943976526   -0.0003090761770614356
-0.0011005562699629822   -0.03812806366286301   -0.0005071802757125884
-0.0012583513619460712   -0.046905113548107995   -0.0008099264122725146
-0.0011517628814981418   -0.03803307715468331   -0.0005048763333707148
0.0034704476071526656   -0.04674208597704211   -0.0006772730928464893
-0.0012812609995995156   -0.04681487576940302   -0.0008291303430642413
-0.0011517628814981418   -0.03803307715468331   -0.0005048763333707148
-0.0012583513619460712   -0.046905113548107995   -0.0008099264122725146
0.0034704476071526656   -0.04674208597704211   -0.0006772730928464893
-0.0011517628814981418   -0.03803307715468331   -0.0005048763333707148
0.004054517509793477   -0.038010261174884354   -0.0003363036439293717
0.0040914704151587935   -0.038112414943976526   -0.0003090761770614356
0.0034704476071526656   -0.04674208597704211   -0.0006772730928464893
-0.0011517628814981418   -0.03803307715468331   -0.0005048763333707148
0.0040914704151587935   -0.038112414943976526   -0.0003090761770614356
-0.0012583513619460712   -0.046905113548107995   -0.0008099264122725146
0.0034704476071526656   -0.04674208597704211   -0.0006772730928464893
0.004054517509793477   -0.038010261174884354   -0.0003363036439293717
-0.0012812609995995156   -0.04681487576940302   -0.0008291303430642413
0.003478347821400217   -0.04666451573108848   -0.0007344549112372668
0.004054517509793477   -0.038010261174884354   -0.0003363036439293717
-0.0011517628814981418   -0.03803307715468331   -0.0005048763333707148
-0.0012812609995995156   -0.04681487576940302   -0.0008291303430642413
-0.0012153467226405615   -0.037951064590522554   -0.0004965526993343653
0.003478347821400217   -0.04666451573108848   -0.0007344549112372668
-0.0013203254979222315   -0.0467457335919554   -0.0008420265490899064
-0.0012153467226405615   -0.037951064590522554   -0.0004965526993343653
-0.0012812609995995156   -0.04681487576940302   -0.0008291303430642413
0.003478347821400217   -0.04666451573108848   -0.0007344549112372668
-0.0012153467226405615   -0.037951064590522554   -0.0004965526993343653
0.00400289833226161   -0.03791631968501006   -0.0003548968165012691
0.004054517509793477   -0.038010261174884354   -0.0003363036439293717
0.003478347821400217   -0.04666451573108848   -0.0007344549112372668
-0.0012153467226405615   -0.037951064590522554   -0.0004965526993343653
0.004054517509793477   -0.038010261174884354   -0.0003363036439293717
-0.0012812609995995156   -0.04681487576940302   -0.0008291303430642413
-0.001236546048327222   -0.047019287035968804   -0.0007841941682929682
-0.001054474473819379   -0.0382384894531189   -0.0005036928416064652
-0.005691824806752574   -0.046994777485097027   -0.0009893909979876874
-0.0012583513619460712   -0.046905113548107995   -0.0008099264122725146
-0.001054474473819379   -0.0382384894531189   -0.0005036928416064652
-0.005976908917036889   -0.03819185788326039   -0.0006943696392466747
-0.005691824806752574   -0.046994777485097027   -0.0009893909979876874
-0.0060285124166093535   -0.03810022305220683   -0.000674222602549781
-0.0012583513619460712   -0.046905113548107995   -0.0008099264122725146
-0.005722099610381173   -0.046899385088899494   -0.0009773812721422558
-0.0060285124166093535   -0.03810022305220683   -0.000674222602549781
-0.005691824806752574   -0.046994777485097027   -0.0009893909979876874
-0.0012583513619460712   -0.046905113548107995   -0.0008099264122725146
-0.0060285124166093535   -0.03810022305220683   -0.000674222602549781
-0.0011005562699629822   -0.03812806366286301   -0.0005071802757125884
-0.001054474473819379   -0.0382384894531189   -0.0005036928416064652
-0.0012583513619460712   -0.046905113548107995   -0.0008099264122725146
-0.0060285124166093535   -0.03810022305220683   -0.000674222602549781
-0.001054474473819379   -0.0382384894531189   -0.0005036928416064652
-0.005691824806752574   -0.046994777485097027   -0.0009893909979876874
-0.0012583513619460712   -0.046905113548107995   -0.0008099264122725146
-0.0011005562699629822   -0.03812806366286301   -0.0005071802757125884
-0.005722099610381173   -0.046899385088899494   -0.0009773812721422558
-0.0012812609995995156   -0.04681487576940302   -0.0008291303430642413
-0.0011005562699629822   -0.03812806366286301   -0.0005071802757125884
-0.0060285124166093535   -0.03810022305220683   -0.000674222602549781
-0.005722099610381173   -0.046899385088899494   -0.0009773812721422558
-0.006081155811797833   -0.038021156688338754   -0.0006480423739263462
-0.0012812609995995156   -0.04681487576940302   -0.0008291303430642413
-0.005752790481742493   -0.0468245099154306   -0.000958650260299706
-0.006081155811797833   -0.038021156688338754   -0.0006480423739263462
-0.005722099610381173   -0.046899385088899494   -0.0009773812721422558
-0.0012812609995995156   -0.04681487576940302   -0.0008291303430642413
-0.006081155811797833   -0.038021156688338754   -0.0006480423739263462
-0.0011517628814981418   -0.03803307715468331   -0.0005048763333707148
-0.0011005562699629822   -0.03812806366286301   -0.0005071802757125884
-0.0012812609995995156   -0.04681487576940302   -0.0008291303430642413
-0.006081155811797833   -0.038021156688338754   -0.0006480423739263462
-0.0011005562699629822   -0.03812806366286301   -0.0005071802757125884
-0.005722099610381173   -0.046899385088899494   -0.0009773812721422558
-0.0012812609995995156   -0.04681487576940302   -0.0008291303430642413
-0.0011517628814981418   -0.03803307715468331   -0.0005048763333707148
-0.005752790481742493   -0.0468245099154306   -0.000958650260299706
-0.0013203254979222315   -0.0467457335919554   -0.0008420265490899064
-0.0011517628814981418   -0.03803307715468331   -0.0005048763333707148
-0.006081155811797833   -0.038021156688338754   -0.0006480423739263462
-0.005752790481742493   -0.0468245099154306   -0.000958650260299706
-0.006138255523713121   -0.03795540695729321   -0.0006161124870860829
-0.0013203254979222315   -0.0467457335919554   -0.0008420265490899064
-0.005788264036625678   -0.046770500102173936   -0.0009335226937243511
-0.006138255523713121   -0.03795540695729321   -0.0006161124870860829
-0.005752790481742493   -0.0468245099154306   -0.000958650260299706
-0.0013203254979222315   -0.0467457335919554   -0.0008420265490899064
-0.006138255523713121   -0.03795540695729321   -0.0006161124870860829
-0.0012153467226405615   -0.037951064590522554   -0.0004965526993343653
-0.0011517628814981418   -0.03803307715468331   -0.0005048763333707148
-0.0013203254979222315   -0.0467457335919554   -0.0008420265490899064
-0.006138255523713121   -0.03795540695729321   -0.0006161124870860829
-0.0011517628814981418   -0.03803307715468331   -0.0005048763333707148
-0.005752790481742493   -0.0468245099154306   -0.000958650260299706
-0.005691824806752574   -0.046994777485097027   -0.0009893909979876874
-0.005976908917036889   -0.03819185788326039   -0.0006943696392466747
-0.010071826269791829   -0.046902407341547575   -0.0011649371540799196
-0.005722099610381173   -0.046899385088899494   -0.0009773812721422558
-0.005976908917036889   -0.03819185788326039   -0.0006943696392466747
-0.010816117090744507   -0.038104766677279515   -0.0008551903316139372
-0.010071826269791829   -0.046902407341547575   -0.0011649371540799196
-0.01086925368491375   -0.038030450522267244   -0.0008114534284049783
-0.005722099610381173   -0.046899385088899494   -0.0009773812721422558
-0.010104496133360287   -0.04682407528691079   -0.0011153693387242923
-0.01086925368491375   -0.038030450522267244   -0.0008114534284049783
-0.010071826269791829   -0.046902407341547575   -0.0011649371540799196
-0.005722099610381173   -0.046899385088899494   -0.0009773812721422558
-0.01086925368491375   -0.038030450522267244   -0.0008114534284049783
-0.0060285124166093535   -0.03810022305220683   -0.000674222602549781
-0.005976908917036889   -0.03819185788326039   -0.0006943696392466747
-0.005722099610381173   -0.046899385088899494   -0.0009773812721422558
-0.01086925368491375   -0.038030450522267244   -0.0008114534284049783
-0.005976908917036889   -0.03819185788326039   -0.0006943696392466747
-0.010071826269791829   -0.046902407341547575   -0.0011649371540799196
-0.005722099610381173   -0.046899385088899494   -0.0009773812721422558
-0.0060285124166093535   -0.03810022305220683   -0.000674222602549781
-0.010104496133360287   -0.04682407528691079   -0.0011153693387242923
-0.005752790481742493   -0.0468245099154306   -0.000958650260299706
-0.0060285124166093535   -0.03810022305220683   -0.000674222602549781
-0.01086925368491375   -0.038030450522267244   -0.0008114534284049783
-0.010104496133360287   -0.04682407528691079   -0.0011153693387242923
-0.01091745338820867   -0.037968614002354656   -0.0007618241480494279
-0.005752790481742493   -0.0468245099154306   -0.000958650260299706
-0.010131558851509207   -0.046766064568738844   -0.001059199429766815
-0.01091745338820867   -0.037968614002354656   -0.0007618241480494279
-0.010104496133360287   -0.04682407528691079   -0.0011153693387242923
-0.005752790481742493   -0.0468245099154306   -0.000958650260299706
-0.01091745338820867   -0.037968614002354656   -0.0007618241480494279
-0.006081155811797833   -0.038021156688338754   -0.0006480423739263462
-0.0060285124166093535   -0.03810022305220683   -0.000674222602549781
-0.005752790481742493   -0.0468245099154306   -0.000958650260299706
-0.01091745338820867   -0.037968614002354656   -0.0007618241480494279
-0.0060285124166093535   -0.03810022305220683   -0.000674222602549781
-0.010104496133360287   -0.04682407528691079   -0.0011153693387242923
-0.005752790481742493   -0.0468245099154306   -0.000958650260299706
-0.006081155811797833   -0.038021156688338754   -0.0006480423739263462
-0.010131558851509207   -0.046766064568738844   -0.001059199429766815
-0.005788264036625678   -0.046770500102173936   -0.0009335226937243511
-0.006081155811797833   -0.038021156688338754   -0.0006480423739263462
-0.01091745338820867   -0.037968614002354656   -0.0007618241480494279
-0.010131558851509207   -0.046766064568738844   -0.001059199429766815
-0.010966110777119377   -0.03791936101470487   -0.0007065269241488187
-0.005788264036625678   -0.046770500102173936   -0.0009335226937243511
-0.010159409918794373   -0.04672828984962376   -0.0009966215897266738
-0.010966110777119377   -0.03791936101470487   -0.0007065269241488187
-0.010131558851509207   -0.046766064568738844   -0.001059199429766815
-0.005788264036625678   -0.046770500102173936   -0.0009335226937243511
-0.010966110777119377   -0.03791936101470487   -0.0007065269241488187
-0.006138255523713121   -0.03795540695729321   -0.0006161124870860829
-0.006081155811797833   -0.038021156688338754   -0.0006480423739263462
-0.005788264036625678   -0.046770500102173936   -0.0009335226937243511
-0.010966110777119377   -0.03791936101470487   -0.0007065269241488187
-0.006081155811797833   -0.038021156688338754   -0.0006480423739263462
-0.010131558851509207   -0.046766064568738844   -0.001059199429766815
-0.010071826269791829   -0.046902407341547575   -0.0011649371540799196
-0.010816117090744507   -0.038104766677279515   -0.0008551903316139372
-0.014556002534494121   -0.04674401541049086   -0.0013115072302861495
-0.010104496133360287   -0.04682407528691079   -0.0011153693387242923
-0.010816117090744507   -0.038104766677279515   -0.0008551903316139372
-0.015751190764540263   -0.037975364860231446   -0.0009865209435944002
-0.014556002534494121   -0.04674401541049086   -0.0013115072302861495
-0.01580051901797963   -0.03791851218161623   -0.000919013473051139
-0.010104496133360287   -0.04682407528691079   -0.0011153693387242923
-0.014583020388990987   -0.04668234565704258   -0.001223869391266315
-0.01580051901797963   -0.03791851218161623   -0.000919013473051139
-0.014556002534494121   -0.04674401541049086   -0.0013115072302861495
-0.010104496133360287   -0.04682407528691079   -0.0011153693387242923
-0.01580051901797963   -0.03791851218161623   -0.000919013473051139
-0.01086925368491375   -0.038030450522267244   -0.0008114534284049783
-0.010816117090744507   -0.038104766677279515   -0.0008551903316139372
-0.010104496133360287   -0.04682407528691079   -0.0011153693387242923
-0.01580051901797963   -0.03791851218161623   -0.000919013473051139
-0.010816117090744507   -0.038104766677279515   -0.0008551903316139372
-0.014556002534494121   -0.04674401541049086   -0.0013115072302861495
-0.010104496133360287   -0.04682407528691079   -0.0011153693387242923
-0.01086925368491375   -0.038030450522267244   -0.0008114534284049783
-0.014583020388990987   -0.04668234565704258   -0.001223869391266315
-0.010131558851509207   -0.046766064568738844   -0.001059199429766815
-0.01086925368491375   -0.038030450522267244   -0.0008114534284049783
-0.01580051901797963   -0.03791851218161623   -0.000919013473051139
-0.014583020388990987   -0.04668234565704258   -0.001223869391266315
-0.015830365551490966   -0.03787255543140034   -0.0008464081987754917
-0.010131558851509207   -0.046766064568738844   -0.001059199429766815
-0.014586447578114807   -0.04663975636977367   -0.0011305429167231234
-0.015830365551490966   -0.03787255543140034   -0.0008464081987754917
-0.014583020388990987   -0.04668234565704258   -0.001223869391266315
-0.010131558851509207   -0.046766064568738844   -0.001059199429766815
-0.015830365551490966   -0.03787255543140034   -0.0008464081987754917
-0.01091745338820867   -0.037968614002354656   -0.0007618241480494279
-0.01086925368491375   -0.038030450522267244   -0.0008114534284049783
-0.010131558851509207   -0.046766064568738844   -0.001059199429766815
-0.015830365551490966   -0.03787255543140034   -0.0008464081987754917
-0.01086925368491375   -0.038030450522267244   -0.0008114534284049783
-0.014583020388990987   -0.04668234565704258   -0.001223869391266315
-0.010131558851509207   -0.046766064568738844   -0.001059199429766815
-0.01091745338820867   -0.037968614002354656   -0.0007618241480494279
-0.014586447578114807   -0.04663975636977367   -0.0011305429167231234
-0.010159409918794373   -0.04672828984962376   -0.0009966215897266738
-0.01091745338820867   -0.037968614002354656   -0.0007618241480494279
-0.015830365551490966   -0.03787255543140034   -0.0008464081987754917
-0.014586447578114807   -0.04663975636977367   -0.0011305429167231234
-0.015863165384811556   -0.03784027522569156   -0.0007676513435388714
-0.010159409918794373   -0.04672828984962376   -0.0009966215897266738
-0.014596579432283692   -0.046619224610846235   -0.0010303226903073757
-0.015863165384811556   -0.03784027522569156   -0.0007676513435388714
-0.014586447578114807   -0.04663975636977367   -0.0011305429167231234
-0.010159409918794373   -0.04672828984962376   -0.0009966215897266738
-0.015863165384811556   -0.03784027522569156   -0.0007676513435388714
-0.010966110777119377   -0.03791936101470487   -0.0007065269241488187
-0.01091745338820867   -0.037968614002354656   -0.0007618241480494279
-0.010159409918794373   -0.04672828984962376   -0.0009966215897266738
-0.015863165384811556   -0.03784027522569156   -0.0007676513435388714
-0.01091745338820867   -0.037968614002354656   -0.0007618241480494279
-0.014586447578114807   -0.04663975636977367   -0.0011305429167231234
-0.014556002534494121   -0.04674401541049086   -0.0013115072302861495
-0.015751190764540263   -0.037975364860231446   -0.0009865209435944002
-0.01944597899967866   -0.0465361977516034   -0.0014367158561407053
-0.014583020388990987   -0.04668234565704258   -0.001223869391266315
-0.015751190764540263   -0.037975364860231446   -0.0009865209435944002
-0.021047939652523995   -0.03781611973142708   -0.0010909066568244414
-0.01944597899967866   -0.0465361977516034   -0.0014367158561407053
-0.021011391889721502   -0.03776821538032117   -0.0010009396729575317
-0.014583020388990987   -0.04668234565704258   -0.001223869391266315
-0.01935223098650916   -0.04647986422249884   -0.001308807830107922
-0.021011391889721502   -0.03776821538032117   -0.0010009396729575317
-0.01944597899967866   -0.0465361977516034   -0.0014367158561407053
-0.014583020388990987   -0.04668234565704258   -0.001223869391266315
-0.021011391889721502   -0.03776821538032117   -0.0010009396729575317
-0.01580051901797963   -0.03791851218161623   -0.000919013473051139
-0.015751190764540263   -0.037975364860231446   -0.0009865209435944002
-0.014583020388990987   -0.04668234565704258   -0.001223869391266315
-0.021011391889721502   -0.03776821538032117   -0.0010009396729575317
-0.015751190764540263   -0.037975364860231446   -0.0009865209435944002
-0.01944597899967866   -0.0465361977516034   -0.0014367158561407053
-0.014583020388990987   -0.04668234565704258   -0.001223869391266315
-0.01580051901797963   -0.03791851218161623   -0.000919013473051139
-0.01935223098650916   -0.04647986422249884   -0.001308807830107922
-0.014586447578114807   -0.04663975636977367   -0.0011305429167231234
-0.01580051901797963   -0.03791851218161623   -0.000919013473051139
-0.021011391889721502   -0.03776821538032117   -0.0010009396729575317
-0.01935223098650916   -0.04647986422249884   -0.001308807830107922
-0.02098160676215903   -0.037729740049925874   -0.0009016184053816181
-0.014586447578114807   -0.04663975636977367   -0.0011305429167231234
-0.01927320334318831   -0.04644381342609076   -0.0011709668513542075
-0.02098160676215903   -0.037729740049925874   -0.0009016184053816181
-0.01935223098650916   -0.04647986422249884   -0.001308807830107922
-0.014586447578114807   -0.04663975636977367   -0.0011305429167231234
-0.02098160676215903   -0.037729740049925874   -0.0009016184053816181
-0.015830365551490966   -0.03787255543140034   -0.0008464081987754917
-0.01580051901797963   -0.03791851218161623   -0.000919013473051139
-0.014586447578114807   -0.04663975636977367   -0.0011305429167231234
-0.02098160676215903   -0.037729740049925874   -0.0009016184053816181
-0.01580051901797963   -0.03791851218161623   -0.000919013473051139
-0.01935223098650916   -0.04647986422249884   -0.001308807830107922
-0.014586447578114807   -0.04663975636977367   -0.0011305429167231234
-0.015830365551490966   -0.03787255543140034   -0.0008464081987754917
-0.01927320334318831   -0.04644381342609076   -0.0011709668513542075
-0.014596579432283692   -0.046619224610846235   -0.0010303226903073757
-0.015830365551490966   -0.03787255543140034   -0.0008464081987754917
-0.02098160676215903   -0.037729740049925874   -0.0009016184053816181
-0.01927320334318831   -0.04644381342609076   -0.0011709668513542075
-0.020910201760856558   -0.03771781650691583   -0.0007940096277942815
-0.014596579432283692   -0.046619224610846235   -0.0010303226903073757
-0.01914286970479796   -0.04644523560609495   -0.001024431446086261
-0.020910201760856558   -0.03771781650691583   -0.0007940096277942815
-0.01927320334318831   -0.04644381342609076   -0.0011709668513542075
-0.014596579432283692   -0.046619224610846235   -0.0010303226903073757
-0.020910201760856558   -0.03771781650691583   -0.0007940096277942815
-0.015863165384811556   -0.03784027522569156   -0.0007676513435388714
-0.015830365551490966   -0.03787255543140034   -0.0008464081987754917
-0.014596579432283692   -0.046619224610846235   -0.0010303226903073757
-0.020910201760856558   -0.03771781650691583   -0.0007940096277942815
-0.015830365551490966   -0.03787255543140034   -0.0008464081987754917
-0.01927320334318831   -0.04644381342609076   -0.0011709668513542075
0.004106167710169575   -0.038239475871759236   -0.00027256613844524736
0.004246360137989618   -0.02890251275473926   -4.2812059857808254e-05
-0.001054474473819379   -0.0382384894531189   -0.0005036928416064652
0.0040914704151587935   -0.038112414943976526   -0.0003090761770614356
0.004246360137989618   -0.02890251275473926   -4.2812059857808254e-05
-0.0012080187043662122   -0.028854628142175213   -0.0002505624052400899
-0.001054474473819379   -0.0382384894531189   -0.0005036928416064652
-0.001271308038689504   -0.028748962006246558   -0.00023180000812115826
0.0040914704151587935   -0.038112414943976526   -0.0003090761770614356
-0.0011005562699629822   -0.03812806366286301   -0.0005071802757125884
-0.001271308038689504   -0.028748962006246558   -0.00023180000812115826
-0.001054474473819379   -0.0382384894531189   -0.0005036928416064652
0.0040914704151587935   -0.038112414943976526   -0.0003090761770614356
-0.001271308038689504   -0.028748962006246558   -0.00023180000812115826
0.004179305163975557   -0.02878132756323062   -3.9139553349004644e-05
0.004246360137989618   -0.02890251275473926   -4.2812059857808254e-05
0.0040914704151587935   -0.038112414943976526   -0.0003090761770614356
-0.001271308038689504   -0.028748962006246558   -0.00023180000812115826
0.004246360137989618   -0.02890251275473926   -4.2812059857808254e-05
-0.001054474473819379   -0.0382384894531189   -0.0005036928416064652
0.0040914704151587935   -0.038112414943976526   -0.0003090761770614356
0.004179305163975557   -0.02878132756323062   -3.9139553349004644e-05
-0.0011005562699629822   -0.03812806366286301   -0.0005071802757125884
0.004054517509793477   -0.038010261174884354   -0.0003363036439293717
0.004179305163975557   -0.02878132756323062   -3.9139553349004644e-05
-0.001271308038689504   -0.028748962006246558   -0.00023180000812115826
-0.0011005562699629822   -0.03812806366286301   -0.0005071802757125884
-0.0013437738391895307   -0.02864927320034997   -0.00020778418171243986
0.004054517509793477   -0.038010261174884354   -0.0003363036439293717
-0.0011517628814981418   -0.03803307715468331   -0.0005048763333707148
-0.0013437738391895307   -0.02864927320034997   -0.00020778418171243986
-0.0011005562699629822   -0.03812806366286301   -0.0005071802757125884
0.004054517509793477   -0.038010261174884354   -0.0003363036439293717
-0.0013437738391895307   -0.02864927320034997   -0.00020778418171243986
0.004096912945323313   -0.02867310312394162   -2.4734230034253043e-05
0.004179305163975557   -0.02878132756323062   -3.9139553349004644e-05
0.004054517509793477   -0.038010261174884354   -0.0003363036439293717
-0.0013437738391895307   -0.02864927320034997   -0.00020778418171243986
0.004179305163975557   -0.02878132756323062   -3.9139553349004644e-05
-0.0011005562699629822   -0.03812806366286301   -0.0005071802757125884
0.004054517509793477   -0.038010261174884354   -0.0003363036439293717
0.004096912945323313   -0.02867310312394162   -2.4734230034253043e-05
-0.0011517628814981418   -0.03803307715468331   -0.0005048763333707148
0.00400289833226161   -0.03791631968501006   -0.0003548968165012691
0.004096912945323313   -0.02867310312394162   -2.4734230034253043e-05
-0.0013437738391895307   -0.02864927320034997   -0.00020778418171243986
-0.0011517628814981418   -0.03803307715468331   -0.0005048763333707148
-0.0014251292870899712   -0.028554195270366966   -0.00017719829520908463
0.00400289833226161   -0.03791631968501006   -0.0003548968165012691
-0.0012153467226405615   -0.037951064590522554   -0.0004965526993343653
-0.0014251292870899712   -0.028554195270366966   -0.00017719829520908463
-0.0011517628814981418   -0.03803307715468331   -0.0005048763333707148
0.00400289833226161   -0.03791631968501006   -0.0003548968165012691
-0.0014251292870899712   -0.028554195270366966   -0.00017719829520908463
0.003988282267590157   -0.02855992828852993   -8.133372232834833e-08
0.004096912945323313   -0.02867310312394162   -2.4734230034253043e-05
0.00400289833226161   -0.03791631968501006   -0.0003548968165012691
-0.0014251292870899712   -0.028554195270366966   -0.00017719829520908463
0.004096912945323313   -0.02867310312394162   -2.4734230034253043e-05
-0.0011517628814981418   -0.03803307715468331   -0.0005048763333707148
-0.001054474473819379   -0.0382384894531189   -0.0005036928416064652
-0.0012080187043662122   -0.028854628142175213   -0.0002505624052400899
-0.005976908917036889   -0.03819185788326039   -0.0006943696392466747
-0.0011005562699629822   -0.03812806366286301   -0.0005071802757125884
-0.0012080187043662122   -0.028854628142175213   -0.0002505624052400899
-0.00637629125236095   -0.02879873023057482   -0.00042629741361590196
-0.005976908917036889   -0.03819185788326039   -0.0006943696392466747
-0.006440876866117278   -0.02871039110287833   -0.0003974925674242525
-0.0011005562699629822   -0.03812806366286301   -0.0005071802757125884
-0.0060285124166093535   -0.03810022305220683   -0.000674222602549781
-0.006440876866117278   -0.02871039110287833   -0.0003974925674242525
-0.005976908917036889   -0.03819185788326039   -0.0006943696392466747
-0.0011005562699629822   -0.03812806366286301   -0.0005071802757125884
-0.006440876866117278   -0.02871039110287833   -0.0003974925674242525
-0.001271308038689504   -0.028748962006246558   -0.00023180000812115826
-0.0012080187043662122   -0.028854628142175213   -0.0002505624052400899
-0.0011005562699629822   -0.03812806366286301   -0.0005071802757125884
-0.006440876866117278   -0.02871039110287833   -0.0003974925674242525
-0.0012080187043662122   -0.028854628142175213   -0.0002505624052400899
-0.005976908917036889   -0.03819185788326039   -0.0006943696392466747
-0.0011005562699629822   -0.03812806366286301   -0.0005071802757125884
-0.001271308038689504   -0.028748962006246558   -0.00023180000812115826
-0.0060285124166093535   -0.03810022305220683   -0.000674222602549781
-0.0011517628814981418   -0.03803307715468331   -0.0005048763333707148
-0.001271308038689504   -0.028748962006246558   -0.00023180000812115826
-0.006440876866117278   -0.02871039110287833   -0.0003974925674242525
-0.0060285124166093535   -0.03810022305220683   -0.000674222602549781
-0.006506911288634999   -0.028626690765095657   -0.00036368039664705495
-0.0011517628814981418   -0.03803307715468331   -0.0005048763333707148
-0.006081155811797833   -0.038021156688338754   -0.0006480423739263462
-0.006506911288634999   -0.028626690765095657   -0.00036368039664705495
-0.0060285124166093535   -0.03810022305220683   -0.000674222602549781
-0.0011517628814981418   -0.03803307715468331   -0.0005048763333707148
-0.006506911288634999   -0.028626690765095657   -0.00036368039664705495
-0.0013437738391895307   -0.02864927320034997   -0.00020778418171243986
-0.001271308038689504   -0.028748962006246558   -0.00023180000812115826
-0.0011517628814981418   -0.03803307715468331   -0.0005048763333707148
-0.006506911288634999   -0.028626690765095657   -0.00036368039664705495
-0.001271308038689504   -0.028748962006246558   -0.00023180000812115826
-0.0060285124166093535   -0.03810022305220683   -0.000674222602549781
-0.0011517628814981418   -0.03803307715468331   -0.0005048763333707148
-0.0013437738391895307   -0.02864927320034997   -0.00020778418171243986
-0.006081155811797833   -0.038021156688338754   -0.0006480423739263462
-0.0012153467226405615   -0.037951064590522554   -0.0004965526993343653
-0.0013437738391895307   -0.02864927320034997   -0.00020778418171243986
-0.006506911288634999   -0.028626690765095657   -0.00036368039664705495
-0.006081155811797833   -0.038021156688338754   -0.0006480423739263462
-0.006577148739562438   -0.028548928131923664   -0.00032480749417111937
-0.0012153467226405615   -0.037951064590522554   -0.0004965526993343653
-0.006138255523713121   -0.03795540695729321   -0.0006161124870860829
-0.006577148739562438   -0.028548928131923664   -0.00032480749417111937
-0.006081155811797833   -0.038021156688338754   -0.0006480423739263462
-0.0012153467226405615   -0.037951064590522554   -0.0004965526993343653
-0.006577148739562438   -0.028548928131923664   -0.00032480749417111937
-0.0014251292870899712   -0.028554195270366966   -0.00017719829520908463
-0.0013437738391895307   -0.02864927320034997   -0.00020778418171243986
-0.0012153467226405615   -0.037951064590522554   -0.0004965526993343653
-0.006577148739562438   -0.028548928131923664   -0.00032480749417111937
-0.0013437738391895307   -0.02864927320034997   -0.00020778418171243986
-0.006081155811797833   -0.038021156688338754   -0.0006480423739263462
-0.005976908917036889   -0.03819185788326039   -0.0006943696392466747
-0.00637629125236095   -0.02879873023057482   -0.00042629741361590196
-0.010816117090744507   -0.038104766677279515   -0.0008551903316139372
-0.0060285124166093535   -0.03810022305220683   -0.000674222602549781
-0.00637629125236095   -0.02879873023057482   -0.00042629741361590196
-0.011460439461735515   -0.0287316581049632   -0.0005754902405756722
-0.010816117090744507   -0.038104766677279515   -0.0008551903316139372
-0.01152456669763612   -0.028659371143158353   -0.000536653540252929
-0.0060285124166093535   -0.03810022305220683   -0.000674222602549781
-0.01086925368491375   -0.038030450522267244   -0.0008114534284049783
-0.01152456669763612   -0.028659371143158353   -0.000536653540252929
-0.010816117090744507   -0.038104766677279515   -0.0008551903316139372
-0.0060285124166093535   -0.03810022305220683   -0.000674222602549781
-0.01152456669763612   -0.028659371143158353   -0.000536653540252929
-0.006440876866117278   -0.02871039110287833   -0.0003974925674242525
-0.00637629125236095   -0.02879873023057482   -0.00042629741361590196
-0.0060285124166093535   -0.03810022305220683   -0.000674222602549781
-0.01152456669763612   -0.028659371143158353   -0.000536653540252929
-0.00637629125236095   -0.02879873023057482   -0.00042629741361590196
-0.010816117090744507   -0.038104766677279515   -0.0008551903316139372
-0.0060285124166093535   -0.03810022305220683   -0.000674222602549781
-0.006440876866117278   -0.02871039110287833   -0.0003974925674242525
-0.01086925368491375   -0.038030450522267244   -0.0008114534284049783
-0.006081155811797833   -0.038021156688338754   -0.0006480423739263462
-0.006440876866117278   -0.02871039110287833   -0.0003974925674242525
-0.01152456669763612   -0.028659371143158353   -0.000536653540252929
-0.01086925368491375   -0.038030450522267244   -0.0008114534284049783
-0.011584542340434956   -0.028591984889752425   -0.0004929806793201254
-0.006081155811797833   -0.038021156688338754   -0.0006480423739263462
-0.01091745338820867   -0.037968614002354656   -0.0007618241480494279
-0.011584542340434956   -0.028591984889752425   -0.0004929806793201254
-0.01086925368491375   -0.038030450522267244   -0.0008114534284049783
-0.006081155811797833   -0.038021156688338754   -0.0006480423739263462
-0.011584542340434956   -0.028591984889752425   -0.0004929806793201254
-0.006506911288634999   -0.028626690765095657   -0.00036368039664705495
-0.006440876866117278   -0.02871039110287833   -0.0003974925674242525
-0.006081155811797833   -0.038021156688338754   -0.0006480423739263462
-0.011584542340434956   -0.028591984889752425   -0.0004929806793201254
-0.006440876866117278   -0.02871039110287833   -0.0003974925674242525
-0.01086925368491375   -0.038030450522267244   -0.0008114534284049783
-0.006081155811797833   -0.038021156688338754   -0.0006480423739263462
-0.006506911288634999   -0.028626690765095657   -0.00036368039664705495
-0.01091745338820867   -0.037968614002354656   -0.0007618241480494279
-0.006138255523713121   -0.03795540695729321   -0.0006161124870860829
-0.006506911288634999   -0.028626690765095657   -0.00036368039664705495
-0.011584542340434956   -0.028591984889752425   -0.0004929806793201254
-0.01091745338820867   -0.037968614002354656   -0.0007618241480494279
-0.011644732599057378   -0.028529685642230723   -0.0004447109877324428
-0.006138255523713121   -0.03795540695729321   -0.0006161124870860829
-0.010966110777119377   -0.03791936101470487   -0.0007065269241488187
-0.011644732599057378   -0.028529685642230723   -0.0004447109877324428
-0.01091745338820867   -0.037968614002354656   -0.0007618241480494279
-0.006138255523713121   -0.03795540695729321   -0.0006161124870860829
-0.011644732599057378   -0.028529685642230723   -0.0004447109877324428
-0.006577148739562438   -0.028548928131923664   -0.00032480749417111937
-0.006506911288634999   -0.028626690765095657   -0.00036368039664705495
-0.006138255523713121   -0.03795540695729321   -0.0006161124870860829
-0.011644732599057378   -0.028529685642230723   -0.0004447109877324428
-0.006506911288634999   -0.028626690765095657   -0.00036368039664705495
-0.01091745338820867   -0.037968614002354656   -0.0007618241480494279
-0.010816117090744507   -0.038104766677279515   -0.0008551903316139372
-0.011460439461735515   -0.0287316581049632   -0.0005754902405756722
-0.015751190764540263   -0.037975364860231446   -0.0009865209435944002
-0.01086925368491375   -0.038030450522267244   -0.0008114534284049783
-0.011460439461735515   -0.0287316581049632   -0.0005754902405756722
-0.01663644713310259   -0.028640957510071733   -0.0006968651245687232
-0.015751190764540263   -0.037975364860231446   -0.0009865209435944002
-0.01669785277341407   -0.0285855582053902   -0.0006481160306738071
-0.01086925368491375   -0.038030450522267244   -0.0008114534284049783
-0.01580051901797963   -0.03791851218161623   -0.000919013473051139
-0.01669785277341407   -0.0285855582053902   -0.0006481160306738071
-0.015751190764540263   -0.037975364860231446   -0.0009865209435944002
-0.01086925368491375   -0.038030450522267244   -0.0008114534284049783
-0.01669785277341407   -0.0285855582053902   -0.0006481160306738071
-0.01152456669763612   -0.028659371143158353   -0.000536653540252929
-0.011460439461735515   -0.0287316581049632   -0.0005754902405756722
-0.01086925368491375   -0.038030450522267244   -0.0008114534284049783
-0.01669785277341407   -0.0285855582053902   -0.0006481160306738071
-0.011460439461735515   -0.0287316581049632   -0.0005754902405756722
-0.015751190764540263   -0.037975364860231446   -0.0009865209435944002
-0.01086925368491375   -0.038030450522267244   -0.0008114534284049783
-0.01152456669763612   -0.028659371143158353   -0.000536653540252929
-0.01580051901797963   -0.03791851218161623   -0.000919013473051139
-0.01091745338820867   -0.037968614002354656   -0.0007618241480494279
-0.01152456669763612   -0.028659371143158353   -0.000536653540252929
-0.01669785277341407   -0.0285855582053902   -0.0006481160306738071
-0.01580051901797963   -0.03791851218161623   -0.000919013473051139
-0.016744382572402298   -0.02853319776387938   -0.0005953279043833604
-0.01091745338820867   -0.037968614002354656   -0.0007618241480494279
-0.015830365551490966   -0.03787255543140034   -0.0008464081987754917
-0.016744382572402298   -0.02853319776387938   -0.0005953279043833604
-0.01580051901797963   -0.03791851218161623   -0.000919013473051139
-0.01091745338820867   -0.037968614002354656   -0.0007618241480494279
-0.016744382572402298   -0.02853319776387938   -0.0005953279043833604
-0.011584542340434956   -0.028591984889752425   -0.0004929806793201254
-0.01152456669763612   -0.028659371143158353   -0.000536653540252929
-0.01091745338820867   -0.037968614002354656   -0.0007618241480494279
-0.016744382572402298   -0.02853319776387938   -0.0005953279043833604
-0.01152456669763612   -0.028659371143158353   -0.000536653540252929
-0.01580051901797963   -0.03791851218161623   -0.000919013473051139
-0.01091745338820867   -0.037968614002354656   -0.0007618241480494279
-0.011584542340434956   -0.028591984889752425   -0.0004929806793201254
-0.015830365551490966   -0.03787255543140034   -0.0008464081987754917
-0.010966110777119377   -0.03791936101470487   -0.0007065269241488187
-0.011584542340434956   -0.028591984889752425   -0.0004929806793201254
-0.016744382572402298   -0.02853319776387938   -0.0005953279043833604
-0.015830365551490966   -0.03787255543140034   -0.0008464081987754917
-0.016790555255349966   -0.028486207501969105   -0.0005374478314870003
-0.010966110777119377   -0.03791936101470487   -0.0007065269241488187
-0.015863165384811556   -0.03784027522569156   -0.0007676513435388714
-0.016790555255349966   -0.028486207501969105   -0.0005374478314870003
-0.015830365551490966   -0.03787255543140034   -0.0008464081987754917
-0.010966110777119377   -0.03791936101470487   -0.0007065269241488187
-0.016790555255349966   -0.028486207501969105   -0.0005374478314870003
-0.011644732599057378   -0.028529685642230723   -0.0004447109877324428
-0.011584542340434956   -0.028591984889752425   -0.0004929806793201254
-0.010966110777119377   -0.03791936101470487   -0.0007065269241488187
-0.016790555255349966   -0.028486207501969105   -0.0005374478314870003
-0.011584542340434956   -0.028591984889752425   -0.0004929806793201254
-0.015830365551490966   -0.03787255543140034   -0.0008464081987754917
-0.015751190764540263   -0.037975364860231446   -0.0009865209435944002
-0.01663644713310259   -0.028640957510071733   -0.0006968651245687232
-0.021047939652523995   -0.03781611973142708   -0.0010909066568244414
-0.01580051901797963   -0.03791851218161623   -0.000919013473051139
-0.01663644713310259   -0.028640957510071733   -0.0006968651245687232
-0.022122514801327743   -0.02853375299327483   -0.0007868474559179468
-0.021047939652523995   -0.03781611973142708   -0.0010909066568244414
-0.022131773073365984   -0.0284895905476019   -0.0007329493305188902
-0.01580051901797963   -0.03791851218161623   -0.000919013473051139
-0.021011391889721502   -0.03776821538032117   -0.0010009396729575317
-0.022131773073365984   -0.0284895905476019   -0.0007329493305188902
-0.021047939652523995   -0.03781611973142708   -0.0010909066568244414
-0.01580051901797963   -0.03791851218161623   -0.000919013473051139
-0.022131773073365984   -0.0284895905476019   -0.0007329493305188902
-0.01669785277341407   -0.0285855582053902   -0.0006481160306738071
-0.01663644713310259   -0.028640957510071733   -0.0006968651245687232
-0.01580051901797963   -0.03791851218161623   -0.000919013473051139
-0.022131773073365984   -0.0284895905476019   -0.0007329493305188902
-0.01663644713310259   -0.028640957510071733   -0.0006968651245687232
-0.021047939652523995   -0.03781611973142708   -0.0010909066568244414
-0.01580051901797963   -0.03791851218161623   -0.000919013473051139
-0.01669785277341407   -0.0285855582053902   -0.0006481160306738071
-0.021011391889721502   -0.03776821538032117   -0.0010009396729575317
-0.015830365551490966   -0.03787255543140034   -0.0008464081987754917
-0.01669785277341407   -0.0285855582053902   -0.0006481160306738071
-0.022131773073365984   -0.0284895905476019   -0.0007329493305188902
-0.021011391889721502   -0.03776821538032117   -0.0010009396729575317
-0.022141309018467902   -0.028444948246851155   -0.0006709199493224611
-0.015830365551490966   -0.03787255543140034   -0.0008464081987754917
-0.02098160676215903   -0.037729740049925874   -0.0009016184053816181
-0.022141309018467902   -0.028444948246851155   -0.0006709199493224611
-0.021011391889721502   -0.03776821538032117   -0.0010009396729575317
-0.015830365551490966   -0.03787255543140034   -0.0008464081987754917
-0.022141309018467902   -0.028444948246851155   -0.0006709199493224611
-0.016744382572402298   -0.02853319776387938   -0.0005953279043833604
-0.01669785277341407   -0.0285855582053902   -0.0006481160306738071
-0.015830365551490966   -0.03787255543140034   -0.0008464081987754917
-0.022141309018467902   -0.028444948246851155   -0.0006709199493224611
-0.01669785277341407   -0.0285855582053902   -0.0006481160306738071
-0.021011391889721502   -0.03776821538032117   -0.0010009396729575317
-0.015830365551490966   -0.03787255543140034   -0.0008464081987754917
-0.016744382572402298   -0.02853319776387938   -0.0005953279043833604
-0.02098160676215903   -0.037729740049925874   -0.0009016184053816181
-0.015863165384811556   -0.03784027522569156   -0.0007676513435388714
-0.016744382572402298   -0.02853319776387938   -0.0005953279043833604
-0.022141309018467902   -0.028444948246851155   -0.0006709199493224611
-0.02098160676215903   -0.037729740049925874   -0.0009016184053816181
-0.022119961093622877   -0.028415685894037108   -0.0006017233764534678
-0.015863165384811556   -0.03784027522569156   -0.0007676513435388714
-0.020910201760856558   -0.03771781650691583   -0.0007940096277942815
-0.022119961093622877   -0.028415685894037108   -0.0006017233764534678
-0.02098160676215903   -0.037729740049925874   -0.0009016184053816181
-0.015863165384811556   -0.03784027522569156   -0.0007676513435388714
-0.022119961093622877   -0.028415685894037108   -0.0006017233764534678
-0.016790555255349966   -0.028486207501969105   -0.0005374478314870003
-0.016744382572402298   -0.02853319776387938   -0.0005953279043833604
-0.015863165384811556   -0.03784027522569156   -0.0007676513435388714
-0.022119961093622877   -0.028415685894037108   -0.0006017233764534678
-0.016744382572402298   -0.02853319776387938   -0.0005953279043833604
-0.02098160676215903   -0.037729740049925874   -0.0009016184053816181
0.004246360137989618   -0.02890251275473926   -4.2812059857808254e-05
0.0038076173854725026   -0.019286539488360784   0.00011578223239790029
-0.0012080187043662122   -0.028854628142175213   -0.0002505624052400899
0.004179305163975557   -0.02878132756323062   -3.9139553349004644e-05
0.0038076173854725026   -0.019286539488360784   0.00011578223239790029
-0.001688331776182074   -0.019196040534995615   -4.918767128937014e-05
-0.0012080187043662122   -0.028854628142175213   -0.0002505624052400899
-0.0017639994616346305   -0.019100412963267935   -9.934497694055603e-06
0.004179305163975557   -0.02878132756323062   -3.9139553349004644e-05
-0.001271308038689504   -0.028748962006246558   -0.00023180000812115826
-0.0017639994616346305   -0.019100412963267935   -9.934497694055603e-06
-0.0012080187043662122   -0.028854628142175213   -0.0002505624052400899
0.004179305163975557   -0.02878132756323062   -3.9139553349004644e-05
-0.0017639994616346305   -0.019100412963267935   -9.934497694055603e-06
0.0036885195691489943   -0.019171105761943214   0.00016456775018011807
0.0038076173854725026   -0.019286539488360784   0.00011578223239790029
0.004179305163975557   -0.02878132756323062   -3.9139553349004644e-05
-0.0017639994616346305   -0.019100412963267935   -9.934497694055603e-06
0.0038076173854725026   -0.019286539488360784   0.00011578223239790029
-0.0012080187043662122   -0.028854628142175213   -0.0002505624052400899
0.004179305163975557   -0.02878132756323062   -3.9139553349004644e-05
0.0036885195691489943   -0.019171105761943214   0.00016456775018011807
-0.001271308038689504   -0.028748962006246558   -0.00023180000812115826
0.004096912945323313   -0.02867310312394162   -2.4734230034253043e-05
0.0036885195691489943   -0.019171105761943214   0.00016456775018011807
-0.0017639994616346305   -0.019100412963267935   -9.934497694055603e-06
-0.001271308038689504   -0.028748962006246558   -0.00023180000812115826
-0.0018525301498115226   -0.0189995039869663   3.631247740927901e-05
0.004096912945323313   -0.02867310312394162   -2.4734230034253043e-05
-0.0013437738391895307   -0.02864927320034997   -0.00020778418171243986
-0.0018525301498115226   -0.0189995039869663   3.631247740927901e-05
-0.001271308038689504   -0.028748962006246558   -0.00023180000812115826
0.004096912945323313   -0.02867310312394162   -2.4734230034253043e-05
-0.0018525301498115226   -0.0189995039869663   3.631247740927901e-05
0.003555504952916449   -0.019056509252903937   0.00023470407973955932
0.0036885195691489943   -0.019171105761943214   0.00016456775018011807
0.004096912945323313   -0.02867310312394162   -2.4734230034253043e-05
-0.0018525301498115226   -0.0189995039869663   3.631247740927901e-05
0.0036885195691489943   -0.019171105761943214   0.00016456775018011807
-0.001271308038689504   -0.028748962006246558   -0.00023180000812115826
0.004096912945323313   -0.02867310312394162   -2.4734230034253043e-05
0.003555504952916449   -0.019056509252903937   0.00023470407973955932
-0.0013437738391895307   -0.02864927320034997   -0.00020778418171243986
0.003988282267590157   -0.02855992828852993   -8.133372232834833e-08
0.003555504952916449   -0.019056509252903937   0.00023470407973955932
-0.0018525301498115226   -0.0189995039869663   3.631247740927901e-05
-0.0013437738391895307   -0.02864927320034997   -0.00020778418171243986
-0.001944119615097137   -0.018892376095707746   8.946193106339137e-05
0.003988282267590157   -0.02855992828852993   -8.133372232834833e-08
-0.0014251292870899712   -0.028554195270366966   -0.00017719829520908463
-0.001944119615097137   -0.018892376095707746   8.946193106339137e-05
-0.0013437738391895307   -0.02864927320034997   -0.00020778418171243986
0.003988282267590157   -0.02855992828852993   -8.133372232834833e-08
-0.001944119615097137   -0.018892376095707746   8.946193106339137e-05
0.0033929716157091267   -0.018915718071467146   0.00031189098513732084
0.003555504952916449   -0.019056509252903937   0.00023470407973955932
0.003988282267590157   -0.02855992828852993   -8.133372232834833e-08
-0.001944119615097137   -0.018892376095707746   8.946193106339137e-05
0.003555504952916449   -0.019056509252903937   0.00023470407973955932
-0.0013437738391895307   -0.02864927320034997   -0.00020778418171243986
-0.0012080187043662122   -0.028854628142175213   -0.0002505624052400899
-0.001688331776182074   -0.019196040534995615   -4.918767128937014e-05
-0.00637629125236095   -0.02879873023057482   -0.00042629741361590196
-0.001271308038689504   -0.028748962006246558   -0.00023180000812115826
-0.001688331776182074   -0.019196040534995615   -4.918767128937014e-05
-0.006863465642409731   -0.019172612950455647   -0.0002081422375990239
-0.00637629125236095   -0.02879873023057482   -0.00042629741361590196
-0.00693189133438651   -0.019089193640279247   -0.00017158579734182075
-0.001271308038689504   -0.028748962006246558   -0.00023180000812115826
-0.006440876866117278   -0.02871039110287833   -0.0003974925674242525
-0.00693189133438651   -0.019089193640279247   -0.00017158579734182075
-0.00637629125236095   -0.02879873023057482   -0.00042629741361590196
-0.001271308038689504   -0.028748962006246558   -0.00023180000812115826
-0.00693189133438651   -0.019089193640279247   -0.00017158579734182075
-0.0017639994616346305   -0.019100412963267935   -9.934497694055603e-06
-0.001688331776182074   -0.019196040534995615   -4.918767128937014e-05
-0.001271308038689504   -0.028748962006246558   -0.00023180000812115826
-0.00693189133438651   -0.019089193640279247   -0.00017158579734182075
-0.001688331776182074   -0.019196040534995615   -4.918767128937014e-05
-0.00637629125236095   -0.02879873023057482   -0.00042629741361590196
-0.001271308038689504   -0.028748962006246558   -0.00023180000812115826
-0.0017639994616346305   -0.019100412963267935   -9.934497694055603e-06
-0.006440876866117278   -0.02871039110287833   -0.0003974925674242525
-0.0013437738391895307   -0.02864927320034997   -0.00020778418171243986
-0.0017639994616346305   -0.019100412963267935   -9.934497694055603e-06
-0.00693189133438651   -0.019089193640279247   -0.00017158579734182075
-0.006440876866117278   -0.02871039110287833   -0.0003974925674242525
-0.007002681099832215   -0.019002428706150334   -0.00013139616804002933
-0.0013437738391895307   -0.02864927320034997   -0.00020778418171243986
-0.006506911288634999   -0.028626690765095657   -0.00036368039664705495
-0.007002681099832215   -0.019002428706150334   -0.00013139616804002933
-0.006440876866117278   -0.02871039110287833   -0.0003974925674242525
-0.0013437738391895307   -0.02864927320034997   -0.00020778418171243986
-0.007002681099832215   -0.019002428706150334   -0.00013139616804002933
-0.0018525301498115226   -0.0189995039869663   3.631247740927901e-05
-0.0017639994616346305   -0.019100412963267935   -9.934497694055603e-06
-0.0013437738391895307   -0.02864927320034997   -0.00020778418171243986
-0.007002681099832215   -0.019002428706150334   -0.00013139616804002933
-0.0017639994616346305   -0.019100412963267935   -9.934497694055603e-06
-0.006440876866117278   -0.02871039110287833   -0.0003974925674242525
-0.0013437738391895307   -0.02864927320034997   -0.00020778418171243986
-0.0018525301498115226   -0.0189995039869663   3.631247740927901e-05
-0.006506911288634999   -0.028626690765095657   -0.00036368039664705495
-0.0014251292870899712   -0.028554195270366966   -0.00017719829520908463
-0.0018525301498115226   -0.0189995039869663   3.631247740927901e-05
-0.007002681099832215   -0.019002428706150334   -0.00013139616804002933
-0.006506911288634999   -0.028626690765095657   -0.00036368039664705495
-0.0070763857272094595   -0.01891387970285972   -8.684871153726901e-05
-0.0014251292870899712   -0.028554195270366966   -0.00017719829520908463
-0.006577148739562438   -0.028548928131923664   -0.00032480749417111937
-0.0070763857272094595   -0.01891387970285972   -8.684871153726901e-05
-0.006506911288634999   -0.028626690765095657   -0.00036368039664705495
-0.0014251292870899712   -0.028554195270366966   -0.00017719829520908463
-0.0070763857272094595   -0.01891387970285972   -8.684871153726901e-05
-0.001944119615097137   -0.018892376095707746   8.946193106339137e-05
-0.0018525301498115226   -0.0189995039869663   3.631247740927901e-05
-0.0014251292870899712   -0.028554195270366966   -0.00017719829520908463
-0.0070763857272094595   -0.01891387970285972   -8.684871153726901e-05
-0.0018525301498115226   -0.0189995039869663   3.631247740927901e-05
-0.006506911288634999   -0.028626690765095657   -0.00036368039664705495
-0.00637629125236095   -0.02879873023057482   -0.00042629741361590196
-0.006863465642409731   -0.019172612950455647   -0.0002081422375990239
-0.011460439461735515   -0.0287316581049632   -0.0005754902405756722
-0.006440876866117278   -0.02871039110287833   -0.0003974925674242525
-0.006863465642409731   -0.019172612950455647   -0.0002081422375990239
-0.01198533697254643   -0.019166090786868248   -0.0003517847148745423
-0.011460439461735515   -0.0287316581049632   -0.0005754902405756722
-0.012050765436382761   -0.01909297624816811   -0.00031688130136513687
-0.006440876866117278   -0.02871039110287833   -0.0003974925674242525
-0.01152456669763612   -0.028659371143158353   -0.000536653540252929
-0.012050765436382761   -0.01909297624816811   -0.00031688130136513687
-0.011460439461735515   -0.0287316581049632   -0.0005754902405756722
-0.006440876866117278   -0.02871039110287833   -0.0003974925674242525
-0.012050765436382761   -0.01909297624816811   -0.00031688130136513687
-0.00693189133438651   -0.019089193640279247   -0.00017158579734182075
-0.006863465642409731   -0.019172612950455647   -0.0002081422375990239
-0.006440876866117278   -0.02871039110287833   -0.0003974925674242525
-0.012050765436382761   -0.01909297624816811   -0.00031688130136513687
-0.006863465642409731   -0.019172612950455647   -0.0002081422375990239
-0.011460439461735515   -0.0287316581049632   -0.0005754902405756722
-0.006440876866117278   -0.02871039110287833   -0.0003974925674242525
-0.00693189133438651   -0.019089193640279247   -0.00017158579734182075
-0.01152456669763612   -0.028659371143158353   -0.000536653540252929
-0.006506911288634999   -0.028626690765095657   -0.00036368039664705495
-0.00693189133438651   -0.019089193640279247   -0.00017158579734182075
-0.012050765436382761   -0.01909297624816811   -0.00031688130136513687
-0.01152456669763612   -0.028659371143158353   -0.000536653540252929
-0.012113093784957335   -0.01901855038085399   -0.000278799886811956
-0.006506911288634999   -0.028626690765095657   -0.00036368039664705495
-0.011584542340434956   -0.028591984889752425   -0.0004929806793201254
-0.012113093784957335   -0.01901855038085399   -0.000278799886811956
-0.01152456669763612   -0.028659371143158353   -0.000536653540252929
-0.006506911288634999   -0.028626690765095657   -0.00036368039664705495
-0.012113093784957335   -0.01901855038085399   -0.000278799886811956
-0.007002681099832215   -0.019002428706150334   -0.00013139616804002933
-0.00693189133438651   -0.019089193640279247   -0.00017158579734182075
-0.006506911288634999   -0.028626690765095657   -0.00036368039664705495
-0.012113093784957335   -0.01901855038085399   -0.000278799886811956
-0.00693189133438651   -0.019089193640279247   -0.00017158579734182075
-0.01152456669763612   -0.028659371143158353   -0.000536653540252929
-0.006506911288634999   -0.028626690765095657   -0.00036368039664705495
-0.007002681099832215   -0.019002428706150334   -0.00013139616804002933
-0.011584542340434956   -0.028591984889752425   -0.0004929806793201254
-0.006577148739562438   -0.028548928131923664   -0.00032480749417111937
-0.007002681099832215   -0.019002428706150334   -0.00013139616804002933
-0.012113093784957335   -0.01901855038085399   -0.000278799886811956
-0.011584542340434956   -0.028591984889752425   -0.0004929806793201254
-0.01217479586032385   -0.01894238693752136   -0.00023771965813892954
-0.006577148739562438   -0.028548928131923664   -0.00032480749417111937
-0.011644732599057378   -0.028529685642230723   -0.0004447109877324428
-0.01217479586032385   -0.01894238693752136   -0.00023771965813892954
-0.011584542340434956   -0.028591984889752425   -0.0004929806793201254
-0.006577148739562438   -0.028548928131923664   -0.00032480749417111937
-0.01217479586032385   -0.01894238693752136   -0.00023771965813892954
-0.0070763857272094595   -0.01891387970285972   -8.684871153726901e-05
-0.007002681099832215   -0.019002428706150334   -0.00013139616804002933
-0.006577148739562438   -0.028548928131923664   -0.00032480749417111937
-0.01217479586032385   -0.01894238693752136   -0.00023771965813892954
-0.007002681099832215   -0.019002428706150334   -0.00013139616804002933
-0.011584542340434956   -0.028591984889752425   -0.0004929806793201254
-0.011460439461735515   -0.0287316581049632   -0.0005754902405756722
-0.01198533697254643   -0.019166090786868248   -0.0003517847148745423
-0.01663644713310259   -0.028640957510071733   -0.0006968651245687232
-0.01152456669763612   -0.028659371143158353   -0.000536653540252929
-0.01198533697254643   -0.019166090786868248   -0.0003517847148745423
-0.01721573881564697   -0.019136293558806625   -0.00047236827970220397
-0.01663644713310259   -0.028640957510071733   -0.0006968651245687232
-0.01727811270434497   -0.01907675790195897   -0.0004392977444739955
-0.01152456669763612   -0.028659371143158353   -0.000536653540252929
-0.01669785277341407   -0.0285855582053902   -0.0006481160306738071
-0.01727811270434497   -0.01907675790195897   -0.0004392977444739955
-0.01663644713310259   -0.028640957510071733   -0.0006968651245687232
-0.01152456669763612   -0.028659371143158353   -0.000536653540252929
-0.01727811270434497   -0.01907675790195897   -0.0004392977444739955
-0.012050765436382761   -0.01909297624816811   -0.00031688130136513687
-0.01198533697254643   -0.019166090786868248   -0.0003517847148745423
-0.01152456669763612   -0.028659371143158353   -0.000536653540252929
-0.01727811270434497   -0.01907675790195897   -0.0004392977444739955
-0.01198533697254643   -0.019166090786868248   -0.0003517847148745423
-0.01663644713310259   -0.028640957510071733   -0.0006968651245687232
-0.01152456669763612   -0.028659371143158353   -0.000536653540252929
-0.012050765436382761   -0.01909297624816811   -0.00031688130136513687
-0.01669785277341407   -0.0285855582053902   -0.0006481160306738071
-0.011584542340434956   -0.028591984889752425   -0.0004929806793201254
-0.012050765436382761   -0.01909297624816811   -0.00031688130136513687
-0.01727811270434497   -0.01907675790195897   -0.0004392977444739955
-0.01669785277341407   -0.0285855582053902   -0.0006481160306738071
-0.017330948174521726   -0.019013960662483044   -0.0004039674609113703
-0.011584542340434956   -0.028591984889752425   -0.0004929806793201254
-0.016744382572402298   -0.02853319776387938   -0.0005953279043833604
-0.017330948174521726   -0.019013960662483044   -0.0004039674609113703
-0.01669785277341407   -0.0285855582053902   -0.0006481160306738071
-0.011584542340434956   -0.028591984889752425   -0.0004929806793201254
-0.017330948174521726   -0.019013960662483044   -0.0004039674609113703
-0.012113093784957335   -0.01901855038085399   -0.000278799886811956
-0.012050765436382761   -0.01909297624816811   -0.00031688130136513687
-0.011584542340434956   -0.028591984889752425   -0.0004929806793201254
-0.017330948174521726   -0.019013960662483044   -0.0004039674609113703
-0.012050765436382761   -0.01909297624816811   -0.00031688130136513687
-0.01669785277341407   -0.0285855582053902   -0.0006481160306738071
-0.011584542340434956   -0.028591984889752425   -0.0004929806793201254
-0.012113093784957335   -0.01901855038085399   -0.000278799886811956
-0.016744382572402298   -0.02853319776387938   -0.0005953279043833604
-0.011644732599057378   -0.028529685642230723   -0.0004447109877324428
-0.012113093784957335   -0.01901855038085399   -0.000278799886811956
-0.017330948174521726   -0.019013960662483044   -0.0004039674609113703
-0.016744382572402298   -0.02853319776387938   -0.0005953279043833604
-0.017380884652399994   -0.01894952046646119   -0.000365396022526624
-0.011644732599057378   -0.028529685642230723   -0.0004447109877324428
-0.016790555255349966   -0.028486207501969105   -0.0005374478314870003
-0.017380884652399994   -0.01894952046646119   -0.000365396022526624
-0.016744382572402298   -0.02853319776387938   -0.0005953279043833604
-0.011644732599057378   -0.028529685642230723   -0.0004447109877324428
-0.017380884652399994   -0.01894952046646119   -0.000365396022526624
-0.01217479586032385   -0.01894238693752136   -0.00023771965813892954
-0.012113093784957335   -0.01901855038085399   -0.000278799886811956
-0.011644732599057378   -0.028529685642230723   -0.0004447109877324428
-0.017380884652399994   -0.01894952046646119   -0.000365396022526624
-0.012113093784957335   -0.01901855038085399   -0.000278799886811956
-0.016744382572402298   -0.02853319776387938   -0.0005953279043833604
-0.01663644713310259   -0.028640957510071733   -0.0006968651245687232
-0.01721573881564697   -0.019136293558806625   -0.00047236827970220397
-0.022122514801327743   -0.02853375299327483   -0.0007868474559179468
-0.01669785277341407   -0.0285855582053902   -0.0006481160306738071
-0.01721573881564697   -0.019136293558806625   -0.00047236827970220397
-0.02269488905953056   -0.019087163708897913   -0.000561464872912159
-0.022122514801327743   -0.02853375299327483   -0.0007868474559179468
-0.02273358126795462   -0.019037240158435498   -0.0005366155971384105
-0.01669785277341407   -0.0285855582053902   -0.0006481160306738071
-0.022131773073365984   -0.0284895905476019   -0.0007329493305188902
-0.02273358126795462   -0.019037240158435498   -0.0005366155971384105
-0.022122514801327743   -0.02853375299327483   -0.0007868474559179468
-0.01669785277341407   -0.0285855582053902   -0.0006481160306738071
-0.02273358126795462   -0.019037240158435498   -0.0005366155971384105
-0.01727811270434497   -0.01907675790195897   -0.0004392977444739955
-0.01721573881564697   -0.019136293558806625   -0.00047236827970220397
-0.01669785277341407   -0.0285855582053902   -0.0006481160306738071
-0.02273358126795462   -0.019037240158435498   -0.0005366155971384105
-0.01721573881564697   -0.019136293558806625   -0.00047236827970220397
-0.022122514801327743   -0.02853375299327483   -0.0007868474559179468
-0.01669785277341407   -0.0285855582053902   -0.0006481160306738071
-0.01727811270434497   -0.01907675790195897   -0.0004392977444739955
-0.022131773073365984   -0.0284895905476019   -0.0007329493305188902
-0.016744382572402298   -0.02853319776387938   -0.0005953279043833604
-0.01727811270434497   -0.01907675790195897   -0.0004392977444739955
-0.02273358126795462   -0.019037240158435498   -0.0005366155971384105
-0.022131773073365984   -0.0284895905476019   -0.0007329493305188902
-0.022768960884130416   -0.018980727450544393   -0.000506228807936417
-0.016744382572402298   -0.02853319776387938   -0.0005953279043833604
-0.022141309018467902   -0.028444948246851155   -0.0006709199493224611
-0.022768960884130416   -0.018980727450544393   -0.000506228807936417
-0.022131773073365984   -0.0284895905476019   -0.0007329493305188902
-0.016744382572402298   -0.02853319776387938   -0.0005953279043833604
-0.022768960884130416   -0.018980727450544393   -0.000506228807936417
-0.017330948174521726   -0.019013960662483044   -0.0004039674609113703
-0.01727811270434497   -0.01907675790195897   -0.0004392977444739955
-0.016744382572402298   -0.02853319776387938   -0.0005953279043833604
-0.022768960884130416   -0.018980727450544393   -0.000506228807936417
-0.01727811270434497   -0.01907675790195897   -0.0004392977444739955
-0.022131773073365984   -0.0284895905476019   -0.0007329493305188902
-0.016744382572402298   -0.02853319776387938   -0.0005953279043833604
-0.017330948174521726   -0.019013960662483044   -0.0004039674609113703
-0.022141309018467902   -0.028444948246851155   -0.0006709199493224611
-0.016790555255349966   -0.028486207501969105   -0.0005374478314870003
-0.017330948174521726   -0.019013960662483044   -0.0004039674609113703
-0.022768960884130416   -0.018980727450544393   -0.000506228807936417
-0.022141309018467902   -0.028444948246851155   -0.0006709199493224611
-0.022786024881036322   -0.018928934092468614   -0.00047168543235629975
-0.016790555255349966   -0.028486207501969105   -0.0005374478314870003
-0.022119961093622877   -0.028415685894037108   -0.0006017233764534678
-0.022786024881036322   -0.018928934092468614   -0.00047168543235629975
-0.022141309018467902   -0.028444948246851155   -0.0006709199493224611
-0.016790555255349966   -0.028486207501969105   -0.0005374478314870003
-0.022786024881036322   -0.018928934092468614   -0.00047168543235629975
-0.017380884652399994   -0.01894952046646119   -0.000365396022526624
-0.017330948174521726   -0.019013960662483044   -0.0004039674609113703
-0.016790555255349966   -0.028486207501969105   -0.0005374478314870003
-0.022786024881036322   -0.018928934092468614   -0.00047168543235629975
-0.017330948174521726   -0.019013960662483044   -0.0004039674609113703
-0.022141309018467902   -0.028444948246851155   -0.0006709199493224611
0.0038076173854725026   -0.019286539488360784   0.00011578223239790029
0.002668584527188193   -0.009687031084223419   0.00012449310675262588
-0.001688331776182074   -0.019196040534995615   -4.918767128937014e-05
0.0036885195691489943   -0.019171105761943214   0.00016456775018011807
0.002668584527188193   -0.009687031084223419   0.00012449310675262588
-0.0024574064934047906   -0.00956172568812432   6.380631320434528e-05
-0.001688331776182074   -0.019196040534995615   -4.918767128937014e-05
-0.002532711830254562   -0.009513594655536656   0.00011839982856390174
0.0036885195691489943   -0.019171105761943214   0.00016456775018011807
-0.0017639994616346305   -0.019100412963267935   -9.934497694055603e-06
-0.002532711830254562   -0.009513594655536656   0.00011839982856390174
-0.001688331776182074   -0.019196040534995615   -4.918767128937014e-05
0.0036885195691489943   -0.019171105761943214   0.00016456775018011807
-0.002532711830254562   -0.009513594655536656   0.00011839982856390174
0.00243382640169713   -0.009564342925649326   0.0002595831188411916
0.002668584527188193   -0.009687031084223419   0.00012449310675262588
0.0036885195691489943   -0.019171105761943214   0.00016456775018011807
-0.002532711830254562   -0.009513594655536656   0.00011839982856390174
0.002668584527188193   -0.009687031084223419   0.00012449310675262588
-0.001688331776182074   -0.019196040534995615   -4.918767128937014e-05
0.0036885195691489943   -0.019171105761943214   0.00016456775018011807
0.00243382640169713   -0.009564342925649326   0.0002595831188411916
-0.0017639994616346305   -0.019100412963267935   -9.934497694055603e-06
0.003555504952916449   -0.019056509252903937   0.00023470407973955932
0.00243382640169713   -0.009564342925649326   0.0002595831188411916
-0.002532711830254562   -0.009513594655536656   0.00011839982856390174
-0.0017639994616346305   -0.019100412963267935   -9.934497694055603e-06
-0.0026317420125469807   -0.009427673868796409   0.0001847092133985306
0.003555504952916449   -0.019056509252903937   0.00023470407973955932
-0.0018525301498115226   -0.0189995039869663   3.631247740927901e-05
-0.0026317420125469807   -0.009427673868796409   0.0001847092133985306
-0.0017639994616346305   -0.019100412963267935   -9.934497694055603e-06
0.003555504952916449   -0.019056509252903937   0.00023470407973955932
-0.0026317420125469807   -0.009427673868796409   0.0001847092133985306
0.0022963839069297873   -0.009464084899759237   0.0003603625372582084
0.00243382640169713   -0.009564342925649326   0.0002595831188411916
0.003555504952916449   -0.019056509252903937   0.00023470407973955932
-0.0026317420125469807   -0.009427673868796409   0.0001847092133985306
0.00243382640169713   -0.009564342925649326   0.0002595831188411916
-0.0017639994616346305   -0.019100412963267935   -9.934497694055603e-06
0.003555504952916449   -0.019056509252903937   0.00023470407973955932
0.0022963839069297873   -0.009464084899759237   0.0003603625372582084
-0.0018525301498115226   -0.0189995039869663   3.631247740927901e-05
0.0033929716157091267   -0.018915718071467146   0.00031189098513732084
0.0022963839069297873   -0.009464084899759237   0.0003603625372582084
-0.0026317420125469807   -0.009427673868796409   0.0001847092133985306
-0.0018525301498115226   -0.0189995039869663   3.631247740927901e-05
-0.002715026647686087   -0.009335326381203018   0.00024307696893177325
0.0033929716157091267   -0.018915718071467146   0.00031189098513732084
-0.001944119615097137   -0.018892376095707746   8.946193106339137e-05
-0.002715026647686087   -0.009335326381203018   0.00024307696893177325
-0.0018525301498115226   -0.0189995039869663   3.631247740927901e-05
0.0033929716157091267   -0.018915718071467146   0.00031189098513732084
-0.002715026647686087   -0.009335326381203018   0.00024307696893177325
0.0021202027739252297   -0.009310763629157935   0.00047577452868877645
0.0022963839069297873   -0.009464084899759237   0.0003603625372582084
0.0033929716157091267   -0.018915718071467146   0.00031189098513732084
-0.002715026647686087   -0.009335326381203018   0.00024307696893177325
0.0022963839069297873   -0.009464084899759237   0.0003603625372582084
-0.0018525301498115226   -0.0189995039869663   3.631247740927901e-05
-0.001688331776182074   -0.019196040534995615   -4.918767128937014e-05
-0.0024574064934047906   -0.00956172568812432   6.380631320434528e-05
-0.006863465642409731   -0.019172612950455647   -0.0002081422375990239
-0.0017639994616346305   -0.019100412963267935   -9.934497694055603e-06
-0.0024574064934047906   -0.00956172568812432   6.380631320434528e-05
-0.007335408734622302   -0.009703267060586942   -6.252194427704201e-05
-0.006863465642409731   -0.019172612950455647   -0.0002081422375990239
-0.007404801752986531   -0.009629521953398137   -2.3829330402435193e-05
-0.0017639994616346305   -0.019100412963267935   -9.934497694055603e-06
-0.00693189133438651   -0.019089193640279247   -0.00017158579734182075
-0.007404801752986531   -0.009629521953398137   -2.3829330402435193e-05
-0.006863465642409731   -0.019172612950455647   -0.0002081422375990239
-0.0017639994616346305   -0.019100412963267935   -9.934497694055603e-06
-0.007404801752986531   -0.009629521953398137   -2.3829330402435193e-05
-0.002532711830254562   -0.009513594655536656   0.00011839982856390174
-0.0024574064934047906   -0.00956172568812432   6.380631320434528e-05
-0.0017639994616346305   -0.019100412963267935   -9.934497694055603e-06
-0.007404801752986531   -0.009629521953398137   -2.3829330402435193e-05
-0.0024574064934047906   -0.00956172568812432   6.380631320434528e-05
-0.006863465642409731   -0.019172612950455647   -0.0002081422375990239
-0.0017639994616346305   -0.019100412963267935   -9.934497694055603e-06
-0.002532711830254562   -0.009513594655536656   0.00011839982856390174
-0.00693189133438651   -0.019089193640279247   -0.00017158579734182075
-0.0018525301498115226   -0.0189995039869663   3.631247740927901e-05
-0.002532711830254562   -0.009513594655536656   0.00011839982856390174
-0.007404801752986531   -0.009629521953398137   -2.3829330402435193e-05
-0.00693189133438651   -0.019089193640279247   -0.00017158579734182075
-0.00747746604624356   -0.00954622016644401   1.713412692470226e-05
-0.0018525301498115226   -0.0189995039869663   3.631247740927901e-05
-0.007002681099832215   -0.019002428706150334   -0.00013139616804002933
-0.00747746604624356   -0.00954622016644401   1.713412692470226e-05
-0.00693189133438651   -0.019089193640279247   -0.00017158579734182075
-0.0018525301498115226   -0.0189995039869663   3.631247740927901e-05
-0.00747746604624356   -0.00954622016644401   1.713412692470226e-05
-0.0026317420125469807   -0.009427673868796409   0.0001847092133985306
-0.002532711830254562   -0.009513594655536656   0.00011839982856390174
-0.0018525301498115226   -0.0189995039869663   3.631247740927901e-05
-0.00747746604624356   -0.00954622016644401   1.713412692470226e-05
-0.002532711830254562   -0.009513594655536656   0.00011839982856390174
-0.00693189133438651   -0.019089193640279247   -0.00017158579734182075
-0.0018525301498115226   -0.0189995039869663   3.631247740927901e-05
-0.0026317420125469807   -0.009427673868796409   0.0001847092133985306
-0.007002681099832215   -0.019002428706150334   -0.00013139616804002933
-0.001944119615097137   -0.018892376095707746   8.946193106339137e-05
-0.0026317420125469807   -0.009427673868796409   0.0001847092133985306
-0.00747746604624356   -0.00954622016644401   1.713412692470226e-05
-0.007002681099832215   -0.019002428706150334   -0.00013139616804002933
-0.0075465565207240735   -0.009454921018953353   6.231901598457155e-05
-0.001944119615097137   -0.018892376095707746   8.946193106339137e-05
-0.0070763857272094595   -0.01891387970285972   -8.684871153726901e-05
-0.0075465565207240735   -0.009454921018953353   6.231901598457155e-05
-0.007002681099832215   -0.019002428706150334   -0.00013139616804002933
-0.001944119615097137   -0.018892376095707746   8.946193106339137e-05
-0.0075465565207240735   -0.009454921018953353   6.231901598457155e-05
-0.002715026647686087   -0.009335326381203018   0.00024307696893177325
-0.0026317420125469807   -0.009427673868796409   0.0001847092133985306
-0.001944119615097137   -0.018892376095707746   8.946193106339137e-05
-0.0075465565207240735   -0.009454921018953353   6.231901598457155e-05
-0.0026317420125469807   -0.009427673868796409   0.0001847092133985306
-0.007002681099832215   -0.019002428706150334   -0.00013139616804002933
-0.006863465642409731   -0.019172612950455647   -0.0002081422375990239
-0.007335408734622302   -0.009703267060586942   -6.252194427704201e-05
-0.01198533697254643   -0.019166090786868248   -0.0003517847148745423
-0.00693189133438651   -0.019089193640279247   -0.00017158579734182075
-0.007335408734622302   -0.009703267060586942   -6.252194427704201e-05
-0.012332721171105043   -0.009813841784097124   -0.0002026259641147895
-0.01198533697254643   -0.019166090786868248   -0.0003517847148745423
-0.012395069309372887   -0.009738119374756165   -0.0001726266231140723
-0.00693189133438651   -0.019089193640279247   -0.00017158579734182075
-0.012050765436382761   -0.01909297624816811   -0.00031688130136513687
-0.012395069309372887   -0.009738119374756165   -0.0001726266231140723
-0.01198533697254643   -0.019166090786868248   -0.0003517847148745423
-0.00693189133438651   -0.019089193640279247   -0.00017158579734182075
-0.012395069309372887   -0.009738119374756165   -0.0001726266231140723
-0.007404801752986531   -0.009629521953398137   -2.3829330402435193e-05
-0.007335408734622302   -0.009703267060586942   -6.252194427704201e-05
-0.00693189133438651   -0.019089193640279247   -0.00017158579734182075
-0.012395069309372887   -0.009738119374756165   -0.0001726266231140723
-0.007335408734622302   -0.009703267060586942   -6.252194427704201e-05
-0.01198533697254643   -0.019166090786868248   -0.0003517847148745423
-0.00693189133438651   -0.019089193640279247   -0.00017158579734182075
-0.007404801752986531   -0.009629521953398137   -2.3829330402435193e-05
-0.012050765436382761   -0.01909297624816811   -0.00031688130136513687
-0.007002681099832215   -0.019002428706150334   -0.00013139616804002933
-0.007404801752986531   -0.009629521953398137   -2.3829330402435193e-05
-0.012395069309372887   -0.009738119374756165   -0.0001726266231140723
-0.012050765436382761   -0.01909297624816811   -0.00031688130136513687
-0.012454763329741905   -0.009658127691433151   -0.0001427149739001367
-0.007002681099832215   -0.019002428706150334   -0.00013139616804002933
-0.012113093784957335   -0.01901855038085399   -0.000278799886811956
-0.012454763329741905   -0.009658127691433151   -0.0001427149739001367
-0.012050765436382761   -0.01909297624816811   -0.00031688130136513687
-0.007002681099832215   -0.019002428706150334   -0.00013139616804002933
-0.012454763329741905   -0.009658127691433151   -0.0001427149739001367
-0.00747746604624356   -0.00954622016644401   1.713412692470226e-05
-0.007404801752986531   -0.009629521953398137   -2.3829330402435193e-05
-0.007002681099832215   -0.019002428706150334   -0.00013139616804002933
-0.012454763329741905   -0.009658127691433151   -0.0001427149739001367
-0.007404801752986531   -0.009629521953398137   -2.3829330402435193e-05
-0.012050765436382761   -0.01909297624816811   -0.00031688130136513687
-0.007002681099832215   -0.019002428706150334   -0.00013139616804002933
-0.00747746604624356   -0.00954622016644401   1.713412692470226e-05
-0.012113093784957335   -0.01901855038085399   -0.000278799886811956
-0.0070763857272094595   -0.01891387970285972   -8.684871153726901e-05
-0.00747746604624356   -0.00954622016644401   1.713412692470226e-05
-0.012454763329741905   -0.009658127691433151   -0.0001427149739001367
-0.012113093784957335   -0.01901855038085399   -0.000278799886811956
-0.0125097990481361   -0.00957150823743658   -0.00011013980045306272
-0.0070763857272094595   -0.01891387970285972   -8.684871153726901e-05
-0.01217479586032385   -0.01894238693752136   -0.00023771965813892954
-0.0125097990481361   -0.00957150823743658   -0.00011013980045306272
-0.012113093784957335   -0.01901855038085399   -0.000278799886811956
-0.0070763857272094595   -0.01891387970285972   -8.684871153726901e-05
-0.0125097990481361   -0.00957150823743658   -0.00011013980045306272
-0.0075465565207240735   -0.009454921018953353   6.231901598457155e-05
-0.00747746604624356   -0.00954622016644401   1.713412692470226e-05
-0.0070763857272094595   -0.01891387970285972   -8.684871153726901e-05
-0.0125097990481361   -0.00957150823743658   -0.00011013980045306272
-0.00747746604624356   -0.00954622016644401   1.713412692470226e-05
-0.012113093784957335   -0.01901855038085399   -0.000278799886811956
-0.01198533697254643   -0.019166090786868248   -0.0003517847148745423
-0.012332721171105043   -0.009813841784097124   -0.0002026259641147895
-0.01721573881564697   -0.019136293558806625   -0.00047236827970220397
-0.012050765436382761   -0.01909297624816811   -0.00031688130136513687
-0.012332721171105043   -0.009813841784097124   -0.0002026259641147895
-0.017505577708341012   -0.0098592251019755   -0.00033194725372793414
-0.01721573881564697   -0.019136293558806625   -0.00047236827970220397
-0.017561753199927987   -0.009791234794705415   -0.00031006642840323694
-0.012050765436382761   -0.01909297624816811   -0.00031688130136513687
-0.01727811270434497   -0.01907675790195897   -0.0004392977444739955
-0.017561753199927987   -0.009791234794705415   -0.00031006642840323694
-0.01721573881564697   -0.019136293558806625   -0.00047236827970220397
-0.012050765436382761   -0.01909297624816811   -0.00031688130136513687
-0.017561753199927987   -0.009791234794705415   -0.00031006642840323694
-0.012395069309372887   -0.009738119374756165   -0.0001726266231140723
-0.012332721171105043   -0.009813841784097124   -0.0002026259641147895
-0.012050765436382761   -0.01909297624816811   -0.00031688130136513687
-0.017561753199927987   -0.009791234794705415   -0.00031006642840323694
-0.012332721171105043   -0.009813841784097124   -0.0002026259641147895
-0.01721573881564697   -0.019136293558806625   -0.00047236827970220397
-0.012050765436382761   -0.01909297624816811   -0.00031688130136513687
-0.012395069309372887   -0.009738119374756165   -0.0001726266231140723
-0.01727811270434497   -0.01907675790195897   -0.0004392977444739955
-0.012113093784957335   -0.01901855038085399   -0.000278799886811956
-0.012395069309372887   -0.009738119374756165   -0.0001726266231140723
-0.017561753199927987   -0.009791234794705415   -0.00031006642840323694
-0.01727811270434497   -0.01907675790195897   -0.0004392977444739955
-0.01761181261349436   -0.009717162388881914   -0.00028880079330947554
-0.012113093784957335   -0.01901855038085399   -0.000278799886811956
-0.017330948174521726   -0.019013960662483044   -0.0004039674609113703
-0.01761181261349436   -0.009717162388881914   -0.00028880079330947554
-0.01727811270434497   -0.01907675790195897   -0.0004392977444739955
-0.012113093784957335   -0.01901855038085399   -0.000278799886811956
-0.01761181261349436   -0.009717162388881914   -0.00028880079330947554
-0.012454763329741905   -0.009658127691433151   -0.0001427149739001367
-0.012395069309372887   -0.009738119374756165   -0.0001726266231140723
-0.012113093784957335   -0.01901855038085399   -0.000278799886811956
-0.01761181261349436   -0.009717162388881914   -0.00028880079330947554
-0.012395069309372887   -0.009738119374756165   -0.0001726266231140723
-0.01727811270434497   -0.01907675790195897   -0.0004392977444739955
-0.012113093784957335   -0.01901855038085399   -0.000278799886811956
-0.012454763329741905   -0.009658127691433151   -0.0001427149739001367
-0.017330948174521726   -0.019013960662483044   -0.0004039674609113703
-0.01217479586032385   -0.01894238693752136   -0.00023771965813892954
-0.012454763329741905   -0.009658127691433151   -0.0001427149739001367
-0.01761181261349436   -0.009717162388881914   -0.00028880079330947554
-0.017330948174521726   -0.019013960662483044   -0.0004039674609113703
-0.017657146387651597   -0.009638303622800125   -0.0002668936825556533
-0.01217479586032385   -0.01894238693752136   -0.00023771965813892954
-0.017380884652399994   -0.01894952046646119   -0.000365396022526624
-0.017657146387651597   -0.009638303622800125   -0.0002668936825556533
-0.017330948174521726   -0.019013960662483044   -0.0004039674609113703
-0.01217479586032385   -0.01894238693752136   -0.00023771965813892954
-0.017657146387651597   -0.009638303622800125   -0.0002668936825556533
-0.0125097990481361   -0.00957150823743658   -0.00011013980045306272
-0.012454763329741905   -0.009658127691433151   -0.0001427149739001367
-0.01217479586032385   -0.01894238693752136   -0.00023771965813892954
-0.017657146387651597   -0.009638303622800125   -0.0002668936825556533
-0.012454763329741905   -0.009658127691433151   -0.0001427149739001367
-0.017330948174521726   -0.019013960662483044   -0.0004039674609113703
-0.01721573881564697   -0.019136293558806625   -0.00047236827970220397
-0.017505577708341012   -0.0098592251019755   -0.00033194725372793414
-0.02269488905953056   -0.019087163708897913   -0.000561464872912159
-0.01727811270434497   -0.01907675790195897   -0.0004392977444739955
-0.017505577708341012   -0.0098592251019755   -0.00033194725372793414
-0.022862837515185027   -0.009864286950357185   -0.00043924295125011867
-0.02269488905953056   -0.019087163708897913   -0.000561464872912159
-0.02291109027707663   -0.009798299227827304   -0.0004298267471235655
-0.01727811270434497   -0.01907675790195897   -0.0004392977444739955
-0.02273358126795462   -0.019037240158435498   -0.0005366155971384105
-0.02291109027707663   -0.009798299227827304   -0.0004298267471235655
-0.02269488905953056   -0.019087163708897913   -0.000561464872912159
-0.01727811270434497   -0.01907675790195897   -0.0004392977444739955
-0.02291109027707663   -0.009798299227827304   -0.0004298267471235655
-0.017561753199927987   -0.009791234794705415   -0.00031006642840323694
-0.017505577708341012   -0.0098592251019755   -0.00033194725372793414
-0.01727811270434497   -0.01907675790195897   -0.0004392977444739955
-0.02291109027707663   -0.009798299227827304   -0.0004298267471235655
-0.017505577708341012   -0.0098592251019755   -0.00033194725372793414
-0.02269488905953056   -0.019087163708897913   -0.000561464872912159
-0.01727811270434497   -0.01907675790195897   -0.0004392977444739955
-0.017561753199927987   -0.009791234794705415   -0.00031006642840323694
-0.02273358126795462   -0.019037240158435498   -0.0005366155971384105
-0.017330948174521726   -0.019013960662483044   -0.0004039674609113703
-0.017561753199927987   -0.009791234794705415   -0.00031006642840323694
-0.02291109027707663   -0.009798299227827304   -0.0004298267471235655
-0.02273358126795462   -0.019037240158435498   -0.0005366155971384105
-0.02295432054234113   -0.009726935483452936   -0.0004188098517260789
-0.017330948174521726   -0.019013960662483044   -0.0004039674609113703
-0.022768960884130416   -0.018980727450544393   -0.000506228807936417
-0.02295432054234113   -0.009726935483452936   -0.0004188098517260789
-0.02273358126795462   -0.019037240158435498   -0.0005366155971384105
-0.017330948174521726   -0.019013960662483044   -0.0004039674609113703
-0.02295432054234113   -0.009726935483452936   -0.0004188098517260789
-0.01761181261349436   -0.009717162388881914   -0.00028880079330947554
-0.017561753199927987   -0.009791234794705415   -0.00031006642840323694
-0.017330948174521726   -0.019013960662483044   -0.0004039674609113703
-0.02295432054234113   -0.009726935483452936   -0.0004188098517260789
-0.017561753199927987   -0.009791234794705415   -0.00031006642840323694
-0.02273358126795462   -0.019037240158435498   -0.0005366155971384105
-0.017330948174521726   -0.019013960662483044   -0.0004039674609113703
-0.01761181261349436   -0.009717162388881914   -0.00028880079330947554
-0.022768960884130416   -0.018980727450544393   -0.000506228807936417
-0.017380884652399994   -0.01894952046646119   -0.000365396022526624
-0.01761181261349436   -0.009717162388881914   -0.00028880079330947554
-0.02295432054234113   -0.009726935483452936   -0.0004188098517260789
-0.022768960884130416   -0.018980727450544393   -0.000506228807936417
-0.02299065674037182   -0.009651371486436057   -0.0004085494896462724
-0.017380884652399994   -0.01894952046646119   -0.000365396022526624
-0.022786024881036322   -0.018928934092468614   -0.00047168543235629975
-0.02299065674037182   -0.009651371486436057   -0.0004085494896462724
-0.022768960884130416   -0.018980727450544393   -0.000506228807936417
-0.017380884652399994   -0.01894952046646119   -0.000365396022526624
-0.02299065674037182   -0.009651371486436057   -0.0004085494896462724
-0.017657146387651597   -0.009638303622800125   -0.0002668936825556533
-0.01761181261349436   -0.009717162388881914   -0.00028880079330947554
-0.017380884652399994   -0.01894952046646119   -0.000365396022526624
-0.02299065674037182   -0.009651371486436057   -0.0004085494896462724
-0.01761181261349436   -0.009717162388881914   -0.00028880079330947554
-0.022768960884130416   -0.018980727450544393   -0.000506228807936417
0.002668584527188193   -0.009687031084223419   0.00012449310675262588
0.0   0.0   0.0
-0.0024574064934047906   -0.00956172568812432   6.380631320434528e-05
0.00243382640169713   -0.009564342925649326   0.0002595831188411916
0.0   0.0   0.0
-0.003084744867363615   -0.0007825148361086699   -2.5900246508480823e-05
-0.0024574064934047906   -0.00956172568812432   6.380631320434528e-05
-0.0032690587434312003   -0.0006082253915581201   8.039993742897448e-05
0.00243382640169713   -0.009564342925649326   0.0002595831188411916
-0.002532711830254562   -0.009513594655536656   0.00011839982856390174
-0.0032690587434312003   -0.0006082253915581201   8.039993742897448e-05
-0.0024574064934047906   -0.00956172568812432   6.380631320434528e-05
0.00243382640169713   -0.009564342925649326   0.0002595831188411916
-0.0032690587434312003   -0.0006082253915581201   8.039993742897448e-05
0.0   0.0   0.0
0.0   0.0   0.0
0.00243382640169713   -0.009564342925649326   0.0002595831188411916
-0.0032690587434312003   -0.0006082253915581201   8.039993742897448e-05
0.0   0.0   0.0
-0.0024574064934047906   -0.00956172568812432   6.380631320434528e-05
0.00243382640169713   -0.009564342925649326   0.0002595831188411916
0.0   0.0   0.0
-0.002532711830254562   -0.009513594655536656   0.00011839982856390174
0.0022963839069297873   -0.009464084899759237   0.0003603625372582084
0.0   0.0   0.0
-0.0032690587434312003   -0.0006082253915581201   8.039993742897448e-05
-0.002532711830254562   -0.009513594655536656   0.00011839982856390174
-0.0033847451099795773   -0.0005242452621916831   0.00014177564964572317
0.0022963839069297873   -0.009464084899759237   0.0003603625372582084
-0.0026317420125469807   -0.009427673868796409   0.0001847092133985306
-0.0033847451099795773   -0.0005242452621916831   0.00014177564964572317
-0.002532711830254562   -0.009513594655536656   0.00011839982856390174
0.0022963839069297873   -0.009464084899759237   0.0003603625372582084
-0.0033847451099795773   -0.0005242452621916831   0.00014177564964572317
0.0   0.0   0.0
0.0   0.0   0.0
0.0022963839069297873   -0.009464084899759237   0.0003603625372582084
-0.0033847451099795773   -0.0005242452621916831   0.00014177564964572317
0.0   0.0   0.0
-0.002532711830254562   -0.009513594655536656   0.00011839982856390174
0.0022963839069297873   -0.009464084899759237   0.0003603625372582084
0.0   0.0   0.0
-0.0026317420125469807   -0.009427673868796409   0.0001847092133985306
0.0021202027739252297   -0.009310763629157935   0.00047577452868877645
0.0   0.0   0.0
-0.0033847451099795773   -0.0005242452621916831   0.00014177564964572317
-0.0026317420125469807   -0.009427673868796409   0.0001847092133985306
-0.003539869872497075   -0.00041271881272929767   0.00021222733500910094
0.0021202027739252297   -0.009310763629157935   0.00047577452868877645
-0.002715026647686087   -0.009335326381203018   0.00024307696893177325
-0.003539869872497075   -0.00041271881272929767   0.00021222733500910094
-0.0026317420125469807   -0.009427673868796409   0.0001847092133985306
0.0021202027739252297   -0.009310763629157935   0.00047577452868877645
-0.003539869872497075   -0.00041271881272929767   0.00021222733500910094
0.0   0.0   0.0
0.0   0.0   0.0
0.0021202027739252297   -0.009310763629157935   0.00047577452868877645
-0.003539869872497075   -0.00041271881272929767   0.00021222733500910094
0.0   0.0   0.0
-0.0026317420125469807   -0.009427673868796409   0.0001847092133985306
-0.0024574064934047906   -0.00956172568812432   6.380631320434528e-05
-0.003084744867363615   -0.0007825148361086699   -2.5900246508480823e-05
-0.007335408734622302   -0.009703267060586942   -6.252194427704201e-05
-0.002532711830254562   -0.009513594655536656   0.00011839982856390174
-0.003084744867363615   -0.0007825148361086699   -2.5900246508480823e-05
-0.0075539315355722565   -0.0010251226628646911   -2.4316775106297257e-05
-0.007335408734622302   -0.009703267060586942   -6.252194427704201e-05
-0.007648921119350164   -0.0009298692152949324   2.936886049280429e-06
-0.002532711830254562   -0.009513594655536656   0.00011839982856390174
-0.007404801752986531   -0.009629521953398137   -2.3829330402435193e-05
-0.007648921119350164   -0.0009298692152949324   2.936886049280429e-06
-0.007335408734622302   -0.009703267060586942   -6.252194427704201e-05
-0.002532711830254562   -0.009513594655536656   0.00011839982856390174
-0.007648921119350164   -0.0009298692152949324   2.936886049280429e-06
-0.0032690587434312003   -0.0006082253915581201   8.039993742897448e-05
-0.003084744867363615   -0.0007825148361086699   -2.5900246508480823e-05
-0.002532711830254562   -0.009513594655536656   0.00011839982856390174
-0.007648921119350164   -0.0009298692152949324   2.936886049280429e-06
-0.003084744867363615   -0.0007825148361086699   -2.5900246508480823e-05
-0.007335408734622302   -0.009703267060586942   -6.252194427704201e-05
-0.002532711830254562   -0.009513594655536656   0.00011839982856390174
-0.0032690587434312003   -0.0006082253915581201   8.039993742897448e-05
-0.007404801752986531   -0.009629521953398137   -2.3829330402435193e-05
-0.0026317420125469807   -0.009427673868796409   0.0001847092133985306
-0.0032690587434312003   -0.0006082253915581201   8.039993742897448e-05
-0.007648921119350164   -0.0009298692152949324   2.936886049280429e-06
-0.007404801752986531   -0.009629521953398137   -2.3829330402435193e-05
-0.007743515830897009   -0.0008184187857007077   5.175204001546761e-05
-0.0026317420125469807   -0.009427673868796409   0.0001847092133985306
-0.00747746604624356   -0.00954622016644401   1.713412692470226e-05
-0.007743515830897009   -0.0008184187857007077   5.175204001546761e-05
-0.007404801752986531   -0.009629521953398137   -2.3829330402435193e-05
-0.0026317420125469807   -0.009427673868796409   0.0001847092133985306
-0.007743515830897009   -0.0008184187857007077   5.175204001546761e-05
-0.0033847451099795773   -0.0005242452621916831   0.00014177564964572317
-0.0032690587434312003   -0.0006082253915581201   8.039993742897448e-05
-0.0026317420125469807   -0.009427673868796409   0.0001847092133985306
-0.007743515830897009   -0.0008184187857007077   5.175204001546761e-05
-0.0032690587434312003   -0.0006082253915581201   8.039993742897448e-05
-0.007404801752986531   -0.009629521953398137   -2.3829330402435193e-05
-0.0026317420125469807   -0.009427673868796409   0.0001847092133985306
-0.0033847451099795773   -0.0005242452621916831   0.00014177564964572317
-0.00747746604624356   -0.00954622016644401   1.713412692470226e-05
-0.002715026647686087   -0.009335326381203018   0.00024307696893177325
-0.0033847451099795773   -0.0005242452621916831   0.00014177564964572317
-0.007743515830897009   -0.0008184187857007077   5.175204001546761e-05
-0.00747746604624356   -0.00954622016644401   1.713412692470226e-05
-0.00784828105112317   -0.000689565185733023   9.849436794933197e-05
-0.002715026647686087   -0.009335326381203018   0.00024307696893177325
-0.0075465565207240735   -0.009454921018953353   6.231901598457155e-05
-0.00784828105112317   -0.000689565185733023   9.849436794933197e-05
-0.00747746604624356   -0.00954622016644401   1.713412692470226e-05
-0.002715026647686087   -0.009335326381203018   0.00024307696893177325
-0.00784828105112317   -0.000689565185733023   9.849436794933197e-05
-0.003539869872497075   -0.00041271881272929767   0.00021222733500910094
-0.0033847451099795773   -0.0005242452621916831   0.00014177564964572317
-0.002715026647686087   -0.009335326381203018   0.00024307696893177325
-0.00784828105112317   -0.000689565185733023   9.849436794933197e-05
-0.0033847451099795773   -0.0005242452621916831   0.00014177564964572317
-0.00747746604624356   -0.00954622016644401   1.713412692470226e-05
-0.007335408734622302   -0.009703267060586942   -6.252194427704201e-05
-0.0075539315355722565   -0.0010251226628646911   -2.4316775106297257e-05
-0.012332721171105043   -0.009813841784097124   -0.0002026259641147895
-0.007404801752986531   -0.009629521953398137   -2.3829330402435193e-05
-0.0075539315355722565   -0.0010251226628646911   -2.4316775106297257e-05
-0.012454643667775659   -0.0010929197349549215   -0.00011297827984350914
-0.012332721171105043   -0.009813841784097124   -0.0002026259641147895
-0.012512266561178395   -0.0010186072512771234   -0.00010545434098256053
-0.007404801752986531   -0.009629521953398137   -2.3829330402435193e-05
-0.012395069309372887   -0.009738119374756165   -0.0001726266231140723
-0.012512266561178395   -0.0010186072512771234   -0.00010545434098256053
-0.012332721171105043   -0.009813841784097124   -0.0002026259641147895
-0.007404801752986531   -0.009629521953398137   -2.3829330402435193e-05
-0.012512266561178395   -0.0010186072512771234   -0.00010545434098256053
-0.007648921119350164   -0.0009298692152949324   2.936886049280429e-06
-0.0075539315355722565   -0.0010251226628646911   -2.4316775106297257e-05
-0.007404801752986531   -0.009629521953398137   -2.3829330402435193e-05
-0.012512266561178395   -0.0010186072512771234   -0.00010545434098256053
-0.0075539315355722565   -0.0010251226628646911   -2.4316775106297257e-05
-0.012332721171105043   -0.009813841784097124   -0.0002026259641147895
-0.007404801752986531   -0.009629521953398137   -2.3829330402435193e-05
-0.007648921119350164   -0.0009298692152949324   2.936886049280429e-06
-0.012395069309372887   -0.009738119374756165   -0.0001726266231140723
-0.00747746604624356   -0.00954622016644401   1.713412692470226e-05
-0.007648921119350164   -0.0009298692152949324   2.936886049280429e-06
-0.012512266561178395   -0.0010186072512771234   -0.00010545434098256053
-0.012395069309372887   -0.009738119374756165   -0.0001726266231140723
-0.012572181341293934   -0.0009323740212601179   -9.223561834704336e-05
-0.00747746604624356   -0.00954622016644401   1.713412692470226e-05
-0.012454763329741905   -0.009658127691433151   -0.0001427149739001367
-0.012572181341293934   -0.0009323740212601179   -9.223561834704336e-05
-0.012395069309372887   -0.009738119374756165   -0.0001726266231140723
-0.00747746604624356   -0.00954622016644401   1.713412692470226e-05
-0.012572181341293934   -0.0009323740212601179   -9.223561834704336e-05
-0.007743515830897009   -0.0008184187857007077   5.175204001546761e-05
-0.007648921119350164   -0.0009298692152949324   2.936886049280429e-06
-0.00747746604624356   -0.00954622016644401   1.713412692470226e-05
-0.012572181341293934   -0.0009323740212601179   -9.223561834704336e-05
-0.007648921119350164   -0.0009298692152949324   2.936886049280429e-06
-0.012395069309372887   -0.009738119374756165   -0.0001726266231140723
-0.00747746604624356   -0.00954622016644401   1.713412692470226e-05
-0.007743515830897009   -0.0008184187857007077   5.175204001546761e-05
-0.012454763329741905   -0.009658127691433151   -0.0001427149739001367
-0.0075465565207240735   -0.009454921018953353   6.231901598457155e-05
-0.007743515830897009   -0.0008184187857007077   5.175204001546761e-05
-0.012572181341293934   -0.0009323740212601179   -9.223561834704336e-05
-0.012454763329741905   -0.009658127691433151   -0.0001427149739001367
-0.012629044022885732   -0.0008274839626824668   -7.474565389454718e-05
-0.0075465565207240735   -0.009454921018953353   6.231901598457155e-05
-0.0125097990481361   -0.00957150823743658   -0.00011013980045306272
-0.012629044022885732   -0.0008274839626824668   -7.474565389454718e-05
-0.012454763329741905   -0.009658127691433151   -0.0001427149739001367
-0.0075465565207240735   -0.009454921018953353   6.231901598457155e-05
-0.012629044022885732   -0.0008274839626824668   -7.474565389454718e-05
-0.00784828105112317   -0.000689565185733023   9.849436794933197e-05
-0.007743515830897009   -0.0008184187857007077   5.175204001546761e-05
-0.0075465565207240735   -0.009454921018953353   6.231901598457155e-05
-0.012629044022885732   -0.0008274839626824668   -7.474565389454718e-05
-0.007743515830897009   -0.0008184187857007077   5.175204001546761e-05
-0.012454763329741905   -0.009658127691433151   -0.0001427149739001367
-0.012332721171105043   -0.009813841784097124   -0.0002026259641147895
-0.012454643667775659   -0.0010929197349549215   -0.00011297827984350914
-0.017505577708341012   -0.0098592251019755   -0.00033194725372793414
-0.012395069309372887   -0.009738119374756165   -0.0001726266231140723
-0.012454643667775659   -0.0010929197349549215   -0.00011297827984350914
-0.017596157647762834   -0.0010812727912801665   -0.00024040901265761302
-0.017505577708341012   -0.0098592251019755   -0.00033194725372793414
-0.017635074249029884   -0.001014468697686372   -0.00023719157605105304
-0.012395069309372887   -0.009738119374756165   -0.0001726266231140723
-0.017561753199927987   -0.009791234794705415   -0.00031006642840323694
-0.017635074249029884   -0.001014468697686372   -0.00023719157605105304
-0.017505577708341012   -0.0098592251019755   -0.00033194725372793414
-0.012395069309372887   -0.009738119374756165   -0.0001726266231140723
-0.017635074249029884   -0.001014468697686372   -0.00023719157605105304
-0.012512266561178395   -0.0010186072512771234   -0.00010545434098256053
-0.012454643667775659   -0.0010929197349549215   -0.00011297827984350914
-0.012395069309372887   -0.009738119374756165   -0.0001726266231140723
-0.017635074249029884   -0.001014468697686372   -0.00023719157605105304
-0.012454643667775659   -0.0010929197349549215   -0.00011297827984350914
-0.017505577708341012   -0.0098592251019755   -0.00033194725372793414
-0.012395069309372887   -0.009738119374756165   -0.0001726266231140723
-0.012512266561178395   -0.0010186072512771234   -0.00010545434098256053
-0.017561753199927987   -0.009791234794705415   -0.00031006642840323694
-0.012454763329741905   -0.009658127691433151   -0.0001427149739001367
-0.012512266561178395   -0.0010186072512771234   -0.00010545434098256053
-0.017635074249029884   -0.001014468697686372   -0.00023719157605105304
-0.017561753199927987   -0.009791234794705415   -0.00031006642840323694
-0.017675676303745207   -0.000940129119756392   -0.00023497472994606268
-0.012454763329741905   -0.009658127691433151   -0.0001427149739001367
-0.01761181261349436   -0.009717162388881914   -0.00028880079330947554
-0.017675676303745207   -0.000940129119756392   -0.00023497472994606268
-0.017561753199927987   -0.009791234794705415   -0.00031006642840323694
-0.012454763329741905   -0.009658127691433151   -0.0001427149739001367
-0.017675676303745207   -0.000940129119756392   -0.00023497472994606268
-0.012572181341293934   -0.0009323740212601179   -9.223561834704336e-05
-0.012512266561178395   -0.0010186072512771234   -0.00010545434098256053
-0.012454763329741905   -0.009658127691433151   -0.0001427149739001367
-0.017675676303745207   -0.000940129119756392   -0.00023497472994606268
-0.012512266561178395   -0.0010186072512771234   -0.00010545434098256053
-0.017561753199927987   -0.009791234794705415   -0.00031006642840323694
-0.012454763329741905   -0.009658127691433151   -0.0001427149739001367
-0.012572181341293934   -0.0009323740212601179   -9.223561834704336e-05
-0.01761181261349436   -0.009717162388881914   -0.00028880079330947554
-0.0125097990481361   -0.00957150823743658   -0.00011013980045306272
-0.012572181341293934   -0.0009323740212601179   -9.223561834704336e-05
-0.017675676303745207   -0.000940129119756392   -0.00023497472994606268
-0.01761181261349436   -0.009717162388881914   -0.00028880079330947554
-0.017706505501483415   -0.000859655753649356   -0.00023393331701586004
-0.0125097990481361   -0.00957150823743658   -0.00011013980045306272
-0.017657146387651597   -0.009638303622800125   -0.0002668936825556533
-0.017706505501483415   -0.000859655753649356   -0.00023393331701586004
-0.01761181261349436   -0.009717162388881914   -0.00028880079330947554
-0.0125097990481361   -0.00957150823743658   -0.00011013980045306272
-0.017706505501483415   -0.000859655753649356   -0.00023393331701586004
-0.012629044022885732   -0.0008274839626824668   -7.474565389454718e-05
-0.012572181341293934   -0.0009323740212601179   -9.223561834704336e-05
-0.0125097990481361   -0.00957150823743658   -0.00011013980045306272
-0.017706505501483415   -0.000859655753649356   -0.00023393331701586004
-0.012572181341293934   -0.0009323740212601179   -9.223561834704336e-05
-0.01761181261349436   -0.009717162388881914   -0.00028880079330947554
-0.017505577708341012   -0.0098592251019755   -0.00033194725372793414
-0.017596157647762834   -0.0010812727912801665   -0.00024040901265761302
-0.022862837515185027   -0.009864286950357185   -0.00043924295125011867
-0.017561753199927987   -0.009791234794705415   -0.00031006642840323694
-0.017596157647762834   -0.0010812727912801665   -0.00024040901265761302
-0.02287972907417761   -0.0010735011376879562   -0.0003658502836316016
-0.022862837515185027   -0.009864286950357185   -0.00043924295125011867
-0.022911035597148292   -0.0010010275462309837   -0.00036579733833682205
-0.017561753199927987   -0.009791234794705415   -0.00031006642840323694
-0.02291109027707663   -0.009798299227827304   -0.0004298267471235655
-0.022911035597148292   -0.0010010275462309837   -0.00036579733833682205
-0.022862837515185027   -0.009864286950357185   -0.00043924295125011867
-0.017561753199927987   -0.009791234794705415   -0.00031006642840323694
-0.022911035597148292   -0.0010010275462309837   -0.00036579733833682205
-0.017635074249029884   -0.001014468697686372   -0.00023719157605105304
-0.017596157647762834   -0.0010812727912801665   -0.00024040901265761302
-0.017561753199927987   -0.009791234794705415   -0.00031006642840323694
-0.022911035597148292   -0.0010010275462309837   -0.00036579733833682205
-0.017596157647762834   -0.0010812727912801665   -0.00024040901265761302
-0.022862837515185027   -0.009864286950357185   -0.00043924295125011867
-0.017561753199927987   -0.009791234794705415   -0.00031006642840323694
-0.017635074249029884   -0.001014468697686372   -0.00023719157605105304
-0.02291109027707663   -0.009798299227827304   -0.0004298267471235655
-0.01761181261349436   -0.009717162388881914   -0.00028880079330947554
-0.017635074249029884   -0.001014468697686372   -0.00023719157605105304
-0.022911035597148292   -0.0010010275462309837   -0.00036579733833682205
-0.02291109027707663   -0.009798299227827304   -0.0004298267471235655
-0.022945402948278962   -0.0009286367138956938   -0.0003713988746766639
-0.01761181261349436   -0.009717162388881914   -0.00028880079330947554
-0.02295432054234113   -0.009726935483452936   -0.0004188098517260789
-0.022945402948278962   -0.0009286367138956938   -0.0003713988746766639
-0.02291109027707663   -0.009798299227827304   -0.0004298267471235655
-0.01761181261349436   -0.009717162388881914   -0.00028880079330947554
-0.022945402948278962   -0.0009286367138956938   -0.0003713988746766639
-0.017675676303745207   -0.000940129119756392   -0.00023497472994606268
-0.017635074249029884   -0.001014468697686372   -0.00023719157605105304
-0.01761181261349436   -0.009717162388881914   -0.00028880079330947554
-0.022945402948278962   -0.0009286367138956938   -0.0003713988746766639
-0.017635074249029884   -0.001014468697686372   -0.00023719157605105304
-0.02291109027707663   -0.009798299227827304   -0.0004298267471235655
-0.01761181261349436   -0.009717162388881914   -0.00028880079330947554
-0.017675676303745207   -0.000940129119756392   -0.00023497472994606268
-0.02295432054234113   -0.009726935483452936   -0.0004188098517260789
-0.017657146387651597   -0.009638303622800125   -0.0002668936825556533
-0.017675676303745207   -0.000940129119756392   -0.00023497472994606268
-0.022945402948278962   -0.0009286367138956938   -0.0003713988746766639
-0.02295432054234113   -0.009726935483452936   -0.0004188098517260789
-0.02297071951261064   -0.0008498313758035195   -0.00037735730436686053
-0.017657146387651597   -0.009638303622800125   -0.0002668936825556533
-0.02299065674037182   -0.009651371486436057   -0.0004085494896462724
-0.02297071951261064   -0.0008498313758035195   -0.00037735730436686053
-0.02295432054234113   -0.009726935483452936   -0.0004188098517260789
-0.017657146387651597   -0.009638303622800125   -0.0002668936825556533
-0.02297071951261064   -0.0008498313758035195   -0.00037735730436686053
-0.017706505501483415   -0.000859655753649356   -0.00023393331701586004
-0.017675676303745207   -0.000940129119756392   -0.00023497472994606268
-0.017657146387651597   -0.009638303622800125   -0.0002668936825556533
-0.02297071951261064   -0.0008498313758035195   -0.00037735730436686053
-0.017675676303745207   -0.000940129119756392   -0.00023497472994606268
-0.02295432054234113   -0.009726935483452936   -0.0004188098517260789
              </DataArray>   
          </PointData>  
       </Piece>  
   </UnstructuredGrid> 
</VTKFile> 
