<?xml version="1.0"?> 
<VTKFile type="UnstructuredGrid"> 
   <UnstructuredGrid> 
      <Piece NumberOfPoints="6000"  NumberOfCells="1500">  
          <Points>  
             <DataArray type="Float64" NumberOfComponents="3" format="ascii">   
-500.0   0.0   0.0
-450.0   0.0   0.0
-500.0   30.0   0.0
-500.0   0.0   16.666666666666668
-450.0   0.0   0.0
-450.0   30.0   0.0
-500.0   30.0   0.0
-450.0   30.0   16.666666666666668
-500.0   0.0   16.666666666666668
-500.0   30.0   16.666666666666668
-450.0   30.0   16.666666666666668
-500.0   30.0   0.0
-500.0   0.0   16.666666666666668
-450.0   30.0   16.666666666666668
-450.0   0.0   16.666666666666668
-450.0   0.0   0.0
-500.0   0.0   16.666666666666668
-450.0   30.0   16.666666666666668
-450.0   0.0   0.0
-500.0   30.0   0.0
-500.0   0.0   16.666666666666668
-450.0   0.0   16.666666666666668
-500.0   30.0   16.666666666666668
-500.0   0.0   33.333333333333336
-450.0   0.0   16.666666666666668
-450.0   30.0   16.666666666666668
-500.0   30.0   16.666666666666668
-450.0   30.0   33.333333333333336
-500.0   0.0   33.333333333333336
-500.0   30.0   33.333333333333336
-450.0   30.0   33.333333333333336
-500.0   30.0   16.666666666666668
-500.0   0.0   33.333333333333336
-450.0   30.0   33.333333333333336
-450.0   0.0   33.333333333333336
-450.0   0.0   16.666666666666668
-500.0   0.0   33.333333333333336
-450.0   30.0   33.333333333333336
-450.0   0.0   16.666666666666668
-500.0   30.0   16.666666666666668
-500.0   0.0   33.333333333333336
-450.0   0.0   33.333333333333336
-500.0   30.0   33.333333333333336
-500.0   0.0   50.0
-450.0   0.0   33.333333333333336
-450.0   30.0   33.333333333333336
-500.0   30.0   33.333333333333336
-450.0   30.0   50.0
-500.0   0.0   50.0
-500.0   30.0   50.0
-450.0   30.0   50.0
-500.0   30.0   33.333333333333336
-500.0   0.0   50.0
-450.0   30.0   50.0
-450.0   0.0   50.0
-450.0   0.0   33.333333333333336
-500.0   0.0   50.0
-450.0   30.0   50.0
-450.0   0.0   33.333333333333336
-500.0   30.0   33.333333333333336
-500.0   30.0   0.0
-450.0   30.0   0.0
-500.0   60.0   0.0
-500.0   30.0   16.666666666666668
-450.0   30.0   0.0
-450.0   60.0   0.0
-500.0   60.0   0.0
-450.0   60.0   16.666666666666668
-500.0   30.0   16.666666666666668
-500.0   60.0   16.666666666666668
-450.0   60.0   16.666666666666668
-500.0   60.0   0.0
-500.0   30.0   16.666666666666668
-450.0   60.0   16.666666666666668
-450.0   30.0   16.666666666666668
-450.0   30.0   0.0
-500.0   30.0   16.666666666666668
-450.0   60.0   16.666666666666668
-450.0   30.0   0.0
-500.0   60.0   0.0
-500.0   30.0   16.666666666666668
-450.0   30.0   16.666666666666668
-500.0   60.0   16.666666666666668
-500.0   30.0   33.333333333333336
-450.0   30.0   16.666666666666668
-450.0   60.0   16.666666666666668
-500.0   60.0   16.666666666666668
-450.0   60.0   33.333333333333336
-500.0   30.0   33.333333333333336
-500.0   60.0   33.333333333333336
-450.0   60.0   33.333333333333336
-500.0   60.0   16.666666666666668
-500.0   30.0   33.333333333333336
-450.0   60.0   33.333333333333336
-450.0   30.0   33.333333333333336
-450.0   30.0   16.666666666666668
-500.0   30.0   33.333333333333336
-450.0   60.0   33.333333333333336
-450.0   30.0   16.666666666666668
-500.0   60.0   16.666666666666668
-500.0   30.0   33.333333333333336
-450.0   30.0   33.333333333333336
-500.0   60.0   33.333333333333336
-500.0   30.0   50.0
-450.0   30.0   33.333333333333336
-450.0   60.0   33.333333333333336
-500.0   60.0   33.333333333333336
-450.0   60.0   50.0
-500.0   30.0   50.0
-500.0   60.0   50.0
-450.0   60.0   50.0
-500.0   60.0   33.333333333333336
-500.0   30.0   50.0
-450.0   60.0   50.0
-450.0   30.0   50.0
-450.0   30.0   33.333333333333336
-500.0   30.0   50.0
-450.0   60.0   50.0
-450.0   30.0   33.333333333333336
-500.0   60.0   33.333333333333336
-500.0   60.0   0.0
-450.0   60.0   0.0
-500.0   90.0   0.0
-500.0   60.0   16.666666666666668
-450.0   60.0   0.0
-450.0   90.0   0.0
-500.0   90.0   0.0
-450.0   90.0   16.666666666666668
-500.0   60.0   16.666666666666668
-500.0   90.0   16.666666666666668
-450.0   90.0   16.666666666666668
-500.0   90.0   0.0
-500.0   60.0   16.666666666666668
-450.0   90.0   16.666666666666668
-450.0   60.0   16.666666666666668
-450.0   60.0   0.0
-500.0   60.0   16.666666666666668
-450.0   90.0   16.666666666666668
-450.0   60.0   0.0
-500.0   90.0   0.0
-500.0   60.0   16.666666666666668
-450.0   60.0   16.666666666666668
-500.0   90.0   16.666666666666668
-500.0   60.0   33.333333333333336
-450.0   60.0   16.666666666666668
-450.0   90.0   16.666666666666668
-500.0   90.0   16.666666666666668
-450.0   90.0   33.333333333333336
-500.0   60.0   33.333333333333336
-500.0   90.0   33.333333333333336
-450.0   90.0   33.333333333333336
-500.0   90.0   16.666666666666668
-500.0   60.0   33.333333333333336
-450.0   90.0   33.333333333333336
-450.0   60.0   33.333333333333336
-450.0   60.0   16.666666666666668
-500.0   60.0   33.333333333333336
-450.0   90.0   33.333333333333336
-450.0   60.0   16.666666666666668
-500.0   90.0   16.666666666666668
-500.0   60.0   33.333333333333336
-450.0   60.0   33.333333333333336
-500.0   90.0   33.333333333333336
-500.0   60.0   50.0
-450.0   60.0   33.333333333333336
-450.0   90.0   33.333333333333336
-500.0   90.0   33.333333333333336
-450.0   90.0   50.0
-500.0   60.0   50.0
-500.0   90.0   50.0
-450.0   90.0   50.0
-500.0   90.0   33.333333333333336
-500.0   60.0   50.0
-450.0   90.0   50.0
-450.0   60.0   50.0
-450.0   60.0   33.333333333333336
-500.0   60.0   50.0
-450.0   90.0   50.0
-450.0   60.0   33.333333333333336
-500.0   90.0   33.333333333333336
-500.0   90.0   0.0
-450.0   90.0   0.0
-500.0   120.0   0.0
-500.0   90.0   16.666666666666668
-450.0   90.0   0.0
-450.0   120.0   0.0
-500.0   120.0   0.0
-450.0   120.0   16.666666666666668
-500.0   90.0   16.666666666666668
-500.0   120.0   16.666666666666668
-450.0   120.0   16.666666666666668
-500.0   120.0   0.0
-500.0   90.0   16.666666666666668
-450.0   120.0   16.666666666666668
-450.0   90.0   16.666666666666668
-450.0   90.0   0.0
-500.0   90.0   16.666666666666668
-450.0   120.0   16.666666666666668
-450.0   90.0   0.0
-500.0   120.0   0.0
-500.0   90.0   16.666666666666668
-450.0   90.0   16.666666666666668
-500.0   120.0   16.666666666666668
-500.0   90.0   33.333333333333336
-450.0   90.0   16.666666666666668
-450.0   120.0   16.666666666666668
-500.0   120.0   16.666666666666668
-450.0   120.0   33.333333333333336
-500.0   90.0   33.333333333333336
-500.0   120.0   33.333333333333336
-450.0   120.0   33.333333333333336
-500.0   120.0   16.666666666666668
-500.0   90.0   33.333333333333336
-450.0   120.0   33.333333333333336
-450.0   90.0   33.333333333333336
-450.0   90.0   16.666666666666668
-500.0   90.0   33.333333333333336
-450.0   120.0   33.333333333333336
-450.0   90.0   16.666666666666668
-500.0   120.0   16.666666666666668
-500.0   90.0   33.333333333333336
-450.0   90.0   33.333333333333336
-500.0   120.0   33.333333333333336
-500.0   90.0   50.0
-450.0   90.0   33.333333333333336
-450.0   120.0   33.333333333333336
-500.0   120.0   33.333333333333336
-450.0   120.0   50.0
-500.0   90.0   50.0
-500.0   120.0   50.0
-450.0   120.0   50.0
-500.0   120.0   33.333333333333336
-500.0   90.0   50.0
-450.0   120.0   50.0
-450.0   90.0   50.0
-450.0   90.0   33.333333333333336
-500.0   90.0   50.0
-450.0   120.0   50.0
-450.0   90.0   33.333333333333336
-500.0   120.0   33.333333333333336
-500.0   120.0   0.0
-450.0   120.0   0.0
-500.0   150.0   0.0
-500.0   120.0   16.666666666666668
-450.0   120.0   0.0
-450.0   150.0   0.0
-500.0   150.0   0.0
-450.0   150.0   16.666666666666668
-500.0   120.0   16.666666666666668
-500.0   150.0   16.666666666666668
-450.0   150.0   16.666666666666668
-500.0   150.0   0.0
-500.0   120.0   16.666666666666668
-450.0   150.0   16.666666666666668
-450.0   120.0   16.666666666666668
-450.0   120.0   0.0
-500.0   120.0   16.666666666666668
-450.0   150.0   16.666666666666668
-450.0   120.0   0.0
-500.0   150.0   0.0
-500.0   120.0   16.666666666666668
-450.0   120.0   16.666666666666668
-500.0   150.0   16.666666666666668
-500.0   120.0   33.333333333333336
-450.0   120.0   16.666666666666668
-450.0   150.0   16.666666666666668
-500.0   150.0   16.666666666666668
-450.0   150.0   33.333333333333336
-500.0   120.0   33.333333333333336
-500.0   150.0   33.333333333333336
-450.0   150.0   33.333333333333336
-500.0   150.0   16.666666666666668
-500.0   120.0   33.333333333333336
-450.0   150.0   33.333333333333336
-450.0   120.0   33.333333333333336
-450.0   120.0   16.666666666666668
-500.0   120.0   33.333333333333336
-450.0   150.0   33.333333333333336
-450.0   120.0   16.666666666666668
-500.0   150.0   16.666666666666668
-500.0   120.0   33.333333333333336
-450.0   120.0   33.333333333333336
-500.0   150.0   33.333333333333336
-500.0   120.0   50.0
-450.0   120.0   33.333333333333336
-450.0   150.0   33.333333333333336
-500.0   150.0   33.333333333333336
-450.0   150.0   50.0
-500.0   120.0   50.0
-500.0   150.0   50.0
-450.0   150.0   50.0
-500.0   150.0   33.333333333333336
-500.0   120.0   50.0
-450.0   150.0   50.0
-450.0   120.0   50.0
-450.0   120.0   33.333333333333336
-500.0   120.0   50.0
-450.0   150.0   50.0
-450.0   120.0   33.333333333333336
-500.0   150.0   33.333333333333336
-450.0   0.0   0.0
-400.0   0.0   0.0
-450.0   30.0   0.0
-450.0   0.0   16.666666666666668
-400.0   0.0   0.0
-400.0   30.0   0.0
-450.0   30.0   0.0
-400.0   30.0   16.666666666666668
-450.0   0.0   16.666666666666668
-450.0   30.0   16.666666666666668
-400.0   30.0   16.666666666666668
-450.0   30.0   0.0
-450.0   0.0   16.666666666666668
-400.0   30.0   16.666666666666668
-400.0   0.0   16.666666666666668
-400.0   0.0   0.0
-450.0   0.0   16.666666666666668
-400.0   30.0   16.666666666666668
-400.0   0.0   0.0
-450.0   30.0   0.0
-450.0   0.0   16.666666666666668
-400.0   0.0   16.666666666666668
-450.0   30.0   16.666666666666668
-450.0   0.0   33.333333333333336
-400.0   0.0   16.666666666666668
-400.0   30.0   16.666666666666668
-450.0   30.0   16.666666666666668
-400.0   30.0   33.333333333333336
-450.0   0.0   33.333333333333336
-450.0   30.0   33.333333333333336
-400.0   30.0   33.333333333333336
-450.0   30.0   16.666666666666668
-450.0   0.0   33.333333333333336
-400.0   30.0   33.333333333333336
-400.0   0.0   33.333333333333336
-400.0   0.0   16.666666666666668
-450.0   0.0   33.333333333333336
-400.0   30.0   33.333333333333336
-400.0   0.0   16.666666666666668
-450.0   30.0   16.666666666666668
-450.0   0.0   33.333333333333336
-400.0   0.0   33.333333333333336
-450.0   30.0   33.333333333333336
-450.0   0.0   50.0
-400.0   0.0   33.333333333333336
-400.0   30.0   33.333333333333336
-450.0   30.0   33.333333333333336
-400.0   30.0   50.0
-450.0   0.0   50.0
-450.0   30.0   50.0
-400.0   30.0   50.0
-450.0   30.0   33.333333333333336
-450.0   0.0   50.0
-400.0   30.0   50.0
-400.0   0.0   50.0
-400.0   0.0   33.333333333333336
-450.0   0.0   50.0
-400.0   30.0   50.0
-400.0   0.0   33.333333333333336
-450.0   30.0   33.333333333333336
-450.0   30.0   0.0
-400.0   30.0   0.0
-450.0   60.0   0.0
-450.0   30.0   16.666666666666668
-400.0   30.0   0.0
-400.0   60.0   0.0
-450.0   60.0   0.0
-400.0   60.0   16.666666666666668
-450.0   30.0   16.666666666666668
-450.0   60.0   16.666666666666668
-400.0   60.0   16.666666666666668
-450.0   60.0   0.0
-450.0   30.0   16.666666666666668
-400.0   60.0   16.666666666666668
-400.0   30.0   16.666666666666668
-400.0   30.0   0.0
-450.0   30.0   16.666666666666668
-400.0   60.0   16.666666666666668
-400.0   30.0   0.0
-450.0   60.0   0.0
-450.0   30.0   16.666666666666668
-400.0   30.0   16.666666666666668
-450.0   60.0   16.666666666666668
-450.0   30.0   33.333333333333336
-400.0   30.0   16.666666666666668
-400.0   60.0   16.666666666666668
-450.0   60.0   16.666666666666668
-400.0   60.0   33.333333333333336
-450.0   30.0   33.333333333333336
-450.0   60.0   33.333333333333336
-400.0   60.0   33.333333333333336
-450.0   60.0   16.666666666666668
-450.0   30.0   33.333333333333336
-400.0   60.0   33.333333333333336
-400.0   30.0   33.333333333333336
-400.0   30.0   16.666666666666668
-450.0   30.0   33.333333333333336
-400.0   60.0   33.333333333333336
-400.0   30.0   16.666666666666668
-450.0   60.0   16.666666666666668
-450.0   30.0   33.333333333333336
-400.0   30.0   33.333333333333336
-450.0   60.0   33.333333333333336
-450.0   30.0   50.0
-400.0   30.0   33.333333333333336
-400.0   60.0   33.333333333333336
-450.0   60.0   33.333333333333336
-400.0   60.0   50.0
-450.0   30.0   50.0
-450.0   60.0   50.0
-400.0   60.0   50.0
-450.0   60.0   33.333333333333336
-450.0   30.0   50.0
-400.0   60.0   50.0
-400.0   30.0   50.0
-400.0   30.0   33.333333333333336
-450.0   30.0   50.0
-400.0   60.0   50.0
-400.0   30.0   33.333333333333336
-450.0   60.0   33.333333333333336
-450.0   60.0   0.0
-400.0   60.0   0.0
-450.0   90.0   0.0
-450.0   60.0   16.666666666666668
-400.0   60.0   0.0
-400.0   90.0   0.0
-450.0   90.0   0.0
-400.0   90.0   16.666666666666668
-450.0   60.0   16.666666666666668
-450.0   90.0   16.666666666666668
-400.0   90.0   16.666666666666668
-450.0   90.0   0.0
-450.0   60.0   16.666666666666668
-400.0   90.0   16.666666666666668
-400.0   60.0   16.666666666666668
-400.0   60.0   0.0
-450.0   60.0   16.666666666666668
-400.0   90.0   16.666666666666668
-400.0   60.0   0.0
-450.0   90.0   0.0
-450.0   60.0   16.666666666666668
-400.0   60.0   16.666666666666668
-450.0   90.0   16.666666666666668
-450.0   60.0   33.333333333333336
-400.0   60.0   16.666666666666668
-400.0   90.0   16.666666666666668
-450.0   90.0   16.666666666666668
-400.0   90.0   33.333333333333336
-450.0   60.0   33.333333333333336
-450.0   90.0   33.333333333333336
-400.0   90.0   33.333333333333336
-450.0   90.0   16.666666666666668
-450.0   60.0   33.333333333333336
-400.0   90.0   33.333333333333336
-400.0   60.0   33.333333333333336
-400.0   60.0   16.666666666666668
-450.0   60.0   33.333333333333336
-400.0   90.0   33.333333333333336
-400.0   60.0   16.666666666666668
-450.0   90.0   16.666666666666668
-450.0   60.0   33.333333333333336
-400.0   60.0   33.333333333333336
-450.0   90.0   33.333333333333336
-450.0   60.0   50.0
-400.0   60.0   33.333333333333336
-400.0   90.0   33.333333333333336
-450.0   90.0   33.333333333333336
-400.0   90.0   50.0
-450.0   60.0   50.0
-450.0   90.0   50.0
-400.0   90.0   50.0
-450.0   90.0   33.333333333333336
-450.0   60.0   50.0
-400.0   90.0   50.0
-400.0   60.0   50.0
-400.0   60.0   33.333333333333336
-450.0   60.0   50.0
-400.0   90.0   50.0
-400.0   60.0   33.333333333333336
-450.0   90.0   33.333333333333336
-450.0   90.0   0.0
-400.0   90.0   0.0
-450.0   120.0   0.0
-450.0   90.0   16.666666666666668
-400.0   90.0   0.0
-400.0   120.0   0.0
-450.0   120.0   0.0
-400.0   120.0   16.666666666666668
-450.0   90.0   16.666666666666668
-450.0   120.0   16.666666666666668
-400.0   120.0   16.666666666666668
-450.0   120.0   0.0
-450.0   90.0   16.666666666666668
-400.0   120.0   16.666666666666668
-400.0   90.0   16.666666666666668
-400.0   90.0   0.0
-450.0   90.0   16.666666666666668
-400.0   120.0   16.666666666666668
-400.0   90.0   0.0
-450.0   120.0   0.0
-450.0   90.0   16.666666666666668
-400.0   90.0   16.666666666666668
-450.0   120.0   16.666666666666668
-450.0   90.0   33.333333333333336
-400.0   90.0   16.666666666666668
-400.0   120.0   16.666666666666668
-450.0   120.0   16.666666666666668
-400.0   120.0   33.333333333333336
-450.0   90.0   33.333333333333336
-450.0   120.0   33.333333333333336
-400.0   120.0   33.333333333333336
-450.0   120.0   16.666666666666668
-450.0   90.0   33.333333333333336
-400.0   120.0   33.333333333333336
-400.0   90.0   33.333333333333336
-400.0   90.0   16.666666666666668
-450.0   90.0   33.333333333333336
-400.0   120.0   33.333333333333336
-400.0   90.0   16.666666666666668
-450.0   120.0   16.666666666666668
-450.0   90.0   33.333333333333336
-400.0   90.0   33.333333333333336
-450.0   120.0   33.333333333333336
-450.0   90.0   50.0
-400.0   90.0   33.333333333333336
-400.0   120.0   33.333333333333336
-450.0   120.0   33.333333333333336
-400.0   120.0   50.0
-450.0   90.0   50.0
-450.0   120.0   50.0
-400.0   120.0   50.0
-450.0   120.0   33.333333333333336
-450.0   90.0   50.0
-400.0   120.0   50.0
-400.0   90.0   50.0
-400.0   90.0   33.333333333333336
-450.0   90.0   50.0
-400.0   120.0   50.0
-400.0   90.0   33.333333333333336
-450.0   120.0   33.333333333333336
-450.0   120.0   0.0
-400.0   120.0   0.0
-450.0   150.0   0.0
-450.0   120.0   16.666666666666668
-400.0   120.0   0.0
-400.0   150.0   0.0
-450.0   150.0   0.0
-400.0   150.0   16.666666666666668
-450.0   120.0   16.666666666666668
-450.0   150.0   16.666666666666668
-400.0   150.0   16.666666666666668
-450.0   150.0   0.0
-450.0   120.0   16.666666666666668
-400.0   150.0   16.666666666666668
-400.0   120.0   16.666666666666668
-400.0   120.0   0.0
-450.0   120.0   16.666666666666668
-400.0   150.0   16.666666666666668
-400.0   120.0   0.0
-450.0   150.0   0.0
-450.0   120.0   16.666666666666668
-400.0   120.0   16.666666666666668
-450.0   150.0   16.666666666666668
-450.0   120.0   33.333333333333336
-400.0   120.0   16.666666666666668
-400.0   150.0   16.666666666666668
-450.0   150.0   16.666666666666668
-400.0   150.0   33.333333333333336
-450.0   120.0   33.333333333333336
-450.0   150.0   33.333333333333336
-400.0   150.0   33.333333333333336
-450.0   150.0   16.666666666666668
-450.0   120.0   33.333333333333336
-400.0   150.0   33.333333333333336
-400.0   120.0   33.333333333333336
-400.0   120.0   16.666666666666668
-450.0   120.0   33.333333333333336
-400.0   150.0   33.333333333333336
-400.0   120.0   16.666666666666668
-450.0   150.0   16.666666666666668
-450.0   120.0   33.333333333333336
-400.0   120.0   33.333333333333336
-450.0   150.0   33.333333333333336
-450.0   120.0   50.0
-400.0   120.0   33.333333333333336
-400.0   150.0   33.333333333333336
-450.0   150.0   33.333333333333336
-400.0   150.0   50.0
-450.0   120.0   50.0
-450.0   150.0   50.0
-400.0   150.0   50.0
-450.0   150.0   33.333333333333336
-450.0   120.0   50.0
-400.0   150.0   50.0
-400.0   120.0   50.0
-400.0   120.0   33.333333333333336
-450.0   120.0   50.0
-400.0   150.0   50.0
-400.0   120.0   33.333333333333336
-450.0   150.0   33.333333333333336
-400.0   0.0   0.0
-350.0   0.0   0.0
-400.0   30.0   0.0
-400.0   0.0   16.666666666666668
-350.0   0.0   0.0
-350.0   30.0   0.0
-400.0   30.0   0.0
-350.0   30.0   16.666666666666668
-400.0   0.0   16.666666666666668
-400.0   30.0   16.666666666666668
-350.0   30.0   16.666666666666668
-400.0   30.0   0.0
-400.0   0.0   16.666666666666668
-350.0   30.0   16.666666666666668
-350.0   0.0   16.666666666666668
-350.0   0.0   0.0
-400.0   0.0   16.666666666666668
-350.0   30.0   16.666666666666668
-350.0   0.0   0.0
-400.0   30.0   0.0
-400.0   0.0   16.666666666666668
-350.0   0.0   16.666666666666668
-400.0   30.0   16.666666666666668
-400.0   0.0   33.333333333333336
-350.0   0.0   16.666666666666668
-350.0   30.0   16.666666666666668
-400.0   30.0   16.666666666666668
-350.0   30.0   33.333333333333336
-400.0   0.0   33.333333333333336
-400.0   30.0   33.333333333333336
-350.0   30.0   33.333333333333336
-400.0   30.0   16.666666666666668
-400.0   0.0   33.333333333333336
-350.0   30.0   33.333333333333336
-350.0   0.0   33.333333333333336
-350.0   0.0   16.666666666666668
-400.0   0.0   33.333333333333336
-350.0   30.0   33.333333333333336
-350.0   0.0   16.666666666666668
-400.0   30.0   16.666666666666668
-400.0   0.0   33.333333333333336
-350.0   0.0   33.333333333333336
-400.0   30.0   33.333333333333336
-400.0   0.0   50.0
-350.0   0.0   33.333333333333336
-350.0   30.0   33.333333333333336
-400.0   30.0   33.333333333333336
-350.0   30.0   50.0
-400.0   0.0   50.0
-400.0   30.0   50.0
-350.0   30.0   50.0
-400.0   30.0   33.333333333333336
-400.0   0.0   50.0
-350.0   30.0   50.0
-350.0   0.0   50.0
-350.0   0.0   33.333333333333336
-400.0   0.0   50.0
-350.0   30.0   50.0
-350.0   0.0   33.333333333333336
-400.0   30.0   33.333333333333336
-400.0   30.0   0.0
-350.0   30.0   0.0
-400.0   60.0   0.0
-400.0   30.0   16.666666666666668
-350.0   30.0   0.0
-350.0   60.0   0.0
-400.0   60.0   0.0
-350.0   60.0   16.666666666666668
-400.0   30.0   16.666666666666668
-400.0   60.0   16.666666666666668
-350.0   60.0   16.666666666666668
-400.0   60.0   0.0
-400.0   30.0   16.666666666666668
-350.0   60.0   16.666666666666668
-350.0   30.0   16.666666666666668
-350.0   30.0   0.0
-400.0   30.0   16.666666666666668
-350.0   60.0   16.666666666666668
-350.0   30.0   0.0
-400.0   60.0   0.0
-400.0   30.0   16.666666666666668
-350.0   30.0   16.666666666666668
-400.0   60.0   16.666666666666668
-400.0   30.0   33.333333333333336
-350.0   30.0   16.666666666666668
-350.0   60.0   16.666666666666668
-400.0   60.0   16.666666666666668
-350.0   60.0   33.333333333333336
-400.0   30.0   33.333333333333336
-400.0   60.0   33.333333333333336
-350.0   60.0   33.333333333333336
-400.0   60.0   16.666666666666668
-400.0   30.0   33.333333333333336
-350.0   60.0   33.333333333333336
-350.0   30.0   33.333333333333336
-350.0   30.0   16.666666666666668
-400.0   30.0   33.333333333333336
-350.0   60.0   33.333333333333336
-350.0   30.0   16.666666666666668
-400.0   60.0   16.666666666666668
-400.0   30.0   33.333333333333336
-350.0   30.0   33.333333333333336
-400.0   60.0   33.333333333333336
-400.0   30.0   50.0
-350.0   30.0   33.333333333333336
-350.0   60.0   33.333333333333336
-400.0   60.0   33.333333333333336
-350.0   60.0   50.0
-400.0   30.0   50.0
-400.0   60.0   50.0
-350.0   60.0   50.0
-400.0   60.0   33.333333333333336
-400.0   30.0   50.0
-350.0   60.0   50.0
-350.0   30.0   50.0
-350.0   30.0   33.333333333333336
-400.0   30.0   50.0
-350.0   60.0   50.0
-350.0   30.0   33.333333333333336
-400.0   60.0   33.333333333333336
-400.0   60.0   0.0
-350.0   60.0   0.0
-400.0   90.0   0.0
-400.0   60.0   16.666666666666668
-350.0   60.0   0.0
-350.0   90.0   0.0
-400.0   90.0   0.0
-350.0   90.0   16.666666666666668
-400.0   60.0   16.666666666666668
-400.0   90.0   16.666666666666668
-350.0   90.0   16.666666666666668
-400.0   90.0   0.0
-400.0   60.0   16.666666666666668
-350.0   90.0   16.666666666666668
-350.0   60.0   16.666666666666668
-350.0   60.0   0.0
-400.0   60.0   16.666666666666668
-350.0   90.0   16.666666666666668
-350.0   60.0   0.0
-400.0   90.0   0.0
-400.0   60.0   16.666666666666668
-350.0   60.0   16.666666666666668
-400.0   90.0   16.666666666666668
-400.0   60.0   33.333333333333336
-350.0   60.0   16.666666666666668
-350.0   90.0   16.666666666666668
-400.0   90.0   16.666666666666668
-350.0   90.0   33.333333333333336
-400.0   60.0   33.333333333333336
-400.0   90.0   33.333333333333336
-350.0   90.0   33.333333333333336
-400.0   90.0   16.666666666666668
-400.0   60.0   33.333333333333336
-350.0   90.0   33.333333333333336
-350.0   60.0   33.333333333333336
-350.0   60.0   16.666666666666668
-400.0   60.0   33.333333333333336
-350.0   90.0   33.333333333333336
-350.0   60.0   16.666666666666668
-400.0   90.0   16.666666666666668
-400.0   60.0   33.333333333333336
-350.0   60.0   33.333333333333336
-400.0   90.0   33.333333333333336
-400.0   60.0   50.0
-350.0   60.0   33.333333333333336
-350.0   90.0   33.333333333333336
-400.0   90.0   33.333333333333336
-350.0   90.0   50.0
-400.0   60.0   50.0
-400.0   90.0   50.0
-350.0   90.0   50.0
-400.0   90.0   33.333333333333336
-400.0   60.0   50.0
-350.0   90.0   50.0
-350.0   60.0   50.0
-350.0   60.0   33.333333333333336
-400.0   60.0   50.0
-350.0   90.0   50.0
-350.0   60.0   33.333333333333336
-400.0   90.0   33.333333333333336
-400.0   90.0   0.0
-350.0   90.0   0.0
-400.0   120.0   0.0
-400.0   90.0   16.666666666666668
-350.0   90.0   0.0
-350.0   120.0   0.0
-400.0   120.0   0.0
-350.0   120.0   16.666666666666668
-400.0   90.0   16.666666666666668
-400.0   120.0   16.666666666666668
-350.0   120.0   16.666666666666668
-400.0   120.0   0.0
-400.0   90.0   16.666666666666668
-350.0   120.0   16.666666666666668
-350.0   90.0   16.666666666666668
-350.0   90.0   0.0
-400.0   90.0   16.666666666666668
-350.0   120.0   16.666666666666668
-350.0   90.0   0.0
-400.0   120.0   0.0
-400.0   90.0   16.666666666666668
-350.0   90.0   16.666666666666668
-400.0   120.0   16.666666666666668
-400.0   90.0   33.333333333333336
-350.0   90.0   16.666666666666668
-350.0   120.0   16.666666666666668
-400.0   120.0   16.666666666666668
-350.0   120.0   33.333333333333336
-400.0   90.0   33.333333333333336
-400.0   120.0   33.333333333333336
-350.0   120.0   33.333333333333336
-400.0   120.0   16.666666666666668
-400.0   90.0   33.333333333333336
-350.0   120.0   33.333333333333336
-350.0   90.0   33.333333333333336
-350.0   90.0   16.666666666666668
-400.0   90.0   33.333333333333336
-350.0   120.0   33.333333333333336
-350.0   90.0   16.666666666666668
-400.0   120.0   16.666666666666668
-400.0   90.0   33.333333333333336
-350.0   90.0   33.333333333333336
-400.0   120.0   33.333333333333336
-400.0   90.0   50.0
-350.0   90.0   33.333333333333336
-350.0   120.0   33.333333333333336
-400.0   120.0   33.333333333333336
-350.0   120.0   50.0
-400.0   90.0   50.0
-400.0   120.0   50.0
-350.0   120.0   50.0
-400.0   120.0   33.333333333333336
-400.0   90.0   50.0
-350.0   120.0   50.0
-350.0   90.0   50.0
-350.0   90.0   33.333333333333336
-400.0   90.0   50.0
-350.0   120.0   50.0
-350.0   90.0   33.333333333333336
-400.0   120.0   33.333333333333336
-400.0   120.0   0.0
-350.0   120.0   0.0
-400.0   150.0   0.0
-400.0   120.0   16.666666666666668
-350.0   120.0   0.0
-350.0   150.0   0.0
-400.0   150.0   0.0
-350.0   150.0   16.666666666666668
-400.0   120.0   16.666666666666668
-400.0   150.0   16.666666666666668
-350.0   150.0   16.666666666666668
-400.0   150.0   0.0
-400.0   120.0   16.666666666666668
-350.0   150.0   16.666666666666668
-350.0   120.0   16.666666666666668
-350.0   120.0   0.0
-400.0   120.0   16.666666666666668
-350.0   150.0   16.666666666666668
-350.0   120.0   0.0
-400.0   150.0   0.0
-400.0   120.0   16.666666666666668
-350.0   120.0   16.666666666666668
-400.0   150.0   16.666666666666668
-400.0   120.0   33.333333333333336
-350.0   120.0   16.666666666666668
-350.0   150.0   16.666666666666668
-400.0   150.0   16.666666666666668
-350.0   150.0   33.333333333333336
-400.0   120.0   33.333333333333336
-400.0   150.0   33.333333333333336
-350.0   150.0   33.333333333333336
-400.0   150.0   16.666666666666668
-400.0   120.0   33.333333333333336
-350.0   150.0   33.333333333333336
-350.0   120.0   33.333333333333336
-350.0   120.0   16.666666666666668
-400.0   120.0   33.333333333333336
-350.0   150.0   33.333333333333336
-350.0   120.0   16.666666666666668
-400.0   150.0   16.666666666666668
-400.0   120.0   33.333333333333336
-350.0   120.0   33.333333333333336
-400.0   150.0   33.333333333333336
-400.0   120.0   50.0
-350.0   120.0   33.333333333333336
-350.0   150.0   33.333333333333336
-400.0   150.0   33.333333333333336
-350.0   150.0   50.0
-400.0   120.0   50.0
-400.0   150.0   50.0
-350.0   150.0   50.0
-400.0   150.0   33.333333333333336
-400.0   120.0   50.0
-350.0   150.0   50.0
-350.0   120.0   50.0
-350.0   120.0   33.333333333333336
-400.0   120.0   50.0
-350.0   150.0   50.0
-350.0   120.0   33.333333333333336
-400.0   150.0   33.333333333333336
-350.0   0.0   0.0
-300.0   0.0   0.0
-350.0   30.0   0.0
-350.0   0.0   16.666666666666668
-300.0   0.0   0.0
-300.0   30.0   0.0
-350.0   30.0   0.0
-300.0   30.0   16.666666666666668
-350.0   0.0   16.666666666666668
-350.0   30.0   16.666666666666668
-300.0   30.0   16.666666666666668
-350.0   30.0   0.0
-350.0   0.0   16.666666666666668
-300.0   30.0   16.666666666666668
-300.0   0.0   16.666666666666668
-300.0   0.0   0.0
-350.0   0.0   16.666666666666668
-300.0   30.0   16.666666666666668
-300.0   0.0   0.0
-350.0   30.0   0.0
-350.0   0.0   16.666666666666668
-300.0   0.0   16.666666666666668
-350.0   30.0   16.666666666666668
-350.0   0.0   33.333333333333336
-300.0   0.0   16.666666666666668
-300.0   30.0   16.666666666666668
-350.0   30.0   16.666666666666668
-300.0   30.0   33.333333333333336
-350.0   0.0   33.333333333333336
-350.0   30.0   33.333333333333336
-300.0   30.0   33.333333333333336
-350.0   30.0   16.666666666666668
-350.0   0.0   33.333333333333336
-300.0   30.0   33.333333333333336
-300.0   0.0   33.333333333333336
-300.0   0.0   16.666666666666668
-350.0   0.0   33.333333333333336
-300.0   30.0   33.333333333333336
-300.0   0.0   16.666666666666668
-350.0   30.0   16.666666666666668
-350.0   0.0   33.333333333333336
-300.0   0.0   33.333333333333336
-350.0   30.0   33.333333333333336
-350.0   0.0   50.0
-300.0   0.0   33.333333333333336
-300.0   30.0   33.333333333333336
-350.0   30.0   33.333333333333336
-300.0   30.0   50.0
-350.0   0.0   50.0
-350.0   30.0   50.0
-300.0   30.0   50.0
-350.0   30.0   33.333333333333336
-350.0   0.0   50.0
-300.0   30.0   50.0
-300.0   0.0   50.0
-300.0   0.0   33.333333333333336
-350.0   0.0   50.0
-300.0   30.0   50.0
-300.0   0.0   33.333333333333336
-350.0   30.0   33.333333333333336
-350.0   30.0   0.0
-300.0   30.0   0.0
-350.0   60.0   0.0
-350.0   30.0   16.666666666666668
-300.0   30.0   0.0
-300.0   60.0   0.0
-350.0   60.0   0.0
-300.0   60.0   16.666666666666668
-350.0   30.0   16.666666666666668
-350.0   60.0   16.666666666666668
-300.0   60.0   16.666666666666668
-350.0   60.0   0.0
-350.0   30.0   16.666666666666668
-300.0   60.0   16.666666666666668
-300.0   30.0   16.666666666666668
-300.0   30.0   0.0
-350.0   30.0   16.666666666666668
-300.0   60.0   16.666666666666668
-300.0   30.0   0.0
-350.0   60.0   0.0
-350.0   30.0   16.666666666666668
-300.0   30.0   16.666666666666668
-350.0   60.0   16.666666666666668
-350.0   30.0   33.333333333333336
-300.0   30.0   16.666666666666668
-300.0   60.0   16.666666666666668
-350.0   60.0   16.666666666666668
-300.0   60.0   33.333333333333336
-350.0   30.0   33.333333333333336
-350.0   60.0   33.333333333333336
-300.0   60.0   33.333333333333336
-350.0   60.0   16.666666666666668
-350.0   30.0   33.333333333333336
-300.0   60.0   33.333333333333336
-300.0   30.0   33.333333333333336
-300.0   30.0   16.666666666666668
-350.0   30.0   33.333333333333336
-300.0   60.0   33.333333333333336
-300.0   30.0   16.666666666666668
-350.0   60.0   16.666666666666668
-350.0   30.0   33.333333333333336
-300.0   30.0   33.333333333333336
-350.0   60.0   33.333333333333336
-350.0   30.0   50.0
-300.0   30.0   33.333333333333336
-300.0   60.0   33.333333333333336
-350.0   60.0   33.333333333333336
-300.0   60.0   50.0
-350.0   30.0   50.0
-350.0   60.0   50.0
-300.0   60.0   50.0
-350.0   60.0   33.333333333333336
-350.0   30.0   50.0
-300.0   60.0   50.0
-300.0   30.0   50.0
-300.0   30.0   33.333333333333336
-350.0   30.0   50.0
-300.0   60.0   50.0
-300.0   30.0   33.333333333333336
-350.0   60.0   33.333333333333336
-350.0   60.0   0.0
-300.0   60.0   0.0
-350.0   90.0   0.0
-350.0   60.0   16.666666666666668
-300.0   60.0   0.0
-300.0   90.0   0.0
-350.0   90.0   0.0
-300.0   90.0   16.666666666666668
-350.0   60.0   16.666666666666668
-350.0   90.0   16.666666666666668
-300.0   90.0   16.666666666666668
-350.0   90.0   0.0
-350.0   60.0   16.666666666666668
-300.0   90.0   16.666666666666668
-300.0   60.0   16.666666666666668
-300.0   60.0   0.0
-350.0   60.0   16.666666666666668
-300.0   90.0   16.666666666666668
-300.0   60.0   0.0
-350.0   90.0   0.0
-350.0   60.0   16.666666666666668
-300.0   60.0   16.666666666666668
-350.0   90.0   16.666666666666668
-350.0   60.0   33.333333333333336
-300.0   60.0   16.666666666666668
-300.0   90.0   16.666666666666668
-350.0   90.0   16.666666666666668
-300.0   90.0   33.333333333333336
-350.0   60.0   33.333333333333336
-350.0   90.0   33.333333333333336
-300.0   90.0   33.333333333333336
-350.0   90.0   16.666666666666668
-350.0   60.0   33.333333333333336
-300.0   90.0   33.333333333333336
-300.0   60.0   33.333333333333336
-300.0   60.0   16.666666666666668
-350.0   60.0   33.333333333333336
-300.0   90.0   33.333333333333336
-300.0   60.0   16.666666666666668
-350.0   90.0   16.666666666666668
-350.0   60.0   33.333333333333336
-300.0   60.0   33.333333333333336
-350.0   90.0   33.333333333333336
-350.0   60.0   50.0
-300.0   60.0   33.333333333333336
-300.0   90.0   33.333333333333336
-350.0   90.0   33.333333333333336
-300.0   90.0   50.0
-350.0   60.0   50.0
-350.0   90.0   50.0
-300.0   90.0   50.0
-350.0   90.0   33.333333333333336
-350.0   60.0   50.0
-300.0   90.0   50.0
-300.0   60.0   50.0
-300.0   60.0   33.333333333333336
-350.0   60.0   50.0
-300.0   90.0   50.0
-300.0   60.0   33.333333333333336
-350.0   90.0   33.333333333333336
-350.0   90.0   0.0
-300.0   90.0   0.0
-350.0   120.0   0.0
-350.0   90.0   16.666666666666668
-300.0   90.0   0.0
-300.0   120.0   0.0
-350.0   120.0   0.0
-300.0   120.0   16.666666666666668
-350.0   90.0   16.666666666666668
-350.0   120.0   16.666666666666668
-300.0   120.0   16.666666666666668
-350.0   120.0   0.0
-350.0   90.0   16.666666666666668
-300.0   120.0   16.666666666666668
-300.0   90.0   16.666666666666668
-300.0   90.0   0.0
-350.0   90.0   16.666666666666668
-300.0   120.0   16.666666666666668
-300.0   90.0   0.0
-350.0   120.0   0.0
-350.0   90.0   16.666666666666668
-300.0   90.0   16.666666666666668
-350.0   120.0   16.666666666666668
-350.0   90.0   33.333333333333336
-300.0   90.0   16.666666666666668
-300.0   120.0   16.666666666666668
-350.0   120.0   16.666666666666668
-300.0   120.0   33.333333333333336
-350.0   90.0   33.333333333333336
-350.0   120.0   33.333333333333336
-300.0   120.0   33.333333333333336
-350.0   120.0   16.666666666666668
-350.0   90.0   33.333333333333336
-300.0   120.0   33.333333333333336
-300.0   90.0   33.333333333333336
-300.0   90.0   16.666666666666668
-350.0   90.0   33.333333333333336
-300.0   120.0   33.333333333333336
-300.0   90.0   16.666666666666668
-350.0   120.0   16.666666666666668
-350.0   90.0   33.333333333333336
-300.0   90.0   33.333333333333336
-350.0   120.0   33.333333333333336
-350.0   90.0   50.0
-300.0   90.0   33.333333333333336
-300.0   120.0   33.333333333333336
-350.0   120.0   33.333333333333336
-300.0   120.0   50.0
-350.0   90.0   50.0
-350.0   120.0   50.0
-300.0   120.0   50.0
-350.0   120.0   33.333333333333336
-350.0   90.0   50.0
-300.0   120.0   50.0
-300.0   90.0   50.0
-300.0   90.0   33.333333333333336
-350.0   90.0   50.0
-300.0   120.0   50.0
-300.0   90.0   33.333333333333336
-350.0   120.0   33.333333333333336
-350.0   120.0   0.0
-300.0   120.0   0.0
-350.0   150.0   0.0
-350.0   120.0   16.666666666666668
-300.0   120.0   0.0
-300.0   150.0   0.0
-350.0   150.0   0.0
-300.0   150.0   16.666666666666668
-350.0   120.0   16.666666666666668
-350.0   150.0   16.666666666666668
-300.0   150.0   16.666666666666668
-350.0   150.0   0.0
-350.0   120.0   16.666666666666668
-300.0   150.0   16.666666666666668
-300.0   120.0   16.666666666666668
-300.0   120.0   0.0
-350.0   120.0   16.666666666666668
-300.0   150.0   16.666666666666668
-300.0   120.0   0.0
-350.0   150.0   0.0
-350.0   120.0   16.666666666666668
-300.0   120.0   16.666666666666668
-350.0   150.0   16.666666666666668
-350.0   120.0   33.333333333333336
-300.0   120.0   16.666666666666668
-300.0   150.0   16.666666666666668
-350.0   150.0   16.666666666666668
-300.0   150.0   33.333333333333336
-350.0   120.0   33.333333333333336
-350.0   150.0   33.333333333333336
-300.0   150.0   33.333333333333336
-350.0   150.0   16.666666666666668
-350.0   120.0   33.333333333333336
-300.0   150.0   33.333333333333336
-300.0   120.0   33.333333333333336
-300.0   120.0   16.666666666666668
-350.0   120.0   33.333333333333336
-300.0   150.0   33.333333333333336
-300.0   120.0   16.666666666666668
-350.0   150.0   16.666666666666668
-350.0   120.0   33.333333333333336
-300.0   120.0   33.333333333333336
-350.0   150.0   33.333333333333336
-350.0   120.0   50.0
-300.0   120.0   33.333333333333336
-300.0   150.0   33.333333333333336
-350.0   150.0   33.333333333333336
-300.0   150.0   50.0
-350.0   120.0   50.0
-350.0   150.0   50.0
-300.0   150.0   50.0
-350.0   150.0   33.333333333333336
-350.0   120.0   50.0
-300.0   150.0   50.0
-300.0   120.0   50.0
-300.0   120.0   33.333333333333336
-350.0   120.0   50.0
-300.0   150.0   50.0
-300.0   120.0   33.333333333333336
-350.0   150.0   33.333333333333336
-300.0   0.0   0.0
-250.0   0.0   0.0
-300.0   30.0   0.0
-300.0   0.0   16.666666666666668
-250.0   0.0   0.0
-250.0   30.0   0.0
-300.0   30.0   0.0
-250.0   30.0   16.666666666666668
-300.0   0.0   16.666666666666668
-300.0   30.0   16.666666666666668
-250.0   30.0   16.666666666666668
-300.0   30.0   0.0
-300.0   0.0   16.666666666666668
-250.0   30.0   16.666666666666668
-250.0   0.0   16.666666666666668
-250.0   0.0   0.0
-300.0   0.0   16.666666666666668
-250.0   30.0   16.666666666666668
-250.0   0.0   0.0
-300.0   30.0   0.0
-300.0   0.0   16.666666666666668
-250.0   0.0   16.666666666666668
-300.0   30.0   16.666666666666668
-300.0   0.0   33.333333333333336
-250.0   0.0   16.666666666666668
-250.0   30.0   16.666666666666668
-300.0   30.0   16.666666666666668
-250.0   30.0   33.333333333333336
-300.0   0.0   33.333333333333336
-300.0   30.0   33.333333333333336
-250.0   30.0   33.333333333333336
-300.0   30.0   16.666666666666668
-300.0   0.0   33.333333333333336
-250.0   30.0   33.333333333333336
-250.0   0.0   33.333333333333336
-250.0   0.0   16.666666666666668
-300.0   0.0   33.333333333333336
-250.0   30.0   33.333333333333336
-250.0   0.0   16.666666666666668
-300.0   30.0   16.666666666666668
-300.0   0.0   33.333333333333336
-250.0   0.0   33.333333333333336
-300.0   30.0   33.333333333333336
-300.0   0.0   50.0
-250.0   0.0   33.333333333333336
-250.0   30.0   33.333333333333336
-300.0   30.0   33.333333333333336
-250.0   30.0   50.0
-300.0   0.0   50.0
-300.0   30.0   50.0
-250.0   30.0   50.0
-300.0   30.0   33.333333333333336
-300.0   0.0   50.0
-250.0   30.0   50.0
-250.0   0.0   50.0
-250.0   0.0   33.333333333333336
-300.0   0.0   50.0
-250.0   30.0   50.0
-250.0   0.0   33.333333333333336
-300.0   30.0   33.333333333333336
-300.0   30.0   0.0
-250.0   30.0   0.0
-300.0   60.0   0.0
-300.0   30.0   16.666666666666668
-250.0   30.0   0.0
-250.0   60.0   0.0
-300.0   60.0   0.0
-250.0   60.0   16.666666666666668
-300.0   30.0   16.666666666666668
-300.0   60.0   16.666666666666668
-250.0   60.0   16.666666666666668
-300.0   60.0   0.0
-300.0   30.0   16.666666666666668
-250.0   60.0   16.666666666666668
-250.0   30.0   16.666666666666668
-250.0   30.0   0.0
-300.0   30.0   16.666666666666668
-250.0   60.0   16.666666666666668
-250.0   30.0   0.0
-300.0   60.0   0.0
-300.0   30.0   16.666666666666668
-250.0   30.0   16.666666666666668
-300.0   60.0   16.666666666666668
-300.0   30.0   33.333333333333336
-250.0   30.0   16.666666666666668
-250.0   60.0   16.666666666666668
-300.0   60.0   16.666666666666668
-250.0   60.0   33.333333333333336
-300.0   30.0   33.333333333333336
-300.0   60.0   33.333333333333336
-250.0   60.0   33.333333333333336
-300.0   60.0   16.666666666666668
-300.0   30.0   33.333333333333336
-250.0   60.0   33.333333333333336
-250.0   30.0   33.333333333333336
-250.0   30.0   16.666666666666668
-300.0   30.0   33.333333333333336
-250.0   60.0   33.333333333333336
-250.0   30.0   16.666666666666668
-300.0   60.0   16.666666666666668
-300.0   30.0   33.333333333333336
-250.0   30.0   33.333333333333336
-300.0   60.0   33.333333333333336
-300.0   30.0   50.0
-250.0   30.0   33.333333333333336
-250.0   60.0   33.333333333333336
-300.0   60.0   33.333333333333336
-250.0   60.0   50.0
-300.0   30.0   50.0
-300.0   60.0   50.0
-250.0   60.0   50.0
-300.0   60.0   33.333333333333336
-300.0   30.0   50.0
-250.0   60.0   50.0
-250.0   30.0   50.0
-250.0   30.0   33.333333333333336
-300.0   30.0   50.0
-250.0   60.0   50.0
-250.0   30.0   33.333333333333336
-300.0   60.0   33.333333333333336
-300.0   60.0   0.0
-250.0   60.0   0.0
-300.0   90.0   0.0
-300.0   60.0   16.666666666666668
-250.0   60.0   0.0
-250.0   90.0   0.0
-300.0   90.0   0.0
-250.0   90.0   16.666666666666668
-300.0   60.0   16.666666666666668
-300.0   90.0   16.666666666666668
-250.0   90.0   16.666666666666668
-300.0   90.0   0.0
-300.0   60.0   16.666666666666668
-250.0   90.0   16.666666666666668
-250.0   60.0   16.666666666666668
-250.0   60.0   0.0
-300.0   60.0   16.666666666666668
-250.0   90.0   16.666666666666668
-250.0   60.0   0.0
-300.0   90.0   0.0
-300.0   60.0   16.666666666666668
-250.0   60.0   16.666666666666668
-300.0   90.0   16.666666666666668
-300.0   60.0   33.333333333333336
-250.0   60.0   16.666666666666668
-250.0   90.0   16.666666666666668
-300.0   90.0   16.666666666666668
-250.0   90.0   33.333333333333336
-300.0   60.0   33.333333333333336
-300.0   90.0   33.333333333333336
-250.0   90.0   33.333333333333336
-300.0   90.0   16.666666666666668
-300.0   60.0   33.333333333333336
-250.0   90.0   33.333333333333336
-250.0   60.0   33.333333333333336
-250.0   60.0   16.666666666666668
-300.0   60.0   33.333333333333336
-250.0   90.0   33.333333333333336
-250.0   60.0   16.666666666666668
-300.0   90.0   16.666666666666668
-300.0   60.0   33.333333333333336
-250.0   60.0   33.333333333333336
-300.0   90.0   33.333333333333336
-300.0   60.0   50.0
-250.0   60.0   33.333333333333336
-250.0   90.0   33.333333333333336
-300.0   90.0   33.333333333333336
-250.0   90.0   50.0
-300.0   60.0   50.0
-300.0   90.0   50.0
-250.0   90.0   50.0
-300.0   90.0   33.333333333333336
-300.0   60.0   50.0
-250.0   90.0   50.0
-250.0   60.0   50.0
-250.0   60.0   33.333333333333336
-300.0   60.0   50.0
-250.0   90.0   50.0
-250.0   60.0   33.333333333333336
-300.0   90.0   33.333333333333336
-300.0   90.0   0.0
-250.0   90.0   0.0
-300.0   120.0   0.0
-300.0   90.0   16.666666666666668
-250.0   90.0   0.0
-250.0   120.0   0.0
-300.0   120.0   0.0
-250.0   120.0   16.666666666666668
-300.0   90.0   16.666666666666668
-300.0   120.0   16.666666666666668
-250.0   120.0   16.666666666666668
-300.0   120.0   0.0
-300.0   90.0   16.666666666666668
-250.0   120.0   16.666666666666668
-250.0   90.0   16.666666666666668
-250.0   90.0   0.0
-300.0   90.0   16.666666666666668
-250.0   120.0   16.666666666666668
-250.0   90.0   0.0
-300.0   120.0   0.0
-300.0   90.0   16.666666666666668
-250.0   90.0   16.666666666666668
-300.0   120.0   16.666666666666668
-300.0   90.0   33.333333333333336
-250.0   90.0   16.666666666666668
-250.0   120.0   16.666666666666668
-300.0   120.0   16.666666666666668
-250.0   120.0   33.333333333333336
-300.0   90.0   33.333333333333336
-300.0   120.0   33.333333333333336
-250.0   120.0   33.333333333333336
-300.0   120.0   16.666666666666668
-300.0   90.0   33.333333333333336
-250.0   120.0   33.333333333333336
-250.0   90.0   33.333333333333336
-250.0   90.0   16.666666666666668
-300.0   90.0   33.333333333333336
-250.0   120.0   33.333333333333336
-250.0   90.0   16.666666666666668
-300.0   120.0   16.666666666666668
-300.0   90.0   33.333333333333336
-250.0   90.0   33.333333333333336
-300.0   120.0   33.333333333333336
-300.0   90.0   50.0
-250.0   90.0   33.333333333333336
-250.0   120.0   33.333333333333336
-300.0   120.0   33.333333333333336
-250.0   120.0   50.0
-300.0   90.0   50.0
-300.0   120.0   50.0
-250.0   120.0   50.0
-300.0   120.0   33.333333333333336
-300.0   90.0   50.0
-250.0   120.0   50.0
-250.0   90.0   50.0
-250.0   90.0   33.333333333333336
-300.0   90.0   50.0
-250.0   120.0   50.0
-250.0   90.0   33.333333333333336
-300.0   120.0   33.333333333333336
-300.0   120.0   0.0
-250.0   120.0   0.0
-300.0   150.0   0.0
-300.0   120.0   16.666666666666668
-250.0   120.0   0.0
-250.0   150.0   0.0
-300.0   150.0   0.0
-250.0   150.0   16.666666666666668
-300.0   120.0   16.666666666666668
-300.0   150.0   16.666666666666668
-250.0   150.0   16.666666666666668
-300.0   150.0   0.0
-300.0   120.0   16.666666666666668
-250.0   150.0   16.666666666666668
-250.0   120.0   16.666666666666668
-250.0   120.0   0.0
-300.0   120.0   16.666666666666668
-250.0   150.0   16.666666666666668
-250.0   120.0   0.0
-300.0   150.0   0.0
-300.0   120.0   16.666666666666668
-250.0   120.0   16.666666666666668
-300.0   150.0   16.666666666666668
-300.0   120.0   33.333333333333336
-250.0   120.0   16.666666666666668
-250.0   150.0   16.666666666666668
-300.0   150.0   16.666666666666668
-250.0   150.0   33.333333333333336
-300.0   120.0   33.333333333333336
-300.0   150.0   33.333333333333336
-250.0   150.0   33.333333333333336
-300.0   150.0   16.666666666666668
-300.0   120.0   33.333333333333336
-250.0   150.0   33.333333333333336
-250.0   120.0   33.333333333333336
-250.0   120.0   16.666666666666668
-300.0   120.0   33.333333333333336
-250.0   150.0   33.333333333333336
-250.0   120.0   16.666666666666668
-300.0   150.0   16.666666666666668
-300.0   120.0   33.333333333333336
-250.0   120.0   33.333333333333336
-300.0   150.0   33.333333333333336
-300.0   120.0   50.0
-250.0   120.0   33.333333333333336
-250.0   150.0   33.333333333333336
-300.0   150.0   33.333333333333336
-250.0   150.0   50.0
-300.0   120.0   50.0
-300.0   150.0   50.0
-250.0   150.0   50.0
-300.0   150.0   33.333333333333336
-300.0   120.0   50.0
-250.0   150.0   50.0
-250.0   120.0   50.0
-250.0   120.0   33.333333333333336
-300.0   120.0   50.0
-250.0   150.0   50.0
-250.0   120.0   33.333333333333336
-300.0   150.0   33.333333333333336
-250.0   0.0   0.0
-200.0   0.0   0.0
-250.0   30.0   0.0
-250.0   0.0   16.666666666666668
-200.0   0.0   0.0
-200.0   30.0   0.0
-250.0   30.0   0.0
-200.0   30.0   16.666666666666668
-250.0   0.0   16.666666666666668
-250.0   30.0   16.666666666666668
-200.0   30.0   16.666666666666668
-250.0   30.0   0.0
-250.0   0.0   16.666666666666668
-200.0   30.0   16.666666666666668
-200.0   0.0   16.666666666666668
-200.0   0.0   0.0
-250.0   0.0   16.666666666666668
-200.0   30.0   16.666666666666668
-200.0   0.0   0.0
-250.0   30.0   0.0
-250.0   0.0   16.666666666666668
-200.0   0.0   16.666666666666668
-250.0   30.0   16.666666666666668
-250.0   0.0   33.333333333333336
-200.0   0.0   16.666666666666668
-200.0   30.0   16.666666666666668
-250.0   30.0   16.666666666666668
-200.0   30.0   33.333333333333336
-250.0   0.0   33.333333333333336
-250.0   30.0   33.333333333333336
-200.0   30.0   33.333333333333336
-250.0   30.0   16.666666666666668
-250.0   0.0   33.333333333333336
-200.0   30.0   33.333333333333336
-200.0   0.0   33.333333333333336
-200.0   0.0   16.666666666666668
-250.0   0.0   33.333333333333336
-200.0   30.0   33.333333333333336
-200.0   0.0   16.666666666666668
-250.0   30.0   16.666666666666668
-250.0   0.0   33.333333333333336
-200.0   0.0   33.333333333333336
-250.0   30.0   33.333333333333336
-250.0   0.0   50.0
-200.0   0.0   33.333333333333336
-200.0   30.0   33.333333333333336
-250.0   30.0   33.333333333333336
-200.0   30.0   50.0
-250.0   0.0   50.0
-250.0   30.0   50.0
-200.0   30.0   50.0
-250.0   30.0   33.333333333333336
-250.0   0.0   50.0
-200.0   30.0   50.0
-200.0   0.0   50.0
-200.0   0.0   33.333333333333336
-250.0   0.0   50.0
-200.0   30.0   50.0
-200.0   0.0   33.333333333333336
-250.0   30.0   33.333333333333336
-250.0   30.0   0.0
-200.0   30.0   0.0
-250.0   60.0   0.0
-250.0   30.0   16.666666666666668
-200.0   30.0   0.0
-200.0   60.0   0.0
-250.0   60.0   0.0
-200.0   60.0   16.666666666666668
-250.0   30.0   16.666666666666668
-250.0   60.0   16.666666666666668
-200.0   60.0   16.666666666666668
-250.0   60.0   0.0
-250.0   30.0   16.666666666666668
-200.0   60.0   16.666666666666668
-200.0   30.0   16.666666666666668
-200.0   30.0   0.0
-250.0   30.0   16.666666666666668
-200.0   60.0   16.666666666666668
-200.0   30.0   0.0
-250.0   60.0   0.0
-250.0   30.0   16.666666666666668
-200.0   30.0   16.666666666666668
-250.0   60.0   16.666666666666668
-250.0   30.0   33.333333333333336
-200.0   30.0   16.666666666666668
-200.0   60.0   16.666666666666668
-250.0   60.0   16.666666666666668
-200.0   60.0   33.333333333333336
-250.0   30.0   33.333333333333336
-250.0   60.0   33.333333333333336
-200.0   60.0   33.333333333333336
-250.0   60.0   16.666666666666668
-250.0   30.0   33.333333333333336
-200.0   60.0   33.333333333333336
-200.0   30.0   33.333333333333336
-200.0   30.0   16.666666666666668
-250.0   30.0   33.333333333333336
-200.0   60.0   33.333333333333336
-200.0   30.0   16.666666666666668
-250.0   60.0   16.666666666666668
-250.0   30.0   33.333333333333336
-200.0   30.0   33.333333333333336
-250.0   60.0   33.333333333333336
-250.0   30.0   50.0
-200.0   30.0   33.333333333333336
-200.0   60.0   33.333333333333336
-250.0   60.0   33.333333333333336
-200.0   60.0   50.0
-250.0   30.0   50.0
-250.0   60.0   50.0
-200.0   60.0   50.0
-250.0   60.0   33.333333333333336
-250.0   30.0   50.0
-200.0   60.0   50.0
-200.0   30.0   50.0
-200.0   30.0   33.333333333333336
-250.0   30.0   50.0
-200.0   60.0   50.0
-200.0   30.0   33.333333333333336
-250.0   60.0   33.333333333333336
-250.0   60.0   0.0
-200.0   60.0   0.0
-250.0   90.0   0.0
-250.0   60.0   16.666666666666668
-200.0   60.0   0.0
-200.0   90.0   0.0
-250.0   90.0   0.0
-200.0   90.0   16.666666666666668
-250.0   60.0   16.666666666666668
-250.0   90.0   16.666666666666668
-200.0   90.0   16.666666666666668
-250.0   90.0   0.0
-250.0   60.0   16.666666666666668
-200.0   90.0   16.666666666666668
-200.0   60.0   16.666666666666668
-200.0   60.0   0.0
-250.0   60.0   16.666666666666668
-200.0   90.0   16.666666666666668
-200.0   60.0   0.0
-250.0   90.0   0.0
-250.0   60.0   16.666666666666668
-200.0   60.0   16.666666666666668
-250.0   90.0   16.666666666666668
-250.0   60.0   33.333333333333336
-200.0   60.0   16.666666666666668
-200.0   90.0   16.666666666666668
-250.0   90.0   16.666666666666668
-200.0   90.0   33.333333333333336
-250.0   60.0   33.333333333333336
-250.0   90.0   33.333333333333336
-200.0   90.0   33.333333333333336
-250.0   90.0   16.666666666666668
-250.0   60.0   33.333333333333336
-200.0   90.0   33.333333333333336
-200.0   60.0   33.333333333333336
-200.0   60.0   16.666666666666668
-250.0   60.0   33.333333333333336
-200.0   90.0   33.333333333333336
-200.0   60.0   16.666666666666668
-250.0   90.0   16.666666666666668
-250.0   60.0   33.333333333333336
-200.0   60.0   33.333333333333336
-250.0   90.0   33.333333333333336
-250.0   60.0   50.0
-200.0   60.0   33.333333333333336
-200.0   90.0   33.333333333333336
-250.0   90.0   33.333333333333336
-200.0   90.0   50.0
-250.0   60.0   50.0
-250.0   90.0   50.0
-200.0   90.0   50.0
-250.0   90.0   33.333333333333336
-250.0   60.0   50.0
-200.0   90.0   50.0
-200.0   60.0   50.0
-200.0   60.0   33.333333333333336
-250.0   60.0   50.0
-200.0   90.0   50.0
-200.0   60.0   33.333333333333336
-250.0   90.0   33.333333333333336
-250.0   90.0   0.0
-200.0   90.0   0.0
-250.0   120.0   0.0
-250.0   90.0   16.666666666666668
-200.0   90.0   0.0
-200.0   120.0   0.0
-250.0   120.0   0.0
-200.0   120.0   16.666666666666668
-250.0   90.0   16.666666666666668
-250.0   120.0   16.666666666666668
-200.0   120.0   16.666666666666668
-250.0   120.0   0.0
-250.0   90.0   16.666666666666668
-200.0   120.0   16.666666666666668
-200.0   90.0   16.666666666666668
-200.0   90.0   0.0
-250.0   90.0   16.666666666666668
-200.0   120.0   16.666666666666668
-200.0   90.0   0.0
-250.0   120.0   0.0
-250.0   90.0   16.666666666666668
-200.0   90.0   16.666666666666668
-250.0   120.0   16.666666666666668
-250.0   90.0   33.333333333333336
-200.0   90.0   16.666666666666668
-200.0   120.0   16.666666666666668
-250.0   120.0   16.666666666666668
-200.0   120.0   33.333333333333336
-250.0   90.0   33.333333333333336
-250.0   120.0   33.333333333333336
-200.0   120.0   33.333333333333336
-250.0   120.0   16.666666666666668
-250.0   90.0   33.333333333333336
-200.0   120.0   33.333333333333336
-200.0   90.0   33.333333333333336
-200.0   90.0   16.666666666666668
-250.0   90.0   33.333333333333336
-200.0   120.0   33.333333333333336
-200.0   90.0   16.666666666666668
-250.0   120.0   16.666666666666668
-250.0   90.0   33.333333333333336
-200.0   90.0   33.333333333333336
-250.0   120.0   33.333333333333336
-250.0   90.0   50.0
-200.0   90.0   33.333333333333336
-200.0   120.0   33.333333333333336
-250.0   120.0   33.333333333333336
-200.0   120.0   50.0
-250.0   90.0   50.0
-250.0   120.0   50.0
-200.0   120.0   50.0
-250.0   120.0   33.333333333333336
-250.0   90.0   50.0
-200.0   120.0   50.0
-200.0   90.0   50.0
-200.0   90.0   33.333333333333336
-250.0   90.0   50.0
-200.0   120.0   50.0
-200.0   90.0   33.333333333333336
-250.0   120.0   33.333333333333336
-250.0   120.0   0.0
-200.0   120.0   0.0
-250.0   150.0   0.0
-250.0   120.0   16.666666666666668
-200.0   120.0   0.0
-200.0   150.0   0.0
-250.0   150.0   0.0
-200.0   150.0   16.666666666666668
-250.0   120.0   16.666666666666668
-250.0   150.0   16.666666666666668
-200.0   150.0   16.666666666666668
-250.0   150.0   0.0
-250.0   120.0   16.666666666666668
-200.0   150.0   16.666666666666668
-200.0   120.0   16.666666666666668
-200.0   120.0   0.0
-250.0   120.0   16.666666666666668
-200.0   150.0   16.666666666666668
-200.0   120.0   0.0
-250.0   150.0   0.0
-250.0   120.0   16.666666666666668
-200.0   120.0   16.666666666666668
-250.0   150.0   16.666666666666668
-250.0   120.0   33.333333333333336
-200.0   120.0   16.666666666666668
-200.0   150.0   16.666666666666668
-250.0   150.0   16.666666666666668
-200.0   150.0   33.333333333333336
-250.0   120.0   33.333333333333336
-250.0   150.0   33.333333333333336
-200.0   150.0   33.333333333333336
-250.0   150.0   16.666666666666668
-250.0   120.0   33.333333333333336
-200.0   150.0   33.333333333333336
-200.0   120.0   33.333333333333336
-200.0   120.0   16.666666666666668
-250.0   120.0   33.333333333333336
-200.0   150.0   33.333333333333336
-200.0   120.0   16.666666666666668
-250.0   150.0   16.666666666666668
-250.0   120.0   33.333333333333336
-200.0   120.0   33.333333333333336
-250.0   150.0   33.333333333333336
-250.0   120.0   50.0
-200.0   120.0   33.333333333333336
-200.0   150.0   33.333333333333336
-250.0   150.0   33.333333333333336
-200.0   150.0   50.0
-250.0   120.0   50.0
-250.0   150.0   50.0
-200.0   150.0   50.0
-250.0   150.0   33.333333333333336
-250.0   120.0   50.0
-200.0   150.0   50.0
-200.0   120.0   50.0
-200.0   120.0   33.333333333333336
-250.0   120.0   50.0
-200.0   150.0   50.0
-200.0   120.0   33.333333333333336
-250.0   150.0   33.333333333333336
-200.0   0.0   0.0
-150.0   0.0   0.0
-200.0   30.0   0.0
-200.0   0.0   16.666666666666668
-150.0   0.0   0.0
-150.0   30.0   0.0
-200.0   30.0   0.0
-150.0   30.0   16.666666666666668
-200.0   0.0   16.666666666666668
-200.0   30.0   16.666666666666668
-150.0   30.0   16.666666666666668
-200.0   30.0   0.0
-200.0   0.0   16.666666666666668
-150.0   30.0   16.666666666666668
-150.0   0.0   16.666666666666668
-150.0   0.0   0.0
-200.0   0.0   16.666666666666668
-150.0   30.0   16.666666666666668
-150.0   0.0   0.0
-200.0   30.0   0.0
-200.0   0.0   16.666666666666668
-150.0   0.0   16.666666666666668
-200.0   30.0   16.666666666666668
-200.0   0.0   33.333333333333336
-150.0   0.0   16.666666666666668
-150.0   30.0   16.666666666666668
-200.0   30.0   16.666666666666668
-150.0   30.0   33.333333333333336
-200.0   0.0   33.333333333333336
-200.0   30.0   33.333333333333336
-150.0   30.0   33.333333333333336
-200.0   30.0   16.666666666666668
-200.0   0.0   33.333333333333336
-150.0   30.0   33.333333333333336
-150.0   0.0   33.333333333333336
-150.0   0.0   16.666666666666668
-200.0   0.0   33.333333333333336
-150.0   30.0   33.333333333333336
-150.0   0.0   16.666666666666668
-200.0   30.0   16.666666666666668
-200.0   0.0   33.333333333333336
-150.0   0.0   33.333333333333336
-200.0   30.0   33.333333333333336
-200.0   0.0   50.0
-150.0   0.0   33.333333333333336
-150.0   30.0   33.333333333333336
-200.0   30.0   33.333333333333336
-150.0   30.0   50.0
-200.0   0.0   50.0
-200.0   30.0   50.0
-150.0   30.0   50.0
-200.0   30.0   33.333333333333336
-200.0   0.0   50.0
-150.0   30.0   50.0
-150.0   0.0   50.0
-150.0   0.0   33.333333333333336
-200.0   0.0   50.0
-150.0   30.0   50.0
-150.0   0.0   33.333333333333336
-200.0   30.0   33.333333333333336
-200.0   30.0   0.0
-150.0   30.0   0.0
-200.0   60.0   0.0
-200.0   30.0   16.666666666666668
-150.0   30.0   0.0
-150.0   60.0   0.0
-200.0   60.0   0.0
-150.0   60.0   16.666666666666668
-200.0   30.0   16.666666666666668
-200.0   60.0   16.666666666666668
-150.0   60.0   16.666666666666668
-200.0   60.0   0.0
-200.0   30.0   16.666666666666668
-150.0   60.0   16.666666666666668
-150.0   30.0   16.666666666666668
-150.0   30.0   0.0
-200.0   30.0   16.666666666666668
-150.0   60.0   16.666666666666668
-150.0   30.0   0.0
-200.0   60.0   0.0
-200.0   30.0   16.666666666666668
-150.0   30.0   16.666666666666668
-200.0   60.0   16.666666666666668
-200.0   30.0   33.333333333333336
-150.0   30.0   16.666666666666668
-150.0   60.0   16.666666666666668
-200.0   60.0   16.666666666666668
-150.0   60.0   33.333333333333336
-200.0   30.0   33.333333333333336
-200.0   60.0   33.333333333333336
-150.0   60.0   33.333333333333336
-200.0   60.0   16.666666666666668
-200.0   30.0   33.333333333333336
-150.0   60.0   33.333333333333336
-150.0   30.0   33.333333333333336
-150.0   30.0   16.666666666666668
-200.0   30.0   33.333333333333336
-150.0   60.0   33.333333333333336
-150.0   30.0   16.666666666666668
-200.0   60.0   16.666666666666668
-200.0   30.0   33.333333333333336
-150.0   30.0   33.333333333333336
-200.0   60.0   33.333333333333336
-200.0   30.0   50.0
-150.0   30.0   33.333333333333336
-150.0   60.0   33.333333333333336
-200.0   60.0   33.333333333333336
-150.0   60.0   50.0
-200.0   30.0   50.0
-200.0   60.0   50.0
-150.0   60.0   50.0
-200.0   60.0   33.333333333333336
-200.0   30.0   50.0
-150.0   60.0   50.0
-150.0   30.0   50.0
-150.0   30.0   33.333333333333336
-200.0   30.0   50.0
-150.0   60.0   50.0
-150.0   30.0   33.333333333333336
-200.0   60.0   33.333333333333336
-200.0   60.0   0.0
-150.0   60.0   0.0
-200.0   90.0   0.0
-200.0   60.0   16.666666666666668
-150.0   60.0   0.0
-150.0   90.0   0.0
-200.0   90.0   0.0
-150.0   90.0   16.666666666666668
-200.0   60.0   16.666666666666668
-200.0   90.0   16.666666666666668
-150.0   90.0   16.666666666666668
-200.0   90.0   0.0
-200.0   60.0   16.666666666666668
-150.0   90.0   16.666666666666668
-150.0   60.0   16.666666666666668
-150.0   60.0   0.0
-200.0   60.0   16.666666666666668
-150.0   90.0   16.666666666666668
-150.0   60.0   0.0
-200.0   90.0   0.0
-200.0   60.0   16.666666666666668
-150.0   60.0   16.666666666666668
-200.0   90.0   16.666666666666668
-200.0   60.0   33.333333333333336
-150.0   60.0   16.666666666666668
-150.0   90.0   16.666666666666668
-200.0   90.0   16.666666666666668
-150.0   90.0   33.333333333333336
-200.0   60.0   33.333333333333336
-200.0   90.0   33.333333333333336
-150.0   90.0   33.333333333333336
-200.0   90.0   16.666666666666668
-200.0   60.0   33.333333333333336
-150.0   90.0   33.333333333333336
-150.0   60.0   33.333333333333336
-150.0   60.0   16.666666666666668
-200.0   60.0   33.333333333333336
-150.0   90.0   33.333333333333336
-150.0   60.0   16.666666666666668
-200.0   90.0   16.666666666666668
-200.0   60.0   33.333333333333336
-150.0   60.0   33.333333333333336
-200.0   90.0   33.333333333333336
-200.0   60.0   50.0
-150.0   60.0   33.333333333333336
-150.0   90.0   33.333333333333336
-200.0   90.0   33.333333333333336
-150.0   90.0   50.0
-200.0   60.0   50.0
-200.0   90.0   50.0
-150.0   90.0   50.0
-200.0   90.0   33.333333333333336
-200.0   60.0   50.0
-150.0   90.0   50.0
-150.0   60.0   50.0
-150.0   60.0   33.333333333333336
-200.0   60.0   50.0
-150.0   90.0   50.0
-150.0   60.0   33.333333333333336
-200.0   90.0   33.333333333333336
-200.0   90.0   0.0
-150.0   90.0   0.0
-200.0   120.0   0.0
-200.0   90.0   16.666666666666668
-150.0   90.0   0.0
-150.0   120.0   0.0
-200.0   120.0   0.0
-150.0   120.0   16.666666666666668
-200.0   90.0   16.666666666666668
-200.0   120.0   16.666666666666668
-150.0   120.0   16.666666666666668
-200.0   120.0   0.0
-200.0   90.0   16.666666666666668
-150.0   120.0   16.666666666666668
-150.0   90.0   16.666666666666668
-150.0   90.0   0.0
-200.0   90.0   16.666666666666668
-150.0   120.0   16.666666666666668
-150.0   90.0   0.0
-200.0   120.0   0.0
-200.0   90.0   16.666666666666668
-150.0   90.0   16.666666666666668
-200.0   120.0   16.666666666666668
-200.0   90.0   33.333333333333336
-150.0   90.0   16.666666666666668
-150.0   120.0   16.666666666666668
-200.0   120.0   16.666666666666668
-150.0   120.0   33.333333333333336
-200.0   90.0   33.333333333333336
-200.0   120.0   33.333333333333336
-150.0   120.0   33.333333333333336
-200.0   120.0   16.666666666666668
-200.0   90.0   33.333333333333336
-150.0   120.0   33.333333333333336
-150.0   90.0   33.333333333333336
-150.0   90.0   16.666666666666668
-200.0   90.0   33.333333333333336
-150.0   120.0   33.333333333333336
-150.0   90.0   16.666666666666668
-200.0   120.0   16.666666666666668
-200.0   90.0   33.333333333333336
-150.0   90.0   33.333333333333336
-200.0   120.0   33.333333333333336
-200.0   90.0   50.0
-150.0   90.0   33.333333333333336
-150.0   120.0   33.333333333333336
-200.0   120.0   33.333333333333336
-150.0   120.0   50.0
-200.0   90.0   50.0
-200.0   120.0   50.0
-150.0   120.0   50.0
-200.0   120.0   33.333333333333336
-200.0   90.0   50.0
-150.0   120.0   50.0
-150.0   90.0   50.0
-150.0   90.0   33.333333333333336
-200.0   90.0   50.0
-150.0   120.0   50.0
-150.0   90.0   33.333333333333336
-200.0   120.0   33.333333333333336
-200.0   120.0   0.0
-150.0   120.0   0.0
-200.0   150.0   0.0
-200.0   120.0   16.666666666666668
-150.0   120.0   0.0
-150.0   150.0   0.0
-200.0   150.0   0.0
-150.0   150.0   16.666666666666668
-200.0   120.0   16.666666666666668
-200.0   150.0   16.666666666666668
-150.0   150.0   16.666666666666668
-200.0   150.0   0.0
-200.0   120.0   16.666666666666668
-150.0   150.0   16.666666666666668
-150.0   120.0   16.666666666666668
-150.0   120.0   0.0
-200.0   120.0   16.666666666666668
-150.0   150.0   16.666666666666668
-150.0   120.0   0.0
-200.0   150.0   0.0
-200.0   120.0   16.666666666666668
-150.0   120.0   16.666666666666668
-200.0   150.0   16.666666666666668
-200.0   120.0   33.333333333333336
-150.0   120.0   16.666666666666668
-150.0   150.0   16.666666666666668
-200.0   150.0   16.666666666666668
-150.0   150.0   33.333333333333336
-200.0   120.0   33.333333333333336
-200.0   150.0   33.333333333333336
-150.0   150.0   33.333333333333336
-200.0   150.0   16.666666666666668
-200.0   120.0   33.333333333333336
-150.0   150.0   33.333333333333336
-150.0   120.0   33.333333333333336
-150.0   120.0   16.666666666666668
-200.0   120.0   33.333333333333336
-150.0   150.0   33.333333333333336
-150.0   120.0   16.666666666666668
-200.0   150.0   16.666666666666668
-200.0   120.0   33.333333333333336
-150.0   120.0   33.333333333333336
-200.0   150.0   33.333333333333336
-200.0   120.0   50.0
-150.0   120.0   33.333333333333336
-150.0   150.0   33.333333333333336
-200.0   150.0   33.333333333333336
-150.0   150.0   50.0
-200.0   120.0   50.0
-200.0   150.0   50.0
-150.0   150.0   50.0
-200.0   150.0   33.333333333333336
-200.0   120.0   50.0
-150.0   150.0   50.0
-150.0   120.0   50.0
-150.0   120.0   33.333333333333336
-200.0   120.0   50.0
-150.0   150.0   50.0
-150.0   120.0   33.333333333333336
-200.0   150.0   33.333333333333336
-150.0   0.0   0.0
-100.0   0.0   0.0
-150.0   30.0   0.0
-150.0   0.0   16.666666666666668
-100.0   0.0   0.0
-100.0   30.0   0.0
-150.0   30.0   0.0
-100.0   30.0   16.666666666666668
-150.0   0.0   16.666666666666668
-150.0   30.0   16.666666666666668
-100.0   30.0   16.666666666666668
-150.0   30.0   0.0
-150.0   0.0   16.666666666666668
-100.0   30.0   16.666666666666668
-100.0   0.0   16.666666666666668
-100.0   0.0   0.0
-150.0   0.0   16.666666666666668
-100.0   30.0   16.666666666666668
-100.0   0.0   0.0
-150.0   30.0   0.0
-150.0   0.0   16.666666666666668
-100.0   0.0   16.666666666666668
-150.0   30.0   16.666666666666668
-150.0   0.0   33.333333333333336
-100.0   0.0   16.666666666666668
-100.0   30.0   16.666666666666668
-150.0   30.0   16.666666666666668
-100.0   30.0   33.333333333333336
-150.0   0.0   33.333333333333336
-150.0   30.0   33.333333333333336
-100.0   30.0   33.333333333333336
-150.0   30.0   16.666666666666668
-150.0   0.0   33.333333333333336
-100.0   30.0   33.333333333333336
-100.0   0.0   33.333333333333336
-100.0   0.0   16.666666666666668
-150.0   0.0   33.333333333333336
-100.0   30.0   33.333333333333336
-100.0   0.0   16.666666666666668
-150.0   30.0   16.666666666666668
-150.0   0.0   33.333333333333336
-100.0   0.0   33.333333333333336
-150.0   30.0   33.333333333333336
-150.0   0.0   50.0
-100.0   0.0   33.333333333333336
-100.0   30.0   33.333333333333336
-150.0   30.0   33.333333333333336
-100.0   30.0   50.0
-150.0   0.0   50.0
-150.0   30.0   50.0
-100.0   30.0   50.0
-150.0   30.0   33.333333333333336
-150.0   0.0   50.0
-100.0   30.0   50.0
-100.0   0.0   50.0
-100.0   0.0   33.333333333333336
-150.0   0.0   50.0
-100.0   30.0   50.0
-100.0   0.0   33.333333333333336
-150.0   30.0   33.333333333333336
-150.0   30.0   0.0
-100.0   30.0   0.0
-150.0   60.0   0.0
-150.0   30.0   16.666666666666668
-100.0   30.0   0.0
-100.0   60.0   0.0
-150.0   60.0   0.0
-100.0   60.0   16.666666666666668
-150.0   30.0   16.666666666666668
-150.0   60.0   16.666666666666668
-100.0   60.0   16.666666666666668
-150.0   60.0   0.0
-150.0   30.0   16.666666666666668
-100.0   60.0   16.666666666666668
-100.0   30.0   16.666666666666668
-100.0   30.0   0.0
-150.0   30.0   16.666666666666668
-100.0   60.0   16.666666666666668
-100.0   30.0   0.0
-150.0   60.0   0.0
-150.0   30.0   16.666666666666668
-100.0   30.0   16.666666666666668
-150.0   60.0   16.666666666666668
-150.0   30.0   33.333333333333336
-100.0   30.0   16.666666666666668
-100.0   60.0   16.666666666666668
-150.0   60.0   16.666666666666668
-100.0   60.0   33.333333333333336
-150.0   30.0   33.333333333333336
-150.0   60.0   33.333333333333336
-100.0   60.0   33.333333333333336
-150.0   60.0   16.666666666666668
-150.0   30.0   33.333333333333336
-100.0   60.0   33.333333333333336
-100.0   30.0   33.333333333333336
-100.0   30.0   16.666666666666668
-150.0   30.0   33.333333333333336
-100.0   60.0   33.333333333333336
-100.0   30.0   16.666666666666668
-150.0   60.0   16.666666666666668
-150.0   30.0   33.333333333333336
-100.0   30.0   33.333333333333336
-150.0   60.0   33.333333333333336
-150.0   30.0   50.0
-100.0   30.0   33.333333333333336
-100.0   60.0   33.333333333333336
-150.0   60.0   33.333333333333336
-100.0   60.0   50.0
-150.0   30.0   50.0
-150.0   60.0   50.0
-100.0   60.0   50.0
-150.0   60.0   33.333333333333336
-150.0   30.0   50.0
-100.0   60.0   50.0
-100.0   30.0   50.0
-100.0   30.0   33.333333333333336
-150.0   30.0   50.0
-100.0   60.0   50.0
-100.0   30.0   33.333333333333336
-150.0   60.0   33.333333333333336
-150.0   60.0   0.0
-100.0   60.0   0.0
-150.0   90.0   0.0
-150.0   60.0   16.666666666666668
-100.0   60.0   0.0
-100.0   90.0   0.0
-150.0   90.0   0.0
-100.0   90.0   16.666666666666668
-150.0   60.0   16.666666666666668
-150.0   90.0   16.666666666666668
-100.0   90.0   16.666666666666668
-150.0   90.0   0.0
-150.0   60.0   16.666666666666668
-100.0   90.0   16.666666666666668
-100.0   60.0   16.666666666666668
-100.0   60.0   0.0
-150.0   60.0   16.666666666666668
-100.0   90.0   16.666666666666668
-100.0   60.0   0.0
-150.0   90.0   0.0
-150.0   60.0   16.666666666666668
-100.0   60.0   16.666666666666668
-150.0   90.0   16.666666666666668
-150.0   60.0   33.333333333333336
-100.0   60.0   16.666666666666668
-100.0   90.0   16.666666666666668
-150.0   90.0   16.666666666666668
-100.0   90.0   33.333333333333336
-150.0   60.0   33.333333333333336
-150.0   90.0   33.333333333333336
-100.0   90.0   33.333333333333336
-150.0   90.0   16.666666666666668
-150.0   60.0   33.333333333333336
-100.0   90.0   33.333333333333336
-100.0   60.0   33.333333333333336
-100.0   60.0   16.666666666666668
-150.0   60.0   33.333333333333336
-100.0   90.0   33.333333333333336
-100.0   60.0   16.666666666666668
-150.0   90.0   16.666666666666668
-150.0   60.0   33.333333333333336
-100.0   60.0   33.333333333333336
-150.0   90.0   33.333333333333336
-150.0   60.0   50.0
-100.0   60.0   33.333333333333336
-100.0   90.0   33.333333333333336
-150.0   90.0   33.333333333333336
-100.0   90.0   50.0
-150.0   60.0   50.0
-150.0   90.0   50.0
-100.0   90.0   50.0
-150.0   90.0   33.333333333333336
-150.0   60.0   50.0
-100.0   90.0   50.0
-100.0   60.0   50.0
-100.0   60.0   33.333333333333336
-150.0   60.0   50.0
-100.0   90.0   50.0
-100.0   60.0   33.333333333333336
-150.0   90.0   33.333333333333336
-150.0   90.0   0.0
-100.0   90.0   0.0
-150.0   120.0   0.0
-150.0   90.0   16.666666666666668
-100.0   90.0   0.0
-100.0   120.0   0.0
-150.0   120.0   0.0
-100.0   120.0   16.666666666666668
-150.0   90.0   16.666666666666668
-150.0   120.0   16.666666666666668
-100.0   120.0   16.666666666666668
-150.0   120.0   0.0
-150.0   90.0   16.666666666666668
-100.0   120.0   16.666666666666668
-100.0   90.0   16.666666666666668
-100.0   90.0   0.0
-150.0   90.0   16.666666666666668
-100.0   120.0   16.666666666666668
-100.0   90.0   0.0
-150.0   120.0   0.0
-150.0   90.0   16.666666666666668
-100.0   90.0   16.666666666666668
-150.0   120.0   16.666666666666668
-150.0   90.0   33.333333333333336
-100.0   90.0   16.666666666666668
-100.0   120.0   16.666666666666668
-150.0   120.0   16.666666666666668
-100.0   120.0   33.333333333333336
-150.0   90.0   33.333333333333336
-150.0   120.0   33.333333333333336
-100.0   120.0   33.333333333333336
-150.0   120.0   16.666666666666668
-150.0   90.0   33.333333333333336
-100.0   120.0   33.333333333333336
-100.0   90.0   33.333333333333336
-100.0   90.0   16.666666666666668
-150.0   90.0   33.333333333333336
-100.0   120.0   33.333333333333336
-100.0   90.0   16.666666666666668
-150.0   120.0   16.666666666666668
-150.0   90.0   33.333333333333336
-100.0   90.0   33.333333333333336
-150.0   120.0   33.333333333333336
-150.0   90.0   50.0
-100.0   90.0   33.333333333333336
-100.0   120.0   33.333333333333336
-150.0   120.0   33.333333333333336
-100.0   120.0   50.0
-150.0   90.0   50.0
-150.0   120.0   50.0
-100.0   120.0   50.0
-150.0   120.0   33.333333333333336
-150.0   90.0   50.0
-100.0   120.0   50.0
-100.0   90.0   50.0
-100.0   90.0   33.333333333333336
-150.0   90.0   50.0
-100.0   120.0   50.0
-100.0   90.0   33.333333333333336
-150.0   120.0   33.333333333333336
-150.0   120.0   0.0
-100.0   120.0   0.0
-150.0   150.0   0.0
-150.0   120.0   16.666666666666668
-100.0   120.0   0.0
-100.0   150.0   0.0
-150.0   150.0   0.0
-100.0   150.0   16.666666666666668
-150.0   120.0   16.666666666666668
-150.0   150.0   16.666666666666668
-100.0   150.0   16.666666666666668
-150.0   150.0   0.0
-150.0   120.0   16.666666666666668
-100.0   150.0   16.666666666666668
-100.0   120.0   16.666666666666668
-100.0   120.0   0.0
-150.0   120.0   16.666666666666668
-100.0   150.0   16.666666666666668
-100.0   120.0   0.0
-150.0   150.0   0.0
-150.0   120.0   16.666666666666668
-100.0   120.0   16.666666666666668
-150.0   150.0   16.666666666666668
-150.0   120.0   33.333333333333336
-100.0   120.0   16.666666666666668
-100.0   150.0   16.666666666666668
-150.0   150.0   16.666666666666668
-100.0   150.0   33.333333333333336
-150.0   120.0   33.333333333333336
-150.0   150.0   33.333333333333336
-100.0   150.0   33.333333333333336
-150.0   150.0   16.666666666666668
-150.0   120.0   33.333333333333336
-100.0   150.0   33.333333333333336
-100.0   120.0   33.333333333333336
-100.0   120.0   16.666666666666668
-150.0   120.0   33.333333333333336
-100.0   150.0   33.333333333333336
-100.0   120.0   16.666666666666668
-150.0   150.0   16.666666666666668
-150.0   120.0   33.333333333333336
-100.0   120.0   33.333333333333336
-150.0   150.0   33.333333333333336
-150.0   120.0   50.0
-100.0   120.0   33.333333333333336
-100.0   150.0   33.333333333333336
-150.0   150.0   33.333333333333336
-100.0   150.0   50.0
-150.0   120.0   50.0
-150.0   150.0   50.0
-100.0   150.0   50.0
-150.0   150.0   33.333333333333336
-150.0   120.0   50.0
-100.0   150.0   50.0
-100.0   120.0   50.0
-100.0   120.0   33.333333333333336
-150.0   120.0   50.0
-100.0   150.0   50.0
-100.0   120.0   33.333333333333336
-150.0   150.0   33.333333333333336
-100.0   0.0   0.0
-50.0   0.0   0.0
-100.0   30.0   0.0
-100.0   0.0   16.666666666666668
-50.0   0.0   0.0
-50.0   30.0   0.0
-100.0   30.0   0.0
-50.0   30.0   16.666666666666668
-100.0   0.0   16.666666666666668
-100.0   30.0   16.666666666666668
-50.0   30.0   16.666666666666668
-100.0   30.0   0.0
-100.0   0.0   16.666666666666668
-50.0   30.0   16.666666666666668
-50.0   0.0   16.666666666666668
-50.0   0.0   0.0
-100.0   0.0   16.666666666666668
-50.0   30.0   16.666666666666668
-50.0   0.0   0.0
-100.0   30.0   0.0
-100.0   0.0   16.666666666666668
-50.0   0.0   16.666666666666668
-100.0   30.0   16.666666666666668
-100.0   0.0   33.333333333333336
-50.0   0.0   16.666666666666668
-50.0   30.0   16.666666666666668
-100.0   30.0   16.666666666666668
-50.0   30.0   33.333333333333336
-100.0   0.0   33.333333333333336
-100.0   30.0   33.333333333333336
-50.0   30.0   33.333333333333336
-100.0   30.0   16.666666666666668
-100.0   0.0   33.333333333333336
-50.0   30.0   33.333333333333336
-50.0   0.0   33.333333333333336
-50.0   0.0   16.666666666666668
-100.0   0.0   33.333333333333336
-50.0   30.0   33.333333333333336
-50.0   0.0   16.666666666666668
-100.0   30.0   16.666666666666668
-100.0   0.0   33.333333333333336
-50.0   0.0   33.333333333333336
-100.0   30.0   33.333333333333336
-100.0   0.0   50.0
-50.0   0.0   33.333333333333336
-50.0   30.0   33.333333333333336
-100.0   30.0   33.333333333333336
-50.0   30.0   50.0
-100.0   0.0   50.0
-100.0   30.0   50.0
-50.0   30.0   50.0
-100.0   30.0   33.333333333333336
-100.0   0.0   50.0
-50.0   30.0   50.0
-50.0   0.0   50.0
-50.0   0.0   33.333333333333336
-100.0   0.0   50.0
-50.0   30.0   50.0
-50.0   0.0   33.333333333333336
-100.0   30.0   33.333333333333336
-100.0   30.0   0.0
-50.0   30.0   0.0
-100.0   60.0   0.0
-100.0   30.0   16.666666666666668
-50.0   30.0   0.0
-50.0   60.0   0.0
-100.0   60.0   0.0
-50.0   60.0   16.666666666666668
-100.0   30.0   16.666666666666668
-100.0   60.0   16.666666666666668
-50.0   60.0   16.666666666666668
-100.0   60.0   0.0
-100.0   30.0   16.666666666666668
-50.0   60.0   16.666666666666668
-50.0   30.0   16.666666666666668
-50.0   30.0   0.0
-100.0   30.0   16.666666666666668
-50.0   60.0   16.666666666666668
-50.0   30.0   0.0
-100.0   60.0   0.0
-100.0   30.0   16.666666666666668
-50.0   30.0   16.666666666666668
-100.0   60.0   16.666666666666668
-100.0   30.0   33.333333333333336
-50.0   30.0   16.666666666666668
-50.0   60.0   16.666666666666668
-100.0   60.0   16.666666666666668
-50.0   60.0   33.333333333333336
-100.0   30.0   33.333333333333336
-100.0   60.0   33.333333333333336
-50.0   60.0   33.333333333333336
-100.0   60.0   16.666666666666668
-100.0   30.0   33.333333333333336
-50.0   60.0   33.333333333333336
-50.0   30.0   33.333333333333336
-50.0   30.0   16.666666666666668
-100.0   30.0   33.333333333333336
-50.0   60.0   33.333333333333336
-50.0   30.0   16.666666666666668
-100.0   60.0   16.666666666666668
-100.0   30.0   33.333333333333336
-50.0   30.0   33.333333333333336
-100.0   60.0   33.333333333333336
-100.0   30.0   50.0
-50.0   30.0   33.333333333333336
-50.0   60.0   33.333333333333336
-100.0   60.0   33.333333333333336
-50.0   60.0   50.0
-100.0   30.0   50.0
-100.0   60.0   50.0
-50.0   60.0   50.0
-100.0   60.0   33.333333333333336
-100.0   30.0   50.0
-50.0   60.0   50.0
-50.0   30.0   50.0
-50.0   30.0   33.333333333333336
-100.0   30.0   50.0
-50.0   60.0   50.0
-50.0   30.0   33.333333333333336
-100.0   60.0   33.333333333333336
-100.0   60.0   0.0
-50.0   60.0   0.0
-100.0   90.0   0.0
-100.0   60.0   16.666666666666668
-50.0   60.0   0.0
-50.0   90.0   0.0
-100.0   90.0   0.0
-50.0   90.0   16.666666666666668
-100.0   60.0   16.666666666666668
-100.0   90.0   16.666666666666668
-50.0   90.0   16.666666666666668
-100.0   90.0   0.0
-100.0   60.0   16.666666666666668
-50.0   90.0   16.666666666666668
-50.0   60.0   16.666666666666668
-50.0   60.0   0.0
-100.0   60.0   16.666666666666668
-50.0   90.0   16.666666666666668
-50.0   60.0   0.0
-100.0   90.0   0.0
-100.0   60.0   16.666666666666668
-50.0   60.0   16.666666666666668
-100.0   90.0   16.666666666666668
-100.0   60.0   33.333333333333336
-50.0   60.0   16.666666666666668
-50.0   90.0   16.666666666666668
-100.0   90.0   16.666666666666668
-50.0   90.0   33.333333333333336
-100.0   60.0   33.333333333333336
-100.0   90.0   33.333333333333336
-50.0   90.0   33.333333333333336
-100.0   90.0   16.666666666666668
-100.0   60.0   33.333333333333336
-50.0   90.0   33.333333333333336
-50.0   60.0   33.333333333333336
-50.0   60.0   16.666666666666668
-100.0   60.0   33.333333333333336
-50.0   90.0   33.333333333333336
-50.0   60.0   16.666666666666668
-100.0   90.0   16.666666666666668
-100.0   60.0   33.333333333333336
-50.0   60.0   33.333333333333336
-100.0   90.0   33.333333333333336
-100.0   60.0   50.0
-50.0   60.0   33.333333333333336
-50.0   90.0   33.333333333333336
-100.0   90.0   33.333333333333336
-50.0   90.0   50.0
-100.0   60.0   50.0
-100.0   90.0   50.0
-50.0   90.0   50.0
-100.0   90.0   33.333333333333336
-100.0   60.0   50.0
-50.0   90.0   50.0
-50.0   60.0   50.0
-50.0   60.0   33.333333333333336
-100.0   60.0   50.0
-50.0   90.0   50.0
-50.0   60.0   33.333333333333336
-100.0   90.0   33.333333333333336
-100.0   90.0   0.0
-50.0   90.0   0.0
-100.0   120.0   0.0
-100.0   90.0   16.666666666666668
-50.0   90.0   0.0
-50.0   120.0   0.0
-100.0   120.0   0.0
-50.0   120.0   16.666666666666668
-100.0   90.0   16.666666666666668
-100.0   120.0   16.666666666666668
-50.0   120.0   16.666666666666668
-100.0   120.0   0.0
-100.0   90.0   16.666666666666668
-50.0   120.0   16.666666666666668
-50.0   90.0   16.666666666666668
-50.0   90.0   0.0
-100.0   90.0   16.666666666666668
-50.0   120.0   16.666666666666668
-50.0   90.0   0.0
-100.0   120.0   0.0
-100.0   90.0   16.666666666666668
-50.0   90.0   16.666666666666668
-100.0   120.0   16.666666666666668
-100.0   90.0   33.333333333333336
-50.0   90.0   16.666666666666668
-50.0   120.0   16.666666666666668
-100.0   120.0   16.666666666666668
-50.0   120.0   33.333333333333336
-100.0   90.0   33.333333333333336
-100.0   120.0   33.333333333333336
-50.0   120.0   33.333333333333336
-100.0   120.0   16.666666666666668
-100.0   90.0   33.333333333333336
-50.0   120.0   33.333333333333336
-50.0   90.0   33.333333333333336
-50.0   90.0   16.666666666666668
-100.0   90.0   33.333333333333336
-50.0   120.0   33.333333333333336
-50.0   90.0   16.666666666666668
-100.0   120.0   16.666666666666668
-100.0   90.0   33.333333333333336
-50.0   90.0   33.333333333333336
-100.0   120.0   33.333333333333336
-100.0   90.0   50.0
-50.0   90.0   33.333333333333336
-50.0   120.0   33.333333333333336
-100.0   120.0   33.333333333333336
-50.0   120.0   50.0
-100.0   90.0   50.0
-100.0   120.0   50.0
-50.0   120.0   50.0
-100.0   120.0   33.333333333333336
-100.0   90.0   50.0
-50.0   120.0   50.0
-50.0   90.0   50.0
-50.0   90.0   33.333333333333336
-100.0   90.0   50.0
-50.0   120.0   50.0
-50.0   90.0   33.333333333333336
-100.0   120.0   33.333333333333336
-100.0   120.0   0.0
-50.0   120.0   0.0
-100.0   150.0   0.0
-100.0   120.0   16.666666666666668
-50.0   120.0   0.0
-50.0   150.0   0.0
-100.0   150.0   0.0
-50.0   150.0   16.666666666666668
-100.0   120.0   16.666666666666668
-100.0   150.0   16.666666666666668
-50.0   150.0   16.666666666666668
-100.0   150.0   0.0
-100.0   120.0   16.666666666666668
-50.0   150.0   16.666666666666668
-50.0   120.0   16.666666666666668
-50.0   120.0   0.0
-100.0   120.0   16.666666666666668
-50.0   150.0   16.666666666666668
-50.0   120.0   0.0
-100.0   150.0   0.0
-100.0   120.0   16.666666666666668
-50.0   120.0   16.666666666666668
-100.0   150.0   16.666666666666668
-100.0   120.0   33.333333333333336
-50.0   120.0   16.666666666666668
-50.0   150.0   16.666666666666668
-100.0   150.0   16.666666666666668
-50.0   150.0   33.333333333333336
-100.0   120.0   33.333333333333336
-100.0   150.0   33.333333333333336
-50.0   150.0   33.333333333333336
-100.0   150.0   16.666666666666668
-100.0   120.0   33.333333333333336
-50.0   150.0   33.333333333333336
-50.0   120.0   33.333333333333336
-50.0   120.0   16.666666666666668
-100.0   120.0   33.333333333333336
-50.0   150.0   33.333333333333336
-50.0   120.0   16.666666666666668
-100.0   150.0   16.666666666666668
-100.0   120.0   33.333333333333336
-50.0   120.0   33.333333333333336
-100.0   150.0   33.333333333333336
-100.0   120.0   50.0
-50.0   120.0   33.333333333333336
-50.0   150.0   33.333333333333336
-100.0   150.0   33.333333333333336
-50.0   150.0   50.0
-100.0   120.0   50.0
-100.0   150.0   50.0
-50.0   150.0   50.0
-100.0   150.0   33.333333333333336
-100.0   120.0   50.0
-50.0   150.0   50.0
-50.0   120.0   50.0
-50.0   120.0   33.333333333333336
-100.0   120.0   50.0
-50.0   150.0   50.0
-50.0   120.0   33.333333333333336
-100.0   150.0   33.333333333333336
-50.0   0.0   0.0
0.0   0.0   0.0
-50.0   30.0   0.0
-50.0   0.0   16.666666666666668
0.0   0.0   0.0
0.0   30.0   0.0
-50.0   30.0   0.0
0.0   30.0   16.666666666666668
-50.0   0.0   16.666666666666668
-50.0   30.0   16.666666666666668
0.0   30.0   16.666666666666668
-50.0   30.0   0.0
-50.0   0.0   16.666666666666668
0.0   30.0   16.666666666666668
0.0   0.0   16.666666666666668
0.0   0.0   0.0
-50.0   0.0   16.666666666666668
0.0   30.0   16.666666666666668
0.0   0.0   0.0
-50.0   30.0   0.0
-50.0   0.0   16.666666666666668
0.0   0.0   16.666666666666668
-50.0   30.0   16.666666666666668
-50.0   0.0   33.333333333333336
0.0   0.0   16.666666666666668
0.0   30.0   16.666666666666668
-50.0   30.0   16.666666666666668
0.0   30.0   33.333333333333336
-50.0   0.0   33.333333333333336
-50.0   30.0   33.333333333333336
0.0   30.0   33.333333333333336
-50.0   30.0   16.666666666666668
-50.0   0.0   33.333333333333336
0.0   30.0   33.333333333333336
0.0   0.0   33.333333333333336
0.0   0.0   16.666666666666668
-50.0   0.0   33.333333333333336
0.0   30.0   33.333333333333336
0.0   0.0   16.666666666666668
-50.0   30.0   16.666666666666668
-50.0   0.0   33.333333333333336
0.0   0.0   33.333333333333336
-50.0   30.0   33.333333333333336
-50.0   0.0   50.0
0.0   0.0   33.333333333333336
0.0   30.0   33.333333333333336
-50.0   30.0   33.333333333333336
0.0   30.0   50.0
-50.0   0.0   50.0
-50.0   30.0   50.0
0.0   30.0   50.0
-50.0   30.0   33.333333333333336
-50.0   0.0   50.0
0.0   30.0   50.0
0.0   0.0   50.0
0.0   0.0   33.333333333333336
-50.0   0.0   50.0
0.0   30.0   50.0
0.0   0.0   33.333333333333336
-50.0   30.0   33.333333333333336
-50.0   30.0   0.0
0.0   30.0   0.0
-50.0   60.0   0.0
-50.0   30.0   16.666666666666668
0.0   30.0   0.0
0.0   60.0   0.0
-50.0   60.0   0.0
0.0   60.0   16.666666666666668
-50.0   30.0   16.666666666666668
-50.0   60.0   16.666666666666668
0.0   60.0   16.666666666666668
-50.0   60.0   0.0
-50.0   30.0   16.666666666666668
0.0   60.0   16.666666666666668
0.0   30.0   16.666666666666668
0.0   30.0   0.0
-50.0   30.0   16.666666666666668
0.0   60.0   16.666666666666668
0.0   30.0   0.0
-50.0   60.0   0.0
-50.0   30.0   16.666666666666668
0.0   30.0   16.666666666666668
-50.0   60.0   16.666666666666668
-50.0   30.0   33.333333333333336
0.0   30.0   16.666666666666668
0.0   60.0   16.666666666666668
-50.0   60.0   16.666666666666668
0.0   60.0   33.333333333333336
-50.0   30.0   33.333333333333336
-50.0   60.0   33.333333333333336
0.0   60.0   33.333333333333336
-50.0   60.0   16.666666666666668
-50.0   30.0   33.333333333333336
0.0   60.0   33.333333333333336
0.0   30.0   33.333333333333336
0.0   30.0   16.666666666666668
-50.0   30.0   33.333333333333336
0.0   60.0   33.333333333333336
0.0   30.0   16.666666666666668
-50.0   60.0   16.666666666666668
-50.0   30.0   33.333333333333336
0.0   30.0   33.333333333333336
-50.0   60.0   33.333333333333336
-50.0   30.0   50.0
0.0   30.0   33.333333333333336
0.0   60.0   33.333333333333336
-50.0   60.0   33.333333333333336
0.0   60.0   50.0
-50.0   30.0   50.0
-50.0   60.0   50.0
0.0   60.0   50.0
-50.0   60.0   33.333333333333336
-50.0   30.0   50.0
0.0   60.0   50.0
0.0   30.0   50.0
0.0   30.0   33.333333333333336
-50.0   30.0   50.0
0.0   60.0   50.0
0.0   30.0   33.333333333333336
-50.0   60.0   33.333333333333336
-50.0   60.0   0.0
0.0   60.0   0.0
-50.0   90.0   0.0
-50.0   60.0   16.666666666666668
0.0   60.0   0.0
0.0   90.0   0.0
-50.0   90.0   0.0
0.0   90.0   16.666666666666668
-50.0   60.0   16.666666666666668
-50.0   90.0   16.666666666666668
0.0   90.0   16.666666666666668
-50.0   90.0   0.0
-50.0   60.0   16.666666666666668
0.0   90.0   16.666666666666668
0.0   60.0   16.666666666666668
0.0   60.0   0.0
-50.0   60.0   16.666666666666668
0.0   90.0   16.666666666666668
0.0   60.0   0.0
-50.0   90.0   0.0
-50.0   60.0   16.666666666666668
0.0   60.0   16.666666666666668
-50.0   90.0   16.666666666666668
-50.0   60.0   33.333333333333336
0.0   60.0   16.666666666666668
0.0   90.0   16.666666666666668
-50.0   90.0   16.666666666666668
0.0   90.0   33.333333333333336
-50.0   60.0   33.333333333333336
-50.0   90.0   33.333333333333336
0.0   90.0   33.333333333333336
-50.0   90.0   16.666666666666668
-50.0   60.0   33.333333333333336
0.0   90.0   33.333333333333336
0.0   60.0   33.333333333333336
0.0   60.0   16.666666666666668
-50.0   60.0   33.333333333333336
0.0   90.0   33.333333333333336
0.0   60.0   16.666666666666668
-50.0   90.0   16.666666666666668
-50.0   60.0   33.333333333333336
0.0   60.0   33.333333333333336
-50.0   90.0   33.333333333333336
-50.0   60.0   50.0
0.0   60.0   33.333333333333336
0.0   90.0   33.333333333333336
-50.0   90.0   33.333333333333336
0.0   90.0   50.0
-50.0   60.0   50.0
-50.0   90.0   50.0
0.0   90.0   50.0
-50.0   90.0   33.333333333333336
-50.0   60.0   50.0
0.0   90.0   50.0
0.0   60.0   50.0
0.0   60.0   33.333333333333336
-50.0   60.0   50.0
0.0   90.0   50.0
0.0   60.0   33.333333333333336
-50.0   90.0   33.333333333333336
-50.0   90.0   0.0
0.0   90.0   0.0
-50.0   120.0   0.0
-50.0   90.0   16.666666666666668
0.0   90.0   0.0
0.0   120.0   0.0
-50.0   120.0   0.0
0.0   120.0   16.666666666666668
-50.0   90.0   16.666666666666668
-50.0   120.0   16.666666666666668
0.0   120.0   16.666666666666668
-50.0   120.0   0.0
-50.0   90.0   16.666666666666668
0.0   120.0   16.666666666666668
0.0   90.0   16.666666666666668
0.0   90.0   0.0
-50.0   90.0   16.666666666666668
0.0   120.0   16.666666666666668
0.0   90.0   0.0
-50.0   120.0   0.0
-50.0   90.0   16.666666666666668
0.0   90.0   16.666666666666668
-50.0   120.0   16.666666666666668
-50.0   90.0   33.333333333333336
0.0   90.0   16.666666666666668
0.0   120.0   16.666666666666668
-50.0   120.0   16.666666666666668
0.0   120.0   33.333333333333336
-50.0   90.0   33.333333333333336
-50.0   120.0   33.333333333333336
0.0   120.0   33.333333333333336
-50.0   120.0   16.666666666666668
-50.0   90.0   33.333333333333336
0.0   120.0   33.333333333333336
0.0   90.0   33.333333333333336
0.0   90.0   16.666666666666668
-50.0   90.0   33.333333333333336
0.0   120.0   33.333333333333336
0.0   90.0   16.666666666666668
-50.0   120.0   16.666666666666668
-50.0   90.0   33.333333333333336
0.0   90.0   33.333333333333336
-50.0   120.0   33.333333333333336
-50.0   90.0   50.0
0.0   90.0   33.333333333333336
0.0   120.0   33.333333333333336
-50.0   120.0   33.333333333333336
0.0   120.0   50.0
-50.0   90.0   50.0
-50.0   120.0   50.0
0.0   120.0   50.0
-50.0   120.0   33.333333333333336
-50.0   90.0   50.0
0.0   120.0   50.0
0.0   90.0   50.0
0.0   90.0   33.333333333333336
-50.0   90.0   50.0
0.0   120.0   50.0
0.0   90.0   33.333333333333336
-50.0   120.0   33.333333333333336
-50.0   120.0   0.0
0.0   120.0   0.0
-50.0   150.0   0.0
-50.0   120.0   16.666666666666668
0.0   120.0   0.0
0.0   150.0   0.0
-50.0   150.0   0.0
0.0   150.0   16.666666666666668
-50.0   120.0   16.666666666666668
-50.0   150.0   16.666666666666668
0.0   150.0   16.666666666666668
-50.0   150.0   0.0
-50.0   120.0   16.666666666666668
0.0   150.0   16.666666666666668
0.0   120.0   16.666666666666668
0.0   120.0   0.0
-50.0   120.0   16.666666666666668
0.0   150.0   16.666666666666668
0.0   120.0   0.0
-50.0   150.0   0.0
-50.0   120.0   16.666666666666668
0.0   120.0   16.666666666666668
-50.0   150.0   16.666666666666668
-50.0   120.0   33.333333333333336
0.0   120.0   16.666666666666668
0.0   150.0   16.666666666666668
-50.0   150.0   16.666666666666668
0.0   150.0   33.333333333333336
-50.0   120.0   33.333333333333336
-50.0   150.0   33.333333333333336
0.0   150.0   33.333333333333336
-50.0   150.0   16.666666666666668
-50.0   120.0   33.333333333333336
0.0   150.0   33.333333333333336
0.0   120.0   33.333333333333336
0.0   120.0   16.666666666666668
-50.0   120.0   33.333333333333336
0.0   150.0   33.333333333333336
0.0   120.0   16.666666666666668
-50.0   150.0   16.666666666666668
-50.0   120.0   33.333333333333336
0.0   120.0   33.333333333333336
-50.0   150.0   33.333333333333336
-50.0   120.0   50.0
0.0   120.0   33.333333333333336
0.0   150.0   33.333333333333336
-50.0   150.0   33.333333333333336
0.0   150.0   50.0
-50.0   120.0   50.0
-50.0   150.0   50.0
0.0   150.0   50.0
-50.0   150.0   33.333333333333336
-50.0   120.0   50.0
0.0   150.0   50.0
0.0   120.0   50.0
0.0   120.0   33.333333333333336
-50.0   120.0   50.0
0.0   150.0   50.0
0.0   120.0   33.333333333333336
-50.0   150.0   33.333333333333336
0.0   0.0   0.0
50.0   0.0   0.0
0.0   30.0   0.0
0.0   0.0   16.666666666666668
50.0   0.0   0.0
50.0   30.0   0.0
0.0   30.0   0.0
50.0   30.0   16.666666666666668
0.0   0.0   16.666666666666668
0.0   30.0   16.666666666666668
50.0   30.0   16.666666666666668
0.0   30.0   0.0
0.0   0.0   16.666666666666668
50.0   30.0   16.666666666666668
50.0   0.0   16.666666666666668
50.0   0.0   0.0
0.0   0.0   16.666666666666668
50.0   30.0   16.666666666666668
50.0   0.0   0.0
0.0   30.0   0.0
0.0   0.0   16.666666666666668
50.0   0.0   16.666666666666668
0.0   30.0   16.666666666666668
0.0   0.0   33.333333333333336
50.0   0.0   16.666666666666668
50.0   30.0   16.666666666666668
0.0   30.0   16.666666666666668
50.0   30.0   33.333333333333336
0.0   0.0   33.333333333333336
0.0   30.0   33.333333333333336
50.0   30.0   33.333333333333336
0.0   30.0   16.666666666666668
0.0   0.0   33.333333333333336
50.0   30.0   33.333333333333336
50.0   0.0   33.333333333333336
50.0   0.0   16.666666666666668
0.0   0.0   33.333333333333336
50.0   30.0   33.333333333333336
50.0   0.0   16.666666666666668
0.0   30.0   16.666666666666668
0.0   0.0   33.333333333333336
50.0   0.0   33.333333333333336
0.0   30.0   33.333333333333336
0.0   0.0   50.0
50.0   0.0   33.333333333333336
50.0   30.0   33.333333333333336
0.0   30.0   33.333333333333336
50.0   30.0   50.0
0.0   0.0   50.0
0.0   30.0   50.0
50.0   30.0   50.0
0.0   30.0   33.333333333333336
0.0   0.0   50.0
50.0   30.0   50.0
50.0   0.0   50.0
50.0   0.0   33.333333333333336
0.0   0.0   50.0
50.0   30.0   50.0
50.0   0.0   33.333333333333336
0.0   30.0   33.333333333333336
0.0   30.0   0.0
50.0   30.0   0.0
0.0   60.0   0.0
0.0   30.0   16.666666666666668
50.0   30.0   0.0
50.0   60.0   0.0
0.0   60.0   0.0
50.0   60.0   16.666666666666668
0.0   30.0   16.666666666666668
0.0   60.0   16.666666666666668
50.0   60.0   16.666666666666668
0.0   60.0   0.0
0.0   30.0   16.666666666666668
50.0   60.0   16.666666666666668
50.0   30.0   16.666666666666668
50.0   30.0   0.0
0.0   30.0   16.666666666666668
50.0   60.0   16.666666666666668
50.0   30.0   0.0
0.0   60.0   0.0
0.0   30.0   16.666666666666668
50.0   30.0   16.666666666666668
0.0   60.0   16.666666666666668
0.0   30.0   33.333333333333336
50.0   30.0   16.666666666666668
50.0   60.0   16.666666666666668
0.0   60.0   16.666666666666668
50.0   60.0   33.333333333333336
0.0   30.0   33.333333333333336
0.0   60.0   33.333333333333336
50.0   60.0   33.333333333333336
0.0   60.0   16.666666666666668
0.0   30.0   33.333333333333336
50.0   60.0   33.333333333333336
50.0   30.0   33.333333333333336
50.0   30.0   16.666666666666668
0.0   30.0   33.333333333333336
50.0   60.0   33.333333333333336
50.0   30.0   16.666666666666668
0.0   60.0   16.666666666666668
0.0   30.0   33.333333333333336
50.0   30.0   33.333333333333336
0.0   60.0   33.333333333333336
0.0   30.0   50.0
50.0   30.0   33.333333333333336
50.0   60.0   33.333333333333336
0.0   60.0   33.333333333333336
50.0   60.0   50.0
0.0   30.0   50.0
0.0   60.0   50.0
50.0   60.0   50.0
0.0   60.0   33.333333333333336
0.0   30.0   50.0
50.0   60.0   50.0
50.0   30.0   50.0
50.0   30.0   33.333333333333336
0.0   30.0   50.0
50.0   60.0   50.0
50.0   30.0   33.333333333333336
0.0   60.0   33.333333333333336
0.0   60.0   0.0
50.0   60.0   0.0
0.0   90.0   0.0
0.0   60.0   16.666666666666668
50.0   60.0   0.0
50.0   90.0   0.0
0.0   90.0   0.0
50.0   90.0   16.666666666666668
0.0   60.0   16.666666666666668
0.0   90.0   16.666666666666668
50.0   90.0   16.666666666666668
0.0   90.0   0.0
0.0   60.0   16.666666666666668
50.0   90.0   16.666666666666668
50.0   60.0   16.666666666666668
50.0   60.0   0.0
0.0   60.0   16.666666666666668
50.0   90.0   16.666666666666668
50.0   60.0   0.0
0.0   90.0   0.0
0.0   60.0   16.666666666666668
50.0   60.0   16.666666666666668
0.0   90.0   16.666666666666668
0.0   60.0   33.333333333333336
50.0   60.0   16.666666666666668
50.0   90.0   16.666666666666668
0.0   90.0   16.666666666666668
50.0   90.0   33.333333333333336
0.0   60.0   33.333333333333336
0.0   90.0   33.333333333333336
50.0   90.0   33.333333333333336
0.0   90.0   16.666666666666668
0.0   60.0   33.333333333333336
50.0   90.0   33.333333333333336
50.0   60.0   33.333333333333336
50.0   60.0   16.666666666666668
0.0   60.0   33.333333333333336
50.0   90.0   33.333333333333336
50.0   60.0   16.666666666666668
0.0   90.0   16.666666666666668
0.0   60.0   33.333333333333336
50.0   60.0   33.333333333333336
0.0   90.0   33.333333333333336
0.0   60.0   50.0
50.0   60.0   33.333333333333336
50.0   90.0   33.333333333333336
0.0   90.0   33.333333333333336
50.0   90.0   50.0
0.0   60.0   50.0
0.0   90.0   50.0
50.0   90.0   50.0
0.0   90.0   33.333333333333336
0.0   60.0   50.0
50.0   90.0   50.0
50.0   60.0   50.0
50.0   60.0   33.333333333333336
0.0   60.0   50.0
50.0   90.0   50.0
50.0   60.0   33.333333333333336
0.0   90.0   33.333333333333336
0.0   90.0   0.0
50.0   90.0   0.0
0.0   120.0   0.0
0.0   90.0   16.666666666666668
50.0   90.0   0.0
50.0   120.0   0.0
0.0   120.0   0.0
50.0   120.0   16.666666666666668
0.0   90.0   16.666666666666668
0.0   120.0   16.666666666666668
50.0   120.0   16.666666666666668
0.0   120.0   0.0
0.0   90.0   16.666666666666668
50.0   120.0   16.666666666666668
50.0   90.0   16.666666666666668
50.0   90.0   0.0
0.0   90.0   16.666666666666668
50.0   120.0   16.666666666666668
50.0   90.0   0.0
0.0   120.0   0.0
0.0   90.0   16.666666666666668
50.0   90.0   16.666666666666668
0.0   120.0   16.666666666666668
0.0   90.0   33.333333333333336
50.0   90.0   16.666666666666668
50.0   120.0   16.666666666666668
0.0   120.0   16.666666666666668
50.0   120.0   33.333333333333336
0.0   90.0   33.333333333333336
0.0   120.0   33.333333333333336
50.0   120.0   33.333333333333336
0.0   120.0   16.666666666666668
0.0   90.0   33.333333333333336
50.0   120.0   33.333333333333336
50.0   90.0   33.333333333333336
50.0   90.0   16.666666666666668
0.0   90.0   33.333333333333336
50.0   120.0   33.333333333333336
50.0   90.0   16.666666666666668
0.0   120.0   16.666666666666668
0.0   90.0   33.333333333333336
50.0   90.0   33.333333333333336
0.0   120.0   33.333333333333336
0.0   90.0   50.0
50.0   90.0   33.333333333333336
50.0   120.0   33.333333333333336
0.0   120.0   33.333333333333336
50.0   120.0   50.0
0.0   90.0   50.0
0.0   120.0   50.0
50.0   120.0   50.0
0.0   120.0   33.333333333333336
0.0   90.0   50.0
50.0   120.0   50.0
50.0   90.0   50.0
50.0   90.0   33.333333333333336
0.0   90.0   50.0
50.0   120.0   50.0
50.0   90.0   33.333333333333336
0.0   120.0   33.333333333333336
0.0   120.0   0.0
50.0   120.0   0.0
0.0   150.0   0.0
0.0   120.0   16.666666666666668
50.0   120.0   0.0
50.0   150.0   0.0
0.0   150.0   0.0
50.0   150.0   16.666666666666668
0.0   120.0   16.666666666666668
0.0   150.0   16.666666666666668
50.0   150.0   16.666666666666668
0.0   150.0   0.0
0.0   120.0   16.666666666666668
50.0   150.0   16.666666666666668
50.0   120.0   16.666666666666668
50.0   120.0   0.0
0.0   120.0   16.666666666666668
50.0   150.0   16.666666666666668
50.0   120.0   0.0
0.0   150.0   0.0
0.0   120.0   16.666666666666668
50.0   120.0   16.666666666666668
0.0   150.0   16.666666666666668
0.0   120.0   33.333333333333336
50.0   120.0   16.666666666666668
50.0   150.0   16.666666666666668
0.0   150.0   16.666666666666668
50.0   150.0   33.333333333333336
0.0   120.0   33.333333333333336
0.0   150.0   33.333333333333336
50.0   150.0   33.333333333333336
0.0   150.0   16.666666666666668
0.0   120.0   33.333333333333336
50.0   150.0   33.333333333333336
50.0   120.0   33.333333333333336
50.0   120.0   16.666666666666668
0.0   120.0   33.333333333333336
50.0   150.0   33.333333333333336
50.0   120.0   16.666666666666668
0.0   150.0   16.666666666666668
0.0   120.0   33.333333333333336
50.0   120.0   33.333333333333336
0.0   150.0   33.333333333333336
0.0   120.0   50.0
50.0   120.0   33.333333333333336
50.0   150.0   33.333333333333336
0.0   150.0   33.333333333333336
50.0   150.0   50.0
0.0   120.0   50.0
0.0   150.0   50.0
50.0   150.0   50.0
0.0   150.0   33.333333333333336
0.0   120.0   50.0
50.0   150.0   50.0
50.0   120.0   50.0
50.0   120.0   33.333333333333336
0.0   120.0   50.0
50.0   150.0   50.0
50.0   120.0   33.333333333333336
0.0   150.0   33.333333333333336
50.0   0.0   0.0
100.0   0.0   0.0
50.0   30.0   0.0
50.0   0.0   16.666666666666668
100.0   0.0   0.0
100.0   30.0   0.0
50.0   30.0   0.0
100.0   30.0   16.666666666666668
50.0   0.0   16.666666666666668
50.0   30.0   16.666666666666668
100.0   30.0   16.666666666666668
50.0   30.0   0.0
50.0   0.0   16.666666666666668
100.0   30.0   16.666666666666668
100.0   0.0   16.666666666666668
100.0   0.0   0.0
50.0   0.0   16.666666666666668
100.0   30.0   16.666666666666668
100.0   0.0   0.0
50.0   30.0   0.0
50.0   0.0   16.666666666666668
100.0   0.0   16.666666666666668
50.0   30.0   16.666666666666668
50.0   0.0   33.333333333333336
100.0   0.0   16.666666666666668
100.0   30.0   16.666666666666668
50.0   30.0   16.666666666666668
100.0   30.0   33.333333333333336
50.0   0.0   33.333333333333336
50.0   30.0   33.333333333333336
100.0   30.0   33.333333333333336
50.0   30.0   16.666666666666668
50.0   0.0   33.333333333333336
100.0   30.0   33.333333333333336
100.0   0.0   33.333333333333336
100.0   0.0   16.666666666666668
50.0   0.0   33.333333333333336
100.0   30.0   33.333333333333336
100.0   0.0   16.666666666666668
50.0   30.0   16.666666666666668
50.0   0.0   33.333333333333336
100.0   0.0   33.333333333333336
50.0   30.0   33.333333333333336
50.0   0.0   50.0
100.0   0.0   33.333333333333336
100.0   30.0   33.333333333333336
50.0   30.0   33.333333333333336
100.0   30.0   50.0
50.0   0.0   50.0
50.0   30.0   50.0
100.0   30.0   50.0
50.0   30.0   33.333333333333336
50.0   0.0   50.0
100.0   30.0   50.0
100.0   0.0   50.0
100.0   0.0   33.333333333333336
50.0   0.0   50.0
100.0   30.0   50.0
100.0   0.0   33.333333333333336
50.0   30.0   33.333333333333336
50.0   30.0   0.0
100.0   30.0   0.0
50.0   60.0   0.0
50.0   30.0   16.666666666666668
100.0   30.0   0.0
100.0   60.0   0.0
50.0   60.0   0.0
100.0   60.0   16.666666666666668
50.0   30.0   16.666666666666668
50.0   60.0   16.666666666666668
100.0   60.0   16.666666666666668
50.0   60.0   0.0
50.0   30.0   16.666666666666668
100.0   60.0   16.666666666666668
100.0   30.0   16.666666666666668
100.0   30.0   0.0
50.0   30.0   16.666666666666668
100.0   60.0   16.666666666666668
100.0   30.0   0.0
50.0   60.0   0.0
50.0   30.0   16.666666666666668
100.0   30.0   16.666666666666668
50.0   60.0   16.666666666666668
50.0   30.0   33.333333333333336
100.0   30.0   16.666666666666668
100.0   60.0   16.666666666666668
50.0   60.0   16.666666666666668
100.0   60.0   33.333333333333336
50.0   30.0   33.333333333333336
50.0   60.0   33.333333333333336
100.0   60.0   33.333333333333336
50.0   60.0   16.666666666666668
50.0   30.0   33.333333333333336
100.0   60.0   33.333333333333336
100.0   30.0   33.333333333333336
100.0   30.0   16.666666666666668
50.0   30.0   33.333333333333336
100.0   60.0   33.333333333333336
100.0   30.0   16.666666666666668
50.0   60.0   16.666666666666668
50.0   30.0   33.333333333333336
100.0   30.0   33.333333333333336
50.0   60.0   33.333333333333336
50.0   30.0   50.0
100.0   30.0   33.333333333333336
100.0   60.0   33.333333333333336
50.0   60.0   33.333333333333336
100.0   60.0   50.0
50.0   30.0   50.0
50.0   60.0   50.0
100.0   60.0   50.0
50.0   60.0   33.333333333333336
50.0   30.0   50.0
100.0   60.0   50.0
100.0   30.0   50.0
100.0   30.0   33.333333333333336
50.0   30.0   50.0
100.0   60.0   50.0
100.0   30.0   33.333333333333336
50.0   60.0   33.333333333333336
50.0   60.0   0.0
100.0   60.0   0.0
50.0   90.0   0.0
50.0   60.0   16.666666666666668
100.0   60.0   0.0
100.0   90.0   0.0
50.0   90.0   0.0
100.0   90.0   16.666666666666668
50.0   60.0   16.666666666666668
50.0   90.0   16.666666666666668
100.0   90.0   16.666666666666668
50.0   90.0   0.0
50.0   60.0   16.666666666666668
100.0   90.0   16.666666666666668
100.0   60.0   16.666666666666668
100.0   60.0   0.0
50.0   60.0   16.666666666666668
100.0   90.0   16.666666666666668
100.0   60.0   0.0
50.0   90.0   0.0
50.0   60.0   16.666666666666668
100.0   60.0   16.666666666666668
50.0   90.0   16.666666666666668
50.0   60.0   33.333333333333336
100.0   60.0   16.666666666666668
100.0   90.0   16.666666666666668
50.0   90.0   16.666666666666668
100.0   90.0   33.333333333333336
50.0   60.0   33.333333333333336
50.0   90.0   33.333333333333336
100.0   90.0   33.333333333333336
50.0   90.0   16.666666666666668
50.0   60.0   33.333333333333336
100.0   90.0   33.333333333333336
100.0   60.0   33.333333333333336
100.0   60.0   16.666666666666668
50.0   60.0   33.333333333333336
100.0   90.0   33.333333333333336
100.0   60.0   16.666666666666668
50.0   90.0   16.666666666666668
50.0   60.0   33.333333333333336
100.0   60.0   33.333333333333336
50.0   90.0   33.333333333333336
50.0   60.0   50.0
100.0   60.0   33.333333333333336
100.0   90.0   33.333333333333336
50.0   90.0   33.333333333333336
100.0   90.0   50.0
50.0   60.0   50.0
50.0   90.0   50.0
100.0   90.0   50.0
50.0   90.0   33.333333333333336
50.0   60.0   50.0
100.0   90.0   50.0
100.0   60.0   50.0
100.0   60.0   33.333333333333336
50.0   60.0   50.0
100.0   90.0   50.0
100.0   60.0   33.333333333333336
50.0   90.0   33.333333333333336
50.0   90.0   0.0
100.0   90.0   0.0
50.0   120.0   0.0
50.0   90.0   16.666666666666668
100.0   90.0   0.0
100.0   120.0   0.0
50.0   120.0   0.0
100.0   120.0   16.666666666666668
50.0   90.0   16.666666666666668
50.0   120.0   16.666666666666668
100.0   120.0   16.666666666666668
50.0   120.0   0.0
50.0   90.0   16.666666666666668
100.0   120.0   16.666666666666668
100.0   90.0   16.666666666666668
100.0   90.0   0.0
50.0   90.0   16.666666666666668
100.0   120.0   16.666666666666668
100.0   90.0   0.0
50.0   120.0   0.0
50.0   90.0   16.666666666666668
100.0   90.0   16.666666666666668
50.0   120.0   16.666666666666668
50.0   90.0   33.333333333333336
100.0   90.0   16.666666666666668
100.0   120.0   16.666666666666668
50.0   120.0   16.666666666666668
100.0   120.0   33.333333333333336
50.0   90.0   33.333333333333336
50.0   120.0   33.333333333333336
100.0   120.0   33.333333333333336
50.0   120.0   16.666666666666668
50.0   90.0   33.333333333333336
100.0   120.0   33.333333333333336
100.0   90.0   33.333333333333336
100.0   90.0   16.666666666666668
50.0   90.0   33.333333333333336
100.0   120.0   33.333333333333336
100.0   90.0   16.666666666666668
50.0   120.0   16.666666666666668
50.0   90.0   33.333333333333336
100.0   90.0   33.333333333333336
50.0   120.0   33.333333333333336
50.0   90.0   50.0
100.0   90.0   33.333333333333336
100.0   120.0   33.333333333333336
50.0   120.0   33.333333333333336
100.0   120.0   50.0
50.0   90.0   50.0
50.0   120.0   50.0
100.0   120.0   50.0
50.0   120.0   33.333333333333336
50.0   90.0   50.0
100.0   120.0   50.0
100.0   90.0   50.0
100.0   90.0   33.333333333333336
50.0   90.0   50.0
100.0   120.0   50.0
100.0   90.0   33.333333333333336
50.0   120.0   33.333333333333336
50.0   120.0   0.0
100.0   120.0   0.0
50.0   150.0   0.0
50.0   120.0   16.666666666666668
100.0   120.0   0.0
100.0   150.0   0.0
50.0   150.0   0.0
100.0   150.0   16.666666666666668
50.0   120.0   16.666666666666668
50.0   150.0   16.666666666666668
100.0   150.0   16.666666666666668
50.0   150.0   0.0
50.0   120.0   16.666666666666668
100.0   150.0   16.666666666666668
100.0   120.0   16.666666666666668
100.0   120.0   0.0
50.0   120.0   16.666666666666668
100.0   150.0   16.666666666666668
100.0   120.0   0.0
50.0   150.0   0.0
50.0   120.0   16.666666666666668
100.0   120.0   16.666666666666668
50.0   150.0   16.666666666666668
50.0   120.0   33.333333333333336
100.0   120.0   16.666666666666668
100.0   150.0   16.666666666666668
50.0   150.0   16.666666666666668
100.0   150.0   33.333333333333336
50.0   120.0   33.333333333333336
50.0   150.0   33.333333333333336
100.0   150.0   33.333333333333336
50.0   150.0   16.666666666666668
50.0   120.0   33.333333333333336
100.0   150.0   33.333333333333336
100.0   120.0   33.333333333333336
100.0   120.0   16.666666666666668
50.0   120.0   33.333333333333336
100.0   150.0   33.333333333333336
100.0   120.0   16.666666666666668
50.0   150.0   16.666666666666668
50.0   120.0   33.333333333333336
100.0   120.0   33.333333333333336
50.0   150.0   33.333333333333336
50.0   120.0   50.0
100.0   120.0   33.333333333333336
100.0   150.0   33.333333333333336
50.0   150.0   33.333333333333336
100.0   150.0   50.0
50.0   120.0   50.0
50.0   150.0   50.0
100.0   150.0   50.0
50.0   150.0   33.333333333333336
50.0   120.0   50.0
100.0   150.0   50.0
100.0   120.0   50.0
100.0   120.0   33.333333333333336
50.0   120.0   50.0
100.0   150.0   50.0
100.0   120.0   33.333333333333336
50.0   150.0   33.333333333333336
100.0   0.0   0.0
150.0   0.0   0.0
100.0   30.0   0.0
100.0   0.0   16.666666666666668
150.0   0.0   0.0
150.0   30.0   0.0
100.0   30.0   0.0
150.0   30.0   16.666666666666668
100.0   0.0   16.666666666666668
100.0   30.0   16.666666666666668
150.0   30.0   16.666666666666668
100.0   30.0   0.0
100.0   0.0   16.666666666666668
150.0   30.0   16.666666666666668
150.0   0.0   16.666666666666668
150.0   0.0   0.0
100.0   0.0   16.666666666666668
150.0   30.0   16.666666666666668
150.0   0.0   0.0
100.0   30.0   0.0
100.0   0.0   16.666666666666668
150.0   0.0   16.666666666666668
100.0   30.0   16.666666666666668
100.0   0.0   33.333333333333336
150.0   0.0   16.666666666666668
150.0   30.0   16.666666666666668
100.0   30.0   16.666666666666668
150.0   30.0   33.333333333333336
100.0   0.0   33.333333333333336
100.0   30.0   33.333333333333336
150.0   30.0   33.333333333333336
100.0   30.0   16.666666666666668
100.0   0.0   33.333333333333336
150.0   30.0   33.333333333333336
150.0   0.0   33.333333333333336
150.0   0.0   16.666666666666668
100.0   0.0   33.333333333333336
150.0   30.0   33.333333333333336
150.0   0.0   16.666666666666668
100.0   30.0   16.666666666666668
100.0   0.0   33.333333333333336
150.0   0.0   33.333333333333336
100.0   30.0   33.333333333333336
100.0   0.0   50.0
150.0   0.0   33.333333333333336
150.0   30.0   33.333333333333336
100.0   30.0   33.333333333333336
150.0   30.0   50.0
100.0   0.0   50.0
100.0   30.0   50.0
150.0   30.0   50.0
100.0   30.0   33.333333333333336
100.0   0.0   50.0
150.0   30.0   50.0
150.0   0.0   50.0
150.0   0.0   33.333333333333336
100.0   0.0   50.0
150.0   30.0   50.0
150.0   0.0   33.333333333333336
100.0   30.0   33.333333333333336
100.0   30.0   0.0
150.0   30.0   0.0
100.0   60.0   0.0
100.0   30.0   16.666666666666668
150.0   30.0   0.0
150.0   60.0   0.0
100.0   60.0   0.0
150.0   60.0   16.666666666666668
100.0   30.0   16.666666666666668
100.0   60.0   16.666666666666668
150.0   60.0   16.666666666666668
100.0   60.0   0.0
100.0   30.0   16.666666666666668
150.0   60.0   16.666666666666668
150.0   30.0   16.666666666666668
150.0   30.0   0.0
100.0   30.0   16.666666666666668
150.0   60.0   16.666666666666668
150.0   30.0   0.0
100.0   60.0   0.0
100.0   30.0   16.666666666666668
150.0   30.0   16.666666666666668
100.0   60.0   16.666666666666668
100.0   30.0   33.333333333333336
150.0   30.0   16.666666666666668
150.0   60.0   16.666666666666668
100.0   60.0   16.666666666666668
150.0   60.0   33.333333333333336
100.0   30.0   33.333333333333336
100.0   60.0   33.333333333333336
150.0   60.0   33.333333333333336
100.0   60.0   16.666666666666668
100.0   30.0   33.333333333333336
150.0   60.0   33.333333333333336
150.0   30.0   33.333333333333336
150.0   30.0   16.666666666666668
100.0   30.0   33.333333333333336
150.0   60.0   33.333333333333336
150.0   30.0   16.666666666666668
100.0   60.0   16.666666666666668
100.0   30.0   33.333333333333336
150.0   30.0   33.333333333333336
100.0   60.0   33.333333333333336
100.0   30.0   50.0
150.0   30.0   33.333333333333336
150.0   60.0   33.333333333333336
100.0   60.0   33.333333333333336
150.0   60.0   50.0
100.0   30.0   50.0
100.0   60.0   50.0
150.0   60.0   50.0
100.0   60.0   33.333333333333336
100.0   30.0   50.0
150.0   60.0   50.0
150.0   30.0   50.0
150.0   30.0   33.333333333333336
100.0   30.0   50.0
150.0   60.0   50.0
150.0   30.0   33.333333333333336
100.0   60.0   33.333333333333336
100.0   60.0   0.0
150.0   60.0   0.0
100.0   90.0   0.0
100.0   60.0   16.666666666666668
150.0   60.0   0.0
150.0   90.0   0.0
100.0   90.0   0.0
150.0   90.0   16.666666666666668
100.0   60.0   16.666666666666668
100.0   90.0   16.666666666666668
150.0   90.0   16.666666666666668
100.0   90.0   0.0
100.0   60.0   16.666666666666668
150.0   90.0   16.666666666666668
150.0   60.0   16.666666666666668
150.0   60.0   0.0
100.0   60.0   16.666666666666668
150.0   90.0   16.666666666666668
150.0   60.0   0.0
100.0   90.0   0.0
100.0   60.0   16.666666666666668
150.0   60.0   16.666666666666668
100.0   90.0   16.666666666666668
100.0   60.0   33.333333333333336
150.0   60.0   16.666666666666668
150.0   90.0   16.666666666666668
100.0   90.0   16.666666666666668
150.0   90.0   33.333333333333336
100.0   60.0   33.333333333333336
100.0   90.0   33.333333333333336
150.0   90.0   33.333333333333336
100.0   90.0   16.666666666666668
100.0   60.0   33.333333333333336
150.0   90.0   33.333333333333336
150.0   60.0   33.333333333333336
150.0   60.0   16.666666666666668
100.0   60.0   33.333333333333336
150.0   90.0   33.333333333333336
150.0   60.0   16.666666666666668
100.0   90.0   16.666666666666668
100.0   60.0   33.333333333333336
150.0   60.0   33.333333333333336
100.0   90.0   33.333333333333336
100.0   60.0   50.0
150.0   60.0   33.333333333333336
150.0   90.0   33.333333333333336
100.0   90.0   33.333333333333336
150.0   90.0   50.0
100.0   60.0   50.0
100.0   90.0   50.0
150.0   90.0   50.0
100.0   90.0   33.333333333333336
100.0   60.0   50.0
150.0   90.0   50.0
150.0   60.0   50.0
150.0   60.0   33.333333333333336
100.0   60.0   50.0
150.0   90.0   50.0
150.0   60.0   33.333333333333336
100.0   90.0   33.333333333333336
100.0   90.0   0.0
150.0   90.0   0.0
100.0   120.0   0.0
100.0   90.0   16.666666666666668
150.0   90.0   0.0
150.0   120.0   0.0
100.0   120.0   0.0
150.0   120.0   16.666666666666668
100.0   90.0   16.666666666666668
100.0   120.0   16.666666666666668
150.0   120.0   16.666666666666668
100.0   120.0   0.0
100.0   90.0   16.666666666666668
150.0   120.0   16.666666666666668
150.0   90.0   16.666666666666668
150.0   90.0   0.0
100.0   90.0   16.666666666666668
150.0   120.0   16.666666666666668
150.0   90.0   0.0
100.0   120.0   0.0
100.0   90.0   16.666666666666668
150.0   90.0   16.666666666666668
100.0   120.0   16.666666666666668
100.0   90.0   33.333333333333336
150.0   90.0   16.666666666666668
150.0   120.0   16.666666666666668
100.0   120.0   16.666666666666668
150.0   120.0   33.333333333333336
100.0   90.0   33.333333333333336
100.0   120.0   33.333333333333336
150.0   120.0   33.333333333333336
100.0   120.0   16.666666666666668
100.0   90.0   33.333333333333336
150.0   120.0   33.333333333333336
150.0   90.0   33.333333333333336
150.0   90.0   16.666666666666668
100.0   90.0   33.333333333333336
150.0   120.0   33.333333333333336
150.0   90.0   16.666666666666668
100.0   120.0   16.666666666666668
100.0   90.0   33.333333333333336
150.0   90.0   33.333333333333336
100.0   120.0   33.333333333333336
100.0   90.0   50.0
150.0   90.0   33.333333333333336
150.0   120.0   33.333333333333336
100.0   120.0   33.333333333333336
150.0   120.0   50.0
100.0   90.0   50.0
100.0   120.0   50.0
150.0   120.0   50.0
100.0   120.0   33.333333333333336
100.0   90.0   50.0
150.0   120.0   50.0
150.0   90.0   50.0
150.0   90.0   33.333333333333336
100.0   90.0   50.0
150.0   120.0   50.0
150.0   90.0   33.333333333333336
100.0   120.0   33.333333333333336
100.0   120.0   0.0
150.0   120.0   0.0
100.0   150.0   0.0
100.0   120.0   16.666666666666668
150.0   120.0   0.0
150.0   150.0   0.0
100.0   150.0   0.0
150.0   150.0   16.666666666666668
100.0   120.0   16.666666666666668
100.0   150.0   16.666666666666668
150.0   150.0   16.666666666666668
100.0   150.0   0.0
100.0   120.0   16.666666666666668
150.0   150.0   16.666666666666668
150.0   120.0   16.666666666666668
150.0   120.0   0.0
100.0   120.0   16.666666666666668
150.0   150.0   16.666666666666668
150.0   120.0   0.0
100.0   150.0   0.0
100.0   120.0   16.666666666666668
150.0   120.0   16.666666666666668
100.0   150.0   16.666666666666668
100.0   120.0   33.333333333333336
150.0   120.0   16.666666666666668
150.0   150.0   16.666666666666668
100.0   150.0   16.666666666666668
150.0   150.0   33.333333333333336
100.0   120.0   33.333333333333336
100.0   150.0   33.333333333333336
150.0   150.0   33.333333333333336
100.0   150.0   16.666666666666668
100.0   120.0   33.333333333333336
150.0   150.0   33.333333333333336
150.0   120.0   33.333333333333336
150.0   120.0   16.666666666666668
100.0   120.0   33.333333333333336
150.0   150.0   33.333333333333336
150.0   120.0   16.666666666666668
100.0   150.0   16.666666666666668
100.0   120.0   33.333333333333336
150.0   120.0   33.333333333333336
100.0   150.0   33.333333333333336
100.0   120.0   50.0
150.0   120.0   33.333333333333336
150.0   150.0   33.333333333333336
100.0   150.0   33.333333333333336
150.0   150.0   50.0
100.0   120.0   50.0
100.0   150.0   50.0
150.0   150.0   50.0
100.0   150.0   33.333333333333336
100.0   120.0   50.0
150.0   150.0   50.0
150.0   120.0   50.0
150.0   120.0   33.333333333333336
100.0   120.0   50.0
150.0   150.0   50.0
150.0   120.0   33.333333333333336
100.0   150.0   33.333333333333336
150.0   0.0   0.0
200.0   0.0   0.0
150.0   30.0   0.0
150.0   0.0   16.666666666666668
200.0   0.0   0.0
200.0   30.0   0.0
150.0   30.0   0.0
200.0   30.0   16.666666666666668
150.0   0.0   16.666666666666668
150.0   30.0   16.666666666666668
200.0   30.0   16.666666666666668
150.0   30.0   0.0
150.0   0.0   16.666666666666668
200.0   30.0   16.666666666666668
200.0   0.0   16.666666666666668
200.0   0.0   0.0
150.0   0.0   16.666666666666668
200.0   30.0   16.666666666666668
200.0   0.0   0.0
150.0   30.0   0.0
150.0   0.0   16.666666666666668
200.0   0.0   16.666666666666668
150.0   30.0   16.666666666666668
150.0   0.0   33.333333333333336
200.0   0.0   16.666666666666668
200.0   30.0   16.666666666666668
150.0   30.0   16.666666666666668
200.0   30.0   33.333333333333336
150.0   0.0   33.333333333333336
150.0   30.0   33.333333333333336
200.0   30.0   33.333333333333336
150.0   30.0   16.666666666666668
150.0   0.0   33.333333333333336
200.0   30.0   33.333333333333336
200.0   0.0   33.333333333333336
200.0   0.0   16.666666666666668
150.0   0.0   33.333333333333336
200.0   30.0   33.333333333333336
200.0   0.0   16.666666666666668
150.0   30.0   16.666666666666668
150.0   0.0   33.333333333333336
200.0   0.0   33.333333333333336
150.0   30.0   33.333333333333336
150.0   0.0   50.0
200.0   0.0   33.333333333333336
200.0   30.0   33.333333333333336
150.0   30.0   33.333333333333336
200.0   30.0   50.0
150.0   0.0   50.0
150.0   30.0   50.0
200.0   30.0   50.0
150.0   30.0   33.333333333333336
150.0   0.0   50.0
200.0   30.0   50.0
200.0   0.0   50.0
200.0   0.0   33.333333333333336
150.0   0.0   50.0
200.0   30.0   50.0
200.0   0.0   33.333333333333336
150.0   30.0   33.333333333333336
150.0   30.0   0.0
200.0   30.0   0.0
150.0   60.0   0.0
150.0   30.0   16.666666666666668
200.0   30.0   0.0
200.0   60.0   0.0
150.0   60.0   0.0
200.0   60.0   16.666666666666668
150.0   30.0   16.666666666666668
150.0   60.0   16.666666666666668
200.0   60.0   16.666666666666668
150.0   60.0   0.0
150.0   30.0   16.666666666666668
200.0   60.0   16.666666666666668
200.0   30.0   16.666666666666668
200.0   30.0   0.0
150.0   30.0   16.666666666666668
200.0   60.0   16.666666666666668
200.0   30.0   0.0
150.0   60.0   0.0
150.0   30.0   16.666666666666668
200.0   30.0   16.666666666666668
150.0   60.0   16.666666666666668
150.0   30.0   33.333333333333336
200.0   30.0   16.666666666666668
200.0   60.0   16.666666666666668
150.0   60.0   16.666666666666668
200.0   60.0   33.333333333333336
150.0   30.0   33.333333333333336
150.0   60.0   33.333333333333336
200.0   60.0   33.333333333333336
150.0   60.0   16.666666666666668
150.0   30.0   33.333333333333336
200.0   60.0   33.333333333333336
200.0   30.0   33.333333333333336
200.0   30.0   16.666666666666668
150.0   30.0   33.333333333333336
200.0   60.0   33.333333333333336
200.0   30.0   16.666666666666668
150.0   60.0   16.666666666666668
150.0   30.0   33.333333333333336
200.0   30.0   33.333333333333336
150.0   60.0   33.333333333333336
150.0   30.0   50.0
200.0   30.0   33.333333333333336
200.0   60.0   33.333333333333336
150.0   60.0   33.333333333333336
200.0   60.0   50.0
150.0   30.0   50.0
150.0   60.0   50.0
200.0   60.0   50.0
150.0   60.0   33.333333333333336
150.0   30.0   50.0
200.0   60.0   50.0
200.0   30.0   50.0
200.0   30.0   33.333333333333336
150.0   30.0   50.0
200.0   60.0   50.0
200.0   30.0   33.333333333333336
150.0   60.0   33.333333333333336
150.0   60.0   0.0
200.0   60.0   0.0
150.0   90.0   0.0
150.0   60.0   16.666666666666668
200.0   60.0   0.0
200.0   90.0   0.0
150.0   90.0   0.0
200.0   90.0   16.666666666666668
150.0   60.0   16.666666666666668
150.0   90.0   16.666666666666668
200.0   90.0   16.666666666666668
150.0   90.0   0.0
150.0   60.0   16.666666666666668
200.0   90.0   16.666666666666668
200.0   60.0   16.666666666666668
200.0   60.0   0.0
150.0   60.0   16.666666666666668
200.0   90.0   16.666666666666668
200.0   60.0   0.0
150.0   90.0   0.0
150.0   60.0   16.666666666666668
200.0   60.0   16.666666666666668
150.0   90.0   16.666666666666668
150.0   60.0   33.333333333333336
200.0   60.0   16.666666666666668
200.0   90.0   16.666666666666668
150.0   90.0   16.666666666666668
200.0   90.0   33.333333333333336
150.0   60.0   33.333333333333336
150.0   90.0   33.333333333333336
200.0   90.0   33.333333333333336
150.0   90.0   16.666666666666668
150.0   60.0   33.333333333333336
200.0   90.0   33.333333333333336
200.0   60.0   33.333333333333336
200.0   60.0   16.666666666666668
150.0   60.0   33.333333333333336
200.0   90.0   33.333333333333336
200.0   60.0   16.666666666666668
150.0   90.0   16.666666666666668
150.0   60.0   33.333333333333336
200.0   60.0   33.333333333333336
150.0   90.0   33.333333333333336
150.0   60.0   50.0
200.0   60.0   33.333333333333336
200.0   90.0   33.333333333333336
150.0   90.0   33.333333333333336
200.0   90.0   50.0
150.0   60.0   50.0
150.0   90.0   50.0
200.0   90.0   50.0
150.0   90.0   33.333333333333336
150.0   60.0   50.0
200.0   90.0   50.0
200.0   60.0   50.0
200.0   60.0   33.333333333333336
150.0   60.0   50.0
200.0   90.0   50.0
200.0   60.0   33.333333333333336
150.0   90.0   33.333333333333336
150.0   90.0   0.0
200.0   90.0   0.0
150.0   120.0   0.0
150.0   90.0   16.666666666666668
200.0   90.0   0.0
200.0   120.0   0.0
150.0   120.0   0.0
200.0   120.0   16.666666666666668
150.0   90.0   16.666666666666668
150.0   120.0   16.666666666666668
200.0   120.0   16.666666666666668
150.0   120.0   0.0
150.0   90.0   16.666666666666668
200.0   120.0   16.666666666666668
200.0   90.0   16.666666666666668
200.0   90.0   0.0
150.0   90.0   16.666666666666668
200.0   120.0   16.666666666666668
200.0   90.0   0.0
150.0   120.0   0.0
150.0   90.0   16.666666666666668
200.0   90.0   16.666666666666668
150.0   120.0   16.666666666666668
150.0   90.0   33.333333333333336
200.0   90.0   16.666666666666668
200.0   120.0   16.666666666666668
150.0   120.0   16.666666666666668
200.0   120.0   33.333333333333336
150.0   90.0   33.333333333333336
150.0   120.0   33.333333333333336
200.0   120.0   33.333333333333336
150.0   120.0   16.666666666666668
150.0   90.0   33.333333333333336
200.0   120.0   33.333333333333336
200.0   90.0   33.333333333333336
200.0   90.0   16.666666666666668
150.0   90.0   33.333333333333336
200.0   120.0   33.333333333333336
200.0   90.0   16.666666666666668
150.0   120.0   16.666666666666668
150.0   90.0   33.333333333333336
200.0   90.0   33.333333333333336
150.0   120.0   33.333333333333336
150.0   90.0   50.0
200.0   90.0   33.333333333333336
200.0   120.0   33.333333333333336
150.0   120.0   33.333333333333336
200.0   120.0   50.0
150.0   90.0   50.0
150.0   120.0   50.0
200.0   120.0   50.0
150.0   120.0   33.333333333333336
150.0   90.0   50.0
200.0   120.0   50.0
200.0   90.0   50.0
200.0   90.0   33.333333333333336
150.0   90.0   50.0
200.0   120.0   50.0
200.0   90.0   33.333333333333336
150.0   120.0   33.333333333333336
150.0   120.0   0.0
200.0   120.0   0.0
150.0   150.0   0.0
150.0   120.0   16.666666666666668
200.0   120.0   0.0
200.0   150.0   0.0
150.0   150.0   0.0
200.0   150.0   16.666666666666668
150.0   120.0   16.666666666666668
150.0   150.0   16.666666666666668
200.0   150.0   16.666666666666668
150.0   150.0   0.0
150.0   120.0   16.666666666666668
200.0   150.0   16.666666666666668
200.0   120.0   16.666666666666668
200.0   120.0   0.0
150.0   120.0   16.666666666666668
200.0   150.0   16.666666666666668
200.0   120.0   0.0
150.0   150.0   0.0
150.0   120.0   16.666666666666668
200.0   120.0   16.666666666666668
150.0   150.0   16.666666666666668
150.0   120.0   33.333333333333336
200.0   120.0   16.666666666666668
200.0   150.0   16.666666666666668
150.0   150.0   16.666666666666668
200.0   150.0   33.333333333333336
150.0   120.0   33.333333333333336
150.0   150.0   33.333333333333336
200.0   150.0   33.333333333333336
150.0   150.0   16.666666666666668
150.0   120.0   33.333333333333336
200.0   150.0   33.333333333333336
200.0   120.0   33.333333333333336
200.0   120.0   16.666666666666668
150.0   120.0   33.333333333333336
200.0   150.0   33.333333333333336
200.0   120.0   16.666666666666668
150.0   150.0   16.666666666666668
150.0   120.0   33.333333333333336
200.0   120.0   33.333333333333336
150.0   150.0   33.333333333333336
150.0   120.0   50.0
200.0   120.0   33.333333333333336
200.0   150.0   33.333333333333336
150.0   150.0   33.333333333333336
200.0   150.0   50.0
150.0   120.0   50.0
150.0   150.0   50.0
200.0   150.0   50.0
150.0   150.0   33.333333333333336
150.0   120.0   50.0
200.0   150.0   50.0
200.0   120.0   50.0
200.0   120.0   33.333333333333336
150.0   120.0   50.0
200.0   150.0   50.0
200.0   120.0   33.333333333333336
150.0   150.0   33.333333333333336
200.0   0.0   0.0
250.0   0.0   0.0
200.0   30.0   0.0
200.0   0.0   16.666666666666668
250.0   0.0   0.0
250.0   30.0   0.0
200.0   30.0   0.0
250.0   30.0   16.666666666666668
200.0   0.0   16.666666666666668
200.0   30.0   16.666666666666668
250.0   30.0   16.666666666666668
200.0   30.0   0.0
200.0   0.0   16.666666666666668
250.0   30.0   16.666666666666668
250.0   0.0   16.666666666666668
250.0   0.0   0.0
200.0   0.0   16.666666666666668
250.0   30.0   16.666666666666668
250.0   0.0   0.0
200.0   30.0   0.0
200.0   0.0   16.666666666666668
250.0   0.0   16.666666666666668
200.0   30.0   16.666666666666668
200.0   0.0   33.333333333333336
250.0   0.0   16.666666666666668
250.0   30.0   16.666666666666668
200.0   30.0   16.666666666666668
250.0   30.0   33.333333333333336
200.0   0.0   33.333333333333336
200.0   30.0   33.333333333333336
250.0   30.0   33.333333333333336
200.0   30.0   16.666666666666668
200.0   0.0   33.333333333333336
250.0   30.0   33.333333333333336
250.0   0.0   33.333333333333336
250.0   0.0   16.666666666666668
200.0   0.0   33.333333333333336
250.0   30.0   33.333333333333336
250.0   0.0   16.666666666666668
200.0   30.0   16.666666666666668
200.0   0.0   33.333333333333336
250.0   0.0   33.333333333333336
200.0   30.0   33.333333333333336
200.0   0.0   50.0
250.0   0.0   33.333333333333336
250.0   30.0   33.333333333333336
200.0   30.0   33.333333333333336
250.0   30.0   50.0
200.0   0.0   50.0
200.0   30.0   50.0
250.0   30.0   50.0
200.0   30.0   33.333333333333336
200.0   0.0   50.0
250.0   30.0   50.0
250.0   0.0   50.0
250.0   0.0   33.333333333333336
200.0   0.0   50.0
250.0   30.0   50.0
250.0   0.0   33.333333333333336
200.0   30.0   33.333333333333336
200.0   30.0   0.0
250.0   30.0   0.0
200.0   60.0   0.0
200.0   30.0   16.666666666666668
250.0   30.0   0.0
250.0   60.0   0.0
200.0   60.0   0.0
250.0   60.0   16.666666666666668
200.0   30.0   16.666666666666668
200.0   60.0   16.666666666666668
250.0   60.0   16.666666666666668
200.0   60.0   0.0
200.0   30.0   16.666666666666668
250.0   60.0   16.666666666666668
250.0   30.0   16.666666666666668
250.0   30.0   0.0
200.0   30.0   16.666666666666668
250.0   60.0   16.666666666666668
250.0   30.0   0.0
200.0   60.0   0.0
200.0   30.0   16.666666666666668
250.0   30.0   16.666666666666668
200.0   60.0   16.666666666666668
200.0   30.0   33.333333333333336
250.0   30.0   16.666666666666668
250.0   60.0   16.666666666666668
200.0   60.0   16.666666666666668
250.0   60.0   33.333333333333336
200.0   30.0   33.333333333333336
200.0   60.0   33.333333333333336
250.0   60.0   33.333333333333336
200.0   60.0   16.666666666666668
200.0   30.0   33.333333333333336
250.0   60.0   33.333333333333336
250.0   30.0   33.333333333333336
250.0   30.0   16.666666666666668
200.0   30.0   33.333333333333336
250.0   60.0   33.333333333333336
250.0   30.0   16.666666666666668
200.0   60.0   16.666666666666668
200.0   30.0   33.333333333333336
250.0   30.0   33.333333333333336
200.0   60.0   33.333333333333336
200.0   30.0   50.0
250.0   30.0   33.333333333333336
250.0   60.0   33.333333333333336
200.0   60.0   33.333333333333336
250.0   60.0   50.0
200.0   30.0   50.0
200.0   60.0   50.0
250.0   60.0   50.0
200.0   60.0   33.333333333333336
200.0   30.0   50.0
250.0   60.0   50.0
250.0   30.0   50.0
250.0   30.0   33.333333333333336
200.0   30.0   50.0
250.0   60.0   50.0
250.0   30.0   33.333333333333336
200.0   60.0   33.333333333333336
200.0   60.0   0.0
250.0   60.0   0.0
200.0   90.0   0.0
200.0   60.0   16.666666666666668
250.0   60.0   0.0
250.0   90.0   0.0
200.0   90.0   0.0
250.0   90.0   16.666666666666668
200.0   60.0   16.666666666666668
200.0   90.0   16.666666666666668
250.0   90.0   16.666666666666668
200.0   90.0   0.0
200.0   60.0   16.666666666666668
250.0   90.0   16.666666666666668
250.0   60.0   16.666666666666668
250.0   60.0   0.0
200.0   60.0   16.666666666666668
250.0   90.0   16.666666666666668
250.0   60.0   0.0
200.0   90.0   0.0
200.0   60.0   16.666666666666668
250.0   60.0   16.666666666666668
200.0   90.0   16.666666666666668
200.0   60.0   33.333333333333336
250.0   60.0   16.666666666666668
250.0   90.0   16.666666666666668
200.0   90.0   16.666666666666668
250.0   90.0   33.333333333333336
200.0   60.0   33.333333333333336
200.0   90.0   33.333333333333336
250.0   90.0   33.333333333333336
200.0   90.0   16.666666666666668
200.0   60.0   33.333333333333336
250.0   90.0   33.333333333333336
250.0   60.0   33.333333333333336
250.0   60.0   16.666666666666668
200.0   60.0   33.333333333333336
250.0   90.0   33.333333333333336
250.0   60.0   16.666666666666668
200.0   90.0   16.666666666666668
200.0   60.0   33.333333333333336
250.0   60.0   33.333333333333336
200.0   90.0   33.333333333333336
200.0   60.0   50.0
250.0   60.0   33.333333333333336
250.0   90.0   33.333333333333336
200.0   90.0   33.333333333333336
250.0   90.0   50.0
200.0   60.0   50.0
200.0   90.0   50.0
250.0   90.0   50.0
200.0   90.0   33.333333333333336
200.0   60.0   50.0
250.0   90.0   50.0
250.0   60.0   50.0
250.0   60.0   33.333333333333336
200.0   60.0   50.0
250.0   90.0   50.0
250.0   60.0   33.333333333333336
200.0   90.0   33.333333333333336
200.0   90.0   0.0
250.0   90.0   0.0
200.0   120.0   0.0
200.0   90.0   16.666666666666668
250.0   90.0   0.0
250.0   120.0   0.0
200.0   120.0   0.0
250.0   120.0   16.666666666666668
200.0   90.0   16.666666666666668
200.0   120.0   16.666666666666668
250.0   120.0   16.666666666666668
200.0   120.0   0.0
200.0   90.0   16.666666666666668
250.0   120.0   16.666666666666668
250.0   90.0   16.666666666666668
250.0   90.0   0.0
200.0   90.0   16.666666666666668
250.0   120.0   16.666666666666668
250.0   90.0   0.0
200.0   120.0   0.0
200.0   90.0   16.666666666666668
250.0   90.0   16.666666666666668
200.0   120.0   16.666666666666668
200.0   90.0   33.333333333333336
250.0   90.0   16.666666666666668
250.0   120.0   16.666666666666668
200.0   120.0   16.666666666666668
250.0   120.0   33.333333333333336
200.0   90.0   33.333333333333336
200.0   120.0   33.333333333333336
250.0   120.0   33.333333333333336
200.0   120.0   16.666666666666668
200.0   90.0   33.333333333333336
250.0   120.0   33.333333333333336
250.0   90.0   33.333333333333336
250.0   90.0   16.666666666666668
200.0   90.0   33.333333333333336
250.0   120.0   33.333333333333336
250.0   90.0   16.666666666666668
200.0   120.0   16.666666666666668
200.0   90.0   33.333333333333336
250.0   90.0   33.333333333333336
200.0   120.0   33.333333333333336
200.0   90.0   50.0
250.0   90.0   33.333333333333336
250.0   120.0   33.333333333333336
200.0   120.0   33.333333333333336
250.0   120.0   50.0
200.0   90.0   50.0
200.0   120.0   50.0
250.0   120.0   50.0
200.0   120.0   33.333333333333336
200.0   90.0   50.0
250.0   120.0   50.0
250.0   90.0   50.0
250.0   90.0   33.333333333333336
200.0   90.0   50.0
250.0   120.0   50.0
250.0   90.0   33.333333333333336
200.0   120.0   33.333333333333336
200.0   120.0   0.0
250.0   120.0   0.0
200.0   150.0   0.0
200.0   120.0   16.666666666666668
250.0   120.0   0.0
250.0   150.0   0.0
200.0   150.0   0.0
250.0   150.0   16.666666666666668
200.0   120.0   16.666666666666668
200.0   150.0   16.666666666666668
250.0   150.0   16.666666666666668
200.0   150.0   0.0
200.0   120.0   16.666666666666668
250.0   150.0   16.666666666666668
250.0   120.0   16.666666666666668
250.0   120.0   0.0
200.0   120.0   16.666666666666668
250.0   150.0   16.666666666666668
250.0   120.0   0.0
200.0   150.0   0.0
200.0   120.0   16.666666666666668
250.0   120.0   16.666666666666668
200.0   150.0   16.666666666666668
200.0   120.0   33.333333333333336
250.0   120.0   16.666666666666668
250.0   150.0   16.666666666666668
200.0   150.0   16.666666666666668
250.0   150.0   33.333333333333336
200.0   120.0   33.333333333333336
200.0   150.0   33.333333333333336
250.0   150.0   33.333333333333336
200.0   150.0   16.666666666666668
200.0   120.0   33.333333333333336
250.0   150.0   33.333333333333336
250.0   120.0   33.333333333333336
250.0   120.0   16.666666666666668
200.0   120.0   33.333333333333336
250.0   150.0   33.333333333333336
250.0   120.0   16.666666666666668
200.0   150.0   16.666666666666668
200.0   120.0   33.333333333333336
250.0   120.0   33.333333333333336
200.0   150.0   33.333333333333336
200.0   120.0   50.0
250.0   120.0   33.333333333333336
250.0   150.0   33.333333333333336
200.0   150.0   33.333333333333336
250.0   150.0   50.0
200.0   120.0   50.0
200.0   150.0   50.0
250.0   150.0   50.0
200.0   150.0   33.333333333333336
200.0   120.0   50.0
250.0   150.0   50.0
250.0   120.0   50.0
250.0   120.0   33.333333333333336
200.0   120.0   50.0
250.0   150.0   50.0
250.0   120.0   33.333333333333336
200.0   150.0   33.333333333333336
250.0   0.0   0.0
300.0   0.0   0.0
250.0   30.0   0.0
250.0   0.0   16.666666666666668
300.0   0.0   0.0
300.0   30.0   0.0
250.0   30.0   0.0
300.0   30.0   16.666666666666668
250.0   0.0   16.666666666666668
250.0   30.0   16.666666666666668
300.0   30.0   16.666666666666668
250.0   30.0   0.0
250.0   0.0   16.666666666666668
300.0   30.0   16.666666666666668
300.0   0.0   16.666666666666668
300.0   0.0   0.0
250.0   0.0   16.666666666666668
300.0   30.0   16.666666666666668
300.0   0.0   0.0
250.0   30.0   0.0
250.0   0.0   16.666666666666668
300.0   0.0   16.666666666666668
250.0   30.0   16.666666666666668
250.0   0.0   33.333333333333336
300.0   0.0   16.666666666666668
300.0   30.0   16.666666666666668
250.0   30.0   16.666666666666668
300.0   30.0   33.333333333333336
250.0   0.0   33.333333333333336
250.0   30.0   33.333333333333336
300.0   30.0   33.333333333333336
250.0   30.0   16.666666666666668
250.0   0.0   33.333333333333336
300.0   30.0   33.333333333333336
300.0   0.0   33.333333333333336
300.0   0.0   16.666666666666668
250.0   0.0   33.333333333333336
300.0   30.0   33.333333333333336
300.0   0.0   16.666666666666668
250.0   30.0   16.666666666666668
250.0   0.0   33.333333333333336
300.0   0.0   33.333333333333336
250.0   30.0   33.333333333333336
250.0   0.0   50.0
300.0   0.0   33.333333333333336
300.0   30.0   33.333333333333336
250.0   30.0   33.333333333333336
300.0   30.0   50.0
250.0   0.0   50.0
250.0   30.0   50.0
300.0   30.0   50.0
250.0   30.0   33.333333333333336
250.0   0.0   50.0
300.0   30.0   50.0
300.0   0.0   50.0
300.0   0.0   33.333333333333336
250.0   0.0   50.0
300.0   30.0   50.0
300.0   0.0   33.333333333333336
250.0   30.0   33.333333333333336
250.0   30.0   0.0
300.0   30.0   0.0
250.0   60.0   0.0
250.0   30.0   16.666666666666668
300.0   30.0   0.0
300.0   60.0   0.0
250.0   60.0   0.0
300.0   60.0   16.666666666666668
250.0   30.0   16.666666666666668
250.0   60.0   16.666666666666668
300.0   60.0   16.666666666666668
250.0   60.0   0.0
250.0   30.0   16.666666666666668
300.0   60.0   16.666666666666668
300.0   30.0   16.666666666666668
300.0   30.0   0.0
250.0   30.0   16.666666666666668
300.0   60.0   16.666666666666668
300.0   30.0   0.0
250.0   60.0   0.0
250.0   30.0   16.666666666666668
300.0   30.0   16.666666666666668
250.0   60.0   16.666666666666668
250.0   30.0   33.333333333333336
300.0   30.0   16.666666666666668
300.0   60.0   16.666666666666668
250.0   60.0   16.666666666666668
300.0   60.0   33.333333333333336
250.0   30.0   33.333333333333336
250.0   60.0   33.333333333333336
300.0   60.0   33.333333333333336
250.0   60.0   16.666666666666668
250.0   30.0   33.333333333333336
300.0   60.0   33.333333333333336
300.0   30.0   33.333333333333336
300.0   30.0   16.666666666666668
250.0   30.0   33.333333333333336
300.0   60.0   33.333333333333336
300.0   30.0   16.666666666666668
250.0   60.0   16.666666666666668
250.0   30.0   33.333333333333336
300.0   30.0   33.333333333333336
250.0   60.0   33.333333333333336
250.0   30.0   50.0
300.0   30.0   33.333333333333336
300.0   60.0   33.333333333333336
250.0   60.0   33.333333333333336
300.0   60.0   50.0
250.0   30.0   50.0
250.0   60.0   50.0
300.0   60.0   50.0
250.0   60.0   33.333333333333336
250.0   30.0   50.0
300.0   60.0   50.0
300.0   30.0   50.0
300.0   30.0   33.333333333333336
250.0   30.0   50.0
300.0   60.0   50.0
300.0   30.0   33.333333333333336
250.0   60.0   33.333333333333336
250.0   60.0   0.0
300.0   60.0   0.0
250.0   90.0   0.0
250.0   60.0   16.666666666666668
300.0   60.0   0.0
300.0   90.0   0.0
250.0   90.0   0.0
300.0   90.0   16.666666666666668
250.0   60.0   16.666666666666668
250.0   90.0   16.666666666666668
300.0   90.0   16.666666666666668
250.0   90.0   0.0
250.0   60.0   16.666666666666668
300.0   90.0   16.666666666666668
300.0   60.0   16.666666666666668
300.0   60.0   0.0
250.0   60.0   16.666666666666668
300.0   90.0   16.666666666666668
300.0   60.0   0.0
250.0   90.0   0.0
250.0   60.0   16.666666666666668
300.0   60.0   16.666666666666668
250.0   90.0   16.666666666666668
250.0   60.0   33.333333333333336
300.0   60.0   16.666666666666668
300.0   90.0   16.666666666666668
250.0   90.0   16.666666666666668
300.0   90.0   33.333333333333336
250.0   60.0   33.333333333333336
250.0   90.0   33.333333333333336
300.0   90.0   33.333333333333336
250.0   90.0   16.666666666666668
250.0   60.0   33.333333333333336
300.0   90.0   33.333333333333336
300.0   60.0   33.333333333333336
300.0   60.0   16.666666666666668
250.0   60.0   33.333333333333336
300.0   90.0   33.333333333333336
300.0   60.0   16.666666666666668
250.0   90.0   16.666666666666668
250.0   60.0   33.333333333333336
300.0   60.0   33.333333333333336
250.0   90.0   33.333333333333336
250.0   60.0   50.0
300.0   60.0   33.333333333333336
300.0   90.0   33.333333333333336
250.0   90.0   33.333333333333336
300.0   90.0   50.0
250.0   60.0   50.0
250.0   90.0   50.0
300.0   90.0   50.0
250.0   90.0   33.333333333333336
250.0   60.0   50.0
300.0   90.0   50.0
300.0   60.0   50.0
300.0   60.0   33.333333333333336
250.0   60.0   50.0
300.0   90.0   50.0
300.0   60.0   33.333333333333336
250.0   90.0   33.333333333333336
250.0   90.0   0.0
300.0   90.0   0.0
250.0   120.0   0.0
250.0   90.0   16.666666666666668
300.0   90.0   0.0
300.0   120.0   0.0
250.0   120.0   0.0
300.0   120.0   16.666666666666668
250.0   90.0   16.666666666666668
250.0   120.0   16.666666666666668
300.0   120.0   16.666666666666668
250.0   120.0   0.0
250.0   90.0   16.666666666666668
300.0   120.0   16.666666666666668
300.0   90.0   16.666666666666668
300.0   90.0   0.0
250.0   90.0   16.666666666666668
300.0   120.0   16.666666666666668
300.0   90.0   0.0
250.0   120.0   0.0
250.0   90.0   16.666666666666668
300.0   90.0   16.666666666666668
250.0   120.0   16.666666666666668
250.0   90.0   33.333333333333336
300.0   90.0   16.666666666666668
300.0   120.0   16.666666666666668
250.0   120.0   16.666666666666668
300.0   120.0   33.333333333333336
250.0   90.0   33.333333333333336
250.0   120.0   33.333333333333336
300.0   120.0   33.333333333333336
250.0   120.0   16.666666666666668
250.0   90.0   33.333333333333336
300.0   120.0   33.333333333333336
300.0   90.0   33.333333333333336
300.0   90.0   16.666666666666668
250.0   90.0   33.333333333333336
300.0   120.0   33.333333333333336
300.0   90.0   16.666666666666668
250.0   120.0   16.666666666666668
250.0   90.0   33.333333333333336
300.0   90.0   33.333333333333336
250.0   120.0   33.333333333333336
250.0   90.0   50.0
300.0   90.0   33.333333333333336
300.0   120.0   33.333333333333336
250.0   120.0   33.333333333333336
300.0   120.0   50.0
250.0   90.0   50.0
250.0   120.0   50.0
300.0   120.0   50.0
250.0   120.0   33.333333333333336
250.0   90.0   50.0
300.0   120.0   50.0
300.0   90.0   50.0
300.0   90.0   33.333333333333336
250.0   90.0   50.0
300.0   120.0   50.0
300.0   90.0   33.333333333333336
250.0   120.0   33.333333333333336
250.0   120.0   0.0
300.0   120.0   0.0
250.0   150.0   0.0
250.0   120.0   16.666666666666668
300.0   120.0   0.0
300.0   150.0   0.0
250.0   150.0   0.0
300.0   150.0   16.666666666666668
250.0   120.0   16.666666666666668
250.0   150.0   16.666666666666668
300.0   150.0   16.666666666666668
250.0   150.0   0.0
250.0   120.0   16.666666666666668
300.0   150.0   16.666666666666668
300.0   120.0   16.666666666666668
300.0   120.0   0.0
250.0   120.0   16.666666666666668
300.0   150.0   16.666666666666668
300.0   120.0   0.0
250.0   150.0   0.0
250.0   120.0   16.666666666666668
300.0   120.0   16.666666666666668
250.0   150.0   16.666666666666668
250.0   120.0   33.333333333333336
300.0   120.0   16.666666666666668
300.0   150.0   16.666666666666668
250.0   150.0   16.666666666666668
300.0   150.0   33.333333333333336
250.0   120.0   33.333333333333336
250.0   150.0   33.333333333333336
300.0   150.0   33.333333333333336
250.0   150.0   16.666666666666668
250.0   120.0   33.333333333333336
300.0   150.0   33.333333333333336
300.0   120.0   33.333333333333336
300.0   120.0   16.666666666666668
250.0   120.0   33.333333333333336
300.0   150.0   33.333333333333336
300.0   120.0   16.666666666666668
250.0   150.0   16.666666666666668
250.0   120.0   33.333333333333336
300.0   120.0   33.333333333333336
250.0   150.0   33.333333333333336
250.0   120.0   50.0
300.0   120.0   33.333333333333336
300.0   150.0   33.333333333333336
250.0   150.0   33.333333333333336
300.0   150.0   50.0
250.0   120.0   50.0
250.0   150.0   50.0
300.0   150.0   50.0
250.0   150.0   33.333333333333336
250.0   120.0   50.0
300.0   150.0   50.0
300.0   120.0   50.0
300.0   120.0   33.333333333333336
250.0   120.0   50.0
300.0   150.0   50.0
300.0   120.0   33.333333333333336
250.0   150.0   33.333333333333336
300.0   0.0   0.0
350.0   0.0   0.0
300.0   30.0   0.0
300.0   0.0   16.666666666666668
350.0   0.0   0.0
350.0   30.0   0.0
300.0   30.0   0.0
350.0   30.0   16.666666666666668
300.0   0.0   16.666666666666668
300.0   30.0   16.666666666666668
350.0   30.0   16.666666666666668
300.0   30.0   0.0
300.0   0.0   16.666666666666668
350.0   30.0   16.666666666666668
350.0   0.0   16.666666666666668
350.0   0.0   0.0
300.0   0.0   16.666666666666668
350.0   30.0   16.666666666666668
350.0   0.0   0.0
300.0   30.0   0.0
300.0   0.0   16.666666666666668
350.0   0.0   16.666666666666668
300.0   30.0   16.666666666666668
300.0   0.0   33.333333333333336
350.0   0.0   16.666666666666668
350.0   30.0   16.666666666666668
300.0   30.0   16.666666666666668
350.0   30.0   33.333333333333336
300.0   0.0   33.333333333333336
300.0   30.0   33.333333333333336
350.0   30.0   33.333333333333336
300.0   30.0   16.666666666666668
300.0   0.0   33.333333333333336
350.0   30.0   33.333333333333336
350.0   0.0   33.333333333333336
350.0   0.0   16.666666666666668
300.0   0.0   33.333333333333336
350.0   30.0   33.333333333333336
350.0   0.0   16.666666666666668
300.0   30.0   16.666666666666668
300.0   0.0   33.333333333333336
350.0   0.0   33.333333333333336
300.0   30.0   33.333333333333336
300.0   0.0   50.0
350.0   0.0   33.333333333333336
350.0   30.0   33.333333333333336
300.0   30.0   33.333333333333336
350.0   30.0   50.0
300.0   0.0   50.0
300.0   30.0   50.0
350.0   30.0   50.0
300.0   30.0   33.333333333333336
300.0   0.0   50.0
350.0   30.0   50.0
350.0   0.0   50.0
350.0   0.0   33.333333333333336
300.0   0.0   50.0
350.0   30.0   50.0
350.0   0.0   33.333333333333336
300.0   30.0   33.333333333333336
300.0   30.0   0.0
350.0   30.0   0.0
300.0   60.0   0.0
300.0   30.0   16.666666666666668
350.0   30.0   0.0
350.0   60.0   0.0
300.0   60.0   0.0
350.0   60.0   16.666666666666668
300.0   30.0   16.666666666666668
300.0   60.0   16.666666666666668
350.0   60.0   16.666666666666668
300.0   60.0   0.0
300.0   30.0   16.666666666666668
350.0   60.0   16.666666666666668
350.0   30.0   16.666666666666668
350.0   30.0   0.0
300.0   30.0   16.666666666666668
350.0   60.0   16.666666666666668
350.0   30.0   0.0
300.0   60.0   0.0
300.0   30.0   16.666666666666668
350.0   30.0   16.666666666666668
300.0   60.0   16.666666666666668
300.0   30.0   33.333333333333336
350.0   30.0   16.666666666666668
350.0   60.0   16.666666666666668
300.0   60.0   16.666666666666668
350.0   60.0   33.333333333333336
300.0   30.0   33.333333333333336
300.0   60.0   33.333333333333336
350.0   60.0   33.333333333333336
300.0   60.0   16.666666666666668
300.0   30.0   33.333333333333336
350.0   60.0   33.333333333333336
350.0   30.0   33.333333333333336
350.0   30.0   16.666666666666668
300.0   30.0   33.333333333333336
350.0   60.0   33.333333333333336
350.0   30.0   16.666666666666668
300.0   60.0   16.666666666666668
300.0   30.0   33.333333333333336
350.0   30.0   33.333333333333336
300.0   60.0   33.333333333333336
300.0   30.0   50.0
350.0   30.0   33.333333333333336
350.0   60.0   33.333333333333336
300.0   60.0   33.333333333333336
350.0   60.0   50.0
300.0   30.0   50.0
300.0   60.0   50.0
350.0   60.0   50.0
300.0   60.0   33.333333333333336
300.0   30.0   50.0
350.0   60.0   50.0
350.0   30.0   50.0
350.0   30.0   33.333333333333336
300.0   30.0   50.0
350.0   60.0   50.0
350.0   30.0   33.333333333333336
300.0   60.0   33.333333333333336
300.0   60.0   0.0
350.0   60.0   0.0
300.0   90.0   0.0
300.0   60.0   16.666666666666668
350.0   60.0   0.0
350.0   90.0   0.0
300.0   90.0   0.0
350.0   90.0   16.666666666666668
300.0   60.0   16.666666666666668
300.0   90.0   16.666666666666668
350.0   90.0   16.666666666666668
300.0   90.0   0.0
300.0   60.0   16.666666666666668
350.0   90.0   16.666666666666668
350.0   60.0   16.666666666666668
350.0   60.0   0.0
300.0   60.0   16.666666666666668
350.0   90.0   16.666666666666668
350.0   60.0   0.0
300.0   90.0   0.0
300.0   60.0   16.666666666666668
350.0   60.0   16.666666666666668
300.0   90.0   16.666666666666668
300.0   60.0   33.333333333333336
350.0   60.0   16.666666666666668
350.0   90.0   16.666666666666668
300.0   90.0   16.666666666666668
350.0   90.0   33.333333333333336
300.0   60.0   33.333333333333336
300.0   90.0   33.333333333333336
350.0   90.0   33.333333333333336
300.0   90.0   16.666666666666668
300.0   60.0   33.333333333333336
350.0   90.0   33.333333333333336
350.0   60.0   33.333333333333336
350.0   60.0   16.666666666666668
300.0   60.0   33.333333333333336
350.0   90.0   33.333333333333336
350.0   60.0   16.666666666666668
300.0   90.0   16.666666666666668
300.0   60.0   33.333333333333336
350.0   60.0   33.333333333333336
300.0   90.0   33.333333333333336
300.0   60.0   50.0
350.0   60.0   33.333333333333336
350.0   90.0   33.333333333333336
300.0   90.0   33.333333333333336
350.0   90.0   50.0
300.0   60.0   50.0
300.0   90.0   50.0
350.0   90.0   50.0
300.0   90.0   33.333333333333336
300.0   60.0   50.0
350.0   90.0   50.0
350.0   60.0   50.0
350.0   60.0   33.333333333333336
300.0   60.0   50.0
350.0   90.0   50.0
350.0   60.0   33.333333333333336
300.0   90.0   33.333333333333336
300.0   90.0   0.0
350.0   90.0   0.0
300.0   120.0   0.0
300.0   90.0   16.666666666666668
350.0   90.0   0.0
350.0   120.0   0.0
300.0   120.0   0.0
350.0   120.0   16.666666666666668
300.0   90.0   16.666666666666668
300.0   120.0   16.666666666666668
350.0   120.0   16.666666666666668
300.0   120.0   0.0
300.0   90.0   16.666666666666668
350.0   120.0   16.666666666666668
350.0   90.0   16.666666666666668
350.0   90.0   0.0
300.0   90.0   16.666666666666668
350.0   120.0   16.666666666666668
350.0   90.0   0.0
300.0   120.0   0.0
300.0   90.0   16.666666666666668
350.0   90.0   16.666666666666668
300.0   120.0   16.666666666666668
300.0   90.0   33.333333333333336
350.0   90.0   16.666666666666668
350.0   120.0   16.666666666666668
300.0   120.0   16.666666666666668
350.0   120.0   33.333333333333336
300.0   90.0   33.333333333333336
300.0   120.0   33.333333333333336
350.0   120.0   33.333333333333336
300.0   120.0   16.666666666666668
300.0   90.0   33.333333333333336
350.0   120.0   33.333333333333336
350.0   90.0   33.333333333333336
350.0   90.0   16.666666666666668
300.0   90.0   33.333333333333336
350.0   120.0   33.333333333333336
350.0   90.0   16.666666666666668
300.0   120.0   16.666666666666668
300.0   90.0   33.333333333333336
350.0   90.0   33.333333333333336
300.0   120.0   33.333333333333336
300.0   90.0   50.0
350.0   90.0   33.333333333333336
350.0   120.0   33.333333333333336
300.0   120.0   33.333333333333336
350.0   120.0   50.0
300.0   90.0   50.0
300.0   120.0   50.0
350.0   120.0   50.0
300.0   120.0   33.333333333333336
300.0   90.0   50.0
350.0   120.0   50.0
350.0   90.0   50.0
350.0   90.0   33.333333333333336
300.0   90.0   50.0
350.0   120.0   50.0
350.0   90.0   33.333333333333336
300.0   120.0   33.333333333333336
300.0   120.0   0.0
350.0   120.0   0.0
300.0   150.0   0.0
300.0   120.0   16.666666666666668
350.0   120.0   0.0
350.0   150.0   0.0
300.0   150.0   0.0
350.0   150.0   16.666666666666668
300.0   120.0   16.666666666666668
300.0   150.0   16.666666666666668
350.0   150.0   16.666666666666668
300.0   150.0   0.0
300.0   120.0   16.666666666666668
350.0   150.0   16.666666666666668
350.0   120.0   16.666666666666668
350.0   120.0   0.0
300.0   120.0   16.666666666666668
350.0   150.0   16.666666666666668
350.0   120.0   0.0
300.0   150.0   0.0
300.0   120.0   16.666666666666668
350.0   120.0   16.666666666666668
300.0   150.0   16.666666666666668
300.0   120.0   33.333333333333336
350.0   120.0   16.666666666666668
350.0   150.0   16.666666666666668
300.0   150.0   16.666666666666668
350.0   150.0   33.333333333333336
300.0   120.0   33.333333333333336
300.0   150.0   33.333333333333336
350.0   150.0   33.333333333333336
300.0   150.0   16.666666666666668
300.0   120.0   33.333333333333336
350.0   150.0   33.333333333333336
350.0   120.0   33.333333333333336
350.0   120.0   16.666666666666668
300.0   120.0   33.333333333333336
350.0   150.0   33.333333333333336
350.0   120.0   16.666666666666668
300.0   150.0   16.666666666666668
300.0   120.0   33.333333333333336
350.0   120.0   33.333333333333336
300.0   150.0   33.333333333333336
300.0   120.0   50.0
350.0   120.0   33.333333333333336
350.0   150.0   33.333333333333336
300.0   150.0   33.333333333333336
350.0   150.0   50.0
300.0   120.0   50.0
300.0   150.0   50.0
350.0   150.0   50.0
300.0   150.0   33.333333333333336
300.0   120.0   50.0
350.0   150.0   50.0
350.0   120.0   50.0
350.0   120.0   33.333333333333336
300.0   120.0   50.0
350.0   150.0   50.0
350.0   120.0   33.333333333333336
300.0   150.0   33.333333333333336
350.0   0.0   0.0
400.0   0.0   0.0
350.0   30.0   0.0
350.0   0.0   16.666666666666668
400.0   0.0   0.0
400.0   30.0   0.0
350.0   30.0   0.0
400.0   30.0   16.666666666666668
350.0   0.0   16.666666666666668
350.0   30.0   16.666666666666668
400.0   30.0   16.666666666666668
350.0   30.0   0.0
350.0   0.0   16.666666666666668
400.0   30.0   16.666666666666668
400.0   0.0   16.666666666666668
400.0   0.0   0.0
350.0   0.0   16.666666666666668
400.0   30.0   16.666666666666668
400.0   0.0   0.0
350.0   30.0   0.0
350.0   0.0   16.666666666666668
400.0   0.0   16.666666666666668
350.0   30.0   16.666666666666668
350.0   0.0   33.333333333333336
400.0   0.0   16.666666666666668
400.0   30.0   16.666666666666668
350.0   30.0   16.666666666666668
400.0   30.0   33.333333333333336
350.0   0.0   33.333333333333336
350.0   30.0   33.333333333333336
400.0   30.0   33.333333333333336
350.0   30.0   16.666666666666668
350.0   0.0   33.333333333333336
400.0   30.0   33.333333333333336
400.0   0.0   33.333333333333336
400.0   0.0   16.666666666666668
350.0   0.0   33.333333333333336
400.0   30.0   33.333333333333336
400.0   0.0   16.666666666666668
350.0   30.0   16.666666666666668
350.0   0.0   33.333333333333336
400.0   0.0   33.333333333333336
350.0   30.0   33.333333333333336
350.0   0.0   50.0
400.0   0.0   33.333333333333336
400.0   30.0   33.333333333333336
350.0   30.0   33.333333333333336
400.0   30.0   50.0
350.0   0.0   50.0
350.0   30.0   50.0
400.0   30.0   50.0
350.0   30.0   33.333333333333336
350.0   0.0   50.0
400.0   30.0   50.0
400.0   0.0   50.0
400.0   0.0   33.333333333333336
350.0   0.0   50.0
400.0   30.0   50.0
400.0   0.0   33.333333333333336
350.0   30.0   33.333333333333336
350.0   30.0   0.0
400.0   30.0   0.0
350.0   60.0   0.0
350.0   30.0   16.666666666666668
400.0   30.0   0.0
400.0   60.0   0.0
350.0   60.0   0.0
400.0   60.0   16.666666666666668
350.0   30.0   16.666666666666668
350.0   60.0   16.666666666666668
400.0   60.0   16.666666666666668
350.0   60.0   0.0
350.0   30.0   16.666666666666668
400.0   60.0   16.666666666666668
400.0   30.0   16.666666666666668
400.0   30.0   0.0
350.0   30.0   16.666666666666668
400.0   60.0   16.666666666666668
400.0   30.0   0.0
350.0   60.0   0.0
350.0   30.0   16.666666666666668
400.0   30.0   16.666666666666668
350.0   60.0   16.666666666666668
350.0   30.0   33.333333333333336
400.0   30.0   16.666666666666668
400.0   60.0   16.666666666666668
350.0   60.0   16.666666666666668
400.0   60.0   33.333333333333336
350.0   30.0   33.333333333333336
350.0   60.0   33.333333333333336
400.0   60.0   33.333333333333336
350.0   60.0   16.666666666666668
350.0   30.0   33.333333333333336
400.0   60.0   33.333333333333336
400.0   30.0   33.333333333333336
400.0   30.0   16.666666666666668
350.0   30.0   33.333333333333336
400.0   60.0   33.333333333333336
400.0   30.0   16.666666666666668
350.0   60.0   16.666666666666668
350.0   30.0   33.333333333333336
400.0   30.0   33.333333333333336
350.0   60.0   33.333333333333336
350.0   30.0   50.0
400.0   30.0   33.333333333333336
400.0   60.0   33.333333333333336
350.0   60.0   33.333333333333336
400.0   60.0   50.0
350.0   30.0   50.0
350.0   60.0   50.0
400.0   60.0   50.0
350.0   60.0   33.333333333333336
350.0   30.0   50.0
400.0   60.0   50.0
400.0   30.0   50.0
400.0   30.0   33.333333333333336
350.0   30.0   50.0
400.0   60.0   50.0
400.0   30.0   33.333333333333336
350.0   60.0   33.333333333333336
350.0   60.0   0.0
400.0   60.0   0.0
350.0   90.0   0.0
350.0   60.0   16.666666666666668
400.0   60.0   0.0
400.0   90.0   0.0
350.0   90.0   0.0
400.0   90.0   16.666666666666668
350.0   60.0   16.666666666666668
350.0   90.0   16.666666666666668
400.0   90.0   16.666666666666668
350.0   90.0   0.0
350.0   60.0   16.666666666666668
400.0   90.0   16.666666666666668
400.0   60.0   16.666666666666668
400.0   60.0   0.0
350.0   60.0   16.666666666666668
400.0   90.0   16.666666666666668
400.0   60.0   0.0
350.0   90.0   0.0
350.0   60.0   16.666666666666668
400.0   60.0   16.666666666666668
350.0   90.0   16.666666666666668
350.0   60.0   33.333333333333336
400.0   60.0   16.666666666666668
400.0   90.0   16.666666666666668
350.0   90.0   16.666666666666668
400.0   90.0   33.333333333333336
350.0   60.0   33.333333333333336
350.0   90.0   33.333333333333336
400.0   90.0   33.333333333333336
350.0   90.0   16.666666666666668
350.0   60.0   33.333333333333336
400.0   90.0   33.333333333333336
400.0   60.0   33.333333333333336
400.0   60.0   16.666666666666668
350.0   60.0   33.333333333333336
400.0   90.0   33.333333333333336
400.0   60.0   16.666666666666668
350.0   90.0   16.666666666666668
350.0   60.0   33.333333333333336
400.0   60.0   33.333333333333336
350.0   90.0   33.333333333333336
350.0   60.0   50.0
400.0   60.0   33.333333333333336
400.0   90.0   33.333333333333336
350.0   90.0   33.333333333333336
400.0   90.0   50.0
350.0   60.0   50.0
350.0   90.0   50.0
400.0   90.0   50.0
350.0   90.0   33.333333333333336
350.0   60.0   50.0
400.0   90.0   50.0
400.0   60.0   50.0
400.0   60.0   33.333333333333336
350.0   60.0   50.0
400.0   90.0   50.0
400.0   60.0   33.333333333333336
350.0   90.0   33.333333333333336
350.0   90.0   0.0
400.0   90.0   0.0
350.0   120.0   0.0
350.0   90.0   16.666666666666668
400.0   90.0   0.0
400.0   120.0   0.0
350.0   120.0   0.0
400.0   120.0   16.666666666666668
350.0   90.0   16.666666666666668
350.0   120.0   16.666666666666668
400.0   120.0   16.666666666666668
350.0   120.0   0.0
350.0   90.0   16.666666666666668
400.0   120.0   16.666666666666668
400.0   90.0   16.666666666666668
400.0   90.0   0.0
350.0   90.0   16.666666666666668
400.0   120.0   16.666666666666668
400.0   90.0   0.0
350.0   120.0   0.0
350.0   90.0   16.666666666666668
400.0   90.0   16.666666666666668
350.0   120.0   16.666666666666668
350.0   90.0   33.333333333333336
400.0   90.0   16.666666666666668
400.0   120.0   16.666666666666668
350.0   120.0   16.666666666666668
400.0   120.0   33.333333333333336
350.0   90.0   33.333333333333336
350.0   120.0   33.333333333333336
400.0   120.0   33.333333333333336
350.0   120.0   16.666666666666668
350.0   90.0   33.333333333333336
400.0   120.0   33.333333333333336
400.0   90.0   33.333333333333336
400.0   90.0   16.666666666666668
350.0   90.0   33.333333333333336
400.0   120.0   33.333333333333336
400.0   90.0   16.666666666666668
350.0   120.0   16.666666666666668
350.0   90.0   33.333333333333336
400.0   90.0   33.333333333333336
350.0   120.0   33.333333333333336
350.0   90.0   50.0
400.0   90.0   33.333333333333336
400.0   120.0   33.333333333333336
350.0   120.0   33.333333333333336
400.0   120.0   50.0
350.0   90.0   50.0
350.0   120.0   50.0
400.0   120.0   50.0
350.0   120.0   33.333333333333336
350.0   90.0   50.0
400.0   120.0   50.0
400.0   90.0   50.0
400.0   90.0   33.333333333333336
350.0   90.0   50.0
400.0   120.0   50.0
400.0   90.0   33.333333333333336
350.0   120.0   33.333333333333336
350.0   120.0   0.0
400.0   120.0   0.0
350.0   150.0   0.0
350.0   120.0   16.666666666666668
400.0   120.0   0.0
400.0   150.0   0.0
350.0   150.0   0.0
400.0   150.0   16.666666666666668
350.0   120.0   16.666666666666668
350.0   150.0   16.666666666666668
400.0   150.0   16.666666666666668
350.0   150.0   0.0
350.0   120.0   16.666666666666668
400.0   150.0   16.666666666666668
400.0   120.0   16.666666666666668
400.0   120.0   0.0
350.0   120.0   16.666666666666668
400.0   150.0   16.666666666666668
400.0   120.0   0.0
350.0   150.0   0.0
350.0   120.0   16.666666666666668
400.0   120.0   16.666666666666668
350.0   150.0   16.666666666666668
350.0   120.0   33.333333333333336
400.0   120.0   16.666666666666668
400.0   150.0   16.666666666666668
350.0   150.0   16.666666666666668
400.0   150.0   33.333333333333336
350.0   120.0   33.333333333333336
350.0   150.0   33.333333333333336
400.0   150.0   33.333333333333336
350.0   150.0   16.666666666666668
350.0   120.0   33.333333333333336
400.0   150.0   33.333333333333336
400.0   120.0   33.333333333333336
400.0   120.0   16.666666666666668
350.0   120.0   33.333333333333336
400.0   150.0   33.333333333333336
400.0   120.0   16.666666666666668
350.0   150.0   16.666666666666668
350.0   120.0   33.333333333333336
400.0   120.0   33.333333333333336
350.0   150.0   33.333333333333336
350.0   120.0   50.0
400.0   120.0   33.333333333333336
400.0   150.0   33.333333333333336
350.0   150.0   33.333333333333336
400.0   150.0   50.0
350.0   120.0   50.0
350.0   150.0   50.0
400.0   150.0   50.0
350.0   150.0   33.333333333333336
350.0   120.0   50.0
400.0   150.0   50.0
400.0   120.0   50.0
400.0   120.0   33.333333333333336
350.0   120.0   50.0
400.0   150.0   50.0
400.0   120.0   33.333333333333336
350.0   150.0   33.333333333333336
400.0   0.0   0.0
450.0   0.0   0.0
400.0   30.0   0.0
400.0   0.0   16.666666666666668
450.0   0.0   0.0
450.0   30.0   0.0
400.0   30.0   0.0
450.0   30.0   16.666666666666668
400.0   0.0   16.666666666666668
400.0   30.0   16.666666666666668
450.0   30.0   16.666666666666668
400.0   30.0   0.0
400.0   0.0   16.666666666666668
450.0   30.0   16.666666666666668
450.0   0.0   16.666666666666668
450.0   0.0   0.0
400.0   0.0   16.666666666666668
450.0   30.0   16.666666666666668
450.0   0.0   0.0
400.0   30.0   0.0
400.0   0.0   16.666666666666668
450.0   0.0   16.666666666666668
400.0   30.0   16.666666666666668
400.0   0.0   33.333333333333336
450.0   0.0   16.666666666666668
450.0   30.0   16.666666666666668
400.0   30.0   16.666666666666668
450.0   30.0   33.333333333333336
400.0   0.0   33.333333333333336
400.0   30.0   33.333333333333336
450.0   30.0   33.333333333333336
400.0   30.0   16.666666666666668
400.0   0.0   33.333333333333336
450.0   30.0   33.333333333333336
450.0   0.0   33.333333333333336
450.0   0.0   16.666666666666668
400.0   0.0   33.333333333333336
450.0   30.0   33.333333333333336
450.0   0.0   16.666666666666668
400.0   30.0   16.666666666666668
400.0   0.0   33.333333333333336
450.0   0.0   33.333333333333336
400.0   30.0   33.333333333333336
400.0   0.0   50.0
450.0   0.0   33.333333333333336
450.0   30.0   33.333333333333336
400.0   30.0   33.333333333333336
450.0   30.0   50.0
400.0   0.0   50.0
400.0   30.0   50.0
450.0   30.0   50.0
400.0   30.0   33.333333333333336
400.0   0.0   50.0
450.0   30.0   50.0
450.0   0.0   50.0
450.0   0.0   33.333333333333336
400.0   0.0   50.0
450.0   30.0   50.0
450.0   0.0   33.333333333333336
400.0   30.0   33.333333333333336
400.0   30.0   0.0
450.0   30.0   0.0
400.0   60.0   0.0
400.0   30.0   16.666666666666668
450.0   30.0   0.0
450.0   60.0   0.0
400.0   60.0   0.0
450.0   60.0   16.666666666666668
400.0   30.0   16.666666666666668
400.0   60.0   16.666666666666668
450.0   60.0   16.666666666666668
400.0   60.0   0.0
400.0   30.0   16.666666666666668
450.0   60.0   16.666666666666668
450.0   30.0   16.666666666666668
450.0   30.0   0.0
400.0   30.0   16.666666666666668
450.0   60.0   16.666666666666668
450.0   30.0   0.0
400.0   60.0   0.0
400.0   30.0   16.666666666666668
450.0   30.0   16.666666666666668
400.0   60.0   16.666666666666668
400.0   30.0   33.333333333333336
450.0   30.0   16.666666666666668
450.0   60.0   16.666666666666668
400.0   60.0   16.666666666666668
450.0   60.0   33.333333333333336
400.0   30.0   33.333333333333336
400.0   60.0   33.333333333333336
450.0   60.0   33.333333333333336
400.0   60.0   16.666666666666668
400.0   30.0   33.333333333333336
450.0   60.0   33.333333333333336
450.0   30.0   33.333333333333336
450.0   30.0   16.666666666666668
400.0   30.0   33.333333333333336
450.0   60.0   33.333333333333336
450.0   30.0   16.666666666666668
400.0   60.0   16.666666666666668
400.0   30.0   33.333333333333336
450.0   30.0   33.333333333333336
400.0   60.0   33.333333333333336
400.0   30.0   50.0
450.0   30.0   33.333333333333336
450.0   60.0   33.333333333333336
400.0   60.0   33.333333333333336
450.0   60.0   50.0
400.0   30.0   50.0
400.0   60.0   50.0
450.0   60.0   50.0
400.0   60.0   33.333333333333336
400.0   30.0   50.0
450.0   60.0   50.0
450.0   30.0   50.0
450.0   30.0   33.333333333333336
400.0   30.0   50.0
450.0   60.0   50.0
450.0   30.0   33.333333333333336
400.0   60.0   33.333333333333336
400.0   60.0   0.0
450.0   60.0   0.0
400.0   90.0   0.0
400.0   60.0   16.666666666666668
450.0   60.0   0.0
450.0   90.0   0.0
400.0   90.0   0.0
450.0   90.0   16.666666666666668
400.0   60.0   16.666666666666668
400.0   90.0   16.666666666666668
450.0   90.0   16.666666666666668
400.0   90.0   0.0
400.0   60.0   16.666666666666668
450.0   90.0   16.666666666666668
450.0   60.0   16.666666666666668
450.0   60.0   0.0
400.0   60.0   16.666666666666668
450.0   90.0   16.666666666666668
450.0   60.0   0.0
400.0   90.0   0.0
400.0   60.0   16.666666666666668
450.0   60.0   16.666666666666668
400.0   90.0   16.666666666666668
400.0   60.0   33.333333333333336
450.0   60.0   16.666666666666668
450.0   90.0   16.666666666666668
400.0   90.0   16.666666666666668
450.0   90.0   33.333333333333336
400.0   60.0   33.333333333333336
400.0   90.0   33.333333333333336
450.0   90.0   33.333333333333336
400.0   90.0   16.666666666666668
400.0   60.0   33.333333333333336
450.0   90.0   33.333333333333336
450.0   60.0   33.333333333333336
450.0   60.0   16.666666666666668
400.0   60.0   33.333333333333336
450.0   90.0   33.333333333333336
450.0   60.0   16.666666666666668
400.0   90.0   16.666666666666668
400.0   60.0   33.333333333333336
450.0   60.0   33.333333333333336
400.0   90.0   33.333333333333336
400.0   60.0   50.0
450.0   60.0   33.333333333333336
450.0   90.0   33.333333333333336
400.0   90.0   33.333333333333336
450.0   90.0   50.0
400.0   60.0   50.0
400.0   90.0   50.0
450.0   90.0   50.0
400.0   90.0   33.333333333333336
400.0   60.0   50.0
450.0   90.0   50.0
450.0   60.0   50.0
450.0   60.0   33.333333333333336
400.0   60.0   50.0
450.0   90.0   50.0
450.0   60.0   33.333333333333336
400.0   90.0   33.333333333333336
400.0   90.0   0.0
450.0   90.0   0.0
400.0   120.0   0.0
400.0   90.0   16.666666666666668
450.0   90.0   0.0
450.0   120.0   0.0
400.0   120.0   0.0
450.0   120.0   16.666666666666668
400.0   90.0   16.666666666666668
400.0   120.0   16.666666666666668
450.0   120.0   16.666666666666668
400.0   120.0   0.0
400.0   90.0   16.666666666666668
450.0   120.0   16.666666666666668
450.0   90.0   16.666666666666668
450.0   90.0   0.0
400.0   90.0   16.666666666666668
450.0   120.0   16.666666666666668
450.0   90.0   0.0
400.0   120.0   0.0
400.0   90.0   16.666666666666668
450.0   90.0   16.666666666666668
400.0   120.0   16.666666666666668
400.0   90.0   33.333333333333336
450.0   90.0   16.666666666666668
450.0   120.0   16.666666666666668
400.0   120.0   16.666666666666668
450.0   120.0   33.333333333333336
400.0   90.0   33.333333333333336
400.0   120.0   33.333333333333336
450.0   120.0   33.333333333333336
400.0   120.0   16.666666666666668
400.0   90.0   33.333333333333336
450.0   120.0   33.333333333333336
450.0   90.0   33.333333333333336
450.0   90.0   16.666666666666668
400.0   90.0   33.333333333333336
450.0   120.0   33.333333333333336
450.0   90.0   16.666666666666668
400.0   120.0   16.666666666666668
400.0   90.0   33.333333333333336
450.0   90.0   33.333333333333336
400.0   120.0   33.333333333333336
400.0   90.0   50.0
450.0   90.0   33.333333333333336
450.0   120.0   33.333333333333336
400.0   120.0   33.333333333333336
450.0   120.0   50.0
400.0   90.0   50.0
400.0   120.0   50.0
450.0   120.0   50.0
400.0   120.0   33.333333333333336
400.0   90.0   50.0
450.0   120.0   50.0
450.0   90.0   50.0
450.0   90.0   33.333333333333336
400.0   90.0   50.0
450.0   120.0   50.0
450.0   90.0   33.333333333333336
400.0   120.0   33.333333333333336
400.0   120.0   0.0
450.0   120.0   0.0
400.0   150.0   0.0
400.0   120.0   16.666666666666668
450.0   120.0   0.0
450.0   150.0   0.0
400.0   150.0   0.0
450.0   150.0   16.666666666666668
400.0   120.0   16.666666666666668
400.0   150.0   16.666666666666668
450.0   150.0   16.666666666666668
400.0   150.0   0.0
400.0   120.0   16.666666666666668
450.0   150.0   16.666666666666668
450.0   120.0   16.666666666666668
450.0   120.0   0.0
400.0   120.0   16.666666666666668
450.0   150.0   16.666666666666668
450.0   120.0   0.0
400.0   150.0   0.0
400.0   120.0   16.666666666666668
450.0   120.0   16.666666666666668
400.0   150.0   16.666666666666668
400.0   120.0   33.333333333333336
450.0   120.0   16.666666666666668
450.0   150.0   16.666666666666668
400.0   150.0   16.666666666666668
450.0   150.0   33.333333333333336
400.0   120.0   33.333333333333336
400.0   150.0   33.333333333333336
450.0   150.0   33.333333333333336
400.0   150.0   16.666666666666668
400.0   120.0   33.333333333333336
450.0   150.0   33.333333333333336
450.0   120.0   33.333333333333336
450.0   120.0   16.666666666666668
400.0   120.0   33.333333333333336
450.0   150.0   33.333333333333336
450.0   120.0   16.666666666666668
400.0   150.0   16.666666666666668
400.0   120.0   33.333333333333336
450.0   120.0   33.333333333333336
400.0   150.0   33.333333333333336
400.0   120.0   50.0
450.0   120.0   33.333333333333336
450.0   150.0   33.333333333333336
400.0   150.0   33.333333333333336
450.0   150.0   50.0
400.0   120.0   50.0
400.0   150.0   50.0
450.0   150.0   50.0
400.0   150.0   33.333333333333336
400.0   120.0   50.0
450.0   150.0   50.0
450.0   120.0   50.0
450.0   120.0   33.333333333333336
400.0   120.0   50.0
450.0   150.0   50.0
450.0   120.0   33.333333333333336
400.0   150.0   33.333333333333336
450.0   0.0   0.0
500.0   0.0   0.0
450.0   30.0   0.0
450.0   0.0   16.666666666666668
500.0   0.0   0.0
500.0   30.0   0.0
450.0   30.0   0.0
500.0   30.0   16.666666666666668
450.0   0.0   16.666666666666668
450.0   30.0   16.666666666666668
500.0   30.0   16.666666666666668
450.0   30.0   0.0
450.0   0.0   16.666666666666668
500.0   30.0   16.666666666666668
500.0   0.0   16.666666666666668
500.0   0.0   0.0
450.0   0.0   16.666666666666668
500.0   30.0   16.666666666666668
500.0   0.0   0.0
450.0   30.0   0.0
450.0   0.0   16.666666666666668
500.0   0.0   16.666666666666668
450.0   30.0   16.666666666666668
450.0   0.0   33.333333333333336
500.0   0.0   16.666666666666668
500.0   30.0   16.666666666666668
450.0   30.0   16.666666666666668
500.0   30.0   33.333333333333336
450.0   0.0   33.333333333333336
450.0   30.0   33.333333333333336
500.0   30.0   33.333333333333336
450.0   30.0   16.666666666666668
450.0   0.0   33.333333333333336
500.0   30.0   33.333333333333336
500.0   0.0   33.333333333333336
500.0   0.0   16.666666666666668
450.0   0.0   33.333333333333336
500.0   30.0   33.333333333333336
500.0   0.0   16.666666666666668
450.0   30.0   16.666666666666668
450.0   0.0   33.333333333333336
500.0   0.0   33.333333333333336
450.0   30.0   33.333333333333336
450.0   0.0   50.0
500.0   0.0   33.333333333333336
500.0   30.0   33.333333333333336
450.0   30.0   33.333333333333336
500.0   30.0   50.0
450.0   0.0   50.0
450.0   30.0   50.0
500.0   30.0   50.0
450.0   30.0   33.333333333333336
450.0   0.0   50.0
500.0   30.0   50.0
500.0   0.0   50.0
500.0   0.0   33.333333333333336
450.0   0.0   50.0
500.0   30.0   50.0
500.0   0.0   33.333333333333336
450.0   30.0   33.333333333333336
450.0   30.0   0.0
500.0   30.0   0.0
450.0   60.0   0.0
450.0   30.0   16.666666666666668
500.0   30.0   0.0
500.0   60.0   0.0
450.0   60.0   0.0
500.0   60.0   16.666666666666668
450.0   30.0   16.666666666666668
450.0   60.0   16.666666666666668
500.0   60.0   16.666666666666668
450.0   60.0   0.0
450.0   30.0   16.666666666666668
500.0   60.0   16.666666666666668
500.0   30.0   16.666666666666668
500.0   30.0   0.0
450.0   30.0   16.666666666666668
500.0   60.0   16.666666666666668
500.0   30.0   0.0
450.0   60.0   0.0
450.0   30.0   16.666666666666668
500.0   30.0   16.666666666666668
450.0   60.0   16.666666666666668
450.0   30.0   33.333333333333336
500.0   30.0   16.666666666666668
500.0   60.0   16.666666666666668
450.0   60.0   16.666666666666668
500.0   60.0   33.333333333333336
450.0   30.0   33.333333333333336
450.0   60.0   33.333333333333336
500.0   60.0   33.333333333333336
450.0   60.0   16.666666666666668
450.0   30.0   33.333333333333336
500.0   60.0   33.333333333333336
500.0   30.0   33.333333333333336
500.0   30.0   16.666666666666668
450.0   30.0   33.333333333333336
500.0   60.0   33.333333333333336
500.0   30.0   16.666666666666668
450.0   60.0   16.666666666666668
450.0   30.0   33.333333333333336
500.0   30.0   33.333333333333336
450.0   60.0   33.333333333333336
450.0   30.0   50.0
500.0   30.0   33.333333333333336
500.0   60.0   33.333333333333336
450.0   60.0   33.333333333333336
500.0   60.0   50.0
450.0   30.0   50.0
450.0   60.0   50.0
500.0   60.0   50.0
450.0   60.0   33.333333333333336
450.0   30.0   50.0
500.0   60.0   50.0
500.0   30.0   50.0
500.0   30.0   33.333333333333336
450.0   30.0   50.0
500.0   60.0   50.0
500.0   30.0   33.333333333333336
450.0   60.0   33.333333333333336
450.0   60.0   0.0
500.0   60.0   0.0
450.0   90.0   0.0
450.0   60.0   16.666666666666668
500.0   60.0   0.0
500.0   90.0   0.0
450.0   90.0   0.0
500.0   90.0   16.666666666666668
450.0   60.0   16.666666666666668
450.0   90.0   16.666666666666668
500.0   90.0   16.666666666666668
450.0   90.0   0.0
450.0   60.0   16.666666666666668
500.0   90.0   16.666666666666668
500.0   60.0   16.666666666666668
500.0   60.0   0.0
450.0   60.0   16.666666666666668
500.0   90.0   16.666666666666668
500.0   60.0   0.0
450.0   90.0   0.0
450.0   60.0   16.666666666666668
500.0   60.0   16.666666666666668
450.0   90.0   16.666666666666668
450.0   60.0   33.333333333333336
500.0   60.0   16.666666666666668
500.0   90.0   16.666666666666668
450.0   90.0   16.666666666666668
500.0   90.0   33.333333333333336
450.0   60.0   33.333333333333336
450.0   90.0   33.333333333333336
500.0   90.0   33.333333333333336
450.0   90.0   16.666666666666668
450.0   60.0   33.333333333333336
500.0   90.0   33.333333333333336
500.0   60.0   33.333333333333336
500.0   60.0   16.666666666666668
450.0   60.0   33.333333333333336
500.0   90.0   33.333333333333336
500.0   60.0   16.666666666666668
450.0   90.0   16.666666666666668
450.0   60.0   33.333333333333336
500.0   60.0   33.333333333333336
450.0   90.0   33.333333333333336
450.0   60.0   50.0
500.0   60.0   33.333333333333336
500.0   90.0   33.333333333333336
450.0   90.0   33.333333333333336
500.0   90.0   50.0
450.0   60.0   50.0
450.0   90.0   50.0
500.0   90.0   50.0
450.0   90.0   33.333333333333336
450.0   60.0   50.0
500.0   90.0   50.0
500.0   60.0   50.0
500.0   60.0   33.333333333333336
450.0   60.0   50.0
500.0   90.0   50.0
500.0   60.0   33.333333333333336
450.0   90.0   33.333333333333336
450.0   90.0   0.0
500.0   90.0   0.0
450.0   120.0   0.0
450.0   90.0   16.666666666666668
500.0   90.0   0.0
500.0   120.0   0.0
450.0   120.0   0.0
500.0   120.0   16.666666666666668
450.0   90.0   16.666666666666668
450.0   120.0   16.666666666666668
500.0   120.0   16.666666666666668
450.0   120.0   0.0
450.0   90.0   16.666666666666668
500.0   120.0   16.666666666666668
500.0   90.0   16.666666666666668
500.0   90.0   0.0
450.0   90.0   16.666666666666668
500.0   120.0   16.666666666666668
500.0   90.0   0.0
450.0   120.0   0.0
450.0   90.0   16.666666666666668
500.0   90.0   16.666666666666668
450.0   120.0   16.666666666666668
450.0   90.0   33.333333333333336
500.0   90.0   16.666666666666668
500.0   120.0   16.666666666666668
450.0   120.0   16.666666666666668
500.0   120.0   33.333333333333336
450.0   90.0   33.333333333333336
450.0   120.0   33.333333333333336
500.0   120.0   33.333333333333336
450.0   120.0   16.666666666666668
450.0   90.0   33.333333333333336
500.0   120.0   33.333333333333336
500.0   90.0   33.333333333333336
500.0   90.0   16.666666666666668
450.0   90.0   33.333333333333336
500.0   120.0   33.333333333333336
500.0   90.0   16.666666666666668
450.0   120.0   16.666666666666668
450.0   90.0   33.333333333333336
500.0   90.0   33.333333333333336
450.0   120.0   33.333333333333336
450.0   90.0   50.0
500.0   90.0   33.333333333333336
500.0   120.0   33.333333333333336
450.0   120.0   33.333333333333336
500.0   120.0   50.0
450.0   90.0   50.0
450.0   120.0   50.0
500.0   120.0   50.0
450.0   120.0   33.333333333333336
450.0   90.0   50.0
500.0   120.0   50.0
500.0   90.0   50.0
500.0   90.0   33.333333333333336
450.0   90.0   50.0
500.0   120.0   50.0
500.0   90.0   33.333333333333336
450.0   120.0   33.333333333333336
450.0   120.0   0.0
500.0   120.0   0.0
450.0   150.0   0.0
450.0   120.0   16.666666666666668
500.0   120.0   0.0
500.0   150.0   0.0
450.0   150.0   0.0
500.0   150.0   16.666666666666668
450.0   120.0   16.666666666666668
450.0   150.0   16.666666666666668
500.0   150.0   16.666666666666668
450.0   150.0   0.0
450.0   120.0   16.666666666666668
500.0   150.0   16.666666666666668
500.0   120.0   16.666666666666668
500.0   120.0   0.0
450.0   120.0   16.666666666666668
500.0   150.0   16.666666666666668
500.0   120.0   0.0
450.0   150.0   0.0
450.0   120.0   16.666666666666668
500.0   120.0   16.666666666666668
450.0   150.0   16.666666666666668
450.0   120.0   33.333333333333336
500.0   120.0   16.666666666666668
500.0   150.0   16.666666666666668
450.0   150.0   16.666666666666668
500.0   150.0   33.333333333333336
450.0   120.0   33.333333333333336
450.0   150.0   33.333333333333336
500.0   150.0   33.333333333333336
450.0   150.0   16.666666666666668
450.0   120.0   33.333333333333336
500.0   150.0   33.333333333333336
500.0   120.0   33.333333333333336
500.0   120.0   16.666666666666668
450.0   120.0   33.333333333333336
500.0   150.0   33.333333333333336
500.0   120.0   16.666666666666668
450.0   150.0   16.666666666666668
450.0   120.0   33.333333333333336
500.0   120.0   33.333333333333336
450.0   150.0   33.333333333333336
450.0   120.0   50.0
500.0   120.0   33.333333333333336
500.0   150.0   33.333333333333336
450.0   150.0   33.333333333333336
500.0   150.0   50.0
450.0   120.0   50.0
450.0   150.0   50.0
500.0   150.0   50.0
450.0   150.0   33.333333333333336
450.0   120.0   50.0
500.0   150.0   50.0
500.0   120.0   50.0
500.0   120.0   33.333333333333336
450.0   120.0   50.0
500.0   150.0   50.0
500.0   120.0   33.333333333333336
450.0   150.0   33.333333333333336
             </DataArray>   
          </Points>  
          <Cells>  
             <DataArray type="Int32" Name="connectivity" format="ascii">   
0   1   2   3
4   5   6   7
8   9   10   11
12   13   14   15
16   17   18   19
20   21   22   23
24   25   26   27
28   29   30   31
32   33   34   35
36   37   38   39
40   41   42   43
44   45   46   47
48   49   50   51
52   53   54   55
56   57   58   59
60   61   62   63
64   65   66   67
68   69   70   71
72   73   74   75
76   77   78   79
80   81   82   83
84   85   86   87
88   89   90   91
92   93   94   95
96   97   98   99
100   101   102   103
104   105   106   107
108   109   110   111
112   113   114   115
116   117   118   119
120   121   122   123
124   125   126   127
128   129   130   131
132   133   134   135
136   137   138   139
140   141   142   143
144   145   146   147
148   149   150   151
152   153   154   155
156   157   158   159
160   161   162   163
164   165   166   167
168   169   170   171
172   173   174   175
176   177   178   179
180   181   182   183
184   185   186   187
188   189   190   191
192   193   194   195
196   197   198   199
200   201   202   203
204   205   206   207
208   209   210   211
212   213   214   215
216   217   218   219
220   221   222   223
224   225   226   227
228   229   230   231
232   233   234   235
236   237   238   239
240   241   242   243
244   245   246   247
248   249   250   251
252   253   254   255
256   257   258   259
260   261   262   263
264   265   266   267
268   269   270   271
272   273   274   275
276   277   278   279
280   281   282   283
284   285   286   287
288   289   290   291
292   293   294   295
296   297   298   299
300   301   302   303
304   305   306   307
308   309   310   311
312   313   314   315
316   317   318   319
320   321   322   323
324   325   326   327
328   329   330   331
332   333   334   335
336   337   338   339
340   341   342   343
344   345   346   347
348   349   350   351
352   353   354   355
356   357   358   359
360   361   362   363
364   365   366   367
368   369   370   371
372   373   374   375
376   377   378   379
380   381   382   383
384   385   386   387
388   389   390   391
392   393   394   395
396   397   398   399
400   401   402   403
404   405   406   407
408   409   410   411
412   413   414   415
416   417   418   419
420   421   422   423
424   425   426   427
428   429   430   431
432   433   434   435
436   437   438   439
440   441   442   443
444   445   446   447
448   449   450   451
452   453   454   455
456   457   458   459
460   461   462   463
464   465   466   467
468   469   470   471
472   473   474   475
476   477   478   479
480   481   482   483
484   485   486   487
488   489   490   491
492   493   494   495
496   497   498   499
500   501   502   503
504   505   506   507
508   509   510   511
512   513   514   515
516   517   518   519
520   521   522   523
524   525   526   527
528   529   530   531
532   533   534   535
536   537   538   539
540   541   542   543
544   545   546   547
548   549   550   551
552   553   554   555
556   557   558   559
560   561   562   563
564   565   566   567
568   569   570   571
572   573   574   575
576   577   578   579
580   581   582   583
584   585   586   587
588   589   590   591
592   593   594   595
596   597   598   599
600   601   602   603
604   605   606   607
608   609   610   611
612   613   614   615
616   617   618   619
620   621   622   623
624   625   626   627
628   629   630   631
632   633   634   635
636   637   638   639
640   641   642   643
644   645   646   647
648   649   650   651
652   653   654   655
656   657   658   659
660   661   662   663
664   665   666   667
668   669   670   671
672   673   674   675
676   677   678   679
680   681   682   683
684   685   686   687
688   689   690   691
692   693   694   695
696   697   698   699
700   701   702   703
704   705   706   707
708   709   710   711
712   713   714   715
716   717   718   719
720   721   722   723
724   725   726   727
728   729   730   731
732   733   734   735
736   737   738   739
740   741   742   743
744   745   746   747
748   749   750   751
752   753   754   755
756   757   758   759
760   761   762   763
764   765   766   767
768   769   770   771
772   773   774   775
776   777   778   779
780   781   782   783
784   785   786   787
788   789   790   791
792   793   794   795
796   797   798   799
800   801   802   803
804   805   806   807
808   809   810   811
812   813   814   815
816   817   818   819
820   821   822   823
824   825   826   827
828   829   830   831
832   833   834   835
836   837   838   839
840   841   842   843
844   845   846   847
848   849   850   851
852   853   854   855
856   857   858   859
860   861   862   863
864   865   866   867
868   869   870   871
872   873   874   875
876   877   878   879
880   881   882   883
884   885   886   887
888   889   890   891
892   893   894   895
896   897   898   899
900   901   902   903
904   905   906   907
908   909   910   911
912   913   914   915
916   917   918   919
920   921   922   923
924   925   926   927
928   929   930   931
932   933   934   935
936   937   938   939
940   941   942   943
944   945   946   947
948   949   950   951
952   953   954   955
956   957   958   959
960   961   962   963
964   965   966   967
968   969   970   971
972   973   974   975
976   977   978   979
980   981   982   983
984   985   986   987
988   989   990   991
992   993   994   995
996   997   998   999
1000   1001   1002   1003
1004   1005   1006   1007
1008   1009   1010   1011
1012   1013   1014   1015
1016   1017   1018   1019
1020   1021   1022   1023
1024   1025   1026   1027
1028   1029   1030   1031
1032   1033   1034   1035
1036   1037   1038   1039
1040   1041   1042   1043
1044   1045   1046   1047
1048   1049   1050   1051
1052   1053   1054   1055
1056   1057   1058   1059
1060   1061   1062   1063
1064   1065   1066   1067
1068   1069   1070   1071
1072   1073   1074   1075
1076   1077   1078   1079
1080   1081   1082   1083
1084   1085   1086   1087
1088   1089   1090   1091
1092   1093   1094   1095
1096   1097   1098   1099
1100   1101   1102   1103
1104   1105   1106   1107
1108   1109   1110   1111
1112   1113   1114   1115
1116   1117   1118   1119
1120   1121   1122   1123
1124   1125   1126   1127
1128   1129   1130   1131
1132   1133   1134   1135
1136   1137   1138   1139
1140   1141   1142   1143
1144   1145   1146   1147
1148   1149   1150   1151
1152   1153   1154   1155
1156   1157   1158   1159
1160   1161   1162   1163
1164   1165   1166   1167
1168   1169   1170   1171
1172   1173   1174   1175
1176   1177   1178   1179
1180   1181   1182   1183
1184   1185   1186   1187
1188   1189   1190   1191
1192   1193   1194   1195
1196   1197   1198   1199
1200   1201   1202   1203
1204   1205   1206   1207
1208   1209   1210   1211
1212   1213   1214   1215
1216   1217   1218   1219
1220   1221   1222   1223
1224   1225   1226   1227
1228   1229   1230   1231
1232   1233   1234   1235
1236   1237   1238   1239
1240   1241   1242   1243
1244   1245   1246   1247
1248   1249   1250   1251
1252   1253   1254   1255
1256   1257   1258   1259
1260   1261   1262   1263
1264   1265   1266   1267
1268   1269   1270   1271
1272   1273   1274   1275
1276   1277   1278   1279
1280   1281   1282   1283
1284   1285   1286   1287
1288   1289   1290   1291
1292   1293   1294   1295
1296   1297   1298   1299
1300   1301   1302   1303
1304   1305   1306   1307
1308   1309   1310   1311
1312   1313   1314   1315
1316   1317   1318   1319
1320   1321   1322   1323
1324   1325   1326   1327
1328   1329   1330   1331
1332   1333   1334   1335
1336   1337   1338   1339
1340   1341   1342   1343
1344   1345   1346   1347
1348   1349   1350   1351
1352   1353   1354   1355
1356   1357   1358   1359
1360   1361   1362   1363
1364   1365   1366   1367
1368   1369   1370   1371
1372   1373   1374   1375
1376   1377   1378   1379
1380   1381   1382   1383
1384   1385   1386   1387
1388   1389   1390   1391
1392   1393   1394   1395
1396   1397   1398   1399
1400   1401   1402   1403
1404   1405   1406   1407
1408   1409   1410   1411
1412   1413   1414   1415
1416   1417   1418   1419
1420   1421   1422   1423
1424   1425   1426   1427
1428   1429   1430   1431
1432   1433   1434   1435
1436   1437   1438   1439
1440   1441   1442   1443
1444   1445   1446   1447
1448   1449   1450   1451
1452   1453   1454   1455
1456   1457   1458   1459
1460   1461   1462   1463
1464   1465   1466   1467
1468   1469   1470   1471
1472   1473   1474   1475
1476   1477   1478   1479
1480   1481   1482   1483
1484   1485   1486   1487
1488   1489   1490   1491
1492   1493   1494   1495
1496   1497   1498   1499
1500   1501   1502   1503
1504   1505   1506   1507
1508   1509   1510   1511
1512   1513   1514   1515
1516   1517   1518   1519
1520   1521   1522   1523
1524   1525   1526   1527
1528   1529   1530   1531
1532   1533   1534   1535
1536   1537   1538   1539
1540   1541   1542   1543
1544   1545   1546   1547
1548   1549   1550   1551
1552   1553   1554   1555
1556   1557   1558   1559
1560   1561   1562   1563
1564   1565   1566   1567
1568   1569   1570   1571
1572   1573   1574   1575
1576   1577   1578   1579
1580   1581   1582   1583
1584   1585   1586   1587
1588   1589   1590   1591
1592   1593   1594   1595
1596   1597   1598   1599
1600   1601   1602   1603
1604   1605   1606   1607
1608   1609   1610   1611
1612   1613   1614   1615
1616   1617   1618   1619
1620   1621   1622   1623
1624   1625   1626   1627
1628   1629   1630   1631
1632   1633   1634   1635
1636   1637   1638   1639
1640   1641   1642   1643
1644   1645   1646   1647
1648   1649   1650   1651
1652   1653   1654   1655
1656   1657   1658   1659
1660   1661   1662   1663
1664   1665   1666   1667
1668   1669   1670   1671
1672   1673   1674   1675
1676   1677   1678   1679
1680   1681   1682   1683
1684   1685   1686   1687
1688   1689   1690   1691
1692   1693   1694   1695
1696   1697   1698   1699
1700   1701   1702   1703
1704   1705   1706   1707
1708   1709   1710   1711
1712   1713   1714   1715
1716   1717   1718   1719
1720   1721   1722   1723
1724   1725   1726   1727
1728   1729   1730   1731
1732   1733   1734   1735
1736   1737   1738   1739
1740   1741   1742   1743
1744   1745   1746   1747
1748   1749   1750   1751
1752   1753   1754   1755
1756   1757   1758   1759
1760   1761   1762   1763
1764   1765   1766   1767
1768   1769   1770   1771
1772   1773   1774   1775
1776   1777   1778   1779
1780   1781   1782   1783
1784   1785   1786   1787
1788   1789   1790   1791
1792   1793   1794   1795
1796   1797   1798   1799
1800   1801   1802   1803
1804   1805   1806   1807
1808   1809   1810   1811
1812   1813   1814   1815
1816   1817   1818   1819
1820   1821   1822   1823
1824   1825   1826   1827
1828   1829   1830   1831
1832   1833   1834   1835
1836   1837   1838   1839
1840   1841   1842   1843
1844   1845   1846   1847
1848   1849   1850   1851
1852   1853   1854   1855
1856   1857   1858   1859
1860   1861   1862   1863
1864   1865   1866   1867
1868   1869   1870   1871
1872   1873   1874   1875
1876   1877   1878   1879
1880   1881   1882   1883
1884   1885   1886   1887
1888   1889   1890   1891
1892   1893   1894   1895
1896   1897   1898   1899
1900   1901   1902   1903
1904   1905   1906   1907
1908   1909   1910   1911
1912   1913   1914   1915
1916   1917   1918   1919
1920   1921   1922   1923
1924   1925   1926   1927
1928   1929   1930   1931
1932   1933   1934   1935
1936   1937   1938   1939
1940   1941   1942   1943
1944   1945   1946   1947
1948   1949   1950   1951
1952   1953   1954   1955
1956   1957   1958   1959
1960   1961   1962   1963
1964   1965   1966   1967
1968   1969   1970   1971
1972   1973   1974   1975
1976   1977   1978   1979
1980   1981   1982   1983
1984   1985   1986   1987
1988   1989   1990   1991
1992   1993   1994   1995
1996   1997   1998   1999
2000   2001   2002   2003
2004   2005   2006   2007
2008   2009   2010   2011
2012   2013   2014   2015
2016   2017   2018   2019
2020   2021   2022   2023
2024   2025   2026   2027
2028   2029   2030   2031
2032   2033   2034   2035
2036   2037   2038   2039
2040   2041   2042   2043
2044   2045   2046   2047
2048   2049   2050   2051
2052   2053   2054   2055
2056   2057   2058   2059
2060   2061   2062   2063
2064   2065   2066   2067
2068   2069   2070   2071
2072   2073   2074   2075
2076   2077   2078   2079
2080   2081   2082   2083
2084   2085   2086   2087
2088   2089   2090   2091
2092   2093   2094   2095
2096   2097   2098   2099
2100   2101   2102   2103
2104   2105   2106   2107
2108   2109   2110   2111
2112   2113   2114   2115
2116   2117   2118   2119
2120   2121   2122   2123
2124   2125   2126   2127
2128   2129   2130   2131
2132   2133   2134   2135
2136   2137   2138   2139
2140   2141   2142   2143
2144   2145   2146   2147
2148   2149   2150   2151
2152   2153   2154   2155
2156   2157   2158   2159
2160   2161   2162   2163
2164   2165   2166   2167
2168   2169   2170   2171
2172   2173   2174   2175
2176   2177   2178   2179
2180   2181   2182   2183
2184   2185   2186   2187
2188   2189   2190   2191
2192   2193   2194   2195
2196   2197   2198   2199
2200   2201   2202   2203
2204   2205   2206   2207
2208   2209   2210   2211
2212   2213   2214   2215
2216   2217   2218   2219
2220   2221   2222   2223
2224   2225   2226   2227
2228   2229   2230   2231
2232   2233   2234   2235
2236   2237   2238   2239
2240   2241   2242   2243
2244   2245   2246   2247
2248   2249   2250   2251
2252   2253   2254   2255
2256   2257   2258   2259
2260   2261   2262   2263
2264   2265   2266   2267
2268   2269   2270   2271
2272   2273   2274   2275
2276   2277   2278   2279
2280   2281   2282   2283
2284   2285   2286   2287
2288   2289   2290   2291
2292   2293   2294   2295
2296   2297   2298   2299
2300   2301   2302   2303
2304   2305   2306   2307
2308   2309   2310   2311
2312   2313   2314   2315
2316   2317   2318   2319
2320   2321   2322   2323
2324   2325   2326   2327
2328   2329   2330   2331
2332   2333   2334   2335
2336   2337   2338   2339
2340   2341   2342   2343
2344   2345   2346   2347
2348   2349   2350   2351
2352   2353   2354   2355
2356   2357   2358   2359
2360   2361   2362   2363
2364   2365   2366   2367
2368   2369   2370   2371
2372   2373   2374   2375
2376   2377   2378   2379
2380   2381   2382   2383
2384   2385   2386   2387
2388   2389   2390   2391
2392   2393   2394   2395
2396   2397   2398   2399
2400   2401   2402   2403
2404   2405   2406   2407
2408   2409   2410   2411
2412   2413   2414   2415
2416   2417   2418   2419
2420   2421   2422   2423
2424   2425   2426   2427
2428   2429   2430   2431
2432   2433   2434   2435
2436   2437   2438   2439
2440   2441   2442   2443
2444   2445   2446   2447
2448   2449   2450   2451
2452   2453   2454   2455
2456   2457   2458   2459
2460   2461   2462   2463
2464   2465   2466   2467
2468   2469   2470   2471
2472   2473   2474   2475
2476   2477   2478   2479
2480   2481   2482   2483
2484   2485   2486   2487
2488   2489   2490   2491
2492   2493   2494   2495
2496   2497   2498   2499
2500   2501   2502   2503
2504   2505   2506   2507
2508   2509   2510   2511
2512   2513   2514   2515
2516   2517   2518   2519
2520   2521   2522   2523
2524   2525   2526   2527
2528   2529   2530   2531
2532   2533   2534   2535
2536   2537   2538   2539
2540   2541   2542   2543
2544   2545   2546   2547
2548   2549   2550   2551
2552   2553   2554   2555
2556   2557   2558   2559
2560   2561   2562   2563
2564   2565   2566   2567
2568   2569   2570   2571
2572   2573   2574   2575
2576   2577   2578   2579
2580   2581   2582   2583
2584   2585   2586   2587
2588   2589   2590   2591
2592   2593   2594   2595
2596   2597   2598   2599
2600   2601   2602   2603
2604   2605   2606   2607
2608   2609   2610   2611
2612   2613   2614   2615
2616   2617   2618   2619
2620   2621   2622   2623
2624   2625   2626   2627
2628   2629   2630   2631
2632   2633   2634   2635
2636   2637   2638   2639
2640   2641   2642   2643
2644   2645   2646   2647
2648   2649   2650   2651
2652   2653   2654   2655
2656   2657   2658   2659
2660   2661   2662   2663
2664   2665   2666   2667
2668   2669   2670   2671
2672   2673   2674   2675
2676   2677   2678   2679
2680   2681   2682   2683
2684   2685   2686   2687
2688   2689   2690   2691
2692   2693   2694   2695
2696   2697   2698   2699
2700   2701   2702   2703
2704   2705   2706   2707
2708   2709   2710   2711
2712   2713   2714   2715
2716   2717   2718   2719
2720   2721   2722   2723
2724   2725   2726   2727
2728   2729   2730   2731
2732   2733   2734   2735
2736   2737   2738   2739
2740   2741   2742   2743
2744   2745   2746   2747
2748   2749   2750   2751
2752   2753   2754   2755
2756   2757   2758   2759
2760   2761   2762   2763
2764   2765   2766   2767
2768   2769   2770   2771
2772   2773   2774   2775
2776   2777   2778   2779
2780   2781   2782   2783
2784   2785   2786   2787
2788   2789   2790   2791
2792   2793   2794   2795
2796   2797   2798   2799
2800   2801   2802   2803
2804   2805   2806   2807
2808   2809   2810   2811
2812   2813   2814   2815
2816   2817   2818   2819
2820   2821   2822   2823
2824   2825   2826   2827
2828   2829   2830   2831
2832   2833   2834   2835
2836   2837   2838   2839
2840   2841   2842   2843
2844   2845   2846   2847
2848   2849   2850   2851
2852   2853   2854   2855
2856   2857   2858   2859
2860   2861   2862   2863
2864   2865   2866   2867
2868   2869   2870   2871
2872   2873   2874   2875
2876   2877   2878   2879
2880   2881   2882   2883
2884   2885   2886   2887
2888   2889   2890   2891
2892   2893   2894   2895
2896   2897   2898   2899
2900   2901   2902   2903
2904   2905   2906   2907
2908   2909   2910   2911
2912   2913   2914   2915
2916   2917   2918   2919
2920   2921   2922   2923
2924   2925   2926   2927
2928   2929   2930   2931
2932   2933   2934   2935
2936   2937   2938   2939
2940   2941   2942   2943
2944   2945   2946   2947
2948   2949   2950   2951
2952   2953   2954   2955
2956   2957   2958   2959
2960   2961   2962   2963
2964   2965   2966   2967
2968   2969   2970   2971
2972   2973   2974   2975
2976   2977   2978   2979
2980   2981   2982   2983
2984   2985   2986   2987
2988   2989   2990   2991
2992   2993   2994   2995
2996   2997   2998   2999
3000   3001   3002   3003
3004   3005   3006   3007
3008   3009   3010   3011
3012   3013   3014   3015
3016   3017   3018   3019
3020   3021   3022   3023
3024   3025   3026   3027
3028   3029   3030   3031
3032   3033   3034   3035
3036   3037   3038   3039
3040   3041   3042   3043
3044   3045   3046   3047
3048   3049   3050   3051
3052   3053   3054   3055
3056   3057   3058   3059
3060   3061   3062   3063
3064   3065   3066   3067
3068   3069   3070   3071
3072   3073   3074   3075
3076   3077   3078   3079
3080   3081   3082   3083
3084   3085   3086   3087
3088   3089   3090   3091
3092   3093   3094   3095
3096   3097   3098   3099
3100   3101   3102   3103
3104   3105   3106   3107
3108   3109   3110   3111
3112   3113   3114   3115
3116   3117   3118   3119
3120   3121   3122   3123
3124   3125   3126   3127
3128   3129   3130   3131
3132   3133   3134   3135
3136   3137   3138   3139
3140   3141   3142   3143
3144   3145   3146   3147
3148   3149   3150   3151
3152   3153   3154   3155
3156   3157   3158   3159
3160   3161   3162   3163
3164   3165   3166   3167
3168   3169   3170   3171
3172   3173   3174   3175
3176   3177   3178   3179
3180   3181   3182   3183
3184   3185   3186   3187
3188   3189   3190   3191
3192   3193   3194   3195
3196   3197   3198   3199
3200   3201   3202   3203
3204   3205   3206   3207
3208   3209   3210   3211
3212   3213   3214   3215
3216   3217   3218   3219
3220   3221   3222   3223
3224   3225   3226   3227
3228   3229   3230   3231
3232   3233   3234   3235
3236   3237   3238   3239
3240   3241   3242   3243
3244   3245   3246   3247
3248   3249   3250   3251
3252   3253   3254   3255
3256   3257   3258   3259
3260   3261   3262   3263
3264   3265   3266   3267
3268   3269   3270   3271
3272   3273   3274   3275
3276   3277   3278   3279
3280   3281   3282   3283
3284   3285   3286   3287
3288   3289   3290   3291
3292   3293   3294   3295
3296   3297   3298   3299
3300   3301   3302   3303
3304   3305   3306   3307
3308   3309   3310   3311
3312   3313   3314   3315
3316   3317   3318   3319
3320   3321   3322   3323
3324   3325   3326   3327
3328   3329   3330   3331
3332   3333   3334   3335
3336   3337   3338   3339
3340   3341   3342   3343
3344   3345   3346   3347
3348   3349   3350   3351
3352   3353   3354   3355
3356   3357   3358   3359
3360   3361   3362   3363
3364   3365   3366   3367
3368   3369   3370   3371
3372   3373   3374   3375
3376   3377   3378   3379
3380   3381   3382   3383
3384   3385   3386   3387
3388   3389   3390   3391
3392   3393   3394   3395
3396   3397   3398   3399
3400   3401   3402   3403
3404   3405   3406   3407
3408   3409   3410   3411
3412   3413   3414   3415
3416   3417   3418   3419
3420   3421   3422   3423
3424   3425   3426   3427
3428   3429   3430   3431
3432   3433   3434   3435
3436   3437   3438   3439
3440   3441   3442   3443
3444   3445   3446   3447
3448   3449   3450   3451
3452   3453   3454   3455
3456   3457   3458   3459
3460   3461   3462   3463
3464   3465   3466   3467
3468   3469   3470   3471
3472   3473   3474   3475
3476   3477   3478   3479
3480   3481   3482   3483
3484   3485   3486   3487
3488   3489   3490   3491
3492   3493   3494   3495
3496   3497   3498   3499
3500   3501   3502   3503
3504   3505   3506   3507
3508   3509   3510   3511
3512   3513   3514   3515
3516   3517   3518   3519
3520   3521   3522   3523
3524   3525   3526   3527
3528   3529   3530   3531
3532   3533   3534   3535
3536   3537   3538   3539
3540   3541   3542   3543
3544   3545   3546   3547
3548   3549   3550   3551
3552   3553   3554   3555
3556   3557   3558   3559
3560   3561   3562   3563
3564   3565   3566   3567
3568   3569   3570   3571
3572   3573   3574   3575
3576   3577   3578   3579
3580   3581   3582   3583
3584   3585   3586   3587
3588   3589   3590   3591
3592   3593   3594   3595
3596   3597   3598   3599
3600   3601   3602   3603
3604   3605   3606   3607
3608   3609   3610   3611
3612   3613   3614   3615
3616   3617   3618   3619
3620   3621   3622   3623
3624   3625   3626   3627
3628   3629   3630   3631
3632   3633   3634   3635
3636   3637   3638   3639
3640   3641   3642   3643
3644   3645   3646   3647
3648   3649   3650   3651
3652   3653   3654   3655
3656   3657   3658   3659
3660   3661   3662   3663
3664   3665   3666   3667
3668   3669   3670   3671
3672   3673   3674   3675
3676   3677   3678   3679
3680   3681   3682   3683
3684   3685   3686   3687
3688   3689   3690   3691
3692   3693   3694   3695
3696   3697   3698   3699
3700   3701   3702   3703
3704   3705   3706   3707
3708   3709   3710   3711
3712   3713   3714   3715
3716   3717   3718   3719
3720   3721   3722   3723
3724   3725   3726   3727
3728   3729   3730   3731
3732   3733   3734   3735
3736   3737   3738   3739
3740   3741   3742   3743
3744   3745   3746   3747
3748   3749   3750   3751
3752   3753   3754   3755
3756   3757   3758   3759
3760   3761   3762   3763
3764   3765   3766   3767
3768   3769   3770   3771
3772   3773   3774   3775
3776   3777   3778   3779
3780   3781   3782   3783
3784   3785   3786   3787
3788   3789   3790   3791
3792   3793   3794   3795
3796   3797   3798   3799
3800   3801   3802   3803
3804   3805   3806   3807
3808   3809   3810   3811
3812   3813   3814   3815
3816   3817   3818   3819
3820   3821   3822   3823
3824   3825   3826   3827
3828   3829   3830   3831
3832   3833   3834   3835
3836   3837   3838   3839
3840   3841   3842   3843
3844   3845   3846   3847
3848   3849   3850   3851
3852   3853   3854   3855
3856   3857   3858   3859
3860   3861   3862   3863
3864   3865   3866   3867
3868   3869   3870   3871
3872   3873   3874   3875
3876   3877   3878   3879
3880   3881   3882   3883
3884   3885   3886   3887
3888   3889   3890   3891
3892   3893   3894   3895
3896   3897   3898   3899
3900   3901   3902   3903
3904   3905   3906   3907
3908   3909   3910   3911
3912   3913   3914   3915
3916   3917   3918   3919
3920   3921   3922   3923
3924   3925   3926   3927
3928   3929   3930   3931
3932   3933   3934   3935
3936   3937   3938   3939
3940   3941   3942   3943
3944   3945   3946   3947
3948   3949   3950   3951
3952   3953   3954   3955
3956   3957   3958   3959
3960   3961   3962   3963
3964   3965   3966   3967
3968   3969   3970   3971
3972   3973   3974   3975
3976   3977   3978   3979
3980   3981   3982   3983
3984   3985   3986   3987
3988   3989   3990   3991
3992   3993   3994   3995
3996   3997   3998   3999
4000   4001   4002   4003
4004   4005   4006   4007
4008   4009   4010   4011
4012   4013   4014   4015
4016   4017   4018   4019
4020   4021   4022   4023
4024   4025   4026   4027
4028   4029   4030   4031
4032   4033   4034   4035
4036   4037   4038   4039
4040   4041   4042   4043
4044   4045   4046   4047
4048   4049   4050   4051
4052   4053   4054   4055
4056   4057   4058   4059
4060   4061   4062   4063
4064   4065   4066   4067
4068   4069   4070   4071
4072   4073   4074   4075
4076   4077   4078   4079
4080   4081   4082   4083
4084   4085   4086   4087
4088   4089   4090   4091
4092   4093   4094   4095
4096   4097   4098   4099
4100   4101   4102   4103
4104   4105   4106   4107
4108   4109   4110   4111
4112   4113   4114   4115
4116   4117   4118   4119
4120   4121   4122   4123
4124   4125   4126   4127
4128   4129   4130   4131
4132   4133   4134   4135
4136   4137   4138   4139
4140   4141   4142   4143
4144   4145   4146   4147
4148   4149   4150   4151
4152   4153   4154   4155
4156   4157   4158   4159
4160   4161   4162   4163
4164   4165   4166   4167
4168   4169   4170   4171
4172   4173   4174   4175
4176   4177   4178   4179
4180   4181   4182   4183
4184   4185   4186   4187
4188   4189   4190   4191
4192   4193   4194   4195
4196   4197   4198   4199
4200   4201   4202   4203
4204   4205   4206   4207
4208   4209   4210   4211
4212   4213   4214   4215
4216   4217   4218   4219
4220   4221   4222   4223
4224   4225   4226   4227
4228   4229   4230   4231
4232   4233   4234   4235
4236   4237   4238   4239
4240   4241   4242   4243
4244   4245   4246   4247
4248   4249   4250   4251
4252   4253   4254   4255
4256   4257   4258   4259
4260   4261   4262   4263
4264   4265   4266   4267
4268   4269   4270   4271
4272   4273   4274   4275
4276   4277   4278   4279
4280   4281   4282   4283
4284   4285   4286   4287
4288   4289   4290   4291
4292   4293   4294   4295
4296   4297   4298   4299
4300   4301   4302   4303
4304   4305   4306   4307
4308   4309   4310   4311
4312   4313   4314   4315
4316   4317   4318   4319
4320   4321   4322   4323
4324   4325   4326   4327
4328   4329   4330   4331
4332   4333   4334   4335
4336   4337   4338   4339
4340   4341   4342   4343
4344   4345   4346   4347
4348   4349   4350   4351
4352   4353   4354   4355
4356   4357   4358   4359
4360   4361   4362   4363
4364   4365   4366   4367
4368   4369   4370   4371
4372   4373   4374   4375
4376   4377   4378   4379
4380   4381   4382   4383
4384   4385   4386   4387
4388   4389   4390   4391
4392   4393   4394   4395
4396   4397   4398   4399
4400   4401   4402   4403
4404   4405   4406   4407
4408   4409   4410   4411
4412   4413   4414   4415
4416   4417   4418   4419
4420   4421   4422   4423
4424   4425   4426   4427
4428   4429   4430   4431
4432   4433   4434   4435
4436   4437   4438   4439
4440   4441   4442   4443
4444   4445   4446   4447
4448   4449   4450   4451
4452   4453   4454   4455
4456   4457   4458   4459
4460   4461   4462   4463
4464   4465   4466   4467
4468   4469   4470   4471
4472   4473   4474   4475
4476   4477   4478   4479
4480   4481   4482   4483
4484   4485   4486   4487
4488   4489   4490   4491
4492   4493   4494   4495
4496   4497   4498   4499
4500   4501   4502   4503
4504   4505   4506   4507
4508   4509   4510   4511
4512   4513   4514   4515
4516   4517   4518   4519
4520   4521   4522   4523
4524   4525   4526   4527
4528   4529   4530   4531
4532   4533   4534   4535
4536   4537   4538   4539
4540   4541   4542   4543
4544   4545   4546   4547
4548   4549   4550   4551
4552   4553   4554   4555
4556   4557   4558   4559
4560   4561   4562   4563
4564   4565   4566   4567
4568   4569   4570   4571
4572   4573   4574   4575
4576   4577   4578   4579
4580   4581   4582   4583
4584   4585   4586   4587
4588   4589   4590   4591
4592   4593   4594   4595
4596   4597   4598   4599
4600   4601   4602   4603
4604   4605   4606   4607
4608   4609   4610   4611
4612   4613   4614   4615
4616   4617   4618   4619
4620   4621   4622   4623
4624   4625   4626   4627
4628   4629   4630   4631
4632   4633   4634   4635
4636   4637   4638   4639
4640   4641   4642   4643
4644   4645   4646   4647
4648   4649   4650   4651
4652   4653   4654   4655
4656   4657   4658   4659
4660   4661   4662   4663
4664   4665   4666   4667
4668   4669   4670   4671
4672   4673   4674   4675
4676   4677   4678   4679
4680   4681   4682   4683
4684   4685   4686   4687
4688   4689   4690   4691
4692   4693   4694   4695
4696   4697   4698   4699
4700   4701   4702   4703
4704   4705   4706   4707
4708   4709   4710   4711
4712   4713   4714   4715
4716   4717   4718   4719
4720   4721   4722   4723
4724   4725   4726   4727
4728   4729   4730   4731
4732   4733   4734   4735
4736   4737   4738   4739
4740   4741   4742   4743
4744   4745   4746   4747
4748   4749   4750   4751
4752   4753   4754   4755
4756   4757   4758   4759
4760   4761   4762   4763
4764   4765   4766   4767
4768   4769   4770   4771
4772   4773   4774   4775
4776   4777   4778   4779
4780   4781   4782   4783
4784   4785   4786   4787
4788   4789   4790   4791
4792   4793   4794   4795
4796   4797   4798   4799
4800   4801   4802   4803
4804   4805   4806   4807
4808   4809   4810   4811
4812   4813   4814   4815
4816   4817   4818   4819
4820   4821   4822   4823
4824   4825   4826   4827
4828   4829   4830   4831
4832   4833   4834   4835
4836   4837   4838   4839
4840   4841   4842   4843
4844   4845   4846   4847
4848   4849   4850   4851
4852   4853   4854   4855
4856   4857   4858   4859
4860   4861   4862   4863
4864   4865   4866   4867
4868   4869   4870   4871
4872   4873   4874   4875
4876   4877   4878   4879
4880   4881   4882   4883
4884   4885   4886   4887
4888   4889   4890   4891
4892   4893   4894   4895
4896   4897   4898   4899
4900   4901   4902   4903
4904   4905   4906   4907
4908   4909   4910   4911
4912   4913   4914   4915
4916   4917   4918   4919
4920   4921   4922   4923
4924   4925   4926   4927
4928   4929   4930   4931
4932   4933   4934   4935
4936   4937   4938   4939
4940   4941   4942   4943
4944   4945   4946   4947
4948   4949   4950   4951
4952   4953   4954   4955
4956   4957   4958   4959
4960   4961   4962   4963
4964   4965   4966   4967
4968   4969   4970   4971
4972   4973   4974   4975
4976   4977   4978   4979
4980   4981   4982   4983
4984   4985   4986   4987
4988   4989   4990   4991
4992   4993   4994   4995
4996   4997   4998   4999
5000   5001   5002   5003
5004   5005   5006   5007
5008   5009   5010   5011
5012   5013   5014   5015
5016   5017   5018   5019
5020   5021   5022   5023
5024   5025   5026   5027
5028   5029   5030   5031
5032   5033   5034   5035
5036   5037   5038   5039
5040   5041   5042   5043
5044   5045   5046   5047
5048   5049   5050   5051
5052   5053   5054   5055
5056   5057   5058   5059
5060   5061   5062   5063
5064   5065   5066   5067
5068   5069   5070   5071
5072   5073   5074   5075
5076   5077   5078   5079
5080   5081   5082   5083
5084   5085   5086   5087
5088   5089   5090   5091
5092   5093   5094   5095
5096   5097   5098   5099
5100   5101   5102   5103
5104   5105   5106   5107
5108   5109   5110   5111
5112   5113   5114   5115
5116   5117   5118   5119
5120   5121   5122   5123
5124   5125   5126   5127
5128   5129   5130   5131
5132   5133   5134   5135
5136   5137   5138   5139
5140   5141   5142   5143
5144   5145   5146   5147
5148   5149   5150   5151
5152   5153   5154   5155
5156   5157   5158   5159
5160   5161   5162   5163
5164   5165   5166   5167
5168   5169   5170   5171
5172   5173   5174   5175
5176   5177   5178   5179
5180   5181   5182   5183
5184   5185   5186   5187
5188   5189   5190   5191
5192   5193   5194   5195
5196   5197   5198   5199
5200   5201   5202   5203
5204   5205   5206   5207
5208   5209   5210   5211
5212   5213   5214   5215
5216   5217   5218   5219
5220   5221   5222   5223
5224   5225   5226   5227
5228   5229   5230   5231
5232   5233   5234   5235
5236   5237   5238   5239
5240   5241   5242   5243
5244   5245   5246   5247
5248   5249   5250   5251
5252   5253   5254   5255
5256   5257   5258   5259
5260   5261   5262   5263
5264   5265   5266   5267
5268   5269   5270   5271
5272   5273   5274   5275
5276   5277   5278   5279
5280   5281   5282   5283
5284   5285   5286   5287
5288   5289   5290   5291
5292   5293   5294   5295
5296   5297   5298   5299
5300   5301   5302   5303
5304   5305   5306   5307
5308   5309   5310   5311
5312   5313   5314   5315
5316   5317   5318   5319
5320   5321   5322   5323
5324   5325   5326   5327
5328   5329   5330   5331
5332   5333   5334   5335
5336   5337   5338   5339
5340   5341   5342   5343
5344   5345   5346   5347
5348   5349   5350   5351
5352   5353   5354   5355
5356   5357   5358   5359
5360   5361   5362   5363
5364   5365   5366   5367
5368   5369   5370   5371
5372   5373   5374   5375
5376   5377   5378   5379
5380   5381   5382   5383
5384   5385   5386   5387
5388   5389   5390   5391
5392   5393   5394   5395
5396   5397   5398   5399
5400   5401   5402   5403
5404   5405   5406   5407
5408   5409   5410   5411
5412   5413   5414   5415
5416   5417   5418   5419
5420   5421   5422   5423
5424   5425   5426   5427
5428   5429   5430   5431
5432   5433   5434   5435
5436   5437   5438   5439
5440   5441   5442   5443
5444   5445   5446   5447
5448   5449   5450   5451
5452   5453   5454   5455
5456   5457   5458   5459
5460   5461   5462   5463
5464   5465   5466   5467
5468   5469   5470   5471
5472   5473   5474   5475
5476   5477   5478   5479
5480   5481   5482   5483
5484   5485   5486   5487
5488   5489   5490   5491
5492   5493   5494   5495
5496   5497   5498   5499
5500   5501   5502   5503
5504   5505   5506   5507
5508   5509   5510   5511
5512   5513   5514   5515
5516   5517   5518   5519
5520   5521   5522   5523
5524   5525   5526   5527
5528   5529   5530   5531
5532   5533   5534   5535
5536   5537   5538   5539
5540   5541   5542   5543
5544   5545   5546   5547
5548   5549   5550   5551
5552   5553   5554   5555
5556   5557   5558   5559
5560   5561   5562   5563
5564   5565   5566   5567
5568   5569   5570   5571
5572   5573   5574   5575
5576   5577   5578   5579
5580   5581   5582   5583
5584   5585   5586   5587
5588   5589   5590   5591
5592   5593   5594   5595
5596   5597   5598   5599
5600   5601   5602   5603
5604   5605   5606   5607
5608   5609   5610   5611
5612   5613   5614   5615
5616   5617   5618   5619
5620   5621   5622   5623
5624   5625   5626   5627
5628   5629   5630   5631
5632   5633   5634   5635
5636   5637   5638   5639
5640   5641   5642   5643
5644   5645   5646   5647
5648   5649   5650   5651
5652   5653   5654   5655
5656   5657   5658   5659
5660   5661   5662   5663
5664   5665   5666   5667
5668   5669   5670   5671
5672   5673   5674   5675
5676   5677   5678   5679
5680   5681   5682   5683
5684   5685   5686   5687
5688   5689   5690   5691
5692   5693   5694   5695
5696   5697   5698   5699
5700   5701   5702   5703
5704   5705   5706   5707
5708   5709   5710   5711
5712   5713   5714   5715
5716   5717   5718   5719
5720   5721   5722   5723
5724   5725   5726   5727
5728   5729   5730   5731
5732   5733   5734   5735
5736   5737   5738   5739
5740   5741   5742   5743
5744   5745   5746   5747
5748   5749   5750   5751
5752   5753   5754   5755
5756   5757   5758   5759
5760   5761   5762   5763
5764   5765   5766   5767
5768   5769   5770   5771
5772   5773   5774   5775
5776   5777   5778   5779
5780   5781   5782   5783
5784   5785   5786   5787
5788   5789   5790   5791
5792   5793   5794   5795
5796   5797   5798   5799
5800   5801   5802   5803
5804   5805   5806   5807
5808   5809   5810   5811
5812   5813   5814   5815
5816   5817   5818   5819
5820   5821   5822   5823
5824   5825   5826   5827
5828   5829   5830   5831
5832   5833   5834   5835
5836   5837   5838   5839
5840   5841   5842   5843
5844   5845   5846   5847
5848   5849   5850   5851
5852   5853   5854   5855
5856   5857   5858   5859
5860   5861   5862   5863
5864   5865   5866   5867
5868   5869   5870   5871
5872   5873   5874   5875
5876   5877   5878   5879
5880   5881   5882   5883
5884   5885   5886   5887
5888   5889   5890   5891
5892   5893   5894   5895
5896   5897   5898   5899
5900   5901   5902   5903
5904   5905   5906   5907
5908   5909   5910   5911
5912   5913   5914   5915
5916   5917   5918   5919
5920   5921   5922   5923
5924   5925   5926   5927
5928   5929   5930   5931
5932   5933   5934   5935
5936   5937   5938   5939
5940   5941   5942   5943
5944   5945   5946   5947
5948   5949   5950   5951
5952   5953   5954   5955
5956   5957   5958   5959
5960   5961   5962   5963
5964   5965   5966   5967
5968   5969   5970   5971
5972   5973   5974   5975
5976   5977   5978   5979
5980   5981   5982   5983
5984   5985   5986   5987
5988   5989   5990   5991
5992   5993   5994   5995
5996   5997   5998   5999
              </DataArray>   
              <DataArray type="Int32" Name="offsets" format="ascii">   
4
8
12
16
20
24
28
32
36
40
44
48
52
56
60
64
68
72
76
80
84
88
92
96
100
104
108
112
116
120
124
128
132
136
140
144
148
152
156
160
164
168
172
176
180
184
188
192
196
200
204
208
212
216
220
224
228
232
236
240
244
248
252
256
260
264
268
272
276
280
284
288
292
296
300
304
308
312
316
320
324
328
332
336
340
344
348
352
356
360
364
368
372
376
380
384
388
392
396
400
404
408
412
416
420
424
428
432
436
440
444
448
452
456
460
464
468
472
476
480
484
488
492
496
500
504
508
512
516
520
524
528
532
536
540
544
548
552
556
560
564
568
572
576
580
584
588
592
596
600
604
608
612
616
620
624
628
632
636
640
644
648
652
656
660
664
668
672
676
680
684
688
692
696
700
704
708
712
716
720
724
728
732
736
740
744
748
752
756
760
764
768
772
776
780
784
788
792
796
800
804
808
812
816
820
824
828
832
836
840
844
848
852
856
860
864
868
872
876
880
884
888
892
896
900
904
908
912
916
920
924
928
932
936
940
944
948
952
956
960
964
968
972
976
980
984
988
992
996
1000
1004
1008
1012
1016
1020
1024
1028
1032
1036
1040
1044
1048
1052
1056
1060
1064
1068
1072
1076
1080
1084
1088
1092
1096
1100
1104
1108
1112
1116
1120
1124
1128
1132
1136
1140
1144
1148
1152
1156
1160
1164
1168
1172
1176
1180
1184
1188
1192
1196
1200
1204
1208
1212
1216
1220
1224
1228
1232
1236
1240
1244
1248
1252
1256
1260
1264
1268
1272
1276
1280
1284
1288
1292
1296
1300
1304
1308
1312
1316
1320
1324
1328
1332
1336
1340
1344
1348
1352
1356
1360
1364
1368
1372
1376
1380
1384
1388
1392
1396
1400
1404
1408
1412
1416
1420
1424
1428
1432
1436
1440
1444
1448
1452
1456
1460
1464
1468
1472
1476
1480
1484
1488
1492
1496
1500
1504
1508
1512
1516
1520
1524
1528
1532
1536
1540
1544
1548
1552
1556
1560
1564
1568
1572
1576
1580
1584
1588
1592
1596
1600
1604
1608
1612
1616
1620
1624
1628
1632
1636
1640
1644
1648
1652
1656
1660
1664
1668
1672
1676
1680
1684
1688
1692
1696
1700
1704
1708
1712
1716
1720
1724
1728
1732
1736
1740
1744
1748
1752
1756
1760
1764
1768
1772
1776
1780
1784
1788
1792
1796
1800
1804
1808
1812
1816
1820
1824
1828
1832
1836
1840
1844
1848
1852
1856
1860
1864
1868
1872
1876
1880
1884
1888
1892
1896
1900
1904
1908
1912
1916
1920
1924
1928
1932
1936
1940
1944
1948
1952
1956
1960
1964
1968
1972
1976
1980
1984
1988
1992
1996
2000
2004
2008
2012
2016
2020
2024
2028
2032
2036
2040
2044
2048
2052
2056
2060
2064
2068
2072
2076
2080
2084
2088
2092
2096
2100
2104
2108
2112
2116
2120
2124
2128
2132
2136
2140
2144
2148
2152
2156
2160
2164
2168
2172
2176
2180
2184
2188
2192
2196
2200
2204
2208
2212
2216
2220
2224
2228
2232
2236
2240
2244
2248
2252
2256
2260
2264
2268
2272
2276
2280
2284
2288
2292
2296
2300
2304
2308
2312
2316
2320
2324
2328
2332
2336
2340
2344
2348
2352
2356
2360
2364
2368
2372
2376
2380
2384
2388
2392
2396
2400
2404
2408
2412
2416
2420
2424
2428
2432
2436
2440
2444
2448
2452
2456
2460
2464
2468
2472
2476
2480
2484
2488
2492
2496
2500
2504
2508
2512
2516
2520
2524
2528
2532
2536
2540
2544
2548
2552
2556
2560
2564
2568
2572
2576
2580
2584
2588
2592
2596
2600
2604
2608
2612
2616
2620
2624
2628
2632
2636
2640
2644
2648
2652
2656
2660
2664
2668
2672
2676
2680
2684
2688
2692
2696
2700
2704
2708
2712
2716
2720
2724
2728
2732
2736
2740
2744
2748
2752
2756
2760
2764
2768
2772
2776
2780
2784
2788
2792
2796
2800
2804
2808
2812
2816
2820
2824
2828
2832
2836
2840
2844
2848
2852
2856
2860
2864
2868
2872
2876
2880
2884
2888
2892
2896
2900
2904
2908
2912
2916
2920
2924
2928
2932
2936
2940
2944
2948
2952
2956
2960
2964
2968
2972
2976
2980
2984
2988
2992
2996
3000
3004
3008
3012
3016
3020
3024
3028
3032
3036
3040
3044
3048
3052
3056
3060
3064
3068
3072
3076
3080
3084
3088
3092
3096
3100
3104
3108
3112
3116
3120
3124
3128
3132
3136
3140
3144
3148
3152
3156
3160
3164
3168
3172
3176
3180
3184
3188
3192
3196
3200
3204
3208
3212
3216
3220
3224
3228
3232
3236
3240
3244
3248
3252
3256
3260
3264
3268
3272
3276
3280
3284
3288
3292
3296
3300
3304
3308
3312
3316
3320
3324
3328
3332
3336
3340
3344
3348
3352
3356
3360
3364
3368
3372
3376
3380
3384
3388
3392
3396
3400
3404
3408
3412
3416
3420
3424
3428
3432
3436
3440
3444
3448
3452
3456
3460
3464
3468
3472
3476
3480
3484
3488
3492
3496
3500
3504
3508
3512
3516
3520
3524
3528
3532
3536
3540
3544
3548
3552
3556
3560
3564
3568
3572
3576
3580
3584
3588
3592
3596
3600
3604
3608
3612
3616
3620
3624
3628
3632
3636
3640
3644
3648
3652
3656
3660
3664
3668
3672
3676
3680
3684
3688
3692
3696
3700
3704
3708
3712
3716
3720
3724
3728
3732
3736
3740
3744
3748
3752
3756
3760
3764
3768
3772
3776
3780
3784
3788
3792
3796
3800
3804
3808
3812
3816
3820
3824
3828
3832
3836
3840
3844
3848
3852
3856
3860
3864
3868
3872
3876
3880
3884
3888
3892
3896
3900
3904
3908
3912
3916
3920
3924
3928
3932
3936
3940
3944
3948
3952
3956
3960
3964
3968
3972
3976
3980
3984
3988
3992
3996
4000
4004
4008
4012
4016
4020
4024
4028
4032
4036
4040
4044
4048
4052
4056
4060
4064
4068
4072
4076
4080
4084
4088
4092
4096
4100
4104
4108
4112
4116
4120
4124
4128
4132
4136
4140
4144
4148
4152
4156
4160
4164
4168
4172
4176
4180
4184
4188
4192
4196
4200
4204
4208
4212
4216
4220
4224
4228
4232
4236
4240
4244
4248
4252
4256
4260
4264
4268
4272
4276
4280
4284
4288
4292
4296
4300
4304
4308
4312
4316
4320
4324
4328
4332
4336
4340
4344
4348
4352
4356
4360
4364
4368
4372
4376
4380
4384
4388
4392
4396
4400
4404
4408
4412
4416
4420
4424
4428
4432
4436
4440
4444
4448
4452
4456
4460
4464
4468
4472
4476
4480
4484
4488
4492
4496
4500
4504
4508
4512
4516
4520
4524
4528
4532
4536
4540
4544
4548
4552
4556
4560
4564
4568
4572
4576
4580
4584
4588
4592
4596
4600
4604
4608
4612
4616
4620
4624
4628
4632
4636
4640
4644
4648
4652
4656
4660
4664
4668
4672
4676
4680
4684
4688
4692
4696
4700
4704
4708
4712
4716
4720
4724
4728
4732
4736
4740
4744
4748
4752
4756
4760
4764
4768
4772
4776
4780
4784
4788
4792
4796
4800
4804
4808
4812
4816
4820
4824
4828
4832
4836
4840
4844
4848
4852
4856
4860
4864
4868
4872
4876
4880
4884
4888
4892
4896
4900
4904
4908
4912
4916
4920
4924
4928
4932
4936
4940
4944
4948
4952
4956
4960
4964
4968
4972
4976
4980
4984
4988
4992
4996
5000
5004
5008
5012
5016
5020
5024
5028
5032
5036
5040
5044
5048
5052
5056
5060
5064
5068
5072
5076
5080
5084
5088
5092
5096
5100
5104
5108
5112
5116
5120
5124
5128
5132
5136
5140
5144
5148
5152
5156
5160
5164
5168
5172
5176
5180
5184
5188
5192
5196
5200
5204
5208
5212
5216
5220
5224
5228
5232
5236
5240
5244
5248
5252
5256
5260
5264
5268
5272
5276
5280
5284
5288
5292
5296
5300
5304
5308
5312
5316
5320
5324
5328
5332
5336
5340
5344
5348
5352
5356
5360
5364
5368
5372
5376
5380
5384
5388
5392
5396
5400
5404
5408
5412
5416
5420
5424
5428
5432
5436
5440
5444
5448
5452
5456
5460
5464
5468
5472
5476
5480
5484
5488
5492
5496
5500
5504
5508
5512
5516
5520
5524
5528
5532
5536
5540
5544
5548
5552
5556
5560
5564
5568
5572
5576
5580
5584
5588
5592
5596
5600
5604
5608
5612
5616
5620
5624
5628
5632
5636
5640
5644
5648
5652
5656
5660
5664
5668
5672
5676
5680
5684
5688
5692
5696
5700
5704
5708
5712
5716
5720
5724
5728
5732
5736
5740
5744
5748
5752
5756
5760
5764
5768
5772
5776
5780
5784
5788
5792
5796
5800
5804
5808
5812
5816
5820
5824
5828
5832
5836
5840
5844
5848
5852
5856
5860
5864
5868
5872
5876
5880
5884
5888
5892
5896
5900
5904
5908
5912
5916
5920
5924
5928
5932
5936
5940
5944
5948
5952
5956
5960
5964
5968
5972
5976
5980
5984
5988
5992
5996
6000
              </DataArray>   
              <DataArray type="UInt8" Name="types" format="ascii">   
10
10
10
10
10
10
10
10
10
10
10
10
10
10
10
10
10
10
10
10
10
10
10
10
10
10
10
10
10
10
10
10
10
10
10
10
10
10
10
10
10
10
10
10
10
10
10
10
10
10
10
10
10
10
10
10
10
10
10
10
10
10
10
10
10
10
10
10
10
10
10
10
10
10
10
10
10
10
10
10
10
10
10
10
10
10
10
10
10
10
10
10
10
10
10
10
10
10
10
10
10
10
10
10
10
10
10
10
10
10
10
10
10
10
10
10
10
10
10
10
10
10
10
10
10
10
10
10
10
10
10
10
10
10
10
10
10
10
10
10
10
10
10
10
10
10
10
10
10
10
10
10
10
10
10
10
10
10
10
10
10
10
10
10
10
10
10
10
10
10
10
10
10
10
10
10
10
10
10
10
10
10
10
10
10
10
10
10
10
10
10
10
10
10
10
10
10
10
10
10
10
10
10
10
10
10
10
10
10
10
10
10
10
10
10
10
10
10
10
10
10
10
10
10
10
10
10
10
10
10
10
10
10
10
10
10
10
10
10
10
10
10
10
10
10
10
10
10
10
10
10
10
10
10
10
10
10
10
10
10
10
10
10
10
10
10
10
10
10
10
10
10
10
10
10
10
10
10
10
10
10
10
10
10
10
10
10
10
10
10
10
10
10
10
10
10
10
10
10
10
10
10
10
10
10
10
10
10
10
10
10
10
10
10
10
10
10
10
10
10
10
10
10
10
10
10
10
10
10
10
10
10
10
10
10
10
10
10
10
10
10
10
10
10
10
10
10
10
10
10
10
10
10
10
10
10
10
10
10
10
10
10
10
10
10
10
10
10
10
10
10
10
10
10
10
10
10
10
10
10
10
10
10
10
10
10
10
10
10
10
10
10
10
10
10
10
10
10
10
10
10
10
10
10
10
10
10
10
10
10
10
10
10
10
10
10
10
10
10
10
10
10
10
10
10
10
10
10
10
10
10
10
10
10
10
10
10
10
10
10
10
10
10
10
10
10
10
10
10
10
10
10
10
10
10
10
10
10
10
10
10
10
10
10
10
10
10
10
10
10
10
10
10
10
10
10
10
10
10
10
10
10
10
10
10
10
10
10
10
10
10
10
10
10
10
10
10
10
10
10
10
10
10
10
10
10
10
10
10
10
10
10
10
10
10
10
10
10
10
10
10
10
10
10
10
10
10
10
10
10
10
10
10
10
10
10
10
10
10
10
10
10
10
10
10
10
10
10
10
10
10
10
10
10
10
10
10
10
10
10
10
10
10
10
10
10
10
10
10
10
10
10
10
10
10
10
10
10
10
10
10
10
10
10
10
10
10
10
10
10
10
10
10
10
10
10
10
10
10
10
10
10
10
10
10
10
10
10
10
10
10
10
10
10
10
10
10
10
10
10
10
10
10
10
10
10
10
10
10
10
10
10
10
10
10
10
10
10
10
10
10
10
10
10
10
10
10
10
10
10
10
10
10
10
10
10
10
10
10
10
10
10
10
10
10
10
10
10
10
10
10
10
10
10
10
10
10
10
10
10
10
10
10
10
10
10
10
10
10
10
10
10
10
10
10
10
10
10
10
10
10
10
10
10
10
10
10
10
10
10
10
10
10
10
10
10
10
10
10
10
10
10
10
10
10
10
10
10
10
10
10
10
10
10
10
10
10
10
10
10
10
10
10
10
10
10
10
10
10
10
10
10
10
10
10
10
10
10
10
10
10
10
10
10
10
10
10
10
10
10
10
10
10
10
10
10
10
10
10
10
10
10
10
10
10
10
10
10
10
10
10
10
10
10
10
10
10
10
10
10
10
10
10
10
10
10
10
10
10
10
10
10
10
10
10
10
10
10
10
10
10
10
10
10
10
10
10
10
10
10
10
10
10
10
10
10
10
10
10
10
10
10
10
10
10
10
10
10
10
10
10
10
10
10
10
10
10
10
10
10
10
10
10
10
10
10
10
10
10
10
10
10
10
10
10
10
10
10
10
10
10
10
10
10
10
10
10
10
10
10
10
10
10
10
10
10
10
10
10
10
10
10
10
10
10
10
10
10
10
10
10
10
10
10
10
10
10
10
10
10
10
10
10
10
10
10
10
10
10
10
10
10
10
10
10
10
10
10
10
10
10
10
10
10
10
10
10
10
10
10
10
10
10
10
10
10
10
10
10
10
10
10
10
10
10
10
10
10
10
10
10
10
10
10
10
10
10
10
10
10
10
10
10
10
10
10
10
10
10
10
10
10
10
10
10
10
10
10
10
10
10
10
10
10
10
10
10
10
10
10
10
10
10
10
10
10
10
10
10
10
10
10
10
10
10
10
10
10
10
10
10
10
10
10
10
10
10
10
10
10
10
10
10
10
10
10
10
10
10
10
10
10
10
10
10
10
10
10
10
10
10
10
10
10
10
10
10
10
10
10
10
10
10
10
10
10
10
10
10
10
10
10
10
10
10
10
10
10
10
10
10
10
10
10
10
10
10
10
10
10
10
10
10
10
10
10
10
10
10
10
10
10
10
10
10
10
10
10
10
10
10
10
10
10
10
10
10
10
10
10
10
10
10
10
10
10
10
10
10
10
10
10
10
10
10
10
10
10
10
10
10
10
10
10
10
10
10
10
10
10
10
10
10
10
10
10
10
10
10
10
10
10
10
10
10
10
10
10
10
10
10
10
10
10
10
10
10
10
10
10
10
10
10
10
10
10
10
10
10
10
10
10
10
10
10
10
10
10
10
10
10
10
10
10
10
10
10
10
10
10
10
10
10
10
10
10
10
10
10
10
10
10
10
10
10
10
10
10
10
10
10
10
10
10
10
10
10
10
10
10
10
10
10
10
10
10
10
10
10
10
10
10
10
10
10
10
10
10
10
10
10
10
10
10
10
10
10
10
10
10
10
10
10
10
10
10
10
10
10
10
10
10
10
10
10
10
10
10
10
10
10
10
10
10
10
10
10
10
10
10
10
10
10
10
10
10
10
10
10
10
10
10
10
10
10
10
10
10
10
10
10
10
10
10
10
10
10
10
10
10
10
10
10
10
10
10
10
10
10
10
10
10
10
10
10
10
10
10
10
10
10
10
10
10
10
10
10
10
10
10
10
10
10
10
10
10
10
10
10
10
10
10
10
10
10
10
10
10
10
10
10
10
10
10
10
10
10
10
10
10
10
10
10
10
10
10
10
10
10
10
10
10
10
10
10
10
10
10
10
10
10
10
10
10
10
10
10
10
10
10
10
10
10
10
10
10
10
10
10
10
10
10
10
10
10
10
10
10
10
10
10
10
10
10
10
10
10
10
10
10
10
10
10
10
10
10
10
10
10
10
10
10
10
10
10
10
10
10
10
10
10
10
10
10
10
10
10
10
10
10
10
10
10
10
10
10
10
10
10
10
              </DataArray>   
          </Cells>  
          <PointData>  
             <DataArray type="Float64" NumberOfComponents="3" Name="Strains" format="ascii">   
-6.308032811912532e-05   0.0   -4.148688028665248e-05
-6.308032811912532e-05   0.0   -4.148688028665248e-05
-6.308032811912532e-05   0.0   -4.148688028665248e-05
-6.308032811912532e-05   0.0   -4.148688028665248e-05
-4.013061422964644e-05   6.976526895806142e-06   9.485589999625891e-07
-4.013061422964644e-05   6.976526895806142e-06   9.485589999625891e-07
-4.013061422964644e-05   6.976526895806142e-06   9.485589999625891e-07
-4.013061422964644e-05   6.976526895806142e-06   9.485589999625891e-07
-3.9331111552355854e-05   0.0   -3.916690832648128e-05
-3.9331111552355854e-05   0.0   -3.916690832648128e-05
-3.9331111552355854e-05   0.0   -3.916690832648128e-05
-3.9331111552355854e-05   0.0   -3.916690832648128e-05
-6.600931584814919e-05   8.377704899691682e-06   2.7014256002608986e-07
-6.600931584814919e-05   8.377704899691682e-06   2.7014256002608986e-07
-6.600931584814919e-05   8.377704899691682e-06   2.7014256002608986e-07
-6.600931584814919e-05   8.377704899691682e-06   2.7014256002608986e-07
-5.12057198357405e-05   1.9333099668093304e-06   -2.053588050092561e-05
-5.12057198357405e-05   1.9333099668093304e-06   -2.053588050092561e-05
-5.12057198357405e-05   1.9333099668093304e-06   -2.053588050092561e-05
-5.12057198357405e-05   1.9333099668093304e-06   -2.053588050092561e-05
-6.60093158481493e-05   0.0   -4.4193531266296304e-05
-6.60093158481493e-05   0.0   -4.4193531266296304e-05
-6.60093158481493e-05   0.0   -4.4193531266296304e-05
-6.60093158481493e-05   0.0   -4.4193531266296304e-05
-3.9331111552355854e-05   8.377704899691695e-06   5.296765499841112e-06
-3.9331111552355854e-05   8.377704899691695e-06   5.296765499841112e-06
-3.9331111552355854e-05   8.377704899691695e-06   5.296765499841112e-06
-3.9331111552355854e-05   8.377704899691695e-06   5.296765499841112e-06
-3.9435707561972755e-05   0.0   -4.012387426150183e-05
-3.9435707561972755e-05   0.0   -4.012387426150183e-05
-3.9435707561972755e-05   0.0   -4.012387426150183e-05
-3.9435707561972755e-05   0.0   -4.012387426150183e-05
-6.806341169408941e-05   8.976950608333007e-06   2.202795593692967e-06
-6.806341169408941e-05   8.976950608333007e-06   2.202795593692967e-06
-6.806341169408941e-05   8.976950608333007e-06   2.202795593692967e-06
-6.806341169408941e-05   8.976950608333007e-06   2.202795593692967e-06
-5.2722511705060934e-05   3.3913808373287226e-06   -2.0014029192085237e-05
-5.2722511705060934e-05   3.3913808373287226e-06   -2.0014029192085237e-05
-5.2722511705060934e-05   3.3913808373287226e-06   -2.0014029192085237e-05
-5.2722511705060934e-05   3.3913808373287226e-06   -2.0014029192085237e-05
-6.806341169408953e-05   0.0   -4.551004462650165e-05
-6.806341169408953e-05   0.0   -4.551004462650165e-05
-6.806341169408953e-05   0.0   -4.551004462650165e-05
-6.806341169408953e-05   0.0   -4.551004462650165e-05
-3.943570756197269e-05   8.976950608333007e-06   7.5889659586927765e-06
-3.943570756197269e-05   8.976950608333007e-06   7.5889659586927765e-06
-3.943570756197269e-05   8.976950608333007e-06   7.5889659586927765e-06
-3.943570756197269e-05   8.976950608333007e-06   7.5889659586927765e-06
-3.940784959683558e-05   0.0   -4.0370773676897275e-05
-3.940784959683558e-05   0.0   -4.0370773676897275e-05
-3.940784959683558e-05   0.0   -4.0370773676897275e-05
-3.940784959683558e-05   0.0   -4.0370773676897275e-05
-7.24947765933072e-05   1.0231278383703992e-05   8.635337620333208e-06
-7.24947765933072e-05   1.0231278383703992e-05   8.635337620333208e-06
-7.24947765933072e-05   1.0231278383703992e-05   8.635337620333208e-06
-7.24947765933072e-05   1.0231278383703992e-05   8.635337620333208e-06
-5.373563064546246e-05   4.282725791336981e-06   -1.9060774070654448e-05
-5.373563064546246e-05   4.282725791336981e-06   -1.9060774070654448e-05
-5.373563064546246e-05   4.282725791336981e-06   -1.9060774070654448e-05
-5.373563064546246e-05   4.282725791336981e-06   -1.9060774070654448e-05
-4.0130614229646505e-05   0.0   -3.730096414916879e-05
-4.0130614229646505e-05   0.0   -3.730096414916879e-05
-4.0130614229646505e-05   0.0   -3.730096414916879e-05
-4.0130614229646505e-05   0.0   -3.730096414916879e-05
-1.8283012766766052e-05   2.5564845813158026e-06   6.455957044214276e-07
-1.8283012766766052e-05   2.5564845813158026e-06   6.455957044214276e-07
-1.8283012766766052e-05   2.5564845813158026e-06   6.455957044214276e-07
-1.8283012766766052e-05   2.5564845813158026e-06   6.455957044214276e-07
-1.757817874441451e-05   0.0   -3.6980837393196934e-05
-1.757817874441451e-05   0.0   -3.6980837393196934e-05
-1.757817874441451e-05   0.0   -3.6980837393196934e-05
-1.757817874441451e-05   0.0   -3.6980837393196934e-05
-3.9331111552355854e-05   3.643451555473818e-06   -2.912020313245757e-06
-3.9331111552355854e-05   3.643451555473818e-06   -2.912020313245757e-06
-3.9331111552355854e-05   3.643451555473818e-06   -2.912020313245757e-06
-3.9331111552355854e-05   3.643451555473818e-06   -2.912020313245757e-06
-2.8854396487030475e-05   2.6677229664316145e-07   -1.8347204533489547e-05
-2.8854396487030475e-05   2.6677229664316145e-07   -1.8347204533489547e-05
-2.8854396487030475e-05   2.6677229664316145e-07   -1.8347204533489547e-05
-2.8854396487030475e-05   2.6677229664316145e-07   -1.8347204533489547e-05
-3.933111155235582e-05   0.0   -3.916690832648125e-05
-3.933111155235582e-05   0.0   -3.916690832648125e-05
-3.933111155235582e-05   0.0   -3.916690832648125e-05
-3.933111155235582e-05   0.0   -3.916690832648125e-05
-1.757817874441451e-05   3.6434515554738045e-06   -7.25949379961477e-07
-1.757817874441451e-05   3.6434515554738045e-06   -7.25949379961477e-07
-1.757817874441451e-05   3.6434515554738045e-06   -7.25949379961477e-07
-1.757817874441451e-05   3.6434515554738045e-06   -7.25949379961477e-07
-1.717973688379189e-05   0.0   -3.7443738716746425e-05
-1.717973688379189e-05   0.0   -3.7443738716746425e-05
-1.717973688379189e-05   0.0   -3.7443738716746425e-05
-1.717973688379189e-05   0.0   -3.7443738716746425e-05
-3.9435707561972755e-05   4.466892574592248e-06   -3.0305897978671106e-06
-3.9435707561972755e-05   4.466892574592248e-06   -3.0305897978671106e-06
-3.9435707561972755e-05   4.466892574592248e-06   -3.0305897978671106e-06
-3.9435707561972755e-05   4.466892574592248e-06   -3.0305897978671106e-06
-2.825542421807383e-05   1.4359746747789922e-06   -1.984584463114387e-05
-2.825542421807383e-05   1.4359746747789922e-06   -1.984584463114387e-05
-2.825542421807383e-05   1.4359746747789922e-06   -1.984584463114387e-05
-2.825542421807383e-05   1.4359746747789922e-06   -1.984584463114387e-05
-3.9435707561972755e-05   0.0   -4.012387426150183e-05
-3.9435707561972755e-05   0.0   -4.012387426150183e-05
-3.9435707561972755e-05   0.0   -4.012387426150183e-05
-3.9435707561972755e-05   0.0   -4.012387426150183e-05
-1.717973688379192e-05   4.466892574592248e-06   -3.5045425311176456e-07
-1.717973688379192e-05   4.466892574592248e-06   -3.5045425311176456e-07
-1.717973688379192e-05   4.466892574592248e-06   -3.5045425311176456e-07
-1.717973688379192e-05   4.466892574592248e-06   -3.5045425311176456e-07
-1.681587955809879e-05   0.0   -3.725122304629201e-05
-1.681587955809879e-05   0.0   -3.725122304629201e-05
-1.681587955809879e-05   0.0   -3.725122304629201e-05
-1.681587955809879e-05   0.0   -3.725122304629201e-05
-3.9407849596835474e-05   5.199251051008706e-06   -2.717490279002612e-06
-3.9407849596835474e-05   5.199251051008706e-06   -2.717490279002612e-06
-3.9407849596835474e-05   5.199251051008706e-06   -2.717490279002612e-06
-3.9407849596835474e-05   5.199251051008706e-06   -2.717490279002612e-06
-2.8125793560035764e-05   2.39387601267483e-06   -1.983769198400195e-05
-2.8125793560035764e-05   2.39387601267483e-06   -1.983769198400195e-05
-2.8125793560035764e-05   2.39387601267483e-06   -1.983769198400195e-05
-2.8125793560035764e-05   2.39387601267483e-06   -1.983769198400195e-05
-1.8283012766766083e-05   0.0   -3.576707340037931e-05
-1.8283012766766083e-05   0.0   -3.576707340037931e-05
-1.8283012766766083e-05   0.0   -3.576707340037931e-05
-1.8283012766766083e-05   0.0   -3.576707340037931e-05
2.35346113412165e-06   -3.29202518559529e-07   -1.5704717433687712e-06
2.35346113412165e-06   -3.29202518559529e-07   -1.5704717433687712e-06
2.35346113412165e-06   -3.29202518559529e-07   -1.5704717433687712e-06
2.35346113412165e-06   -3.29202518559529e-07   -1.5704717433687712e-06
2.8062873733710783e-06   0.0   -3.659283592382794e-05
2.8062873733710783e-06   0.0   -3.659283592382794e-05
2.8062873733710783e-06   0.0   -3.659283592382794e-05
2.8062873733710783e-06   0.0   -3.659283592382794e-05
-1.757817874441451e-05   6.466691156148849e-07   -3.0067271968876112e-06
-1.757817874441451e-05   6.466691156148849e-07   -3.0067271968876112e-06
-1.757817874441451e-05   6.466691156148849e-07   -3.0067271968876112e-06
-1.757817874441451e-05   6.466691156148849e-07   -3.0067271968876112e-06
-7.738362696697484e-06   -6.88135436207294e-07   -1.8605537878656e-05
-7.738362696697484e-06   -6.88135436207294e-07   -1.8605537878656e-05
-7.738362696697484e-06   -6.88135436207294e-07   -1.8605537878656e-05
-7.738362696697484e-06   -6.88135436207294e-07   -1.8605537878656e-05
-1.757817874441454e-05   0.0   -3.6980837393196995e-05
-1.757817874441454e-05   0.0   -3.6980837393196995e-05
-1.757817874441454e-05   0.0   -3.6980837393196995e-05
-1.757817874441454e-05   0.0   -3.6980837393196995e-05
2.8062873733710834e-06   6.466691156148849e-07   -2.6187257275186796e-06
2.8062873733710834e-06   6.466691156148849e-07   -2.6187257275186796e-06
2.8062873733710834e-06   6.466691156148849e-07   -2.6187257275186796e-06
2.8062873733710834e-06   6.466691156148849e-07   -2.6187257275186796e-06
3.1645225062734757e-06   0.0   -3.653999865922623e-05
3.1645225062734757e-06   0.0   -3.653999865922623e-05
3.1645225062734757e-06   0.0   -3.653999865922623e-05
3.1645225062734757e-06   0.0   -3.653999865922623e-05
-1.7179736883791862e-05   1.5062334292003285e-06   -3.5366397333041435e-06
-1.7179736883791862e-05   1.5062334292003285e-06   -3.5366397333041435e-06
-1.7179736883791862e-05   1.5062334292003285e-06   -3.5366397333041435e-06
-1.7179736883791862e-05   1.5062334292003285e-06   -3.5366397333041435e-06
-7.2068281190705166e-06   3.673656116422576e-07   -1.9474833650638244e-05
-7.2068281190705166e-06   3.673656116422576e-07   -1.9474833650638244e-05
-7.2068281190705166e-06   3.673656116422576e-07   -1.9474833650638244e-05
-7.2068281190705166e-06   3.673656116422576e-07   -1.9474833650638244e-05
-1.717973688379192e-05   0.0   -3.7443738716746486e-05
-1.717973688379192e-05   0.0   -3.7443738716746486e-05
-1.717973688379192e-05   0.0   -3.7443738716746486e-05
-1.717973688379192e-05   0.0   -3.7443738716746486e-05
3.164522506273481e-06   1.5062334292003285e-06   -2.63289967578396e-06
3.164522506273481e-06   1.5062334292003285e-06   -2.63289967578396e-06
3.164522506273481e-06   1.5062334292003285e-06   -2.63289967578396e-06
3.164522506273481e-06   1.5062334292003285e-06   -2.63289967578396e-06
3.6444300714149074e-06   0.0   -3.575035188804249e-05
3.6444300714149074e-06   0.0   -3.575035188804249e-05
3.6444300714149074e-06   0.0   -3.575035188804249e-05
3.6444300714149074e-06   0.0   -3.575035188804249e-05
-1.6815879558098772e-05   2.5014519304158216e-06   -3.150706997102513e-06
-1.6815879558098772e-05   2.5014519304158216e-06   -3.150706997102513e-06
-1.6815879558098772e-05   2.5014519304158216e-06   -3.150706997102513e-06
-1.6815879558098772e-05   2.5014519304158216e-06   -3.150706997102513e-06
-6.767653406188491e-06   1.411155690586617e-06   -1.924357283972211e-05
-6.767653406188491e-06   1.411155690586617e-06   -1.924357283972211e-05
-6.767653406188491e-06   1.411155690586617e-06   -1.924357283972211e-05
-6.767653406188491e-06   1.411155690586617e-06   -1.924357283972211e-05
2.353461134121654e-06   0.0   -3.5964594911515026e-05
2.353461134121654e-06   0.0   -3.5964594911515026e-05
2.353461134121654e-06   0.0   -3.5964594911515026e-05
2.353461134121654e-06   0.0   -3.5964594911515026e-05
2.4759422192736e-05   -2.904060653176869e-06   -3.6376287239708546e-07
2.4759422192736e-05   -2.904060653176869e-06   -3.6376287239708546e-07
2.4759422192736e-05   -2.904060653176869e-06   -3.6376287239708546e-07
2.4759422192736e-05   -2.904060653176869e-06   -3.6376287239708546e-07
2.4811015237055846e-05   0.0   -3.790533273574719e-05
2.4811015237055846e-05   0.0   -3.790533273574719e-05
2.4811015237055846e-05   0.0   -3.790533273574719e-05
2.4811015237055846e-05   0.0   -3.790533273574719e-05
2.8062873733710834e-06   -2.1874946865318683e-06   8.171051564652725e-08
2.8062873733710834e-06   -2.1874946865318683e-06   8.171051564652725e-08
2.8062873733710834e-06   -2.1874946865318683e-06   8.171051564652725e-08
2.8062873733710834e-06   -2.1874946865318683e-06   8.171051564652725e-08
1.358223818558875e-05   -1.6172815201934636e-06   -1.822033540451927e-05
1.358223818558875e-05   -1.6172815201934636e-06   -1.822033540451927e-05
1.358223818558875e-05   -1.6172815201934636e-06   -1.822033540451927e-05
1.358223818558875e-05   -1.6172815201934636e-06   -1.822033540451927e-05
2.806287373371088e-06   0.0   -3.659283592382807e-05
2.806287373371088e-06   0.0   -3.659283592382807e-05
2.806287373371088e-06   0.0   -3.659283592382807e-05
2.806287373371088e-06   0.0   -3.659283592382807e-05
2.4811015237055802e-05   -2.1874946865318683e-06   -1.2307862962725993e-06
2.4811015237055802e-05   -2.1874946865318683e-06   -1.2307862962725993e-06
2.4811015237055802e-05   -2.1874946865318683e-06   -1.2307862962725993e-06
2.4811015237055802e-05   -2.1874946865318683e-06   -1.2307862962725993e-06
2.4711274031640798e-05   0.0   -3.7364113104421516e-05
2.4711274031640798e-05   0.0   -3.7364113104421516e-05
2.4711274031640798e-05   0.0   -3.7364113104421516e-05
2.4711274031640798e-05   0.0   -3.7364113104421516e-05
3.164522506273481e-06   -1.3735240753253816e-06   -6.287461169474313e-07
3.164522506273481e-06   -1.3735240753253816e-06   -6.287461169474313e-07
3.164522506273481e-06   -1.3735240753253816e-06   -6.287461169474313e-07
3.164522506273481e-06   -1.3735240753253816e-06   -6.287461169474313e-07
1.3758780702505943e-05   -6.42730983827879e-07   -1.8724318965566686e-05
1.3758780702505943e-05   -6.42730983827879e-07   -1.8724318965566686e-05
1.3758780702505943e-05   -6.42730983827879e-07   -1.8724318965566686e-05
1.3758780702505943e-05   -6.42730983827879e-07   -1.8724318965566686e-05
3.164522506273481e-06   0.0   -3.653999865922629e-05
3.164522506273481e-06   0.0   -3.653999865922629e-05
3.164522506273481e-06   0.0   -3.653999865922629e-05
3.164522506273481e-06   0.0   -3.653999865922629e-05
2.4711274031640757e-05   -1.3735240753253748e-06   -1.4528605621426496e-06
2.4711274031640757e-05   -1.3735240753253748e-06   -1.4528605621426496e-06
2.4711274031640757e-05   -1.3735240753253748e-06   -1.4528605621426496e-06
2.4711274031640757e-05   -1.3735240753253748e-06   -1.4528605621426496e-06
2.519612265091282e-05   0.0   -3.591842789839885e-05
2.519612265091282e-05   0.0   -3.591842789839885e-05
2.519612265091282e-05   0.0   -3.591842789839885e-05
2.519612265091282e-05   0.0   -3.591842789839885e-05
3.6444300714149137e-06   -2.801266839271669e-07   1.691357444539536e-07
3.6444300714149137e-06   -2.801266839271669e-07   1.691357444539536e-07
3.6444300714149137e-06   -2.801266839271669e-07   1.691357444539536e-07
3.6444300714149137e-06   -2.801266839271669e-07   1.691357444539536e-07
1.418032257859315e-05   5.179756340228693e-07   -1.7869546491613106e-05
1.418032257859315e-05   5.179756340228693e-07   -1.7869546491613106e-05
1.418032257859315e-05   5.179756340228693e-07   -1.7869546491613106e-05
1.418032257859315e-05   5.179756340228693e-07   -1.7869546491613106e-05
2.4759422192736085e-05   0.0   -3.7707031303421156e-05
2.4759422192736085e-05   0.0   -3.7707031303421156e-05
2.4759422192736085e-05   0.0   -3.7707031303421156e-05
2.4759422192736085e-05   0.0   -3.7707031303421156e-05
5.5937938876339185e-05   -7.366870710387902e-06   9.837040743018111e-06
5.5937938876339185e-05   -7.366870710387902e-06   9.837040743018111e-06
5.5937938876339185e-05   -7.366870710387902e-06   9.837040743018111e-06
5.5937938876339185e-05   -7.366870710387902e-06   9.837040743018111e-06
5.2544580286262574e-05   0.0   -4.1663755663201606e-05
5.2544580286262574e-05   0.0   -4.1663755663201606e-05
5.2544580286262574e-05   0.0   -4.1663755663201606e-05
5.2544580286262574e-05   0.0   -4.1663755663201606e-05
2.4811015237055802e-05   -6.264038212424022e-06   8.317275679597343e-06
2.4811015237055802e-05   -6.264038212424022e-06   8.317275679597343e-06
2.4811015237055802e-05   -6.264038212424022e-06   8.317275679597343e-06
2.4811015237055802e-05   -6.264038212424022e-06   8.317275679597343e-06
3.865200123949933e-05   -3.29727029981704e-06   -1.6531095072039293e-05
3.865200123949933e-05   -3.29727029981704e-06   -1.6531095072039293e-05
3.865200123949933e-05   -3.29727029981704e-06   -1.6531095072039293e-05
3.865200123949933e-05   -3.29727029981704e-06   -1.6531095072039293e-05
2.4811015237055822e-05   0.0   -3.7905332735747155e-05
2.4811015237055822e-05   0.0   -3.7905332735747155e-05
2.4811015237055822e-05   0.0   -3.7905332735747155e-05
2.4811015237055822e-05   0.0   -3.7905332735747155e-05
5.2544580286262574e-05   -6.2640382124240355e-06   4.558852752142926e-06
5.2544580286262574e-05   -6.2640382124240355e-06   4.558852752142926e-06
5.2544580286262574e-05   -6.2640382124240355e-06   4.558852752142926e-06
5.2544580286262574e-05   -6.2640382124240355e-06   4.558852752142926e-06
5.098271232648067e-05   0.0   -4.0797614862809555e-05
5.098271232648067e-05   0.0   -4.0797614862809555e-05
5.098271232648067e-05   0.0   -4.0797614862809555e-05
5.098271232648067e-05   0.0   -4.0797614862809555e-05
2.4711274031640757e-05   -5.722502930646724e-06   6.4216173869782636e-06
2.4711274031640757e-05   -5.722502930646724e-06   6.4216173869782636e-06
2.4711274031640757e-05   -5.722502930646724e-06   6.4216173869782636e-06
2.4711274031640757e-05   -5.722502930646724e-06   6.4216173869782636e-06
3.789686378176824e-05   -2.4102351058853137e-06   -1.7541726224757648e-05
3.789686378176824e-05   -2.4102351058853137e-06   -1.7541726224757648e-05
3.789686378176824e-05   -2.4102351058853137e-06   -1.7541726224757648e-05
3.789686378176824e-05   -2.4102351058853137e-06   -1.7541726224757648e-05
2.4711274031640798e-05   0.0   -3.7364113104421516e-05
2.4711274031640798e-05   0.0   -3.7364113104421516e-05
2.4711274031640798e-05   0.0   -3.7364113104421516e-05
2.4711274031640798e-05   0.0   -3.7364113104421516e-05
5.0982712326480584e-05   -5.722502930646724e-06   2.9881156285902182e-06
5.0982712326480584e-05   -5.722502930646724e-06   2.9881156285902182e-06
5.0982712326480584e-05   -5.722502930646724e-06   2.9881156285902182e-06
5.0982712326480584e-05   -5.722502930646724e-06   2.9881156285902182e-06
4.865297260384795e-05   0.0   -3.858420972337447e-05
4.865297260384795e-05   0.0   -3.858420972337447e-05
4.865297260384795e-05   0.0   -3.858420972337447e-05
4.865297260384795e-05   0.0   -3.858420972337447e-05
2.5196122650912756e-05   -4.442969708292704e-06   3.1763220231597364e-06
2.5196122650912756e-05   -4.442969708292704e-06   3.1763220231597364e-06
2.5196122650912756e-05   -4.442969708292704e-06   3.1763220231597364e-06
2.5196122650912756e-05   -4.442969708292704e-06   3.1763220231597364e-06
3.6682123317744314e-05   -1.0167471824607988e-06   -1.802274593705865e-05
3.6682123317744314e-05   -1.0167471824607988e-06   -1.802274593705865e-05
3.6682123317744314e-05   -1.0167471824607988e-06   -1.802274593705865e-05
3.6682123317744314e-05   -1.0167471824607988e-06   -1.802274593705865e-05
-5.466663259667149e-05   6.976526895806115e-06   -3.592633094148686e-05
-5.466663259667149e-05   6.976526895806115e-06   -3.592633094148686e-05
-5.466663259667149e-05   6.976526895806115e-06   -3.592633094148686e-05
-5.466663259667149e-05   6.976526895806115e-06   -3.592633094148686e-05
-3.501933337323042e-05   6.269964815418629e-06   -3.6047694839841957e-06
-3.501933337323042e-05   6.269964815418629e-06   -3.6047694839841957e-06
-3.501933337323042e-05   6.269964815418629e-06   -3.6047694839841957e-06
-3.501933337323042e-05   6.269964815418629e-06   -3.6047694839841957e-06
-3.589714516537868e-05   8.377704899691682e-06   -3.0177848306954785e-05
-3.589714516537868e-05   8.377704899691682e-06   -3.0177848306954785e-05
-3.589714516537868e-05   8.377704899691682e-06   -3.0177848306954785e-05
-3.589714516537868e-05   8.377704899691682e-06   -3.0177848306954785e-05
-5.525151555971722e-05   7.528937406489752e-06   2.588696179530639e-06
-5.525151555971722e-05   7.528937406489752e-06   2.588696179530639e-06
-5.525151555971722e-05   7.528937406489752e-06   2.588696179530639e-06
-5.525151555971722e-05   7.528937406489752e-06   2.588696179530639e-06
-4.341764367786785e-05   7.28905919553313e-06   -1.6990496696977823e-05
-4.341764367786785e-05   7.28905919553313e-06   -1.6990496696977823e-05
-4.341764367786785e-05   7.28905919553313e-06   -1.6990496696977823e-05
-4.341764367786785e-05   7.28905919553313e-06   -1.6990496696977823e-05
-5.525151555971722e-05   8.377704899691682e-06   -2.9668587811033614e-05
-5.525151555971722e-05   8.377704899691682e-06   -2.9668587811033614e-05
-5.525151555971722e-05   8.377704899691682e-06   -2.9668587811033614e-05
-5.525151555971722e-05   8.377704899691682e-06   -2.9668587811033614e-05
-3.5897145165378814e-05   7.528937406489779e-06   2.079435683609556e-06
-3.5897145165378814e-05   7.528937406489779e-06   2.079435683609556e-06
-3.5897145165378814e-05   7.528937406489779e-06   2.079435683609556e-06
-3.5897145165378814e-05   7.528937406489779e-06   2.079435683609556e-06
-3.607757101982552e-05   8.976950608332993e-06   -2.7135616319601518e-05
-3.607757101982552e-05   8.976950608332993e-06   -2.7135616319601518e-05
-3.607757101982552e-05   8.976950608332993e-06   -2.7135616319601518e-05
-3.607757101982552e-05   8.976950608332993e-06   -2.7135616319601518e-05
-5.563440972260952e-05   8.097283780829064e-06   5.986914948207381e-06
-5.563440972260952e-05   8.097283780829064e-06   5.986914948207381e-06
-5.563440972260952e-05   8.097283780829064e-06   5.986914948207381e-06
-5.563440972260952e-05   8.097283780829064e-06   5.986914948207381e-06
-4.468979337160979e-05   8.080498668645626e-06   -1.2244041236148714e-05
-4.468979337160979e-05   8.080498668645626e-06   -1.2244041236148714e-05
-4.468979337160979e-05   8.080498668645626e-06   -1.2244041236148714e-05
-4.468979337160979e-05   8.080498668645626e-06   -1.2244041236148714e-05
-5.563440972260941e-05   8.976950608332993e-06   -2.6607816223099137e-05
-5.563440972260941e-05   8.976950608332993e-06   -2.6607816223099137e-05
-5.563440972260941e-05   8.976950608332993e-06   -2.6607816223099137e-05
-5.563440972260941e-05   8.976950608332993e-06   -2.6607816223099137e-05
-3.607757101982559e-05   8.097283780829036e-06   5.4591148517049454e-06
-3.607757101982559e-05   8.097283780829036e-06   5.4591148517049454e-06
-3.607757101982559e-05   8.097283780829036e-06   5.4591148517049454e-06
-3.607757101982559e-05   8.097283780829036e-06   5.4591148517049454e-06
-3.586877664663477e-05   1.0231278383703978e-05   -2.0062271325943428e-05
-3.586877664663477e-05   1.0231278383703978e-05   -2.0062271325943428e-05
-3.586877664663477e-05   1.0231278383703978e-05   -2.0062271325943428e-05
-3.586877664663477e-05   1.0231278383703978e-05   -2.0062271325943428e-05
-5.408299002639249e-05   8.551123842485454e-06   1.1302843698383707e-05
-5.408299002639249e-05   8.551123842485454e-06   1.1302843698383707e-05
-5.408299002639249e-05   8.551123842485454e-06   1.1302843698383707e-05
-5.408299002639249e-05   8.551123842485454e-06   1.1302843698383707e-05
-4.35219817524447e-05   8.865370154266414e-06   -6.487384545264453e-06
-4.35219817524447e-05   8.865370154266414e-06   -6.487384545264453e-06
-4.35219817524447e-05   8.865370154266414e-06   -6.487384545264453e-06
-4.35219817524447e-05   8.865370154266414e-06   -6.487384545264453e-06
-3.501933337323042e-05   2.5564845813158093e-06   -3.818712223404999e-05
-3.501933337323042e-05   2.5564845813158093e-06   -3.818712223404999e-05
-3.501933337323042e-05   2.5564845813158093e-06   -3.818712223404999e-05
-3.501933337323042e-05   2.5564845813158093e-06   -3.818712223404999e-05
-1.6604498447785765e-05   2.9176337840996775e-06   -7.2790411699718516e-06
-1.6604498447785765e-05   2.9176337840996775e-06   -7.2790411699718516e-06
-1.6604498447785765e-05   2.9176337840996775e-06   -7.2790411699718516e-06
-1.6604498447785765e-05   2.9176337840996775e-06   -7.2790411699718516e-06
-1.6997707628681132e-05   3.6434515554738045e-06   -3.812755071448088e-05
-1.6997707628681132e-05   3.6434515554738045e-06   -3.812755071448088e-05
-1.6997707628681132e-05   3.6434515554738045e-06   -3.812755071448088e-05
-1.6997707628681132e-05   3.6434515554738045e-06   -3.812755071448088e-05
-3.589714516537868e-05   4.075257231408514e-06   -6.8875715588789986e-06
-3.589714516537868e-05   4.075257231408514e-06   -6.8875715588789986e-06
-3.589714516537868e-05   4.075257231408514e-06   -6.8875715588789986e-06
-3.589714516537868e-05   4.075257231408514e-06   -6.8875715588789986e-06
-2.605585482842536e-05   3.281095244340109e-06   -2.2813224928226943e-05
-2.605585482842536e-05   3.281095244340109e-06   -2.2813224928226943e-05
-2.605585482842536e-05   3.281095244340109e-06   -2.2813224928226943e-05
-2.605585482842536e-05   3.281095244340109e-06   -2.2813224928226943e-05
-3.589714516537866e-05   3.6434515554738045e-06   -3.838663412004157e-05
-3.589714516537866e-05   3.6434515554738045e-06   -3.838663412004157e-05
-3.589714516537866e-05   3.6434515554738045e-06   -3.838663412004157e-05
-3.589714516537866e-05   3.6434515554738045e-06   -3.838663412004157e-05
-1.6997707628681102e-05   4.075257231408487e-06   -6.628488153318098e-06
-1.6997707628681102e-05   4.075257231408487e-06   -6.628488153318098e-06
-1.6997707628681102e-05   4.075257231408487e-06   -6.628488153318098e-06
-1.6997707628681102e-05   4.075257231408487e-06   -6.628488153318098e-06
-1.7118801242894615e-05   4.466892574592234e-06   -3.741497461969062e-05
-1.7118801242894615e-05   4.466892574592234e-06   -3.741497461969062e-05
-1.7118801242894615e-05   4.466892574592234e-06   -3.741497461969062e-05
-1.7118801242894615e-05   4.466892574592234e-06   -3.741497461969062e-05
-3.607757101982552e-05   5.033888335376929e-06   -6.157222447943131e-06
-3.607757101982552e-05   5.033888335376929e-06   -6.157222447943131e-06
-3.607757101982552e-05   5.033888335376929e-06   -6.157222447943131e-06
-3.607757101982552e-05   5.033888335376929e-06   -6.157222447943131e-06
-2.62564542690169e-05   4.166224606659613e-06   -2.2005152128727113e-05
-2.62564542690169e-05   4.166224606659613e-06   -2.2005152128727113e-05
-2.62564542690169e-05   4.166224606659613e-06   -2.2005152128727113e-05
-2.62564542690169e-05   4.166224606659613e-06   -2.2005152128727113e-05
-3.607757101982552e-05   4.466892574592234e-06   -3.7755172076161385e-05
-3.607757101982552e-05   4.466892574592234e-06   -3.7755172076161385e-05
-3.607757101982552e-05   4.466892574592234e-06   -3.7755172076161385e-05
-3.607757101982552e-05   4.466892574592234e-06   -3.7755172076161385e-05
-1.7118801242894645e-05   5.033888335376929e-06   -5.817024991472391e-06
-1.7118801242894645e-05   5.033888335376929e-06   -5.817024991472391e-06
-1.7118801242894645e-05   5.033888335376929e-06   -5.817024991472391e-06
-1.7118801242894645e-05   5.033888335376929e-06   -5.817024991472391e-06
-1.7073735128928594e-05   5.199251051008706e-06   -3.703399833852637e-05
-1.7073735128928594e-05   5.199251051008706e-06   -3.703399833852637e-05
-1.7073735128928594e-05   5.199251051008706e-06   -3.703399833852637e-05
-1.7073735128928594e-05   5.199251051008706e-06   -3.703399833852637e-05
-3.5868776646634803e-05   6.065697579300805e-06   -6.228797059324604e-06
-3.5868776646634803e-05   6.065697579300805e-06   -6.228797059324604e-06
-3.5868776646634803e-05   6.065697579300805e-06   -6.228797059324604e-06
-3.5868776646634803e-05   6.065697579300805e-06   -6.228797059324604e-06
-2.64076533940991e-05   4.967384148946392e-06   -2.1338347755338155e-05
-2.64076533940991e-05   4.967384148946392e-06   -2.1338347755338155e-05
-2.64076533940991e-05   4.967384148946392e-06   -2.1338347755338155e-05
-2.64076533940991e-05   4.967384148946392e-06   -2.1338347755338155e-05
-1.6604498447785737e-05   -3.29202518559529e-07   -3.998897864903415e-05
-1.6604498447785737e-05   -3.29202518559529e-07   -3.998897864903415e-05
-1.6604498447785737e-05   -3.29202518559529e-07   -3.998897864903415e-05
-1.6604498447785737e-05   -3.29202518559529e-07   -3.998897864903415e-05
1.5774459694244555e-06   -8.793277527760534e-08   -9.540976107714656e-06
1.5774459694244555e-06   -8.793277527760534e-08   -9.540976107714656e-06
1.5774459694244555e-06   -8.793277527760534e-08   -9.540976107714656e-06
1.5774459694244555e-06   -8.793277527760534e-08   -9.540976107714656e-06
1.505800239320725e-06   6.466691156148849e-07   -4.0209021440014675e-05
1.505800239320725e-06   6.466691156148849e-07   -4.0209021440014675e-05
1.505800239320725e-06   6.466691156148849e-07   -4.0209021440014675e-05
1.505800239320725e-06   6.466691156148849e-07   -4.0209021440014675e-05
-1.6997707628681102e-05   9.78847601268662e-07   -9.56914875140389e-06
-1.6997707628681102e-05   9.78847601268662e-07   -9.56914875140389e-06
-1.6997707628681102e-05   9.78847601268662e-07   -9.56914875140389e-06
-1.6997707628681102e-05   9.78847601268662e-07   -9.56914875140389e-06
-7.67535299578356e-06   3.2537511590793454e-07   -2.471432298168336e-05
-7.67535299578356e-06   3.2537511590793454e-07   -2.471432298168336e-05
-7.67535299578356e-06   3.2537511590793454e-07   -2.471432298168336e-05
-7.67535299578356e-06   3.2537511590793454e-07   -2.471432298168336e-05
-1.6997707628681102e-05   6.466691156148849e-07   -4.040832853140695e-05
-1.6997707628681102e-05   6.466691156148849e-07   -4.040832853140695e-05
-1.6997707628681102e-05   6.466691156148849e-07   -4.040832853140695e-05
-1.6997707628681102e-05   6.466691156148849e-07   -4.040832853140695e-05
1.5058002393207275e-06   9.78847601268689e-07   -9.36984166001156e-06
1.5058002393207275e-06   9.78847601268689e-07   -9.36984166001156e-06
1.5058002393207275e-06   9.78847601268689e-07   -9.36984166001156e-06
1.5058002393207275e-06   9.78847601268689e-07   -9.36984166001156e-06
1.4074216188739467e-06   1.5062334292003285e-06   -4.0292122914609846e-05
1.4074216188739467e-06   1.5062334292003285e-06   -4.0292122914609846e-05
1.4074216188739467e-06   1.5062334292003285e-06   -4.0292122914609846e-05
1.4074216188739467e-06   1.5062334292003285e-06   -4.0292122914609846e-05
-1.711880124289458e-05   2.0212954046555166e-06   -9.724121996935378e-06
-1.711880124289458e-05   2.0212954046555166e-06   -9.724121996935378e-06
-1.711880124289458e-05   2.0212954046555166e-06   -9.724121996935378e-06
-1.711880124289458e-05   2.0212954046555166e-06   -9.724121996935378e-06
-7.81524636876369e-06   1.2291319637944498e-06   -2.4754748722636865e-05
-7.81524636876369e-06   1.2291319637944498e-06   -2.4754748722636865e-05
-7.81524636876369e-06   1.2291319637944498e-06   -2.4754748722636865e-05
-7.81524636876369e-06   1.2291319637944498e-06   -2.4754748722636865e-05
-1.711880124289458e-05   1.5062334292003285e-06   -4.060116009988295e-05
-1.711880124289458e-05   1.5062334292003285e-06   -4.060116009988295e-05
-1.711880124289458e-05   1.5062334292003285e-06   -4.060116009988295e-05
-1.711880124289458e-05   1.5062334292003285e-06   -4.060116009988295e-05
1.4074216188739467e-06   2.0212954046555166e-06   -9.415084811662322e-06
1.4074216188739467e-06   2.0212954046555166e-06   -9.415084811662322e-06
1.4074216188739467e-06   2.0212954046555166e-06   -9.415084811662322e-06
1.4074216188739467e-06   2.0212954046555166e-06   -9.415084811662322e-06
1.2055086085396545e-06   2.501451930415815e-06   -4.022327023355992e-05
1.2055086085396545e-06   2.501451930415815e-06   -4.022327023355992e-05
1.2055086085396545e-06   2.501451930415815e-06   -4.022327023355992e-05
1.2055086085396545e-06   2.501451930415815e-06   -4.022327023355992e-05
-1.7073735128928573e-05   3.1072776865350305e-06   -1.0121359458117765e-05
-1.7073735128928573e-05   3.1072776865350305e-06   -1.0121359458117765e-05
-1.7073735128928573e-05   3.1072776865350305e-06   -1.0121359458117765e-05
-1.7073735128928573e-05   3.1072776865350305e-06   -1.0121359458117765e-05
-7.898621197453306e-06   2.157570013621278e-06   -2.484339140682826e-05
-7.898621197453306e-06   2.157570013621278e-06   -2.484339140682826e-05
-7.898621197453306e-06   2.157570013621278e-06   -2.484339140682826e-05
-7.898621197453306e-06   2.157570013621278e-06   -2.484339140682826e-05
1.5774459694244555e-06   -2.904060653176869e-06   -3.6895071540187184e-05
1.5774459694244555e-06   -2.904060653176869e-06   -3.6895071540187184e-05
1.5774459694244555e-06   -2.904060653176869e-06   -3.6895071540187184e-05
1.5774459694244555e-06   -2.904060653176869e-06   -3.6895071540187184e-05
2.0314050468756546e-05   -2.985357345068059e-06   -5.71617538976838e-06
2.0314050468756546e-05   -2.985357345068059e-06   -5.71617538976838e-06
2.0314050468756546e-05   -2.985357345068059e-06   -5.71617538976838e-06
2.0314050468756546e-05   -2.985357345068059e-06   -5.71617538976838e-06
2.0484385814118527e-05   -2.1874946865318683e-06   -3.7405298178956785e-05
2.0484385814118527e-05   -2.1874946865318683e-06   -3.7405298178956785e-05
2.0484385814118527e-05   -2.1874946865318683e-06   -3.7405298178956785e-05
2.0484385814118527e-05   -2.1874946865318683e-06   -3.7405298178956785e-05
1.5058002393207275e-06   -2.015349656710717e-06   -5.877609238853117e-06
1.5058002393207275e-06   -2.015349656710717e-06   -5.877609238853117e-06
1.5058002393207275e-06   -2.015349656710717e-06   -5.877609238853117e-06
1.5058002393207275e-06   -2.015349656710717e-06   -5.877609238853117e-06
1.0830299294306655e-05   -2.413698209204488e-06   -2.1179431865666738e-05
1.0830299294306655e-05   -2.413698209204488e-06   -2.1179431865666738e-05
1.0830299294306655e-05   -2.413698209204488e-06   -2.1179431865666738e-05
1.0830299294306655e-05   -2.413698209204488e-06   -2.1179431865666738e-05
1.505800239320725e-06   -2.1874946865318683e-06   -3.750858519684946e-05
1.505800239320725e-06   -2.1874946865318683e-06   -3.750858519684946e-05
1.505800239320725e-06   -2.1874946865318683e-06   -3.750858519684946e-05
1.505800239320725e-06   -2.1874946865318683e-06   -3.750858519684946e-05
2.0484385814118527e-05   -2.01534965671069e-06   -5.774322220960366e-06
2.0484385814118527e-05   -2.01534965671069e-06   -5.774322220960366e-06
2.0484385814118527e-05   -2.01534965671069e-06   -5.774322220960366e-06
2.0484385814118527e-05   -2.01534965671069e-06   -5.774322220960366e-06
2.038713681713296e-05   -1.3735240753253748e-06   -3.810323710446273e-05
2.038713681713296e-05   -1.3735240753253748e-06   -3.810323710446273e-05
2.038713681713296e-05   -1.3735240753253748e-06   -3.810323710446273e-05
2.038713681713296e-05   -1.3735240753253748e-06   -3.810323710446273e-05
1.4074216188739467e-06   -1.0656369898076254e-06   -6.655110692008338e-06
1.4074216188739467e-06   -1.0656369898076254e-06   -6.655110692008338e-06
1.4074216188739467e-06   -1.0656369898076254e-06   -6.655110692008338e-06
1.4074216188739467e-06   -1.0656369898076254e-06   -6.655110692008338e-06
1.0717480359068124e-05   -1.6399743896098262e-06   -2.1827272819117306e-05
1.0717480359068124e-05   -1.6399743896098262e-06   -2.1827272819117306e-05
1.0717480359068124e-05   -1.6399743896098262e-06   -2.1827272819117306e-05
1.0717480359068124e-05   -1.6399743896098262e-06   -2.1827272819117306e-05
1.4074216188739467e-06   -1.373524075325368e-06   -3.8287969355773325e-05
1.4074216188739467e-06   -1.373524075325368e-06   -3.8287969355773325e-05
1.4074216188739467e-06   -1.373524075325368e-06   -3.8287969355773325e-05
1.4074216188739467e-06   -1.373524075325368e-06   -3.8287969355773325e-05
2.038713681713296e-05   -1.0656369898076254e-06   -6.470378440697749e-06
2.038713681713296e-05   -1.0656369898076254e-06   -6.470378440697749e-06
2.038713681713296e-05   -1.0656369898076254e-06   -6.470378440697749e-06
2.038713681713296e-05   -1.0656369898076254e-06   -6.470378440697749e-06
1.9793868926042527e-05   -2.8012668392716014e-07   -3.81711412218446e-05
1.9793868926042527e-05   -2.8012668392716014e-07   -3.81711412218446e-05
1.9793868926042527e-05   -2.8012668392716014e-07   -3.81711412218446e-05
1.9793868926042527e-05   -2.8012668392716014e-07   -3.81711412218446e-05
1.2055086085396545e-06   1.0846903008684332e-07   -7.42369812108158e-06
1.2055086085396545e-06   1.0846903008684332e-07   -7.42369812108158e-06
1.2055086085396545e-06   1.0846903008684332e-07   -7.42369812108158e-06
1.2055086085396545e-06   1.0846903008684332e-07   -7.42369812108158e-06
1.0603115799523533e-05   -7.363311765336668e-07   -2.2579496648749038e-05
1.0603115799523533e-05   -7.363311765336668e-07   -2.2579496648749038e-05
1.0603115799523533e-05   -7.363311765336668e-07   -2.2579496648749038e-05
1.0603115799523533e-05   -7.363311765336668e-07   -2.2579496648749038e-05
2.0314050468756546e-05   -7.366870710387888e-06   -2.2322923513674002e-05
2.0314050468756546e-05   -7.366870710387888e-06   -2.2322923513674002e-05
2.0314050468756546e-05   -7.366870710387888e-06   -2.2322923513674002e-05
2.0314050468756546e-05   -7.366870710387888e-06   -2.2322923513674002e-05
3.879887084289863e-05   -5.54540266432452e-06   9.577991270867507e-06
3.879887084289863e-05   -5.54540266432452e-06   9.577991270867507e-06
3.879887084289863e-05   -5.54540266432452e-06   9.577991270867507e-06
3.879887084289863e-05   -5.54540266432452e-06   9.577991270867507e-06
4.028321191091899e-05   -6.2640382124240355e-06   -2.711527810366534e-05
4.028321191091899e-05   -6.2640382124240355e-06   -2.711527810366534e-05
4.028321191091899e-05   -6.2640382124240355e-06   -2.711527810366534e-05
4.028321191091899e-05   -6.2640382124240355e-06   -2.711527810366534e-05
2.0484385814118557e-05   -5.02744138005477e-06   5.140807291580517e-06
2.0484385814118557e-05   -5.02744138005477e-06   5.140807291580517e-06
2.0484385814118557e-05   -5.02744138005477e-06   5.140807291580517e-06
2.0484385814118557e-05   -5.02744138005477e-06   5.140807291580517e-06
2.857615537263955e-05   -6.024428238625864e-06   -7.747283190811847e-06
2.857615537263955e-05   -6.024428238625864e-06   -7.747283190811847e-06
2.857615537263955e-05   -6.024428238625864e-06   -7.747283190811847e-06
2.857615537263955e-05   -6.024428238625864e-06   -7.747283190811847e-06
2.0484385814118506e-05   -6.264038212424008e-06   -2.7857236203086795e-05
2.0484385814118506e-05   -6.264038212424008e-06   -2.7857236203086795e-05
2.0484385814118506e-05   -6.264038212424008e-06   -2.7857236203086795e-05
2.0484385814118506e-05   -6.264038212424008e-06   -2.7857236203086795e-05
4.0283211910918914e-05   -5.02744138005477e-06   5.8827653910021465e-06
4.0283211910918914e-05   -5.02744138005477e-06   5.8827653910021465e-06
4.0283211910918914e-05   -5.02744138005477e-06   5.8827653910021465e-06
4.0283211910918914e-05   -5.02744138005477e-06   5.8827653910021465e-06
4.013745674786016e-05   -5.722502930646724e-06   -2.9483855960095922e-05
4.013745674786016e-05   -5.722502930646724e-06   -2.9483855960095922e-05
4.013745674786016e-05   -5.722502930646724e-06   -2.9483855960095922e-05
4.013745674786016e-05   -5.722502930646724e-06   -2.9483855960095922e-05
2.038713681713296e-05   -4.480997605236928e-06   2.6884407292035515e-06
2.038713681713296e-05   -4.480997605236928e-06   2.6884407292035515e-06
2.038713681713296e-05   -4.480997605236928e-06   2.6884407292035515e-06
2.038713681713296e-05   -4.480997605236928e-06   2.6884407292035515e-06
2.9579857903805893e-05   -5.318055432422255e-06   -1.2130526385606846e-05
2.9579857903805893e-05   -5.318055432422255e-06   -1.2130526385606846e-05
2.9579857903805893e-05   -5.318055432422255e-06   -1.2130526385606846e-05
2.9579857903805893e-05   -5.318055432422255e-06   -1.2130526385606846e-05
2.0387136817132923e-05   -5.722502930646724e-06   -3.0228759155341762e-05
2.0387136817132923e-05   -5.722502930646724e-06   -3.0228759155341762e-05
2.0387136817132923e-05   -5.722502930646724e-06   -3.0228759155341762e-05
2.0387136817132923e-05   -5.722502930646724e-06   -3.0228759155341762e-05
4.01374567478601e-05   -4.480997605236928e-06   3.433343924449337e-06
4.01374567478601e-05   -4.480997605236928e-06   3.433343924449337e-06
4.01374567478601e-05   -4.480997605236928e-06   3.433343924449337e-06
4.01374567478601e-05   -4.480997605236928e-06   3.433343924449337e-06
3.990056967010197e-05   -4.442969708292711e-06   -3.431332242116821e-05
3.990056967010197e-05   -4.442969708292711e-06   -3.431332242116821e-05
3.990056967010197e-05   -4.442969708292711e-06   -3.431332242116821e-05
3.990056967010197e-05   -4.442969708292711e-06   -3.431332242116821e-05
1.9793868926042513e-05   -3.3053755222687946e-06   -1.4847110260167792e-06
1.9793868926042513e-05   -3.3053755222687946e-06   -1.4847110260167792e-06
1.9793868926042513e-05   -3.3053755222687946e-06   -1.4847110260167792e-06
1.9793868926042513e-05   -3.3053755222687946e-06   -1.4847110260167792e-06
2.873655907266512e-05   -4.577388566124013e-06   -1.5625986777407968e-05
2.873655907266512e-05   -4.577388566124013e-06   -1.5625986777407968e-05
2.873655907266512e-05   -4.577388566124013e-06   -1.5625986777407968e-05
2.873655907266512e-05   -4.577388566124013e-06   -1.5625986777407968e-05
-4.3493854533633956e-05   6.269964815418656e-06   -3.0060755707152258e-05
-4.3493854533633956e-05   6.269964815418656e-06   -3.0060755707152258e-05
-4.3493854533633956e-05   6.269964815418656e-06   -3.0060755707152258e-05
-4.3493854533633956e-05   6.269964815418656e-06   -3.0060755707152258e-05
-2.8527012502679806e-05   4.786275088327176e-06   -6.006232825150255e-06
-2.8527012502679806e-05   4.786275088327176e-06   -6.006232825150255e-06
-2.8527012502679806e-05   4.786275088327176e-06   -6.006232825150255e-06
-2.8527012502679806e-05   4.786275088327176e-06   -6.006232825150255e-06
-2.86630697119432e-05   7.528937406489752e-06   -2.4961902610485154e-05
-2.86630697119432e-05   7.528937406489752e-06   -2.4961902610485154e-05
-2.86630697119432e-05   7.528937406489752e-06   -2.4961902610485154e-05
-2.86630697119432e-05   7.528937406489752e-06   -2.4961902610485154e-05
-4.2829383554507985e-05   5.792518312686731e-06   -3.0952808326210977e-07
-4.2829383554507985e-05   5.792518312686731e-06   -3.0952808326210977e-07
-4.2829383554507985e-05   5.792518312686731e-06   -3.0952808326210977e-07
-4.2829383554507985e-05   5.792518312686731e-06   -3.0952808326210977e-07
-3.4360681334182585e-05   6.376882056493337e-06   -1.4774650030088444e-05
-3.4360681334182585e-05   6.376882056493337e-06   -1.4774650030088444e-05
-3.4360681334182585e-05   6.376882056493337e-06   -1.4774650030088444e-05
-3.4360681334182585e-05   6.376882056493337e-06   -1.4774650030088444e-05
-4.2829383554507985e-05   7.528937406489752e-06   -2.3920051154203338e-05
-4.2829383554507985e-05   7.528937406489752e-06   -2.3920051154203338e-05
-4.2829383554507985e-05   7.528937406489752e-06   -2.3920051154203338e-05
-4.2829383554507985e-05   7.528937406489752e-06   -2.3920051154203338e-05
-2.86630697119432e-05   5.792518312686731e-06   -1.3513795395438645e-06
-2.86630697119432e-05   5.792518312686731e-06   -1.3513795395438645e-06
-2.86630697119432e-05   5.792518312686731e-06   -1.3513795395438645e-06
-2.86630697119432e-05   5.792518312686731e-06   -1.3513795395438645e-06
-2.8632060759795463e-05   8.097283780829036e-06   -2.135696610607805e-05
-2.8632060759795463e-05   8.097283780829036e-06   -2.135696610607805e-05
-2.8632060759795463e-05   8.097283780829036e-06   -2.135696610607805e-05
-2.8632060759795463e-05   8.097283780829036e-06   -2.135696610607805e-05
-4.21827470024519e-05   6.235056937897048e-06   2.344847070775261e-06
-4.21827470024519e-05   6.235056937897048e-06   2.344847070775261e-06
-4.21827470024519e-05   6.235056937897048e-06   2.344847070775261e-06
-4.21827470024519e-05   6.235056937897048e-06   2.344847070775261e-06
-3.465473808476736e-05   6.960170154918409e-06   -1.0636902388911842e-05
-3.465473808476736e-05   6.960170154918409e-06   -1.0636902388911842e-05
-3.465473808476736e-05   6.960170154918409e-06   -1.0636902388911842e-05
-3.465473808476736e-05   6.960170154918409e-06   -1.0636902388911842e-05
-4.21827470024519e-05   8.097283780829036e-06   -2.0239630000318847e-05
-4.21827470024519e-05   8.097283780829036e-06   -2.0239630000318847e-05
-4.21827470024519e-05   8.097283780829036e-06   -2.0239630000318847e-05
-4.21827470024519e-05   8.097283780829036e-06   -2.0239630000318847e-05
-2.8632060759795503e-05   6.235056937897048e-06   1.2275109650161008e-06
-2.8632060759795503e-05   6.235056937897048e-06   1.2275109650161008e-06
-2.8632060759795503e-05   6.235056937897048e-06   1.2275109650161008e-06
-2.8632060759795503e-05   6.235056937897048e-06   1.2275109650161008e-06
-2.8659786596565753e-05   8.551123842485454e-06   -1.631244444857716e-05
-2.8659786596565753e-05   8.551123842485454e-06   -1.631244444857716e-05
-2.8659786596565753e-05   8.551123842485454e-06   -1.631244444857716e-05
-2.8659786596565753e-05   8.551123842485454e-06   -1.631244444857716e-05
-4.1339850845698196e-05   6.672088329737235e-06   5.9484172742924215e-06
-4.1339850845698196e-05   6.672088329737235e-06   5.9484172742924215e-06
-4.1339850845698196e-05   6.672088329737235e-06   5.9484172742924215e-06
-4.1339850845698196e-05   6.672088329737235e-06   5.9484172742924215e-06
-3.3862968028844484e-05   7.268250741819017e-06   -6.870751534379127e-06
-3.3862968028844484e-05   7.268250741819017e-06   -6.870751534379127e-06
-3.3862968028844484e-05   7.268250741819017e-06   -6.870751534379127e-06
-3.3862968028844484e-05   7.268250741819017e-06   -6.870751534379127e-06
-2.8527012502679806e-05   2.9176337840996775e-06   -3.48419307510651e-05
-2.8527012502679806e-05   2.9176337840996775e-06   -3.48419307510651e-05
-2.8527012502679806e-05   2.9176337840996775e-06   -3.48419307510651e-05
-2.8527012502679806e-05   2.9176337840996775e-06   -3.48419307510651e-05
-1.4533156459638652e-05   2.3883287663090764e-06   -1.1836420356670841e-05
-1.4533156459638652e-05   2.3883287663090764e-06   -1.1836420356670841e-05
-1.4533156459638652e-05   2.3883287663090764e-06   -1.1836420356670841e-05
-1.4533156459638652e-05   2.3883287663090764e-06   -1.1836420356670841e-05
-1.47081790212e-05   4.075257231408487e-06   -3.4347064537825606e-05
-1.47081790212e-05   4.075257231408487e-06   -3.4347064537825606e-05
-1.47081790212e-05   4.075257231408487e-06   -3.4347064537825606e-05
-1.47081790212e-05   4.075257231408487e-06   -3.4347064537825606e-05
-2.86630697119432e-05   3.3783327566552454e-06   -1.067075870173496e-05
-2.86630697119432e-05   3.3783327566552454e-06   -1.067075870173496e-05
-2.86630697119432e-05   3.3783327566552454e-06   -1.067075870173496e-05
-2.86630697119432e-05   3.3783327566552454e-06   -1.067075870173496e-05
-2.1422628783783015e-05   3.367259079462321e-06   -2.2731516042352855e-05
-2.1422628783783015e-05   3.367259079462321e-06   -2.2731516042352855e-05
-2.1422628783783015e-05   3.367259079462321e-06   -2.2731516042352855e-05
-2.1422628783783015e-05   3.367259079462321e-06   -2.2731516042352855e-05
-2.8663069711943175e-05   4.075257231408487e-06   -3.392890985297352e-05
-2.8663069711943175e-05   4.075257231408487e-06   -3.392890985297352e-05
-2.8663069711943175e-05   4.075257231408487e-06   -3.392890985297352e-05
-2.8663069711943175e-05   4.075257231408487e-06   -3.392890985297352e-05
-1.4708179021200027e-05   3.3783327566552454e-06   -1.1088913386586935e-05
-1.4708179021200027e-05   3.3783327566552454e-06   -1.1088913386586935e-05
-1.4708179021200027e-05   3.3783327566552454e-06   -1.1088913386586935e-05
-1.4708179021200027e-05   3.3783327566552454e-06   -1.1088913386586935e-05
-1.4821162618151766e-05   5.033888335376929e-06   -3.343858144602753e-05
-1.4821162618151766e-05   5.033888335376929e-06   -3.343858144602753e-05
-1.4821162618151766e-05   5.033888335376929e-06   -3.343858144602753e-05
-1.4821162618151766e-05   5.033888335376929e-06   -3.343858144602753e-05
-2.8632060759795463e-05   4.258424934874708e-06   -9.955139836320077e-06
-2.8632060759795463e-05   4.258424934874708e-06   -9.955139836320077e-06
-2.8632060759795463e-05   4.258424934874708e-06   -9.955139836320077e-06
-2.8632060759795463e-05   4.258424934874708e-06   -9.955139836320077e-06
-2.1460931109811026e-05   4.182110191302123e-06   -2.186123374015042e-05
-2.1460931109811026e-05   4.182110191302123e-06   -2.186123374015042e-05
-2.1460931109811026e-05   4.182110191302123e-06   -2.186123374015042e-05
-2.1460931109811026e-05   4.182110191302123e-06   -2.186123374015042e-05
-2.8632060759795463e-05   5.033888335376929e-06   -3.297330340572621e-05
-2.8632060759795463e-05   5.033888335376929e-06   -3.297330340572621e-05
-2.8632060759795463e-05   5.033888335376929e-06   -3.297330340572621e-05
-2.8632060759795463e-05   5.033888335376929e-06   -3.297330340572621e-05
-1.4821162618151793e-05   4.258424934874708e-06   -1.0420417876621335e-05
-1.4821162618151793e-05   4.258424934874708e-06   -1.0420417876621335e-05
-1.4821162618151793e-05   4.258424934874708e-06   -1.0420417876621335e-05
-1.4821162618151793e-05   4.258424934874708e-06   -1.0420417876621335e-05
-1.4967916121518206e-05   6.065697579300805e-06   -3.335828383614343e-05
-1.4967916121518206e-05   6.065697579300805e-06   -3.335828383614343e-05
-1.4967916121518206e-05   6.065697579300805e-06   -3.335828383614343e-05
-1.4967916121518206e-05   6.065697579300805e-06   -3.335828383614343e-05
-2.8659786596565726e-05   5.195211988318982e-06   -1.0016208356475242e-05
-2.8659786596565726e-05   5.195211988318982e-06   -1.0016208356475242e-05
-2.8659786596565726e-05   5.195211988318982e-06   -1.0016208356475242e-05
-2.8659786596565726e-05   5.195211988318982e-06   -1.0016208356475242e-05
-2.1713852889991203e-05   4.9897105134757074e-06   -2.1469463649193214e-05
-2.1713852889991203e-05   4.9897105134757074e-06   -2.1469463649193214e-05
-2.1713852889991203e-05   4.9897105134757074e-06   -2.1469463649193214e-05
-2.1713852889991203e-05   4.9897105134757074e-06   -2.1469463649193214e-05
-1.4533156459638625e-05   -8.793277527763244e-08   -3.7566210545451434e-05
-1.4533156459638625e-05   -8.793277527763244e-08   -3.7566210545451434e-05
-1.4533156459638625e-05   -8.793277527763244e-08   -3.7566210545451434e-05
-1.4533156459638625e-05   -8.793277527763244e-08   -3.7566210545451434e-05
-6.942459957862047e-07   1.274970945404374e-07   -1.4372101850473223e-05
-6.942459957862047e-07   1.274970945404374e-07   -1.4372101850473223e-05
-6.942459957862047e-07   1.274970945404374e-07   -1.4372101850473223e-05
-6.942459957862047e-07   1.274970945404374e-07   -1.4372101850473223e-05
-8.344895707998383e-07   9.78847601268689e-07   -3.7213519949331174e-05
-8.344895707998383e-07   9.78847601268689e-07   -3.7213519949331174e-05
-8.344895707998383e-07   9.78847601268689e-07   -3.7213519949331174e-05
-8.344895707998383e-07   9.78847601268689e-07   -3.7213519949331174e-05
-1.470817902119998e-05   1.102522912235543e-06   -1.4164909385244362e-05
-1.470817902119998e-05   1.102522912235543e-06   -1.4164909385244362e-05
-1.470817902119998e-05   1.102522912235543e-06   -1.4164909385244362e-05
-1.470817902119998e-05   1.102522912235543e-06   -1.4164909385244362e-05
-7.649045181374468e-06   6.427611490824947e-07   -2.5654275393728413e-05
-7.649045181374468e-06   6.427611490824947e-07   -2.5654275393728413e-05
-7.649045181374468e-06   6.427611490824947e-07   -2.5654275393728413e-05
-7.649045181374468e-06   6.427611490824947e-07   -2.5654275393728413e-05
-1.47081790212e-05   9.78847601268689e-07   -3.728772513591131e-05
-1.47081790212e-05   9.78847601268689e-07   -3.728772513591131e-05
-1.47081790212e-05   9.78847601268689e-07   -3.728772513591131e-05
-1.47081790212e-05   9.78847601268689e-07   -3.728772513591131e-05
-8.344895707998383e-07   1.102522912235543e-06   -1.4090704198664247e-05
-8.344895707998383e-07   1.102522912235543e-06   -1.4090704198664247e-05
-8.344895707998383e-07   1.102522912235543e-06   -1.4090704198664247e-05
-8.344895707998383e-07   1.102522912235543e-06   -1.4090704198664247e-05
-9.353078385783931e-07   2.0212954046555166e-06   -3.7313638498406084e-05
-9.353078385783931e-07   2.0212954046555166e-06   -3.7313638498406084e-05
-9.353078385783931e-07   2.0212954046555166e-06   -3.7313638498406084e-05
-9.353078385783931e-07   2.0212954046555166e-06   -3.7313638498406084e-05
-1.4821162618151766e-05   2.0746953264630407e-06   -1.4202587152201652e-05
-1.4821162618151766e-05   2.0746953264630407e-06   -1.4202587152201652e-05
-1.4821162618151766e-05   2.0746953264630407e-06   -1.4202587152201652e-05
-1.4821162618151766e-05   2.0746953264630407e-06   -1.4202587152201652e-05
-7.830489296865958e-06   1.5027711091519005e-06   -2.5510554823957988e-05
-7.830489296865958e-06   1.5027711091519005e-06   -2.5510554823957988e-05
-7.830489296865958e-06   1.5027711091519005e-06   -2.5510554823957988e-05
-7.830489296865958e-06   1.5027711091519005e-06   -2.5510554823957988e-05
-1.4821162618151766e-05   2.0212954046555166e-06   -3.734567845149061e-05
-1.4821162618151766e-05   2.0212954046555166e-06   -3.734567845149061e-05
-1.4821162618151766e-05   2.0212954046555166e-06   -3.734567845149061e-05
-1.4821162618151766e-05   2.0212954046555166e-06   -3.734567845149061e-05
-9.353078385783931e-07   2.074695326463095e-06   -1.4170547199117054e-05
-9.353078385783931e-07   2.074695326463095e-06   -1.4170547199117054e-05
-9.353078385783931e-07   2.074695326463095e-06   -1.4170547199117054e-05
-9.353078385783931e-07   2.074695326463095e-06   -1.4170547199117054e-05
-1.0945647369834858e-06   3.1072776865350576e-06   -3.779343418014474e-05
-1.0945647369834858e-06   3.1072776865350576e-06   -3.779343418014474e-05
-1.0945647369834858e-06   3.1072776865350576e-06   -3.779343418014474e-05
-1.0945647369834858e-06   3.1072776865350576e-06   -3.779343418014474e-05
-1.496791612151822e-05   3.0694109728136355e-06   -1.4648461844354115e-05
-1.496791612151822e-05   3.0694109728136355e-06   -1.4648461844354115e-05
-1.496791612151822e-05   3.0694109728136355e-06   -1.4648461844354115e-05
-1.496791612151822e-05   3.0694109728136355e-06   -1.4648461844354115e-05
-8.023328119993618e-06   2.373002445122527e-06   -2.5804930063613566e-05
-8.023328119993618e-06   2.373002445122527e-06   -2.5804930063613566e-05
-8.023328119993618e-06   2.373002445122527e-06   -2.5804930063613566e-05
-8.023328119993618e-06   2.373002445122527e-06   -2.5804930063613566e-05
-6.94245995786206e-07   -2.985357345068032e-06   -3.35633738904796e-05
-6.94245995786206e-07   -2.985357345068032e-06   -3.35633738904796e-05
-6.94245995786206e-07   -2.985357345068032e-06   -3.35633738904796e-05
-6.94245995786206e-07   -2.985357345068032e-06   -3.35633738904796e-05
1.307162486478231e-05   -1.9987512051598886e-06   -1.0028292105587256e-05
1.307162486478231e-05   -1.9987512051598886e-06   -1.0028292105587256e-05
1.307162486478231e-05   -1.9987512051598886e-06   -1.0028292105587256e-05
1.307162486478231e-05   -1.9987512051598886e-06   -1.0028292105587256e-05
1.3063080063023302e-05   -2.01534965671069e-06   -3.3174648298986236e-05
1.3063080063023302e-05   -2.01534965671069e-06   -3.3174648298986236e-05
1.3063080063023302e-05   -2.01534965671069e-06   -3.3174648298986236e-05
1.3063080063023302e-05   -2.01534965671069e-06   -3.3174648298986236e-05
-8.344895707998383e-07   -1.1042842747332375e-06   -1.0558671471800799e-05
-8.344895707998383e-07   -1.1042842747332375e-06   -1.0558671471800799e-05
-8.344895707998383e-07   -1.1042842747332375e-06   -1.0558671471800799e-05
-8.344895707998383e-07   -1.1042842747332375e-06   -1.0558671471800799e-05
6.104790973886565e-06   -1.9552320087226762e-06   -2.1613570405884463e-05
6.104790973886565e-06   -1.9552320087226762e-06   -2.1613570405884463e-05
6.104790973886565e-06   -1.9552320087226762e-06   -2.1613570405884463e-05
6.104790973886565e-06   -1.9552320087226762e-06   -2.1613570405884463e-05
-8.344895707998383e-07   -2.01534965671069e-06   -3.3721287528172696e-05
-8.344895707998383e-07   -2.01534965671069e-06   -3.3721287528172696e-05
-8.344895707998383e-07   -2.01534965671069e-06   -3.3721287528172696e-05
-8.344895707998383e-07   -2.01534965671069e-06   -3.3721287528172696e-05
1.3063080063023323e-05   -1.1042842747332375e-06   -1.0012032242614338e-05
1.3063080063023323e-05   -1.1042842747332375e-06   -1.0012032242614338e-05
1.3063080063023323e-05   -1.1042842747332375e-06   -1.0012032242614338e-05
1.3063080063023323e-05   -1.1042842747332375e-06   -1.0012032242614338e-05
1.3127102020747927e-05   -1.0656369898076254e-06   -3.4049871869806195e-05
1.3127102020747927e-05   -1.0656369898076254e-06   -3.4049871869806195e-05
1.3127102020747927e-05   -1.0656369898076254e-06   -3.4049871869806195e-05
1.3127102020747927e-05   -1.0656369898076254e-06   -3.4049871869806195e-05
-9.353078385783944e-07   -2.2598280823103029e-07   -1.1116314613208295e-05
-9.353078385783944e-07   -2.2598280823103029e-07   -1.1116314613208295e-05
-9.353078385783944e-07   -2.2598280823103029e-07   -1.1116314613208295e-05
-9.353078385783944e-07   -2.2598280823103029e-07   -1.1116314613208295e-05
5.917882867545914e-06   -1.1798042817644895e-06   -2.196600623929539e-05
5.917882867545914e-06   -1.1798042817644895e-06   -2.196600623929539e-05
5.917882867545914e-06   -1.1798042817644895e-06   -2.196600623929539e-05
5.917882867545914e-06   -1.1798042817644895e-06   -2.196600623929539e-05
-9.353078385783931e-07   -1.0656369898076254e-06   -3.455366437875216e-05
-9.353078385783931e-07   -1.0656369898076254e-06   -3.455366437875216e-05
-9.353078385783931e-07   -1.0656369898076254e-06   -3.455366437875216e-05
-9.353078385783931e-07   -1.0656369898076254e-06   -3.455366437875216e-05
1.3127102020747954e-05   -2.2598280823103029e-07   -1.0612522104262262e-05
1.3127102020747954e-05   -2.2598280823103029e-07   -1.0612522104262262e-05
1.3127102020747954e-05   -2.2598280823103029e-07   -1.0612522104262262e-05
1.3127102020747954e-05   -2.2598280823103029e-07   -1.0612522104262262e-05
1.3028021600458989e-05   1.0846903008684332e-07   -3.504417340506381e-05
1.3028021600458989e-05   1.0846903008684332e-07   -3.504417340506381e-05
1.3028021600458989e-05   1.0846903008684332e-07   -3.504417340506381e-05
1.3028021600458989e-05   1.0846903008684332e-07   -3.504417340506381e-05
-1.094564736983487e-06   8.002938496140402e-07   -1.1921624401042816e-05
-1.094564736983487e-06   8.002938496140402e-07   -1.1921624401042816e-05
-1.094564736983487e-06   8.002938496140402e-07   -1.1921624401042816e-05
-1.094564736983487e-06   8.002938496140402e-07   -1.1921624401042816e-05
5.853149967627522e-06   -3.506556314732877e-07   -2.2810579220075217e-05
5.853149967627522e-06   -3.506556314732877e-07   -2.2810579220075217e-05
5.853149967627522e-06   -3.506556314732877e-07   -2.2810579220075217e-05
5.853149967627522e-06   -3.506556314732877e-07   -2.2810579220075217e-05
1.3071624864782283e-05   -5.54540266432452e-06   -1.8770124373536845e-05
1.3071624864782283e-05   -5.54540266432452e-06   -1.8770124373536845e-05
1.3071624864782283e-05   -5.54540266432452e-06   -1.8770124373536845e-05
1.3071624864782283e-05   -5.54540266432452e-06   -1.8770124373536845e-05
2.59484748833975e-05   -3.6203767055382054e-06   3.846307899427041e-06
2.59484748833975e-05   -3.6203767055382054e-06   3.846307899427041e-06
2.59484748833975e-05   -3.6203767055382054e-06   3.846307899427041e-06
2.59484748833975e-05   -3.6203767055382054e-06   3.846307899427041e-06
2.6829657824591928e-05   -5.02744138005477e-06   -2.1105317286614756e-05
2.6829657824591928e-05   -5.02744138005477e-06   -2.1105317286614756e-05
2.6829657824591928e-05   -5.02744138005477e-06   -2.1105317286614756e-05
2.6829657824591928e-05   -5.02744138005477e-06   -2.1105317286614756e-05
1.3063080063023302e-05   -3.103772213670572e-06   6.847774828358251e-07
1.3063080063023302e-05   -3.103772213670572e-06   6.847774828358251e-07
1.3063080063023302e-05   -3.103772213670572e-06   6.847774828358251e-07
1.3063080063023302e-05   -3.103772213670572e-06   6.847774828358251e-07
1.888516838881802e-05   -4.27276901678496e-06   -8.317304978286779e-06
1.888516838881802e-05   -4.27276901678496e-06   -8.317304978286779e-06
1.888516838881802e-05   -4.27276901678496e-06   -8.317304978286779e-06
1.888516838881802e-05   -4.27276901678496e-06   -8.317304978286779e-06
1.3063080063023282e-05   -5.02744138005477e-06   -2.2259518786445177e-05
1.3063080063023282e-05   -5.02744138005477e-06   -2.2259518786445177e-05
1.3063080063023282e-05   -5.02744138005477e-06   -2.2259518786445177e-05
1.3063080063023282e-05   -5.02744138005477e-06   -2.2259518786445177e-05
2.6829657824591928e-05   -3.103772213670572e-06   1.8389789826663006e-06
2.6829657824591928e-05   -3.103772213670572e-06   1.8389789826663006e-06
2.6829657824591928e-05   -3.103772213670572e-06   1.8389789826663006e-06
2.6829657824591928e-05   -3.103772213670572e-06   1.8389789826663006e-06
2.750818875453401e-05   -4.480997605236928e-06   -2.379968434630191e-05
2.750818875453401e-05   -4.480997605236928e-06   -2.379968434630191e-05
2.750818875453401e-05   -4.480997605236928e-06   -2.379968434630191e-05
2.750818875453401e-05   -4.480997605236928e-06   -2.379968434630191e-05
1.3127102020747907e-05   -2.662050349231846e-06   -9.225748102614979e-07
1.3127102020747907e-05   -2.662050349231846e-06   -9.225748102614979e-07
1.3127102020747907e-05   -2.662050349231846e-06   -9.225748102614979e-07
1.3127102020747907e-05   -2.662050349231846e-06   -9.225748102614979e-07
1.9530317948558565e-05   -3.939589514137366e-06   -1.0828077857669258e-05
1.9530317948558565e-05   -3.939589514137366e-06   -1.0828077857669258e-05
1.9530317948558565e-05   -3.939589514137366e-06   -1.0828077857669258e-05
1.9530317948558565e-05   -3.939589514137366e-06   -1.0828077857669258e-05
1.3127102020747927e-05   -4.480997605236928e-06   -2.4891052699904962e-05
1.3127102020747927e-05   -4.480997605236928e-06   -2.4891052699904962e-05
1.3127102020747927e-05   -4.480997605236928e-06   -2.4891052699904962e-05
1.3127102020747927e-05   -4.480997605236928e-06   -2.4891052699904962e-05
2.7508188754533957e-05   -2.662050349231846e-06   1.687935433415948e-07
2.7508188754533957e-05   -2.662050349231846e-06   1.687935433415948e-07
2.7508188754533957e-05   -2.662050349231846e-06   1.687935433415948e-07
2.7508188754533957e-05   -2.662050349231846e-06   1.687935433415948e-07
2.82323144786355e-05   -3.3053755222687946e-06   -2.8386848577395718e-05
2.82323144786355e-05   -3.3053755222687946e-06   -2.8386848577395718e-05
2.82323144786355e-05   -3.3053755222687946e-06   -2.8386848577395718e-05
2.82323144786355e-05   -3.3053755222687946e-06   -2.8386848577395718e-05
1.3028021600458955e-05   -1.7195502539159606e-06   -3.997855608113218e-06
1.3028021600458955e-05   -1.7195502539159606e-06   -3.997855608113218e-06
1.3028021600458955e-05   -1.7195502539159606e-06   -3.997855608113218e-06
1.3028021600458955e-05   -1.7195502539159606e-06   -3.997855608113218e-06
1.945060448540551e-05   -3.3921726719776386e-06   -1.3698586965520391e-05
1.945060448540551e-05   -3.3921726719776386e-06   -1.3698586965520391e-05
1.945060448540551e-05   -3.3921726719776386e-06   -1.3698586965520391e-05
1.945060448540551e-05   -3.3921726719776386e-06   -1.3698586965520391e-05
-3.1209206900079594e-05   4.786275088327176e-06   -2.3773795216313335e-05
-3.1209206900079594e-05   4.786275088327176e-06   -2.3773795216313335e-05
-3.1209206900079594e-05   4.786275088327176e-06   -2.3773795216313335e-05
-3.1209206900079594e-05   4.786275088327176e-06   -2.3773795216313335e-05
-2.1268370553638257e-05   3.0403102358064977e-06   -8.253313550423522e-06
-2.1268370553638257e-05   3.0403102358064977e-06   -8.253313550423522e-06
-2.1268370553638257e-05   3.0403102358064977e-06   -8.253313550423522e-06
-2.1268370553638257e-05   3.0403102358064977e-06   -8.253313550423522e-06
-2.119059595462413e-05   5.792518312686731e-06   -2.0197691674136487e-05
-2.119059595462413e-05   5.792518312686731e-06   -2.0197691674136487e-05
-2.119059595462413e-05   5.792518312686731e-06   -2.0197691674136487e-05
-2.119059595462413e-05   5.792518312686731e-06   -2.0197691674136487e-05
-3.0271421505862503e-05   3.8722105341063495e-06   -3.9107977549242485e-06
-3.0271421505862503e-05   3.8722105341063495e-06   -3.9107977549242485e-06
-3.0271421505862503e-05   3.8722105341063495e-06   -3.9107977549242485e-06
-3.0271421505862503e-05   3.8722105341063495e-06   -3.9107977549242485e-06
-2.488238473294049e-05   4.60971439006724e-06   -1.3335028023370883e-05
-2.488238473294049e-05   4.60971439006724e-06   -1.3335028023370883e-05
-2.488238473294049e-05   4.60971439006724e-06   -1.3335028023370883e-05
-2.488238473294049e-05   4.60971439006724e-06   -1.3335028023370883e-05
-3.0271421505862503e-05   5.792518312686731e-06   -1.9045507006988237e-05
-3.0271421505862503e-05   5.792518312686731e-06   -1.9045507006988237e-05
-3.0271421505862503e-05   5.792518312686731e-06   -1.9045507006988237e-05
-3.0271421505862503e-05   5.792518312686731e-06   -1.9045507006988237e-05
-2.119059595462417e-05   3.8722105341063495e-06   -5.062982422072549e-06
-2.119059595462417e-05   3.8722105341063495e-06   -5.062982422072549e-06
-2.119059595462417e-05   3.8722105341063495e-06   -5.062982422072549e-06
-2.119059595462417e-05   3.8722105341063495e-06   -5.062982422072549e-06
-2.1029650511760823e-05   6.235056937897048e-06   -1.7612631539587627e-05
-2.1029650511760823e-05   6.235056937897048e-06   -1.7612631539587627e-05
-2.1029650511760823e-05   6.235056937897048e-06   -1.7612631539587627e-05
-2.1029650511760823e-05   6.235056937897048e-06   -1.7612631539587627e-05
-2.957116878283213e-05   4.260454961710629e-06   -2.1920065687569676e-06
-2.957116878283213e-05   4.260454961710629e-06   -2.1920065687569676e-06
-2.957116878283213e-05   4.260454961710629e-06   -2.1920065687569676e-06
-2.957116878283213e-05   4.260454961710629e-06   -2.1920065687569676e-06
-2.488236573638147e-05   5.074044202486356e-06   -1.0494831857306754e-05
-2.488236573638147e-05   5.074044202486356e-06   -1.0494831857306754e-05
-2.488236573638147e-05   5.074044202486356e-06   -1.0494831857306754e-05
-2.488236573638147e-05   5.074044202486356e-06   -1.0494831857306754e-05
-2.957116878283213e-05   6.235056937897048e-06   -1.642787035387576e-05
-2.957116878283213e-05   6.235056937897048e-06   -1.642787035387576e-05
-2.957116878283213e-05   6.235056937897048e-06   -1.642787035387576e-05
-2.957116878283213e-05   6.235056937897048e-06   -1.642787035387576e-05
-2.1029650511760864e-05   4.260454961710629e-06   -3.3767677544686897e-06
-2.1029650511760864e-05   4.260454961710629e-06   -3.3767677544686897e-06
-2.1029650511760864e-05   4.260454961710629e-06   -3.3767677544686897e-06
-2.1029650511760864e-05   4.260454961710629e-06   -3.3767677544686897e-06
-2.096572447560963e-05   6.672088329737235e-06   -1.4036627265557136e-05
-2.096572447560963e-05   6.672088329737235e-06   -1.4036627265557136e-05
-2.096572447560963e-05   6.672088329737235e-06   -1.4036627265557136e-05
-2.096572447560963e-05   6.672088329737235e-06   -1.4036627265557136e-05
-2.86558378592083e-05   4.74965015235672e-06   -6.630871979775477e-08
-2.86558378592083e-05   4.74965015235672e-06   -6.630871979775477e-08
-2.86558378592083e-05   4.74965015235672e-06   -6.630871979775477e-08
-2.86558378592083e-05   4.74965015235672e-06   -6.630871979775477e-08
-2.4145458855318535e-05   5.326864724353858e-06   -7.929935802812314e-06
-2.4145458855318535e-05   5.326864724353858e-06   -7.929935802812314e-06
-2.4145458855318535e-05   5.326864724353858e-06   -7.929935802812314e-06
-2.4145458855318535e-05   5.326864724353858e-06   -7.929935802812314e-06
-2.126837055363823e-05   2.3883287663090764e-06   -3.0333978648671998e-05
-2.126837055363823e-05   2.3883287663090764e-06   -3.0333978648671998e-05
-2.126837055363823e-05   2.3883287663090764e-06   -3.0333978648671998e-05
-2.126837055363823e-05   2.3883287663090764e-06   -3.0333978648671998e-05
-1.2252283170806835e-05   1.5748375044733875e-06   -1.5795261101054467e-05
-1.2252283170806835e-05   1.5748375044733875e-06   -1.5795261101054467e-05
-1.2252283170806835e-05   1.5748375044733875e-06   -1.5795261101054467e-05
-1.2252283170806835e-05   1.5748375044733875e-06   -1.5795261101054467e-05
-1.225840978880804e-05   3.378332756655191e-06   -3.007194757466419e-05
-1.225840978880804e-05   3.378332756655191e-06   -3.007194757466419e-05
-1.225840978880804e-05   3.378332756655191e-06   -3.007194757466419e-05
-1.225840978880804e-05   3.378332756655191e-06   -3.007194757466419e-05
-2.119059595462413e-05   2.453538192760782e-06   -1.4630093893300836e-05
-2.119059595462413e-05   2.453538192760782e-06   -1.4630093893300836e-05
-2.119059595462413e-05   2.453538192760782e-06   -1.4630093893300836e-05
-2.119059595462413e-05   2.453538192760782e-06   -1.4630093893300836e-05
-1.6587905869215247e-05   2.614233595355555e-06   -2.2397661277205814e-05
-1.6587905869215247e-05   2.614233595355555e-06   -2.2397661277205814e-05
-1.6587905869215247e-05   2.614233595355555e-06   -2.2397661277205814e-05
-1.6587905869215247e-05   2.614233595355555e-06   -2.2397661277205814e-05
-2.1190595954624115e-05   3.3783327566552454e-06   -2.9517070836327454e-05
-2.1190595954624115e-05   3.3783327566552454e-06   -2.9517070836327454e-05
-2.1190595954624115e-05   3.3783327566552454e-06   -2.9517070836327454e-05
-2.1190595954624115e-05   3.3783327566552454e-06   -2.9517070836327454e-05
-1.225840978880804e-05   2.453538192760782e-06   -1.5184970631637438e-05
-1.225840978880804e-05   2.453538192760782e-06   -1.5184970631637438e-05
-1.225840978880804e-05   2.453538192760782e-06   -1.5184970631637438e-05
-1.225840978880804e-05   2.453538192760782e-06   -1.5184970631637438e-05
-1.2249593441221874e-05   4.258424934874708e-06   -2.9398095070922088e-05
-1.2249593441221874e-05   4.258424934874708e-06   -2.9398095070922088e-05
-1.2249593441221874e-05   4.258424934874708e-06   -2.9398095070922088e-05
-1.2249593441221874e-05   4.258424934874708e-06   -2.9398095070922088e-05
-2.1029650511760823e-05   3.2537370515439744e-06   -1.4161853890025448e-05
-2.1029650511760823e-05   3.2537370515439744e-06   -1.4161853890025448e-05
-2.1029650511760823e-05   3.2537370515439744e-06   -1.4161853890025448e-05
-2.1029650511760823e-05   3.2537370515439744e-06   -1.4161853890025448e-05
-1.651090591723629e-05   3.3364453705842672e-06   -2.174271987232364e-05
-1.651090591723629e-05   3.3364453705842672e-06   -2.174271987232364e-05
-1.651090591723629e-05   3.3364453705842672e-06   -2.174271987232364e-05
-1.651090591723629e-05   3.3364453705842672e-06   -2.174271987232364e-05
-2.1029650511760823e-05   4.258424934874708e-06   -2.879528234092367e-05
-2.1029650511760823e-05   4.258424934874708e-06   -2.879528234092367e-05
-2.1029650511760823e-05   4.258424934874708e-06   -2.879528234092367e-05
-2.1029650511760823e-05   4.258424934874708e-06   -2.879528234092367e-05
-1.2249593441221874e-05   3.2537370515439744e-06   -1.4764666620023745e-05
-1.2249593441221874e-05   3.2537370515439744e-06   -1.4764666620023745e-05
-1.2249593441221874e-05   3.2537370515439744e-06   -1.4764666620023745e-05
-1.2249593441221874e-05   3.2537370515439744e-06   -1.4764666620023745e-05
-1.2259759146514516e-05   5.195211988318982e-06   -2.951681198480312e-05
-1.2259759146514516e-05   5.195211988318982e-06   -2.951681198480312e-05
-1.2259759146514516e-05   5.195211988318982e-06   -2.951681198480312e-05
-1.2259759146514516e-05   5.195211988318982e-06   -2.951681198480312e-05
-2.0965724475609617e-05   4.123577994773653e-06   -1.436388937351728e-05
-2.0965724475609617e-05   4.123577994773653e-06   -1.436388937351728e-05
-2.0965724475609617e-05   4.123577994773653e-06   -1.436388937351728e-05
-2.0965724475609617e-05   4.123577994773653e-06   -1.436388937351728e-05
-1.661808311177012e-05   4.051594543454134e-06   -2.156676824245815e-05
-1.661808311177012e-05   4.051594543454134e-06   -2.156676824245815e-05
-1.661808311177012e-05   4.051594543454134e-06   -2.156676824245815e-05
-1.661808311177012e-05   4.051594543454134e-06   -2.156676824245815e-05
-1.2252283170806848e-05   1.274970945403832e-07   -3.348701282146669e-05
-1.2252283170806848e-05   1.274970945403832e-07   -3.348701282146669e-05
-1.2252283170806848e-05   1.274970945403832e-07   -3.348701282146669e-05
-1.2252283170806848e-05   1.274970945403832e-07   -3.348701282146669e-05
-3.358726232642393e-06   2.7299363088530756e-07   -1.8577120002719006e-05
-3.358726232642393e-06   2.7299363088530756e-07   -1.8577120002719006e-05
-3.358726232642393e-06   2.7299363088530756e-07   -1.8577120002719006e-05
-3.358726232642393e-06   2.7299363088530756e-07   -1.8577120002719006e-05
-3.3653982310808807e-06   1.102522912235543e-06   -3.3115178409862036e-05
-3.3653982310808807e-06   1.102522912235543e-06   -3.3115178409862036e-05
-3.3653982310808807e-06   1.102522912235543e-06   -3.3115178409862036e-05
-3.3653982310808807e-06   1.102522912235543e-06   -3.3115178409862036e-05
-1.225840978880804e-05   1.1571315180016785e-06   -1.832625764377639e-05
-1.225840978880804e-05   1.1571315180016785e-06   -1.832625764377639e-05
-1.225840978880804e-05   1.1571315180016785e-06   -1.832625764377639e-05
-1.225840978880804e-05   1.1571315180016785e-06   -1.832625764377639e-05
-7.75667337382523e-06   7.799627710623237e-07   -2.5602850420584162e-05
-7.75667337382523e-06   7.799627710623237e-07   -2.5602850420584162e-05
-7.75667337382523e-06   7.799627710623237e-07   -2.5602850420584162e-05
-7.75667337382523e-06   7.799627710623237e-07   -2.5602850420584162e-05
-1.2258409788808067e-05   1.102522912235543e-06   -3.314794357332172e-05
-1.2258409788808067e-05   1.102522912235543e-06   -3.314794357332172e-05
-1.2258409788808067e-05   1.102522912235543e-06   -3.314794357332172e-05
-1.2258409788808067e-05   1.102522912235543e-06   -3.314794357332172e-05
-3.3653982310808807e-06   1.1571315180016785e-06   -1.8293492480316682e-05
-3.3653982310808807e-06   1.1571315180016785e-06   -1.8293492480316682e-05
-3.3653982310808807e-06   1.1571315180016785e-06   -1.8293492480316682e-05
-3.3653982310808807e-06   1.1571315180016785e-06   -1.8293492480316682e-05
-3.3538700979683933e-06   2.0746953264630407e-06   -3.319861769669546e-05
-3.3538700979683933e-06   2.0746953264630407e-06   -3.319861769669546e-05
-3.3538700979683933e-06   2.0746953264630407e-06   -3.319861769669546e-05
-3.3538700979683933e-06   2.0746953264630407e-06   -3.319861769669546e-05
-1.2249593441221874e-05   2.04410640947453e-06   -1.83540587744132e-05
-1.2249593441221874e-05   2.04410640947453e-06   -1.83540587744132e-05
-1.2249593441221874e-05   2.04410640947453e-06   -1.83540587744132e-05
-1.2249593441221874e-05   2.04410640947453e-06   -1.83540587744132e-05
-7.808803145778389e-06   1.553778467621559e-06   -2.5461179168373936e-05
-7.808803145778389e-06   1.553778467621559e-06   -2.5461179168373936e-05
-7.808803145778389e-06   1.553778467621559e-06   -2.5461179168373936e-05
-7.808803145778389e-06   1.553778467621559e-06   -2.5461179168373936e-05
-1.2249593441221874e-05   2.0746953264630407e-06   -3.318026434650231e-05
-1.2249593441221874e-05   2.0746953264630407e-06   -3.318026434650231e-05
-1.2249593441221874e-05   2.0746953264630407e-06   -3.318026434650231e-05
-1.2249593441221874e-05   2.0746953264630407e-06   -3.318026434650231e-05
-3.3538700979683933e-06   2.04410640947453e-06   -1.8372412124606258e-05
-3.3538700979683933e-06   2.04410640947453e-06   -1.8372412124606258e-05
-3.3538700979683933e-06   2.04410640947453e-06   -1.8372412124606258e-05
-3.3538700979683933e-06   2.04410640947453e-06   -1.8372412124606258e-05
-3.359232906467446e-06   3.0694109728136355e-06   -3.370046742522733e-05
-3.359232906467446e-06   3.0694109728136355e-06   -3.370046742522733e-05
-3.359232906467446e-06   3.0694109728136355e-06   -3.370046742522733e-05
-3.359232906467446e-06   3.0694109728136355e-06   -3.370046742522733e-05
-1.225975914651453e-05   2.9465887942562797e-06   -1.879256371801433e-05
-1.225975914651453e-05   2.9465887942562797e-06   -1.879256371801433e-05
-1.225975914651453e-05   2.9465887942562797e-06   -1.879256371801433e-05
-1.225975914651453e-05   2.9465887942562797e-06   -1.879256371801433e-05
-7.876129313789972e-06   2.337762083882343e-06   -2.573331741299761e-05
-7.876129313789972e-06   2.337762083882343e-06   -2.573331741299761e-05
-7.876129313789972e-06   2.337762083882343e-06   -2.573331741299761e-05
-7.876129313789972e-06   2.337762083882343e-06   -2.573331741299761e-05
-3.3587262326423877e-06   -1.9987512051598344e-06   -2.9647868838718645e-05
-3.3587262326423877e-06   -1.9987512051598344e-06   -2.9647868838718645e-05
-3.3587262326423877e-06   -1.9987512051598344e-06   -2.9647868838718645e-05
-3.3587262326423877e-06   -1.9987512051598344e-06   -2.9647868838718645e-05
5.401118536400664e-06   -9.170787428282486e-07   -1.4399124079581308e-05
5.401118536400664e-06   -9.170787428282486e-07   -1.4399124079581308e-05
5.401118536400664e-06   -9.170787428282486e-07   -1.4399124079581308e-05
5.401118536400664e-06   -9.170787428282486e-07   -1.4399124079581308e-05
5.472488414334453e-06   -1.1042842747332375e-06   -2.8970755509422807e-05
5.472488414334453e-06   -1.1042842747332375e-06   -2.8970755509422807e-05
5.472488414334453e-06   -1.1042842747332375e-06   -2.8970755509422807e-05
5.472488414334453e-06   -1.1042842747332375e-06   -2.8970755509422807e-05
-3.365398231080875e-06   -8.363398544032358e-08   -1.4853334607306328e-05
-3.365398231080875e-06   -8.363398544032358e-08   -1.4853334607306328e-05
-3.365398231080875e-06   -8.363398544032358e-08   -1.4853334607306328e-05
-3.365398231080875e-06   -8.363398544032358e-08   -1.4853334607306328e-05
1.043104417741377e-06   -9.489880957981806e-07   -2.1681626555795363e-05
1.043104417741377e-06   -9.489880957981806e-07   -2.1681626555795363e-05
1.043104417741377e-06   -9.489880957981806e-07   -2.1681626555795363e-05
1.043104417741377e-06   -9.489880957981806e-07   -2.1681626555795363e-05
-3.3653982310808807e-06   -1.1042842747332375e-06   -2.9583145682998506e-05
-3.3653982310808807e-06   -1.1042842747332375e-06   -2.9583145682998506e-05
-3.3653982310808807e-06   -1.1042842747332375e-06   -2.9583145682998506e-05
-3.3653982310808807e-06   -1.1042842747332375e-06   -2.9583145682998506e-05
5.47248841433446e-06   -8.363398544032358e-08   -1.4240944433730602e-05
5.47248841433446e-06   -8.363398544032358e-08   -1.4240944433730602e-05
5.47248841433446e-06   -8.363398544032358e-08   -1.4240944433730602e-05
5.47248841433446e-06   -8.363398544032358e-08   -1.4240944433730602e-05
5.641777576702194e-06   -2.2598280823103029e-07   -2.9578268804803496e-05
5.641777576702194e-06   -2.2598280823103029e-07   -2.9578268804803496e-05
5.641777576702194e-06   -2.2598280823103029e-07   -2.9578268804803496e-05
5.641777576702194e-06   -2.2598280823103029e-07   -2.9578268804803496e-05
-3.3538700979683874e-06   7.175443684074613e-07   -1.5151638986335636e-05
-3.3538700979683874e-06   7.175443684074613e-07   -1.5151638986335636e-05
-3.3538700979683874e-06   7.175443684074613e-07   -1.5151638986335636e-05
-3.3538700979683874e-06   7.175443684074613e-07   -1.5151638986335636e-05
9.921864281341132e-07   -2.555049077736346e-07   -2.1811236964131136e-05
9.921864281341132e-07   -2.555049077736346e-07   -2.1811236964131136e-05
9.921864281341132e-07   -2.555049077736346e-07   -2.1811236964131136e-05
9.921864281341132e-07   -2.555049077736346e-07   -2.1811236964131136e-05
-3.3538700979683933e-06   -2.2598280823103029e-07   -3.0144385110786646e-05
-3.3538700979683933e-06   -2.2598280823103029e-07   -3.0144385110786646e-05
-3.3538700979683933e-06   -2.2598280823103029e-07   -3.0144385110786646e-05
-3.3538700979683933e-06   -2.2598280823103029e-07   -3.0144385110786646e-05
5.6417775767022e-06   7.175443684074613e-07   -1.4585522680352514e-05
5.6417775767022e-06   7.175443684074613e-07   -1.4585522680352514e-05
5.6417775767022e-06   7.175443684074613e-07   -1.4585522680352514e-05
5.6417775767022e-06   7.175443684074613e-07   -1.4585522680352514e-05
5.724906013488268e-06   8.002938496140945e-07   -3.0450021510676874e-05
5.724906013488268e-06   8.002938496140945e-07   -3.0450021510676874e-05
5.724906013488268e-06   8.002938496140945e-07   -3.0450021510676874e-05
5.724906013488268e-06   8.002938496140945e-07   -3.0450021510676874e-05
-3.359232906467446e-06   1.6351079212912007e-06   -1.5810678420423517e-05
-3.359232906467446e-06   1.6351079212912007e-06   -1.5810678420423517e-05
-3.359232906467446e-06   1.6351079212912007e-06   -1.5810678420423517e-05
-3.359232906467446e-06   1.6351079212912007e-06   -1.5810678420423517e-05
1.0223992835052236e-06   4.855659492683452e-07   -2.2423673553830954e-05
1.0223992835052236e-06   4.855659492683452e-07   -2.2423673553830954e-05
1.0223992835052236e-06   4.855659492683452e-07   -2.2423673553830954e-05
1.0223992835052236e-06   4.855659492683452e-07   -2.2423673553830954e-05
5.401118536400657e-06   -3.6203767055382596e-06   -1.6279280931577166e-05
5.401118536400657e-06   -3.6203767055382596e-06   -1.6279280931577166e-05
5.401118536400657e-06   -3.6203767055382596e-06   -1.6279280931577166e-05
5.401118536400657e-06   -3.6203767055382596e-06   -1.6279280931577166e-05
1.3164961548123416e-05   -1.6813311532160816e-06   -2.1761152473126705e-06
1.3164961548123416e-05   -1.6813311532160816e-06   -2.1761152473126705e-06
1.3164961548123416e-05   -1.6813311532160816e-06   -2.1761152473126705e-06
1.3164961548123416e-05   -1.6813311532160816e-06   -2.1761152473126705e-06
1.4092868929694975e-05   -3.103772213670572e-06   -1.7081251293117345e-05
1.4092868929694975e-05   -3.103772213670572e-06   -1.7081251293117345e-05
1.4092868929694975e-05   -3.103772213670572e-06   -1.7081251293117345e-05
1.4092868929694975e-05   -3.103772213670572e-06   -1.7081251293117345e-05
5.472488414334453e-06   -1.115948062245021e-06   -3.906644925038449e-06
5.472488414334453e-06   -1.115948062245021e-06   -3.906644925038449e-06
5.472488414334453e-06   -1.115948062245021e-06   -3.906644925038449e-06
5.472488414334453e-06   -1.115948062245021e-06   -3.906644925038449e-06
9.126384648655464e-06   -2.306468970909078e-06   -9.282159437041677e-06
9.126384648655464e-06   -2.306468970909078e-06   -9.282159437041677e-06
9.126384648655464e-06   -2.306468970909078e-06   -9.282159437041677e-06
9.126384648655464e-06   -2.306468970909078e-06   -9.282159437041677e-06
5.472488414334453e-06   -3.103772213670572e-06   -1.8273945783972508e-05
5.472488414334453e-06   -3.103772213670572e-06   -1.8273945783972508e-05
5.472488414334453e-06   -3.103772213670572e-06   -1.8273945783972508e-05
5.472488414334453e-06   -3.103772213670572e-06   -1.8273945783972508e-05
1.4092868929694948e-05   -1.115948062245021e-06   -2.7139504341831236e-06
1.4092868929694948e-05   -1.115948062245021e-06   -2.7139504341831236e-06
1.4092868929694948e-05   -1.115948062245021e-06   -2.7139504341831236e-06
1.4092868929694948e-05   -1.115948062245021e-06   -2.7139504341831236e-06
1.4807807146152143e-05   -2.662050349231846e-06   -1.872693343634319e-05
1.4807807146152143e-05   -2.662050349231846e-06   -1.872693343634319e-05
1.4807807146152143e-05   -2.662050349231846e-06   -1.872693343634319e-05
1.4807807146152143e-05   -2.662050349231846e-06   -1.872693343634319e-05
5.6417775767022e-06   -7.264035584659883e-07   -4.611605561719462e-06
5.6417775767022e-06   -7.264035584659883e-07   -4.611605561719462e-06
5.6417775767022e-06   -7.264035584659883e-07   -4.611605561719462e-06
5.6417775767022e-06   -7.264035584659883e-07   -4.611605561719462e-06
9.692085806131895e-06   -2.015784397006292e-06   -1.0588490774311443e-05
9.692085806131895e-06   -2.015784397006292e-06   -1.0588490774311443e-05
9.692085806131895e-06   -2.015784397006292e-06   -1.0588490774311443e-05
9.692085806131895e-06   -2.015784397006292e-06   -1.0588490774311443e-05
5.641777576702194e-06   -2.662050349231846e-06   -1.9888321510802705e-05
5.641777576702194e-06   -2.662050349231846e-06   -1.9888321510802705e-05
5.641777576702194e-06   -2.662050349231846e-06   -1.9888321510802705e-05
5.641777576702194e-06   -2.662050349231846e-06   -1.9888321510802705e-05
1.4807807146152103e-05   -7.264035584659883e-07   -3.450217487259812e-06
1.4807807146152103e-05   -7.264035584659883e-07   -3.450217487259812e-06
1.4807807146152103e-05   -7.264035584659883e-07   -3.450217487259812e-06
1.4807807146152103e-05   -7.264035584659883e-07   -3.450217487259812e-06
1.57589321878559e-05   -1.7195502539159606e-06   -2.188687225104624e-05
1.57589321878559e-05   -1.7195502539159606e-06   -2.188687225104624e-05
1.57589321878559e-05   -1.7195502539159606e-06   -2.188687225104624e-05
1.57589321878559e-05   -1.7195502539159606e-06   -2.188687225104624e-05
5.724906013488268e-06   3.790867678001974e-08   -6.2179706521842376e-06
5.724906013488268e-06   3.790867678001974e-08   -6.2179706521842376e-06
5.724906013488268e-06   3.790867678001974e-08   -6.2179706521842376e-06
5.724906013488268e-06   3.790867678001974e-08   -6.2179706521842376e-06
9.88285419018809e-06   -1.5854239959684272e-06   -1.2173884676368377e-05
9.88285419018809e-06   -1.5854239959684272e-06   -1.2173884676368377e-05
9.88285419018809e-06   -1.5854239959684272e-06   -1.2173884676368377e-05
9.88285419018809e-06   -1.5854239959684272e-06   -1.2173884676368377e-05
-1.885002871836915e-05   3.0403102358064977e-06   -1.7693503327570698e-05
-1.885002871836915e-05   3.0403102358064977e-06   -1.7693503327570698e-05
-1.885002871836915e-05   3.0403102358064977e-06   -1.7693503327570698e-05
-1.885002871836915e-05   3.0403102358064977e-06   -1.7693503327570698e-05
-1.3943821148818306e-05   1.234486346828826e-06   -1.0599985045039133e-05
-1.3943821148818306e-05   1.234486346828826e-06   -1.0599985045039133e-05
-1.3943821148818306e-05   1.234486346828826e-06   -1.0599985045039133e-05
-1.3943821148818306e-05   1.234486346828826e-06   -1.0599985045039133e-05
-1.374014321064537e-05   3.8722105341063495e-06   -1.5609031477838435e-05
-1.374014321064537e-05   3.8722105341063495e-06   -1.5609031477838435e-05
-1.374014321064537e-05   3.8722105341063495e-06   -1.5609031477838435e-05
-1.374014321064537e-05   3.8722105341063495e-06   -1.5609031477838435e-05
-1.782264432859042e-05   1.9258063771748378e-06   -7.637020453770955e-06
-1.782264432859042e-05   1.9258063771748378e-06   -7.637020453770955e-06
-1.782264432859042e-05   1.9258063771748378e-06   -7.637020453770955e-06
-1.782264432859042e-05   1.9258063771748378e-06   -7.637020453770955e-06
-1.540757466769743e-05   2.7280111019275556e-06   -1.2143459390111626e-05
-1.540757466769743e-05   2.7280111019275556e-06   -1.2143459390111626e-05
-1.540757466769743e-05   2.7280111019275556e-06   -1.2143459390111626e-05
-1.540757466769743e-05   2.7280111019275556e-06   -1.2143459390111626e-05
-1.782264432859042e-05   3.8722105341063495e-06   -1.4441188983679528e-05
-1.782264432859042e-05   3.8722105341063495e-06   -1.4441188983679528e-05
-1.782264432859042e-05   3.8722105341063495e-06   -1.4441188983679528e-05
-1.782264432859042e-05   3.8722105341063495e-06   -1.4441188983679528e-05
-1.3740143210645397e-05   1.9258063771748378e-06   -8.80486294792993e-06
-1.3740143210645397e-05   1.9258063771748378e-06   -8.80486294792993e-06
-1.3740143210645397e-05   1.9258063771748378e-06   -8.80486294792993e-06
-1.3740143210645397e-05   1.9258063771748378e-06   -8.80486294792993e-06
-1.3449014601228036e-05   4.2604549617105206e-06   -1.3937425226198544e-05
-1.3449014601228036e-05   4.2604549617105206e-06   -1.3937425226198544e-05
-1.3449014601228036e-05   4.2604549617105206e-06   -1.3937425226198544e-05
-1.3449014601228036e-05   4.2604549617105206e-06   -1.3937425226198544e-05
-1.7004399644547397e-05   2.2758941339536595e-06   -6.821046990678717e-06
-1.7004399644547397e-05   2.2758941339536595e-06   -6.821046990678717e-06
-1.7004399644547397e-05   2.2758941339536595e-06   -6.821046990678717e-06
-1.7004399644547397e-05   2.2758941339536595e-06   -6.821046990678717e-06
-1.5137312832562617e-05   3.1013674559575715e-06   -1.0428142337189048e-05
-1.5137312832562617e-05   3.1013674559575715e-06   -1.0428142337189048e-05
-1.5137312832562617e-05   3.1013674559575715e-06   -1.0428142337189048e-05
-1.5137312832562617e-05   3.1013674559575715e-06   -1.0428142337189048e-05
-1.700439964454737e-05   4.2604549617105206e-06   -1.2746688729544373e-05
-1.700439964454737e-05   4.2604549617105206e-06   -1.2746688729544373e-05
-1.700439964454737e-05   4.2604549617105206e-06   -1.2746688729544373e-05
-1.700439964454737e-05   4.2604549617105206e-06   -1.2746688729544373e-05
-1.3449014601228063e-05   2.2758941339536595e-06   -8.011783487332902e-06
-1.3449014601228063e-05   2.2758941339536595e-06   -8.011783487332902e-06
-1.3449014601228063e-05   2.2758941339536595e-06   -8.011783487332902e-06
-1.3449014601228063e-05   2.2758941339536595e-06   -8.011783487332902e-06
-1.3251807472561782e-05   4.74965015235672e-06   -1.1794703135058183e-05
-1.3251807472561782e-05   4.74965015235672e-06   -1.1794703135058183e-05
-1.3251807472561782e-05   4.74965015235672e-06   -1.1794703135058183e-05
-1.3251807472561782e-05   4.74965015235672e-06   -1.1794703135058183e-05
-1.5962790692567255e-05   2.8308415972043595e-06   -6.125112635290905e-06
-1.5962790692567255e-05   2.8308415972043595e-06   -6.125112635290905e-06
-1.5962790692567255e-05   2.8308415972043595e-06   -6.125112635290905e-06
-1.5962790692567255e-05   2.8308415972043595e-06   -6.125112635290905e-06
-1.4430818228388617e-05   3.3614701908666125e-06   -8.996777231786113e-06
-1.4430818228388617e-05   3.3614701908666125e-06   -8.996777231786113e-06
-1.4430818228388617e-05   3.3614701908666125e-06   -8.996777231786113e-06
-1.4430818228388617e-05   3.3614701908666125e-06   -8.996777231786113e-06
-1.3943821148818306e-05   1.574837504473279e-06   -2.583085045448669e-05
-1.3943821148818306e-05   1.574837504473279e-06   -2.583085045448669e-05
-1.3943821148818306e-05   1.574837504473279e-06   -2.583085045448669e-05
-1.3943821148818306e-05   1.574837504473279e-06   -2.583085045448669e-05
-9.954338311754282e-06   7.130459468212766e-07   -1.969878732730463e-05
-9.954338311754282e-06   7.130459468212766e-07   -1.969878732730463e-05
-9.954338311754282e-06   7.130459468212766e-07   -1.969878732730463e-05
-9.954338311754282e-06   7.130459468212766e-07   -1.969878732730463e-05
-9.821949825440521e-06   2.453538192760782e-06   -2.57445530957585e-05
-9.821949825440521e-06   2.453538192760782e-06   -2.57445530957585e-05
-9.821949825440521e-06   2.453538192760782e-06   -2.57445530957585e-05
-9.821949825440521e-06   2.453538192760782e-06   -2.57445530957585e-05
-1.3740143210645397e-05   1.5061879482743167e-06   -1.8645820640391764e-05
-1.3740143210645397e-05   1.5061879482743167e-06   -1.8645820640391764e-05
-1.3740143210645397e-05   1.5061879482743167e-06   -1.8645820640391764e-05
-1.3740143210645397e-05   1.5061879482743167e-06   -1.8645820640391764e-05
-1.1749351793629179e-05   1.71517538783382e-06   -2.2089198799155033e-05
-1.1749351793629179e-05   1.71517538783382e-06   -2.2089198799155033e-05
-1.1749351793629179e-05   1.71517538783382e-06   -2.2089198799155033e-05
-1.1749351793629179e-05   1.71517538783382e-06   -2.2089198799155033e-05
-1.374014321064537e-05   2.453538192760782e-06   -2.5176142949066583e-05
-1.374014321064537e-05   2.453538192760782e-06   -2.5176142949066583e-05
-1.374014321064537e-05   2.453538192760782e-06   -2.5176142949066583e-05
-1.374014321064537e-05   2.453538192760782e-06   -2.5176142949066583e-05
-9.821949825440535e-06   1.5061879482743167e-06   -1.9214230787083762e-05
-9.821949825440535e-06   1.5061879482743167e-06   -1.9214230787083762e-05
-9.821949825440535e-06   1.5061879482743167e-06   -1.9214230787083762e-05
-9.821949825440535e-06   1.5061879482743167e-06   -1.9214230787083762e-05
-9.675605885364969e-06   3.2537370515439744e-06   -2.5328140185036348e-05
-9.675605885364969e-06   3.2537370515439744e-06   -2.5328140185036348e-05
-9.675605885364969e-06   3.2537370515439744e-06   -2.5328140185036348e-05
-9.675605885364969e-06   3.2537370515439744e-06   -2.5328140185036348e-05
-1.344901460122809e-05   2.244355679408873e-06   -1.843349683531664e-05
-1.344901460122809e-05   2.244355679408873e-06   -1.843349683531664e-05
-1.344901460122809e-05   2.244355679408873e-06   -1.843349683531664e-05
-1.344901460122809e-05   2.244355679408873e-06   -1.843349683531664e-05
-1.1574750314957038e-05   2.3571837225996655e-06   -2.1624967471682677e-05
-1.1574750314957038e-05   2.3571837225996655e-06   -2.1624967471682677e-05
-1.1574750314957038e-05   2.3571837225996655e-06   -2.1624967471682677e-05
-1.1574750314957038e-05   2.3571837225996655e-06   -2.1624967471682677e-05
-1.3449014601228036e-05   3.2537370515439744e-06   -2.4722511361755198e-05
-1.3449014601228036e-05   3.2537370515439744e-06   -2.4722511361755198e-05
-1.3449014601228036e-05   3.2537370515439744e-06   -2.4722511361755198e-05
-1.3449014601228036e-05   3.2537370515439744e-06   -2.4722511361755198e-05
-9.675605885364969e-06   2.244355679408873e-06   -1.9039125658597777e-05
-9.675605885364969e-06   2.244355679408873e-06   -1.9039125658597777e-05
-9.675605885364969e-06   2.244355679408873e-06   -1.9039125658597777e-05
-9.675605885364969e-06   2.244355679408873e-06   -1.9039125658597777e-05
-9.545838609302298e-06   4.123577994773653e-06   -2.557382189072603e-05
-9.545838609302298e-06   4.123577994773653e-06   -2.557382189072603e-05
-9.545838609302298e-06   4.123577994773653e-06   -2.557382189072603e-05
-9.545838609302298e-06   4.123577994773653e-06   -2.557382189072603e-05
-1.3251807472561809e-05   3.0652429808126743e-06   -1.87622061102502e-05
-1.3251807472561809e-05   3.0652429808126743e-06   -1.87622061102502e-05
-1.3251807472561809e-05   3.0652429808126743e-06   -1.87622061102502e-05
-1.3251807472561809e-05   3.0652429808126743e-06   -1.87622061102502e-05
-1.1507850758619555e-05   3.008188063889747e-06   -2.1634567683333558e-05
-1.1507850758619555e-05   3.008188063889747e-06   -2.1634567683333558e-05
-1.1507850758619555e-05   3.008188063889747e-06   -2.1634567683333558e-05
-1.1507850758619555e-05   3.008188063889747e-06   -2.1634567683333558e-05
-9.954338311754242e-06   2.7299363088530756e-07   -2.9217082212549416e-05
-9.954338311754242e-06   2.7299363088530756e-07   -2.9217082212549416e-05
-9.954338311754242e-06   2.7299363088530756e-07   -2.9217082212549416e-05
-9.954338311754242e-06   2.7299363088530756e-07   -2.9217082212549416e-05
-6.064117574880258e-06   4.1151657130804754e-07   -2.2650267220172457e-05
-6.064117574880258e-06   4.1151657130804754e-07   -2.2650267220172457e-05
-6.064117574880258e-06   4.1151657130804754e-07   -2.2650267220172457e-05
-6.064117574880258e-06   4.1151657130804754e-07   -2.2650267220172457e-05
-5.935328439093359e-06   1.1571315180016785e-06   -2.8848059927812813e-05
-5.935328439093359e-06   1.1571315180016785e-06   -2.8848059927812813e-05
-5.935328439093359e-06   1.1571315180016785e-06   -2.8848059927812813e-05
-5.935328439093359e-06   1.1571315180016785e-06   -2.8848059927812813e-05
-9.821949825440521e-06   1.220098484809736e-06   -2.2408137797318714e-05
-9.821949825440521e-06   1.220098484809736e-06   -2.2408137797318714e-05
-9.821949825440521e-06   1.220098484809736e-06   -2.2408137797318714e-05
-9.821949825440521e-06   1.220098484809736e-06   -2.2408137797318714e-05
-7.892938738523823e-06   8.784293758902582e-07   -2.5418154810162173e-05
-7.892938738523823e-06   8.784293758902582e-07   -2.5418154810162173e-05
-7.892938738523823e-06   8.784293758902582e-07   -2.5418154810162173e-05
-7.892938738523823e-06   8.784293758902582e-07   -2.5418154810162173e-05
-9.821949825440508e-06   1.1571315180016785e-06   -2.888584010789754e-05
-9.821949825440508e-06   1.1571315180016785e-06   -2.888584010789754e-05
-9.821949825440508e-06   1.1571315180016785e-06   -2.888584010789754e-05
-9.821949825440508e-06   1.1571315180016785e-06   -2.888584010789754e-05
-5.93532843909335e-06   1.220098484809736e-06   -2.2370357617234075e-05
-5.93532843909335e-06   1.220098484809736e-06   -2.2370357617234075e-05
-5.93532843909335e-06   1.220098484809736e-06   -2.2370357617234075e-05
-5.93532843909335e-06   1.220098484809736e-06   -2.2370357617234075e-05
-5.790004530044349e-06   2.04410640947453e-06   -2.8922558473703445e-05
-5.790004530044349e-06   2.04410640947453e-06   -2.8922558473703445e-05
-5.790004530044349e-06   2.04410640947453e-06   -2.8922558473703445e-05
-5.790004530044349e-06   2.04410640947453e-06   -2.8922558473703445e-05
-9.675605885364955e-06   2.035729519011772e-06   -2.244153008055795e-05
-9.675605885364955e-06   2.035729519011772e-06   -2.244153008055795e-05
-9.675605885364955e-06   2.035729519011772e-06   -2.244153008055795e-05
-9.675605885364955e-06   2.035729519011772e-06   -2.244153008055795e-05
-7.807284487369434e-06   1.5736517411971368e-06   -2.5278152410528423e-05
-7.807284487369434e-06   1.5736517411971368e-06   -2.5278152410528423e-05
-7.807284487369434e-06   1.5736517411971368e-06   -2.5278152410528423e-05
-7.807284487369434e-06   1.5736517411971368e-06   -2.5278152410528423e-05
-9.675605885364942e-06   2.04410640947453e-06   -2.8917532339425624e-05
-9.675605885364942e-06   2.04410640947453e-06   -2.8917532339425624e-05
-9.675605885364942e-06   2.04410640947453e-06   -2.8917532339425624e-05
-9.675605885364942e-06   2.04410640947453e-06   -2.8917532339425624e-05
-5.790004530044339e-06   2.035729519011772e-06   -2.2446556214835605e-05
-5.790004530044339e-06   2.035729519011772e-06   -2.2446556214835605e-05
-5.790004530044339e-06   2.035729519011772e-06   -2.2446556214835605e-05
-5.790004530044339e-06   2.035729519011772e-06   -2.2446556214835605e-05
-5.659565000891715e-06   2.9465887942562797e-06   -2.940924332110376e-05
-5.659565000891715e-06   2.9465887942562797e-06   -2.940924332110376e-05
-5.659565000891715e-06   2.9465887942562797e-06   -2.940924332110376e-05
-5.659565000891715e-06   2.9465887942562797e-06   -2.940924332110376e-05
-9.545838609302312e-06   2.863709657576494e-06   -2.2882393158411482e-05
-9.545838609302312e-06   2.863709657576494e-06   -2.2882393158411482e-05
-9.545838609302312e-06   2.863709657576494e-06   -2.2882393158411482e-05
-9.545838609302312e-06   2.863709657576494e-06   -2.2882393158411482e-05
-7.736900134676847e-06   2.2781292603240503e-06   -2.5545942377769136e-05
-7.736900134676847e-06   2.2781292603240503e-06   -2.5545942377769136e-05
-7.736900134676847e-06   2.2781292603240503e-06   -2.5545942377769136e-05
-7.736900134676847e-06   2.2781292603240503e-06   -2.5545942377769136e-05
-6.064117574880238e-06   -9.170787428282486e-07   -2.5604976002556966e-05
-6.064117574880238e-06   -9.170787428282486e-07   -2.5604976002556966e-05
-6.064117574880238e-06   -9.170787428282486e-07   -2.5604976002556966e-05
-6.064117574880238e-06   -9.170787428282486e-07   -2.5604976002556966e-05
-2.2965752149219922e-06   1.8103900321713665e-07   -1.86668680883328e-05
-2.2965752149219922e-06   1.8103900321713665e-07   -1.86668680883328e-05
-2.2965752149219922e-06   1.8103900321713665e-07   -1.86668680883328e-05
-2.2965752149219922e-06   1.8103900321713665e-07   -1.86668680883328e-05
-2.103122722167406e-06   -8.363398544032358e-08   -2.4778803008790415e-05
-2.103122722167406e-06   -8.363398544032358e-08   -2.4778803008790415e-05
-2.103122722167406e-06   -8.363398544032358e-08   -2.4778803008790415e-05
-2.103122722167406e-06   -8.363398544032358e-08   -2.4778803008790415e-05
-5.93532843909335e-06   9.64864424579659e-07   -1.9020892526592256e-05
-5.93532843909335e-06   9.64864424579659e-07   -1.9020892526592256e-05
-5.93532843909335e-06   9.64864424579659e-07   -1.9020892526592256e-05
-5.93532843909335e-06   9.64864424579659e-07   -1.9020892526592256e-05
-4.05837588344234e-06   1.1799817211104614e-07   -2.1641027034529866e-05
-4.05837588344234e-06   1.1799817211104614e-07   -2.1641027034529866e-05
-4.05837588344234e-06   1.1799817211104614e-07   -2.1641027034529866e-05
-4.05837588344234e-06   1.1799817211104614e-07   -2.1641027034529866e-05
-5.93532843909334e-06   -8.363398544032358e-08   -2.540790205480227e-05
-5.93532843909334e-06   -8.363398544032358e-08   -2.540790205480227e-05
-5.93532843909334e-06   -8.363398544032358e-08   -2.540790205480227e-05
-5.93532843909334e-06   -8.363398544032358e-08   -2.540790205480227e-05
-2.103122722167406e-06   9.64864424579659e-07   -1.839179348058043e-05
-2.103122722167406e-06   9.64864424579659e-07   -1.839179348058043e-05
-2.103122722167406e-06   9.64864424579659e-07   -1.839179348058043e-05
-2.103122722167406e-06   9.64864424579659e-07   -1.839179348058043e-05
-1.8142383160015831e-06   7.175443684074613e-07   -2.5110555873246584e-05
-1.8142383160015831e-06   7.175443684074613e-07   -2.5110555873246584e-05
-1.8142383160015831e-06   7.175443684074613e-07   -2.5110555873246584e-05
-1.8142383160015831e-06   7.175443684074613e-07   -2.5110555873246584e-05
-5.790004530044339e-06   1.7029268053843014e-06   -1.907550831202801e-05
-5.790004530044339e-06   1.7029268053843014e-06   -1.907550831202801e-05
-5.790004530044339e-06   1.7029268053843014e-06   -1.907550831202801e-05
-5.790004530044339e-06   1.7029268053843014e-06   -1.907550831202801e-05
-3.941906107596376e-06   7.51195704027101e-07   -2.1584633688626938e-05
-3.941906107596376e-06   7.51195704027101e-07   -2.1584633688626938e-05
-3.941906107596376e-06   7.51195704027101e-07   -2.1584633688626938e-05
-3.941906107596376e-06   7.51195704027101e-07   -2.1584633688626938e-05
-5.790004530044329e-06   7.175443684075697e-07   -2.570178533543266e-05
-5.790004530044329e-06   7.175443684075697e-07   -2.570178533543266e-05
-5.790004530044329e-06   7.175443684075697e-07   -2.570178533543266e-05
-5.790004530044329e-06   7.175443684075697e-07   -2.570178533543266e-05
-1.8142383160015831e-06   1.7029268053843014e-06   -1.848427884984196e-05
-1.8142383160015831e-06   1.7029268053843014e-06   -1.848427884984196e-05
-1.8142383160015831e-06   1.7029268053843014e-06   -1.848427884984196e-05
-1.8142383160015831e-06   1.7029268053843014e-06   -1.848427884984196e-05
-1.6128218848134593e-06   1.6351079212910923e-06   -2.5812681885177015e-05
-1.6128218848134593e-06   1.6351079212910923e-06   -2.5812681885177015e-05
-1.6128218848134593e-06   1.6351079212910923e-06   -2.5812681885177015e-05
-1.6128218848134593e-06   1.6351079212910923e-06   -2.5812681885177015e-05
-5.659565000891715e-06   2.5367459732935846e-06   -1.9609092856247995e-05
-5.659565000891715e-06   2.5367459732935846e-06   -1.9609092856247995e-05
-5.659565000891715e-06   2.5367459732935846e-06   -1.9609092856247995e-05
-5.659565000891715e-06   2.5367459732935846e-06   -1.9609092856247995e-05
-3.820286259041045e-06   1.4141152745405475e-06   -2.2000979006747326e-05
-3.820286259041045e-06   1.4141152745405475e-06   -2.2000979006747326e-05
-3.820286259041045e-06   1.4141152745405475e-06   -2.2000979006747326e-05
-3.820286259041045e-06   1.4141152745405475e-06   -2.2000979006747326e-05
-2.2965752149219787e-06   -1.6813311532160816e-06   -1.3886523854054464e-05
-2.2965752149219787e-06   -1.6813311532160816e-06   -1.3886523854054464e-05
-2.2965752149219787e-06   -1.6813311532160816e-06   -1.3886523854054464e-05
-2.2965752149219787e-06   -1.6813311532160816e-06   -1.3886523854054464e-05
4.688888392799246e-07   2.567857008153006e-07   -8.11454698463243e-06
4.688888392799246e-07   2.567857008153006e-07   -8.11454698463243e-06
4.688888392799246e-07   2.567857008153006e-07   -8.11454698463243e-06
4.688888392799246e-07   2.567857008153006e-07   -8.11454698463243e-06
1.500425309372284e-06   -1.1159480622451295e-06   -1.3248713202661011e-05
1.500425309372284e-06   -1.1159480622451295e-06   -1.3248713202661011e-05
1.500425309372284e-06   -1.1159480622451295e-06   -1.3248713202661011e-05
1.500425309372284e-06   -1.1159480622451295e-06   -1.3248713202661011e-05
-2.103122722167406e-06   8.770357668169563e-07   -8.438590114198544e-06
-2.103122722167406e-06   8.770357668169563e-07   -8.438590114198544e-06
-2.103122722167406e-06   8.770357668169563e-07   -8.438590114198544e-06
-2.103122722167406e-06   8.770357668169563e-07   -8.438590114198544e-06
-5.904152853483387e-07   -3.328520299768689e-07   -1.023383649748766e-05
-5.904152853483387e-07   -3.328520299768689e-07   -1.023383649748766e-05
-5.904152853483387e-07   -3.328520299768689e-07   -1.023383649748766e-05
-5.904152853483387e-07   -3.328520299768689e-07   -1.023383649748766e-05
-2.103122722167406e-06   -1.115948062245021e-06   -1.4444503500098127e-05
-2.103122722167406e-06   -1.115948062245021e-06   -1.4444503500098127e-05
-2.103122722167406e-06   -1.115948062245021e-06   -1.4444503500098127e-05
-2.103122722167406e-06   -1.115948062245021e-06   -1.4444503500098127e-05
1.500425309372284e-06   8.770357668170647e-07   -7.242799816761401e-06
1.500425309372284e-06   8.770357668170647e-07   -7.242799816761401e-06
1.500425309372284e-06   8.770357668170647e-07   -7.242799816761401e-06
1.500425309372284e-06   8.770357668170647e-07   -7.242799816761401e-06
2.3151724899508647e-06   -7.264035584659883e-07   -1.3965501400561294e-05
2.3151724899508647e-06   -7.264035584659883e-07   -1.3965501400561294e-05
2.3151724899508647e-06   -7.264035584659883e-07   -1.3965501400561294e-05
2.3151724899508647e-06   -7.264035584659883e-07   -1.3965501400561294e-05
-1.8142383160015831e-06   1.225492031620948e-06   -8.254287411359272e-06
-1.8142383160015831e-06   1.225492031620948e-06   -8.254287411359272e-06
-1.8142383160015831e-06   1.225492031620948e-06   -8.254287411359272e-06
-1.8142383160015831e-06   1.225492031620948e-06   -8.254287411359272e-06
-6.921256317496318e-08   -3.5236707778549866e-08   -1.0406226422430577e-05
-6.921256317496318e-08   -3.5236707778549866e-08   -1.0406226422430577e-05
-6.921256317496318e-08   -3.5236707778549866e-08   -1.0406226422430577e-05
-6.921256317496318e-08   -3.5236707778549866e-08   -1.0406226422430577e-05
-1.8142383160015831e-06   -7.264035584660967e-07   -1.5136638754613397e-05
-1.8142383160015831e-06   -7.264035584660967e-07   -1.5136638754613397e-05
-1.8142383160015831e-06   -7.264035584660967e-07   -1.5136638754613397e-05
-1.8142383160015831e-06   -7.264035584660967e-07   -1.5136638754613397e-05
2.315172489950892e-06   1.225492031620948e-06   -7.083150057307142e-06
2.315172489950892e-06   1.225492031620948e-06   -7.083150057307142e-06
2.315172489950892e-06   1.225492031620948e-06   -7.083150057307142e-06
2.315172489950892e-06   1.225492031620948e-06   -7.083150057307142e-06
3.344740499345043e-06   3.790867678001974e-08   -1.5638586402302423e-05
3.344740499345043e-06   3.790867678001974e-08   -1.5638586402302423e-05
3.344740499345043e-06   3.790867678001974e-08   -1.5638586402302423e-05
3.344740499345043e-06   3.790867678001974e-08   -1.5638586402302423e-05
-1.6128218848134593e-06   1.841702272849504e-06   -8.458258586346433e-06
-1.6128218848134593e-06   1.841702272849504e-06   -8.458258586346433e-06
-1.6128218848134593e-06   1.841702272849504e-06   -8.458258586346433e-06
-1.6128218848134593e-06   1.841702272849504e-06   -8.458258586346433e-06
3.817487020395835e-07   3.027472683944459e-07   -1.0859169895095387e-05
3.817487020395835e-07   3.027472683944459e-07   -1.0859169895095387e-05
3.817487020395835e-07   3.027472683944459e-07   -1.0859169895095387e-05
3.817487020395835e-07   3.027472683944459e-07   -1.0859169895095387e-05
-6.521445603748508e-06   1.234486346828826e-06   -1.1758874828574604e-05
-6.521445603748508e-06   1.234486346828826e-06   -1.1758874828574604e-05
-6.521445603748508e-06   1.234486346828826e-06   -1.1758874828574604e-05
-6.521445603748508e-06   1.234486346828826e-06   -1.1758874828574604e-05
-6.652958623565975e-06   -5.808263037814995e-07   -1.3067250785303374e-05
-6.652958623565975e-06   -5.808263037814995e-07   -1.3067250785303374e-05
-6.652958623565975e-06   -5.808263037814995e-07   -1.3067250785303374e-05
-6.652958623565975e-06   -5.808263037814995e-07   -1.3067250785303374e-05
-6.32227580193485e-06   1.9258063771748378e-06   -1.1049397474253552e-05
-6.32227580193485e-06   1.9258063771748378e-06   -1.1049397474253552e-05
-6.32227580193485e-06   1.9258063771748378e-06   -1.1049397474253552e-05
-6.32227580193485e-06   1.9258063771748378e-06   -1.1049397474253552e-05
-5.374451026954601e-06   -2.2437807333268098e-08   -1.1460158921848909e-05
-5.374451026954601e-06   -2.2437807333268098e-08   -1.1460158921848909e-05
-5.374451026954601e-06   -2.2437807333268098e-08   -1.1460158921848909e-05
-5.374451026954601e-06   -2.2437807333268098e-08   -1.1460158921848909e-05
-5.946202631834706e-06   8.501050711385238e-07   -1.1030765307465723e-05
-5.946202631834706e-06   8.501050711385238e-07   -1.1030765307465723e-05
-5.946202631834706e-06   8.501050711385238e-07   -1.1030765307465723e-05
-5.946202631834706e-06   8.501050711385238e-07   -1.1030765307465723e-05
-5.374451026954601e-06   1.9258063771748378e-06   -9.880450963548575e-06
-5.374451026954601e-06   1.9258063771748378e-06   -9.880450963548575e-06
-5.374451026954601e-06   1.9258063771748378e-06   -9.880450963548575e-06
-5.374451026954601e-06   1.9258063771748378e-06   -9.880450963548575e-06
-6.32227580193485e-06   -2.2437807333268098e-08   -1.2629105432554022e-05
-6.32227580193485e-06   -2.2437807333268098e-08   -1.2629105432554022e-05
-6.32227580193485e-06   -2.2437807333268098e-08   -1.2629105432554022e-05
-6.32227580193485e-06   -2.2437807333268098e-08   -1.2629105432554022e-05
-5.9046084894734245e-06   2.2758941339536595e-06   -1.0253520377808008e-05
-5.9046084894734245e-06   2.2758941339536595e-06   -1.0253520377808008e-05
-5.9046084894734245e-06   2.2758941339536595e-06   -1.0253520377808008e-05
-5.9046084894734245e-06   2.2758941339536595e-06   -1.0253520377808008e-05
-4.427431527123513e-06   2.9435498071894023e-07   -1.1526558489783646e-05
-4.427431527123513e-06   2.9435498071894023e-07   -1.1526558489783646e-05
-4.427431527123513e-06   2.9435498071894023e-07   -1.1526558489783646e-05
-4.427431527123513e-06   2.9435498071894023e-07   -1.1526558489783646e-05
-5.404571163180206e-06   1.137296313031633e-06   -1.0403757229077133e-05
-5.404571163180206e-06   1.137296313031633e-06   -1.0403757229077133e-05
-5.404571163180206e-06   1.137296313031633e-06   -1.0403757229077133e-05
-5.404571163180206e-06   1.137296313031633e-06   -1.0403757229077133e-05
-4.427431527123486e-06   2.2758941339536595e-06   -9.064596885867128e-06
-4.427431527123486e-06   2.2758941339536595e-06   -9.064596885867128e-06
-4.427431527123486e-06   2.2758941339536595e-06   -9.064596885867128e-06
-4.427431527123486e-06   2.2758941339536595e-06   -9.064596885867128e-06
-5.9046084894734245e-06   2.9435498071894023e-07   -1.2715481981724445e-05
-5.9046084894734245e-06   2.9435498071894023e-07   -1.2715481981724445e-05
-5.9046084894734245e-06   2.9435498071894023e-07   -1.2715481981724445e-05
-5.9046084894734245e-06   2.9435498071894023e-07   -1.2715481981724445e-05
-5.580073903021761e-06   2.8308415972043595e-06   -9.515274669517795e-06
-5.580073903021761e-06   2.8308415972043595e-06   -9.515274669517795e-06
-5.580073903021761e-06   2.8308415972043595e-06   -9.515274669517795e-06
-5.580073903021761e-06   2.8308415972043595e-06   -9.515274669517795e-06
-3.2581646024722926e-06   9.258584090588232e-07   -1.2242133590879606e-05
-3.2581646024722926e-06   9.258584090588232e-07   -1.2242133590879606e-05
-3.2581646024722926e-06   9.258584090588232e-07   -1.2242133590879606e-05
-3.2581646024722926e-06   9.258584090588232e-07   -1.2242133590879606e-05
-4.728668296563582e-06   1.4136796611232479e-06   -1.008398685196567e-05
-4.728668296563582e-06   1.4136796611232479e-06   -1.008398685196567e-05
-4.728668296563582e-06   1.4136796611232479e-06   -1.008398685196567e-05
-4.728668296563582e-06   1.4136796611232479e-06   -1.008398685196567e-05
-6.652958623565975e-06   7.130459468212766e-07   -2.1429789766615035e-05
-6.652958623565975e-06   7.130459468212766e-07   -2.1429789766615035e-05
-6.652958623565975e-06   7.130459468212766e-07   -2.1429789766615035e-05
-6.652958623565975e-06   7.130459468212766e-07   -2.1429789766615035e-05
-7.699532924761702e-06   -1.2281757894548606e-07   -2.3675598384068064e-05
-7.699532924761702e-06   -1.2281757894548606e-07   -2.3675598384068064e-05
-7.699532924761702e-06   -1.2281757894548606e-07   -2.3675598384068064e-05
-7.699532924761702e-06   -1.2281757894548606e-07   -2.3675598384068064e-05
-7.433333912390693e-06   1.5061879482744251e-06   -2.144467242854971e-05
-7.433333912390693e-06   1.5061879482744251e-06   -2.144467242854971e-05
-7.433333912390693e-06   1.5061879482744251e-06   -2.144467242854971e-05
-7.433333912390693e-06   1.5061879482744251e-06   -2.144467242854971e-05
-6.32227580193485e-06   5.823258452171843e-07   -2.27421186841418e-05
-6.32227580193485e-06   5.823258452171843e-07   -2.27421186841418e-05
-6.32227580193485e-06   5.823258452171843e-07   -2.27421186841418e-05
-6.32227580193485e-06   5.823258452171843e-07   -2.27421186841418e-05
-6.945257300407687e-06   8.253009304611393e-07   -2.1849601237833825e-05
-6.945257300407687e-06   8.253009304611393e-07   -2.1849601237833825e-05
-6.945257300407687e-06   8.253009304611393e-07   -2.1849601237833825e-05
-6.945257300407687e-06   8.253009304611393e-07   -2.1849601237833825e-05
-6.322275801934823e-06   1.5061879482744251e-06   -2.0890355166715264e-05
-6.322275801934823e-06   1.5061879482744251e-06   -2.0890355166715264e-05
-6.322275801934823e-06   1.5061879482744251e-06   -2.0890355166715264e-05
-6.322275801934823e-06   1.5061879482744251e-06   -2.0890355166715264e-05
-7.433333912390679e-06   5.823258452174011e-07   -2.3296435945976165e-05
-7.433333912390679e-06   5.823258452174011e-07   -2.3296435945976165e-05
-7.433333912390679e-06   5.823258452174011e-07   -2.3296435945976165e-05
-7.433333912390679e-06   5.823258452174011e-07   -2.3296435945976165e-05
-7.156387878532689e-06   2.2443556794087645e-06   -2.126475025787211e-05
-7.156387878532689e-06   2.2443556794087645e-06   -2.126475025787211e-05
-7.156387878532689e-06   2.2443556794087645e-06   -2.126475025787211e-05
-7.156387878532689e-06   2.2443556794087645e-06   -2.126475025787211e-05
-5.9046084894734245e-06   1.2618281259415328e-06   -2.2761532707556934e-05
-5.9046084894734245e-06   1.2618281259415328e-06   -2.2761532707556934e-05
-5.9046084894734245e-06   1.2618281259415328e-06   -2.2761532707556934e-05
-5.9046084894734245e-06   1.2618281259415328e-06   -2.2761532707556934e-05
-6.678599941856495e-06   1.3945761868294705e-06   -2.1551195790118084e-05
-6.678599941856495e-06   1.3945761868294705e-06   -2.1551195790118084e-05
-6.678599941856495e-06   1.3945761868294705e-06   -2.1551195790118084e-05
-6.678599941856495e-06   1.3945761868294705e-06   -2.1551195790118084e-05
-5.9046084894734245e-06   2.2443556794087645e-06   -2.0675233725791665e-05
-5.9046084894734245e-06   2.2443556794087645e-06   -2.0675233725791665e-05
-5.9046084894734245e-06   2.2443556794087645e-06   -2.0675233725791665e-05
-5.9046084894734245e-06   2.2443556794087645e-06   -2.0675233725791665e-05
-7.156387878532675e-06   1.2618281259415328e-06   -2.3351049239637284e-05
-7.156387878532675e-06   1.2618281259415328e-06   -2.3351049239637284e-05
-7.156387878532675e-06   1.2618281259415328e-06   -2.3351049239637284e-05
-7.156387878532675e-06   1.2618281259415328e-06   -2.3351049239637284e-05
-6.89589938387294e-06   3.0652429808126743e-06   -2.1617206905252947e-05
-6.89589938387294e-06   3.0652429808126743e-06   -2.1617206905252947e-05
-6.89589938387294e-06   3.0652429808126743e-06   -2.1617206905252947e-05
-6.89589938387294e-06   3.0652429808126743e-06   -2.1617206905252947e-05
-5.580073903021761e-06   2.038369824367307e-06   -2.319412547947087e-05
-5.580073903021761e-06   2.038369824367307e-06   -2.319412547947087e-05
-5.580073903021761e-06   2.038369824367307e-06   -2.319412547947087e-05
-5.580073903021761e-06   2.038369824367307e-06   -2.319412547947087e-05
-6.444398016329389e-06   1.9924441240495253e-06   -2.1726029870433968e-05
-6.444398016329389e-06   1.9924441240495253e-06   -2.1726029870433968e-05
-6.444398016329389e-06   1.9924441240495253e-06   -2.1726029870433968e-05
-6.444398016329389e-06   1.9924441240495253e-06   -2.1726029870433968e-05
-7.699532924761675e-06   4.1151657130804754e-07   -2.496590153919653e-05
-7.699532924761675e-06   4.1151657130804754e-07   -2.496590153919653e-05
-7.699532924761675e-06   4.1151657130804754e-07   -2.496590153919653e-05
-7.699532924761675e-06   4.1151657130804754e-07   -2.496590153919653e-05
-8.796951713105647e-06   5.889352011441071e-07   -2.6688481675201812e-05
-8.796951713105647e-06   5.889352011441071e-07   -2.6688481675201812e-05
-8.796951713105647e-06   5.889352011441071e-07   -2.6688481675201812e-05
-8.796951713105647e-06   5.889352011441071e-07   -2.6688481675201812e-05
-8.535574678223803e-06   1.2200984848096275e-06   -2.457951336022981e-05
-8.535574678223803e-06   1.2200984848096275e-06   -2.457951336022981e-05
-8.535574678223803e-06   1.2200984848096275e-06   -2.457951336022981e-05
-8.535574678223803e-06   1.2200984848096275e-06   -2.457951336022981e-05
-7.433333912390679e-06   1.3185419490680233e-06   -2.647564738184001e-05
-7.433333912390679e-06   1.3185419490680233e-06   -2.647564738184001e-05
-7.433333912390679e-06   1.3185419490680233e-06   -2.647564738184001e-05
-7.433333912390679e-06   1.3185419490680233e-06   -2.647564738184001e-05
-8.067458839856175e-06   9.986450059848678e-07   -2.5226834336881178e-05
-8.067458839856175e-06   9.986450059848678e-07   -2.5226834336881178e-05
-8.067458839856175e-06   9.986450059848678e-07   -2.5226834336881178e-05
-8.067458839856175e-06   9.986450059848678e-07   -2.5226834336881178e-05
-7.433333912390666e-06   1.2200984848096275e-06   -2.4638579438784724e-05
-7.433333912390666e-06   1.2200984848096275e-06   -2.4638579438784724e-05
-7.433333912390666e-06   1.2200984848096275e-06   -2.4638579438784724e-05
-7.433333912390666e-06   1.2200984848096275e-06   -2.4638579438784724e-05
-8.535574678223803e-06   1.3185419490680233e-06   -2.6416581303285048e-05
-8.535574678223803e-06   1.3185419490680233e-06   -2.6416581303285048e-05
-8.535574678223803e-06   1.3185419490680233e-06   -2.6416581303285048e-05
-8.535574678223803e-06   1.3185419490680233e-06   -2.6416581303285048e-05
-8.26031191396712e-06   2.035729519011772e-06   -2.465015419592304e-05
-8.26031191396712e-06   2.035729519011772e-06   -2.465015419592304e-05
-8.26031191396712e-06   2.035729519011772e-06   -2.465015419592304e-05
-8.26031191396712e-06   2.035729519011772e-06   -2.465015419592304e-05
-7.156387878532675e-06   2.06406365886049e-06   -2.6507028072222764e-05
-7.156387878532675e-06   2.06406365886049e-06   -2.6507028072222764e-05
-7.156387878532675e-06   2.06406365886049e-06   -2.6507028072222764e-05
-7.156387878532675e-06   2.06406365886049e-06   -2.6507028072222764e-05
-7.848640238319199e-06   1.6233164963516092e-06   -2.5088825841740412e-05
-7.848640238319199e-06   1.6233164963516092e-06   -2.5088825841740412e-05
-7.848640238319199e-06   1.6233164963516092e-06   -2.5088825841740412e-05
-7.848640238319199e-06   1.6233164963516092e-06   -2.5088825841740412e-05
-7.156387878532662e-06   2.035729519011772e-06   -2.4667154679832202e-05
-7.156387878532662e-06   2.035729519011772e-06   -2.4667154679832202e-05
-7.156387878532662e-06   2.035729519011772e-06   -2.4667154679832202e-05
-7.156387878532662e-06   2.035729519011772e-06   -2.4667154679832202e-05
-8.260311913967106e-06   2.06406365886049e-06   -2.6490027588313523e-05
-8.260311913967106e-06   2.06406365886049e-06   -2.6490027588313523e-05
-8.260311913967106e-06   2.06406365886049e-06   -2.6490027588313523e-05
-8.260311913967106e-06   2.06406365886049e-06   -2.6490027588313523e-05
-8.000793965213285e-06   2.863709657576494e-06   -2.512864080109797e-05
-8.000793965213285e-06   2.863709657576494e-06   -2.512864080109797e-05
-8.000793965213285e-06   2.863709657576494e-06   -2.512864080109797e-05
-8.000793965213285e-06   2.863709657576494e-06   -2.512864080109797e-05
-6.89589938387294e-06   2.8199632308093924e-06   -2.694388391393822e-05
-6.89589938387294e-06   2.8199632308093924e-06   -2.694388391393822e-05
-6.89589938387294e-06   2.8199632308093924e-06   -2.694388391393822e-05
-6.89589938387294e-06   2.8199632308093924e-06   -2.694388391393822e-05
-7.647569486876503e-06   2.2567549455828955e-06   -2.5353175437796004e-05
-7.647569486876503e-06   2.2567549455828955e-06   -2.5353175437796004e-05
-7.647569486876503e-06   2.2567549455828955e-06   -2.5353175437796004e-05
-7.647569486876503e-06   2.2567549455828955e-06   -2.5353175437796004e-05
-8.79695171310563e-06   1.8103900321713665e-07   -2.1534921877082675e-05
-8.79695171310563e-06   1.8103900321713665e-07   -2.1534921877082675e-05
-8.79695171310563e-06   1.8103900321713665e-07   -2.1534921877082675e-05
-8.79695171310563e-06   1.8103900321713665e-07   -2.1534921877082675e-05
-9.959039571124735e-06   1.3073071357745832e-06   -2.2795974094246604e-05
-9.959039571124735e-06   1.3073071357745832e-06   -2.2795974094246604e-05
-9.959039571124735e-06   1.3073071357745832e-06   -2.2795974094246604e-05
-9.959039571124735e-06   1.3073071357745832e-06   -2.2795974094246604e-05
-9.642085942618358e-06   9.64864424579659e-07   -2.058509236014226e-05
-9.642085942618358e-06   9.64864424579659e-07   -2.058509236014226e-05
-9.642085942618358e-06   9.64864424579659e-07   -2.058509236014226e-05
-9.642085942618358e-06   9.64864424579659e-07   -2.058509236014226e-05
-8.535574678223803e-06   2.039790940322906e-06   -2.307423371024559e-05
-8.535574678223803e-06   2.039790940322906e-06   -2.307423371024559e-05
-8.535574678223803e-06   2.039790940322906e-06   -2.307423371024559e-05
-8.535574678223803e-06   2.039790940322906e-06   -2.307423371024559e-05
-9.16194288429668e-06   1.2045431347780218e-06   -2.1529138016797484e-05
-9.16194288429668e-06   1.2045431347780218e-06   -2.1529138016797484e-05
-9.16194288429668e-06   1.2045431347780218e-06   -2.1529138016797484e-05
-9.16194288429668e-06   1.2045431347780218e-06   -2.1529138016797484e-05
-8.535574678223786e-06   9.64864424579659e-07   -2.1230048269588032e-05
-8.535574678223786e-06   9.64864424579659e-07   -2.1230048269588032e-05
-8.535574678223786e-06   9.64864424579659e-07   -2.1230048269588032e-05
-8.535574678223786e-06   9.64864424579659e-07   -2.1230048269588032e-05
-9.642085942618358e-06   2.039790940322906e-06   -2.242927780079975e-05
-9.642085942618358e-06   2.039790940322906e-06   -2.242927780079975e-05
-9.642085942618358e-06   2.039790940322906e-06   -2.242927780079975e-05
-9.642085942618358e-06   2.039790940322906e-06   -2.242927780079975e-05
-9.230891633754925e-06   1.7029268053844098e-06   -2.067185153169362e-05
-9.230891633754925e-06   1.7029268053844098e-06   -2.067185153169362e-05
-9.230891633754925e-06   1.7029268053844098e-06   -2.067185153169362e-05
-9.230891633754925e-06   1.7029268053844098e-06   -2.067185153169362e-05
-8.260311913967106e-06   2.715018074420355e-06   -2.2896739159428278e-05
-8.260311913967106e-06   2.715018074420355e-06   -2.2896739159428278e-05
-8.260311913967106e-06   2.715018074420355e-06   -2.2896739159428278e-05
-8.260311913967106e-06   2.715018074420355e-06   -2.2896739159428278e-05
-8.878575637479867e-06   1.7861220118117185e-06   -2.1308961982675423e-05
-8.878575637479867e-06   1.7861220118117185e-06   -2.1308961982675423e-05
-8.878575637479867e-06   1.7861220118117185e-06   -2.1308961982675423e-05
-8.878575637479867e-06   1.7861220118117185e-06   -2.1308961982675423e-05
-8.260311913967091e-06   1.7029268053843014e-06   -2.1279106293115285e-05
-8.260311913967091e-06   1.7029268053843014e-06   -2.1279106293115285e-05
-8.260311913967091e-06   1.7029268053843014e-06   -2.1279106293115285e-05
-8.260311913967091e-06   1.7029268053843014e-06   -2.1279106293115285e-05
-9.230891633754939e-06   2.7150180744205717e-06   -2.2289484398006613e-05
-9.230891633754939e-06   2.7150180744205717e-06   -2.2289484398006613e-05
-9.230891633754939e-06   2.7150180744205717e-06   -2.2289484398006613e-05
-9.230891633754939e-06   2.7150180744205717e-06   -2.2289484398006613e-05
-8.908263856783268e-06   2.536745973293476e-06   -2.1245088778836744e-05
-8.908263856783268e-06   2.536745973293476e-06   -2.1245088778836744e-05
-8.908263856783268e-06   2.536745973293476e-06   -2.1245088778836744e-05
-8.908263856783268e-06   2.536745973293476e-06   -2.1245088778836744e-05
-8.000793965213285e-06   3.470953036776442e-06   -2.3318062836209905e-05
-8.000793965213285e-06   3.470953036776442e-06   -2.3318062836209905e-05
-8.000793965213285e-06   3.470953036776442e-06   -2.3318062836209905e-05
-8.000793965213285e-06   3.470953036776442e-06   -2.3318062836209905e-05
-8.667672485969583e-06   2.3798082084448293e-06   -2.1551911737950082e-05
-8.667672485969583e-06   2.3798082084448293e-06   -2.1551911737950082e-05
-8.667672485969583e-06   2.3798082084448293e-06   -2.1551911737950082e-05
-8.667672485969583e-06   2.3798082084448293e-06   -2.1551911737950082e-05
-9.959039571124695e-06   2.567857008153006e-07   -1.1469710006266706e-05
-9.959039571124695e-06   2.567857008153006e-07   -1.1469710006266706e-05
-9.959039571124695e-06   2.567857008153006e-07   -1.1469710006266706e-05
-9.959039571124695e-06   2.567857008153006e-07   -1.1469710006266706e-05
-1.2091143568949362e-05   2.199929631456054e-06   -1.3857330310923402e-05
-1.2091143568949362e-05   2.199929631456054e-06   -1.3857330310923402e-05
-1.2091143568949362e-05   2.199929631456054e-06   -1.3857330310923402e-05
-1.2091143568949362e-05   2.199929631456054e-06   -1.3857330310923402e-05
-1.0955169946856873e-05   8.770357668170647e-07   -9.439297081362957e-06
-1.0955169946856873e-05   8.770357668170647e-07   -9.439297081362957e-06
-1.0955169946856873e-05   8.770357668170647e-07   -9.439297081362957e-06
-1.0955169946856873e-05   8.770357668170647e-07   -9.439297081362957e-06
-9.642085942618338e-06   2.8646889541463286e-06   -1.2820362334157879e-05
-9.642085942618338e-06   2.8646889541463286e-06   -1.2820362334157879e-05
-9.642085942618338e-06   2.8646889541463286e-06   -1.2820362334157879e-05
-9.642085942618338e-06   2.8646889541463286e-06   -1.2820362334157879e-05
-1.0230403102895412e-05   1.6291946820817696e-06   -1.109853717045774e-05
-1.0230403102895412e-05   1.6291946820817696e-06   -1.109853717045774e-05
-1.0230403102895412e-05   1.6291946820817696e-06   -1.109853717045774e-05
-1.0230403102895412e-05   1.6291946820817696e-06   -1.109853717045774e-05
-9.64208594261831e-06   8.770357668170647e-07   -1.0631888993760348e-05
-9.64208594261831e-06   8.770357668170647e-07   -1.0631888993760348e-05
-9.64208594261831e-06   8.770357668170647e-07   -1.0631888993760348e-05
-9.64208594261831e-06   8.770357668170647e-07   -1.0631888993760348e-05
-1.0955169946856873e-05   2.8646889541463286e-06   -1.1627770421760515e-05
-1.0955169946856873e-05   2.8646889541463286e-06   -1.1627770421760515e-05
-1.0955169946856873e-05   2.8646889541463286e-06   -1.1627770421760515e-05
-1.0955169946856873e-05   2.8646889541463286e-06   -1.1627770421760515e-05
-1.0031215441442463e-05   1.225492031620948e-06   -9.27575545061173e-06
-1.0031215441442463e-05   1.225492031620948e-06   -9.27575545061173e-06
-1.0031215441442463e-05   1.225492031620948e-06   -9.27575545061173e-06
-1.0031215441442463e-05   1.225492031620948e-06   -9.27575545061173e-06
-9.230891633754925e-06   3.16899976928668e-06   -1.1775733106023534e-05
-9.230891633754925e-06   3.16899976928668e-06   -1.1775733106023534e-05
-9.230891633754925e-06   3.16899976928668e-06   -1.1775733106023534e-05
-9.230891633754925e-06   3.16899976928668e-06   -1.1775733106023534e-05
-9.7489567518907e-06   1.9377809070098787e-06   -1.0173559925097972e-05
-9.7489567518907e-06   1.9377809070098787e-06   -1.0173559925097972e-05
-9.7489567518907e-06   1.9377809070098787e-06   -1.0173559925097972e-05
-9.7489567518907e-06   1.9377809070098787e-06   -1.0173559925097972e-05
-9.230891633754905e-06   1.225492031620948e-06   -1.044186009321112e-05
-9.230891633754905e-06   1.225492031620948e-06   -1.044186009321112e-05
-9.230891633754905e-06   1.225492031620948e-06   -1.044186009321112e-05
-9.230891633754905e-06   1.225492031620948e-06   -1.044186009321112e-05
-1.003121544144249e-05   3.168999769286463e-06   -1.0609628463424062e-05
-1.003121544144249e-05   3.168999769286463e-06   -1.0609628463424062e-05
-1.003121544144249e-05   3.168999769286463e-06   -1.0609628463424062e-05
-1.003121544144249e-05   3.168999769286463e-06   -1.0609628463424062e-05
-8.899440713091737e-06   1.841702272849504e-06   -9.55709127755831e-06
-8.899440713091737e-06   1.841702272849504e-06   -9.55709127755831e-06
-8.899440713091737e-06   1.841702272849504e-06   -9.55709127755831e-06
-8.899440713091737e-06   1.841702272849504e-06   -9.55709127755831e-06
-8.908263856783262e-06   3.6386123771468565e-06   -1.0620532100650735e-05
-8.908263856783262e-06   3.6386123771468565e-06   -1.0620532100650735e-05
-8.908263856783262e-06   3.6386123771468565e-06   -1.0620532100650735e-05
-8.908263856783262e-06   3.6386123771468565e-06   -1.0620532100650735e-05
-9.03459277395245e-06   2.185978388971762e-06   -9.538403512463801e-06
-9.03459277395245e-06   2.185978388971762e-06   -9.538403512463801e-06
-9.03459277395245e-06   2.185978388971762e-06   -9.538403512463801e-06
-9.03459277395245e-06   2.185978388971762e-06   -9.538403512463801e-06
5.88043280013112e-06   -5.808263037812827e-07   -5.912941900790579e-06
5.88043280013112e-06   -5.808263037812827e-07   -5.912941900790579e-06
5.88043280013112e-06   -5.808263037812827e-07   -5.912941900790579e-06
5.88043280013112e-06   -5.808263037812827e-07   -5.912941900790579e-06
6.114421031973381e-07   -2.4244414113746855e-06   -1.5800762126902716e-05
6.114421031973381e-07   -2.4244414113746855e-06   -1.5800762126902716e-05
6.114421031973381e-07   -2.4244414113746855e-06   -1.5800762126902716e-05
6.114421031973381e-07   -2.4244414113746855e-06   -1.5800762126902716e-05
1.0641910898551502e-06   -2.2437807333484938e-08   -6.542172303682287e-06
1.0641910898551502e-06   -2.2437807333484938e-08   -6.542172303682287e-06
1.0641910898551502e-06   -2.2437807333484938e-08   -6.542172303682287e-06
1.0641910898551502e-06   -2.2437807333484938e-08   -6.542172303682287e-06
7.1535807405090715e-06   -1.99344983757674e-06   -1.5508547836626122e-05
7.1535807405090715e-06   -1.99344983757674e-06   -1.5508547836626122e-05
7.1535807405090715e-06   -1.99344983757674e-06   -1.5508547836626122e-05
7.1535807405090715e-06   -1.99344983757674e-06   -1.5508547836626122e-05
3.5398141384187034e-06   -1.013496817482782e-06   -1.007357531186535e-05
3.5398141384187034e-06   -1.013496817482782e-06   -1.007357531186535e-05
3.5398141384187034e-06   -1.013496817482782e-06   -1.007357531186535e-05
3.5398141384187034e-06   -1.013496817482782e-06   -1.007357531186535e-05
7.1535807405090715e-06   -2.2437807333484938e-08   -5.359565085536226e-06
7.1535807405090715e-06   -2.2437807333484938e-08   -5.359565085536226e-06
7.1535807405090715e-06   -2.2437807333484938e-08   -5.359565085536226e-06
7.1535807405090715e-06   -2.2437807333484938e-08   -5.359565085536226e-06
1.0641910898551502e-06   -1.99344983757674e-06   -1.6691155054772346e-05
1.0641910898551502e-06   -1.99344983757674e-06   -1.6691155054772346e-05
1.0641910898551502e-06   -1.99344983757674e-06   -1.6691155054772346e-05
1.0641910898551502e-06   -1.99344983757674e-06   -1.6691155054772346e-05
1.598377885678187e-06   2.9435498071894023e-07   -6.595509917397342e-06
1.598377885678187e-06   2.9435498071894023e-07   -6.595509917397342e-06
1.598377885678187e-06   2.9435498071894023e-07   -6.595509917397342e-06
1.598377885678187e-06   2.9435498071894023e-07   -6.595509917397342e-06
8.228150083108637e-06   -1.705052442634936e-06   -1.6445485792435707e-05
8.228150083108637e-06   -1.705052442634936e-06   -1.6445485792435707e-05
8.228150083108637e-06   -1.705052442634936e-06   -1.6445485792435707e-05
8.228150083108637e-06   -1.705052442634936e-06   -1.6445485792435707e-05
4.346261814442537e-06   -8.114468324944835e-07   -1.0511835377410335e-05
4.346261814442537e-06   -8.114468324944835e-07   -1.0511835377410335e-05
4.346261814442537e-06   -8.114468324944835e-07   -1.0511835377410335e-05
4.346261814442537e-06   -8.114468324944835e-07   -1.0511835377410335e-05
8.228150083108664e-06   2.9435498071894023e-07   -5.3958654633850655e-06
8.228150083108664e-06   2.9435498071894023e-07   -5.3958654633850655e-06
8.228150083108664e-06   2.9435498071894023e-07   -5.3958654633850655e-06
8.228150083108664e-06   2.9435498071894023e-07   -5.3958654633850655e-06
1.598377885678187e-06   -1.705052442634936e-06   -1.7645130246448065e-05
1.598377885678187e-06   -1.705052442634936e-06   -1.7645130246448065e-05
1.598377885678187e-06   -1.705052442634936e-06   -1.7645130246448065e-05
1.598377885678187e-06   -1.705052442634936e-06   -1.7645130246448065e-05
2.0369063595152643e-06   9.258584090586063e-07   -7.235503645616932e-06
2.0369063595152643e-06   9.258584090586063e-07   -7.235503645616932e-06
2.0369063595152643e-06   9.258584090586063e-07   -7.235503645616932e-06
2.0369063595152643e-06   9.258584090586063e-07   -7.235503645616932e-06
9.519113830921944e-06   -9.79400505996984e-07   -1.8562694082261246e-05
9.519113830921944e-06   -9.79400505996984e-07   -1.8562694082261246e-05
9.519113830921944e-06   -9.79400505996984e-07   -1.8562694082261246e-05
9.519113830921944e-06   -9.79400505996984e-07   -1.8562694082261246e-05
4.9852464707212405e-06   -5.138091497744728e-07   -1.128560329566013e-05
4.9852464707212405e-06   -5.138091497744728e-07   -1.128560329566013e-05
4.9852464707212405e-06   -5.138091497744728e-07   -1.128560329566013e-05
4.9852464707212405e-06   -5.138091497744728e-07   -1.128560329566013e-05
6.114421031973381e-07   -1.228175789457029e-07   -1.7125940448650944e-05
6.114421031973381e-07   -1.228175789457029e-07   -1.7125940448650944e-05
6.114421031973381e-07   -1.228175789457029e-07   -1.7125940448650944e-05
6.114421031973381e-07   -1.228175789457029e-07   -1.7125940448650944e-05
-5.517788407989781e-06   -9.54616331239359e-07   -2.7840403885339186e-05
-5.517788407989781e-06   -9.54616331239359e-07   -2.7840403885339186e-05
-5.517788407989781e-06   -9.54616331239359e-07   -2.7840403885339186e-05
-5.517788407989781e-06   -9.54616331239359e-07   -2.7840403885339186e-05
-5.1215616552244796e-06   5.823258452171843e-07   -1.7222114906211288e-05
-5.1215616552244796e-06   5.823258452171843e-07   -1.7222114906211288e-05
-5.1215616552244796e-06   5.823258452171843e-07   -1.7222114906211288e-05
-5.1215616552244796e-06   5.823258452171843e-07   -1.7222114906211288e-05
1.0641910898551502e-06   -3.6255640635117665e-07   -2.696477346373629e-05
1.0641910898551502e-06   -3.6255640635117665e-07   -2.696477346373629e-05
1.0641910898551502e-06   -3.6255640635117665e-07   -2.696477346373629e-05
1.0641910898551502e-06   -3.6255640635117665e-07   -2.696477346373629e-05
-2.189412713072975e-06   -3.2744200777136585e-08   -2.173998778220052e-05
-2.189412713072975e-06   -3.2744200777136585e-08   -2.173998778220052e-05
-2.189412713072975e-06   -3.2744200777136585e-08   -2.173998778220052e-05
-2.189412713072975e-06   -3.2744200777136585e-08   -2.173998778220052e-05
1.0641910898551502e-06   5.823258452171843e-07   -1.6655185555270092e-05
1.0641910898551502e-06   5.823258452171843e-07   -1.6655185555270092e-05
1.0641910898551502e-06   5.823258452171843e-07   -1.6655185555270092e-05
1.0641910898551502e-06   5.823258452171843e-07   -1.6655185555270092e-05
-5.1215616552244796e-06   -3.6255640635117665e-07   -2.7531702814677405e-05
-5.1215616552244796e-06   -3.6255640635117665e-07   -2.7531702814677405e-05
-5.1215616552244796e-06   -3.6255640635117665e-07   -2.7531702814677405e-05
-5.1215616552244796e-06   -3.6255640635117665e-07   -2.7531702814677405e-05
-4.723036626747644e-06   1.2618281259415328e-06   -1.7248645378641894e-05
-4.723036626747644e-06   1.2618281259415328e-06   -1.7248645378641894e-05
-4.723036626747644e-06   1.2618281259415328e-06   -1.7248645378641894e-05
-4.723036626747644e-06   1.2618281259415328e-06   -1.7248645378641894e-05
1.598377885678187e-06   2.5002023358827556e-07   -2.717725149727285e-05
1.598377885678187e-06   2.5002023358827556e-07   -2.717725149727285e-05
1.598377885678187e-06   2.5002023358827556e-07   -2.717725149727285e-05
1.598377885678187e-06   2.5002023358827556e-07   -2.717725149727285e-05
-1.8390515093706829e-06   4.5427363533714644e-07   -2.15707545465742e-05
-1.8390515093706829e-06   4.5427363533714644e-07   -2.15707545465742e-05
-1.8390515093706829e-06   4.5427363533714644e-07   -2.15707545465742e-05
-1.8390515093706829e-06   4.5427363533714644e-07   -2.15707545465742e-05
1.598377885678187e-06   1.2618281259415328e-06   -1.6641560643229858e-05
1.598377885678187e-06   1.2618281259415328e-06   -1.6641560643229858e-05
1.598377885678187e-06   1.2618281259415328e-06   -1.6641560643229858e-05
1.598377885678187e-06   1.2618281259415328e-06   -1.6641560643229858e-05
-4.723036626747644e-06   2.5002023358827556e-07   -2.7784336232684914e-05
-4.723036626747644e-06   2.5002023358827556e-07   -2.7784336232684914e-05
-4.723036626747644e-06   2.5002023358827556e-07   -2.7784336232684914e-05
-4.723036626747644e-06   2.5002023358827556e-07   -2.7784336232684914e-05
-4.34257723003144e-06   2.038369824367307e-06   -1.768190289514718e-05
-4.34257723003144e-06   2.038369824367307e-06   -1.768190289514718e-05
-4.34257723003144e-06   2.038369824367307e-06   -1.768190289514718e-05
-4.34257723003144e-06   2.038369824367307e-06   -1.768190289514718e-05
2.0369063595152643e-06   9.760410346565471e-07   -2.7676978270565382e-05
2.0369063595152643e-06   9.760410346565471e-07   -2.7676978270565382e-05
2.0369063595152643e-06   9.760410346565471e-07   -2.7676978270565382e-05
2.0369063595152643e-06   9.760410346565471e-07   -2.7676978270565382e-05
-1.4482667977287566e-06   9.947224473126235e-07   -2.187956518941888e-05
-1.4482667977287566e-06   9.947224473126235e-07   -2.187956518941888e-05
-1.4482667977287566e-06   9.947224473126235e-07   -2.187956518941888e-05
-1.4482667977287566e-06   9.947224473126235e-07   -2.187956518941888e-05
-5.517788407989794e-06   5.889352011438902e-07   -2.074435416906261e-05
-5.517788407989794e-06   5.889352011438902e-07   -2.074435416906261e-05
-5.517788407989794e-06   5.889352011438902e-07   -2.074435416906261e-05
-5.517788407989794e-06   5.889352011438902e-07   -2.074435416906261e-05
-1.1592112140930436e-05   7.42128855465117e-07   -3.077631086470403e-05
-1.1592112140930436e-05   7.42128855465117e-07   -3.077631086470403e-05
-1.1592112140930436e-05   7.42128855465117e-07   -3.077631086470403e-05
-1.1592112140930436e-05   7.42128855465117e-07   -3.077631086470403e-05
-1.119327588975406e-05   1.3185419490680233e-06   -2.0370878747615062e-05
-1.119327588975406e-05   1.3185419490680233e-06   -2.0370878747615062e-05
-1.119327588975406e-05   1.3185419490680233e-06   -2.0370878747615062e-05
-1.119327588975406e-05   1.3185419490680233e-06   -2.0370878747615062e-05
-5.1215616552244796e-06   1.3692879398347155e-06   -3.0520850066291256e-05
-5.1215616552244796e-06   1.3692879398347155e-06   -3.0520850066291256e-05
-5.1215616552244796e-06   1.3692879398347155e-06   -3.0520850066291256e-05
-5.1215616552244796e-06   1.3692879398347155e-06   -3.0520850066291256e-05
-8.307848175979931e-06   1.132512612723362e-06   -2.5068307335431896e-05
-8.307848175979931e-06   1.132512612723362e-06   -2.5068307335431896e-05
-8.307848175979931e-06   1.132512612723362e-06   -2.5068307335431896e-05
-8.307848175979931e-06   1.132512612723362e-06   -2.5068307335431896e-05
-5.1215616552244796e-06   1.3185419490680233e-06   -2.0401326342075186e-05
-5.1215616552244796e-06   1.3185419490680233e-06   -2.0401326342075186e-05
-5.1215616552244796e-06   1.3185419490680233e-06   -2.0401326342075186e-05
-5.1215616552244796e-06   1.3185419490680233e-06   -2.0401326342075186e-05
-1.119327588975404e-05   1.3692879398349324e-06   -3.0490402471831024e-05
-1.119327588975404e-05   1.3692879398349324e-06   -3.0490402471831024e-05
-1.119327588975404e-05   1.3692879398349324e-06   -3.0490402471831024e-05
-1.119327588975404e-05   1.3692879398349324e-06   -3.0490402471831024e-05
-1.0787738303744857e-05   2.06406365886049e-06   -2.0423300957891628e-05
-1.0787738303744857e-05   2.06406365886049e-06   -2.0423300957891628e-05
-1.0787738303744857e-05   2.06406365886049e-06   -2.0423300957891628e-05
-1.0787738303744857e-05   2.06406365886049e-06   -2.0423300957891628e-05
-4.723036626747657e-06   2.0329357477534907e-06   -3.0512460339556196e-05
-4.723036626747657e-06   2.0329357477534907e-06   -3.0512460339556196e-05
-4.723036626747657e-06   2.0329357477534907e-06   -3.0512460339556196e-05
-4.723036626747657e-06   2.0329357477534907e-06   -3.0512460339556196e-05
-7.957308939425615e-06   1.680376623952617e-06   -2.4910471010812713e-05
-7.957308939425615e-06   1.680376623952617e-06   -2.4910471010812713e-05
-7.957308939425615e-06   1.680376623952617e-06   -2.4910471010812713e-05
-7.957308939425615e-06   1.680376623952617e-06   -2.4910471010812713e-05
-4.723036626747657e-06   2.06406365886049e-06   -2.040462421122751e-05
-4.723036626747657e-06   2.06406365886049e-06   -2.040462421122751e-05
-4.723036626747657e-06   2.06406365886049e-06   -2.040462421122751e-05
-4.723036626747657e-06   2.06406365886049e-06   -2.040462421122751e-05
-1.0787738303744837e-05   2.0329357477534907e-06   -3.053113708622029e-05
-1.0787738303744837e-05   2.0329357477534907e-06   -3.053113708622029e-05
-1.0787738303744837e-05   2.0329357477534907e-06   -3.053113708622029e-05
-1.0787738303744837e-05   2.0329357477534907e-06   -3.053113708622029e-05
-1.0401089922461652e-05   2.8199632308093924e-06   -2.0882659809838664e-05
-1.0401089922461652e-05   2.8199632308093924e-06   -2.0882659809838664e-05
-1.0401089922461652e-05   2.8199632308093924e-06   -2.0882659809838664e-05
-1.0401089922461652e-05   2.8199632308093924e-06   -2.0882659809838664e-05
-4.342577230031453e-06   2.7080926073236398e-06   -3.0913058589797544e-05
-4.342577230031453e-06   2.7080926073236398e-06   -3.0913058589797544e-05
-4.342577230031453e-06   2.7080926073236398e-06   -3.0913058589797544e-05
-4.342577230031453e-06   2.7080926073236398e-06   -3.0913058589797544e-05
-7.631527112561135e-06   2.236605551426789e-06   -2.51485832187101e-05
-7.631527112561135e-06   2.236605551426789e-06   -2.51485832187101e-05
-7.631527112561135e-06   2.236605551426789e-06   -2.51485832187101e-05
-7.631527112561135e-06   2.236605551426789e-06   -2.51485832187101e-05
-1.1592112140930455e-05   1.3073071357745832e-06   -1.7435691275049205e-05
-1.1592112140930455e-05   1.3073071357745832e-06   -1.7435691275049205e-05
-1.1592112140930455e-05   1.3073071357745832e-06   -1.7435691275049205e-05
-1.1592112140930455e-05   1.3073071357745832e-06   -1.7435691275049205e-05
-1.760069567687172e-05   2.390870499093282e-06   -2.679985915029343e-05
-1.760069567687172e-05   2.390870499093282e-06   -2.679985915029343e-05
-1.760069567687172e-05   2.390870499093282e-06   -2.679985915029343e-05
-1.760069567687172e-05   2.390870499093282e-06   -2.679985915029343e-05
-1.71444698418021e-05   2.039790940322906e-06   -1.6416188743199347e-05
-1.71444698418021e-05   2.039790940322906e-06   -1.6416188743199347e-05
-1.71444698418021e-05   2.039790940322906e-06   -1.6416188743199347e-05
-1.71444698418021e-05   2.039790940322906e-06   -1.6416188743199347e-05
-1.119327588975404e-05   3.0603616259503637e-06   -2.6947187741322527e-05
-1.119327588975404e-05   3.0603616259503637e-06   -2.6947187741322527e-05
-1.119327588975404e-05   3.0603616259503637e-06   -2.6947187741322527e-05
-1.119327588975404e-05   3.0603616259503637e-06   -2.6947187741322527e-05
-1.4282926750988674e-05   2.286011591319157e-06   -2.133315961848608e-05
-1.4282926750988674e-05   2.286011591319157e-06   -2.133315961848608e-05
-1.4282926750988674e-05   2.286011591319157e-06   -2.133315961848608e-05
-1.4282926750988674e-05   2.286011591319157e-06   -2.133315961848608e-05
-1.119327588975406e-05   2.039790940323123e-06   -1.7028531154575767e-05
-1.119327588975406e-05   2.039790940323123e-06   -1.7028531154575767e-05
-1.119327588975406e-05   2.039790940323123e-06   -1.7028531154575767e-05
-1.119327588975406e-05   2.039790940323123e-06   -1.7028531154575767e-05
-1.7144469841802126e-05   3.0603616259503637e-06   -2.633484532994627e-05
-1.7144469841802126e-05   3.0603616259503637e-06   -2.633484532994627e-05
-1.7144469841802126e-05   3.0603616259503637e-06   -2.633484532994627e-05
-1.7144469841802126e-05   3.0603616259503637e-06   -2.633484532994627e-05
-1.6596782084765136e-05   2.7150180744205717e-06   -1.6261219155463036e-05
-1.6596782084765136e-05   2.7150180744205717e-06   -1.6261219155463036e-05
-1.6596782084765136e-05   2.7150180744205717e-06   -1.6261219155463036e-05
-1.6596782084765136e-05   2.7150180744205717e-06   -1.6261219155463036e-05
-1.0787738303744857e-05   3.663007030325861e-06   -2.651175216404004e-05
-1.0787738303744857e-05   3.663007030325861e-06   -2.651175216404004e-05
-1.0787738303744857e-05   3.663007030325861e-06   -2.651175216404004e-05
-1.0787738303744857e-05   3.663007030325861e-06   -2.651175216404004e-05
-1.3822405696446742e-05   2.815099809929506e-06   -2.0945228843966045e-05
-1.3822405696446742e-05   2.815099809929506e-06   -2.0945228843966045e-05
-1.3822405696446742e-05   2.815099809929506e-06   -2.0945228843966045e-05
-1.3822405696446742e-05   2.815099809929506e-06   -2.0945228843966045e-05
-1.0787738303744857e-05   2.7150180744205717e-06   -1.6830012529006248e-05
-1.0787738303744857e-05   2.7150180744205717e-06   -1.6830012529006248e-05
-1.0787738303744857e-05   2.7150180744205717e-06   -1.6830012529006248e-05
-1.0787738303744857e-05   2.7150180744205717e-06   -1.6830012529006248e-05
-1.6596782084765136e-05   3.663007030325861e-06   -2.5942958790496802e-05
-1.6596782084765136e-05   3.663007030325861e-06   -2.5942958790496802e-05
-1.6596782084765136e-05   3.663007030325861e-06   -2.5942958790496802e-05
-1.6596782084765136e-05   3.663007030325861e-06   -2.5942958790496802e-05
-1.614086091643858e-05   3.470953036776442e-06   -1.6711324149526322e-05
-1.614086091643858e-05   3.470953036776442e-06   -1.6711324149526322e-05
-1.614086091643858e-05   3.470953036776442e-06   -1.6711324149526322e-05
-1.614086091643858e-05   3.470953036776442e-06   -1.6711324149526322e-05
-1.0401089922461652e-05   4.336397580982643e-06   -2.67968758660116e-05
-1.0401089922461652e-05   4.336397580982643e-06   -2.67968758660116e-05
-1.0401089922461652e-05   4.336397580982643e-06   -2.67968758660116e-05
-1.0401089922461652e-05   4.336397580982643e-06   -2.67968758660116e-05
-1.3516129296577194e-05   3.335863889847063e-06   -2.1004823361137656e-05
-1.3516129296577194e-05   3.335863889847063e-06   -2.1004823361137656e-05
-1.3516129296577194e-05   3.335863889847063e-06   -2.1004823361137656e-05
-1.3516129296577194e-05   3.335863889847063e-06   -2.1004823361137656e-05
-1.760069567687172e-05   2.199929631456054e-06   -9.012795832119092e-06
-1.760069567687172e-05   2.199929631456054e-06   -9.012795832119092e-06
-1.760069567687172e-05   2.199929631456054e-06   -9.012795832119092e-06
-1.760069567687172e-05   2.199929631456054e-06   -9.012795832119092e-06
-2.4455808457724224e-05   4.1117406745238855e-06   -1.929089717436609e-05
-2.4455808457724224e-05   4.1117406745238855e-06   -1.929089717436609e-05
-2.4455808457724224e-05   4.1117406745238855e-06   -1.929089717436609e-05
-2.4455808457724224e-05   4.1117406745238855e-06   -1.929089717436609e-05
-2.319300247995299e-05   2.8646889541461117e-06   -5.641568195162709e-06
-2.319300247995299e-05   2.8646889541461117e-06   -5.641568195162709e-06
-2.319300247995299e-05   2.8646889541461117e-06   -5.641568195162709e-06
-2.319300247995299e-05   2.8646889541461117e-06   -5.641568195162709e-06
-1.71444698418021e-05   4.80753075647101e-06   -1.6888161006809073e-05
-1.71444698418021e-05   4.80753075647101e-06   -1.6888161006809073e-05
-1.71444698418021e-05   4.80753075647101e-06   -1.6888161006809073e-05
-1.71444698418021e-05   4.80753075647101e-06   -1.6888161006809073e-05
-1.9760637425523918e-05   3.574411065574595e-06   -1.1788009886068299e-05
-1.9760637425523918e-05   3.574411065574595e-06   -1.1788009886068299e-05
-1.9760637425523918e-05   3.574411065574595e-06   -1.1788009886068299e-05
-1.9760637425523918e-05   3.574411065574595e-06   -1.1788009886068299e-05
-1.7144469841802112e-05   2.8646889541461117e-06   -6.807273276557529e-06
-1.7144469841802112e-05   2.8646889541461117e-06   -6.807273276557529e-06
-1.7144469841802112e-05   2.8646889541461117e-06   -6.807273276557529e-06
-1.7144469841802112e-05   2.8646889541461117e-06   -6.807273276557529e-06
-2.319300247995291e-05   4.80753075647101e-06   -1.57224559254142e-05
-2.319300247995291e-05   4.80753075647101e-06   -1.57224559254142e-05
-2.319300247995291e-05   4.80753075647101e-06   -1.57224559254142e-05
-2.319300247995291e-05   4.80753075647101e-06   -1.57224559254142e-05
-2.2149342203097924e-05   3.16899976928668e-06   -4.614622336869328e-06
-2.2149342203097924e-05   3.16899976928668e-06   -4.614622336869328e-06
-2.2149342203097924e-05   3.16899976928668e-06   -4.614622336869328e-06
-2.2149342203097924e-05   3.16899976928668e-06   -4.614622336869328e-06
-1.6596782084765102e-05   5.057075646971261e-06   -1.5001734727367977e-05
-1.6596782084765102e-05   5.057075646971261e-06   -1.5001734727367977e-05
-1.6596782084765102e-05   5.057075646971261e-06   -1.5001734727367977e-05
-1.6596782084765102e-05   5.057075646971261e-06   -1.5001734727367977e-05
-1.9302831984034806e-05   3.8882922603027245e-06   -9.790381529917549e-06
-1.9302831984034806e-05   3.8882922603027245e-06   -9.790381529917549e-06
-1.9302831984034806e-05   3.8882922603027245e-06   -9.790381529917549e-06
-1.9302831984034806e-05   3.8882922603027245e-06   -9.790381529917549e-06
-1.6596782084765136e-05   3.168999769286463e-06   -5.747467863479957e-06
-1.6596782084765136e-05   3.168999769286463e-06   -5.747467863479957e-06
-1.6596782084765136e-05   3.168999769286463e-06   -5.747467863479957e-06
-1.6596782084765136e-05   3.168999769286463e-06   -5.747467863479957e-06
-2.2149342203097897e-05   5.057075646971044e-06   -1.3868889200757402e-05
-2.2149342203097897e-05   5.057075646971044e-06   -1.3868889200757402e-05
-2.2149342203097897e-05   5.057075646971044e-06   -1.3868889200757402e-05
-2.2149342203097897e-05   5.057075646971044e-06   -1.3868889200757402e-05
-2.0913233383095775e-05   3.6386123771468565e-06   -3.5346055177702803e-06
-2.0913233383095775e-05   3.6386123771468565e-06   -3.5346055177702803e-06
-2.0913233383095775e-05   3.6386123771468565e-06   -3.5346055177702803e-06
-2.0913233383095775e-05   3.6386123771468565e-06   -3.5346055177702803e-06
-1.6140860916438567e-05   5.3714659342916915e-06   -1.2528271763152386e-05
-1.6140860916438567e-05   5.3714659342916915e-06   -1.2528271763152386e-05
-1.6140860916438567e-05   5.3714659342916915e-06   -1.2528271763152386e-05
-1.6140860916438567e-05   5.3714659342916915e-06   -1.2528271763152386e-05
-1.8319860858770023e-05   4.039116708085097e-06   -8.097195656876213e-06
-1.8319860858770023e-05   4.039116708085097e-06   -8.097195656876213e-06
-1.8319860858770023e-05   4.039116708085097e-06   -8.097195656876213e-06
-1.8319860858770023e-05   4.039116708085097e-06   -8.097195656876213e-06
1.850449981495315e-05   -2.4244414113744686e-06   -7.038590246690075e-08
1.850449981495315e-05   -2.4244414113744686e-06   -7.038590246690075e-08
1.850449981495315e-05   -2.4244414113744686e-06   -7.038590246690075e-08
1.850449981495315e-05   -2.4244414113744686e-06   -7.038590246690075e-08
7.874205314280415e-06   -4.3641767405540235e-06   -1.8951384601095778e-05
7.874205314280415e-06   -4.3641767405540235e-06   -1.8951384601095778e-05
7.874205314280415e-06   -4.3641767405540235e-06   -1.8951384601095778e-05
7.874205314280415e-06   -4.3641767405540235e-06   -1.8951384601095778e-05
8.42597217158404e-06   -1.99344983757674e-06   -2.016986306463235e-06
8.42597217158404e-06   -1.99344983757674e-06   -2.016986306463235e-06
8.42597217158404e-06   -1.99344983757674e-06   -2.016986306463235e-06
8.42597217158404e-06   -1.99344983757674e-06   -2.016986306463235e-06
1.989365275337034e-05   -4.0597591026028754e-06   -1.9890001717091585e-05
1.989365275337034e-05   -4.0597591026028754e-06   -1.9890001717091585e-05
1.989365275337034e-05   -4.0597591026028754e-06   -1.9890001717091585e-05
1.989365275337034e-05   -4.0597591026028754e-06   -1.9890001717091585e-05
1.312253870983408e-05   -2.8791757293768075e-06   -9.313161668466697e-06
1.312253870983408e-05   -2.8791757293768075e-06   -9.313161668466697e-06
1.312253870983408e-05   -2.8791757293768075e-06   -9.313161668466697e-06
1.312253870983408e-05   -2.8791757293768075e-06   -9.313161668466697e-06
1.9893652753370366e-05   -1.99344983757674e-06   -7.77200747447619e-07
1.9893652753370366e-05   -1.99344983757674e-06   -7.77200747447619e-07
1.9893652753370366e-05   -1.99344983757674e-06   -7.77200747447619e-07
1.9893652753370366e-05   -1.99344983757674e-06   -7.77200747447619e-07
8.425972171584013e-06   -4.0597591026028754e-06   -2.1129787276106984e-05
8.425972171584013e-06   -4.0597591026028754e-06   -2.1129787276106984e-05
8.425972171584013e-06   -4.0597591026028754e-06   -2.1129787276106984e-05
8.425972171584013e-06   -4.0597591026028754e-06   -2.1129787276106984e-05
9.03754457028878e-06   -1.705052442634936e-06   -2.872265853329052e-06
9.03754457028878e-06   -1.705052442634936e-06   -2.872265853329052e-06
9.03754457028878e-06   -1.705052442634936e-06   -2.872265853329052e-06
9.03754457028878e-06   -1.705052442634936e-06   -2.872265853329052e-06
2.10592723876441e-05   -3.7968380480445096e-06   -2.165340751900894e-05
2.10592723876441e-05   -3.7968380480445096e-06   -2.165340751900894e-05
2.10592723876441e-05   -3.7968380480445096e-06   -2.165340751900894e-05
2.10592723876441e-05   -3.7968380480445096e-06   -2.165340751900894e-05
1.4165689889790217e-05   -2.762058806008794e-06   -1.078497090114042e-05
1.4165689889790217e-05   -2.762058806008794e-06   -1.078497090114042e-05
1.4165689889790217e-05   -2.762058806008794e-06   -1.078497090114042e-05
1.4165689889790217e-05   -2.762058806008794e-06   -1.078497090114042e-05
2.1059272387644127e-05   -1.705052442634936e-06   -1.6171944900832266e-06
2.1059272387644127e-05   -1.705052442634936e-06   -1.6171944900832266e-06
2.1059272387644127e-05   -1.705052442634936e-06   -1.6171944900832266e-06
2.1059272387644127e-05   -1.705052442634936e-06   -1.6171944900832266e-06
9.037544570288754e-06   -3.7968380480445096e-06   -2.2908478882254684e-05
9.037544570288754e-06   -3.7968380480445096e-06   -2.2908478882254684e-05
9.037544570288754e-06   -3.7968380480445096e-06   -2.2908478882254684e-05
9.037544570288754e-06   -3.7968380480445096e-06   -2.2908478882254684e-05
9.542014150193818e-06   -9.79400505996984e-07   -4.841966538295149e-06
9.542014150193818e-06   -9.79400505996984e-07   -4.841966538295149e-06
9.542014150193818e-06   -9.79400505996984e-07   -4.841966538295149e-06
9.542014150193818e-06   -9.79400505996984e-07   -4.841966538295149e-06
2.2412878596486202e-05   -2.9668362190376704e-06   -2.5100945854291388e-05
2.2412878596486202e-05   -2.9668362190376704e-06   -2.5100945854291388e-05
2.2412878596486202e-05   -2.9668362190376704e-06   -2.5100945854291388e-05
2.2412878596486202e-05   -2.9668362190376704e-06   -2.5100945854291388e-05
1.4727143881340134e-05   -2.436482660107711e-06   -1.2609600131073214e-05
1.4727143881340134e-05   -2.436482660107711e-06   -1.2609600131073214e-05
1.4727143881340134e-05   -2.436482660107711e-06   -1.2609600131073214e-05
1.4727143881340134e-05   -2.436482660107711e-06   -1.2609600131073214e-05
7.874205314280415e-06   -9.546163312395758e-07   -1.2774789607034796e-05
7.874205314280415e-06   -9.546163312395758e-07   -1.2774789607034796e-05
7.874205314280415e-06   -9.546163312395758e-07   -1.2774789607034796e-05
7.874205314280415e-06   -9.546163312395758e-07   -1.2774789607034796e-05
-3.3655871537392767e-06   -2.037015910604954e-06   -3.215721680135345e-05
-3.3655871537392767e-06   -2.037015910604954e-06   -3.215721680135345e-05
-3.3655871537392767e-06   -2.037015910604954e-06   -3.215721680135345e-05
-3.3655871537392767e-06   -2.037015910604954e-06   -3.215721680135345e-05
-2.852966467439152e-06   -3.6255640635117665e-07   -1.3040326030566772e-05
-2.852966467439152e-06   -3.6255640635117665e-07   -1.3040326030566772e-05
-2.852966467439152e-06   -3.6255640635117665e-07   -1.3040326030566772e-05
-2.852966467439152e-06   -3.6255640635117665e-07   -1.3040326030566772e-05
8.42597217158404e-06   -1.6120919315834505e-06   -3.1088835780465965e-05
8.42597217158404e-06   -1.6120919315834505e-06   -3.1088835780465965e-05
8.42597217158404e-06   -1.6120919315834505e-06   -3.1088835780465965e-05
8.42597217158404e-06   -1.6120919315834505e-06   -3.1088835780465965e-05
2.548005369414972e-06   -9.837165717229389e-07   -2.16692496594339e-05
2.548005369414972e-06   -9.837165717229389e-07   -2.16692496594339e-05
2.548005369414972e-06   -9.837165717229389e-07   -2.16692496594339e-05
2.548005369414972e-06   -9.837165717229389e-07   -2.16692496594339e-05
8.42597217158404e-06   -3.6255640635117665e-07   -1.229060471542718e-05
8.42597217158404e-06   -3.6255640635117665e-07   -1.229060471542718e-05
8.42597217158404e-06   -3.6255640635117665e-07   -1.229060471542718e-05
8.42597217158404e-06   -3.6255640635117665e-07   -1.229060471542718e-05
-2.8529664674391384e-06   -1.6120919315834505e-06   -3.1838557095605394e-05
-2.8529664674391384e-06   -1.6120919315834505e-06   -3.1838557095605394e-05
-2.8529664674391384e-06   -1.6120919315834505e-06   -3.1838557095605394e-05
-2.8529664674391384e-06   -1.6120919315834505e-06   -3.1838557095605394e-05
-2.3635468970862835e-06   2.5002023358827556e-07   -1.321012509514002e-05
-2.3635468970862835e-06   2.5002023358827556e-07   -1.321012509514002e-05
-2.3635468970862835e-06   2.5002023358827556e-07   -1.321012509514002e-05
-2.3635468970862835e-06   2.5002023358827556e-07   -1.321012509514002e-05
9.037544570288754e-06   -1.0928764180555967e-06   -3.14062062164456e-05
9.037544570288754e-06   -1.0928764180555967e-06   -3.14062062164456e-05
9.037544570288754e-06   -1.0928764180555967e-06   -3.14062062164456e-05
9.037544570288754e-06   -1.0928764180555967e-06   -3.14062062164456e-05
2.9537530126513487e-06   -6.073694455932749e-07   -2.1557857803860018e-05
2.9537530126513487e-06   -6.073694455932749e-07   -2.1557857803860018e-05
2.9537530126513487e-06   -6.073694455932749e-07   -2.1557857803860018e-05
2.9537530126513487e-06   -6.073694455932749e-07   -2.1557857803860018e-05
9.03754457028878e-06   2.5002023358827556e-07   -1.2404387104153811e-05
9.03754457028878e-06   2.5002023358827556e-07   -1.2404387104153811e-05
9.03754457028878e-06   2.5002023358827556e-07   -1.2404387104153811e-05
9.03754457028878e-06   2.5002023358827556e-07   -1.2404387104153811e-05
-2.3635468970862835e-06   -1.0928764180555967e-06   -3.221194420743184e-05
-2.3635468970862835e-06   -1.0928764180555967e-06   -3.221194420743184e-05
-2.3635468970862835e-06   -1.0928764180555967e-06   -3.221194420743184e-05
-2.3635468970862835e-06   -1.0928764180555967e-06   -3.221194420743184e-05
-1.9041078339433813e-06   9.760410346565471e-07   -1.3662199527999489e-05
-1.9041078339433813e-06   9.760410346565471e-07   -1.3662199527999489e-05
-1.9041078339433813e-06   9.760410346565471e-07   -1.3662199527999489e-05
-1.9041078339433813e-06   9.760410346565471e-07   -1.3662199527999489e-05
9.542014150193791e-06   -4.3913254939927267e-07   -3.1889965351128034e-05
9.542014150193791e-06   -4.3913254939927267e-07   -3.1889965351128034e-05
9.542014150193791e-06   -4.3913254939927267e-07   -3.1889965351128034e-05
9.542014150193791e-06   -4.3913254939927267e-07   -3.1889965351128034e-05
3.4615167040601125e-06   -1.4291954099235425e-07   -2.1933530745949707e-05
3.4615167040601125e-06   -1.4291954099235425e-07   -2.1933530745949707e-05
3.4615167040601125e-06   -1.4291954099235425e-07   -2.1933530745949707e-05
3.4615167040601125e-06   -1.4291954099235425e-07   -2.1933530745949707e-05
-3.3655871537392767e-06   7.421288554653339e-07   -1.645205252661178e-05
-3.3655871537392767e-06   7.421288554653339e-07   -1.645205252661178e-05
-3.3655871537392767e-06   7.421288554653339e-07   -1.645205252661178e-05
-3.3655871537392767e-06   7.421288554653339e-07   -1.645205252661178e-05
-1.4407352043439267e-05   3.841172762971551e-07   -3.506980095694615e-05
-1.4407352043439267e-05   3.841172762971551e-07   -3.506980095694615e-05
-1.4407352043439267e-05   3.841172762971551e-07   -3.506980095694615e-05
-1.4407352043439267e-05   3.841172762971551e-07   -3.506980095694615e-05
-1.385569149617857e-05   1.3692879398349324e-06   -1.6333913266185e-05
-1.385569149617857e-05   1.3692879398349324e-06   -1.6333913266185e-05
-1.385569149617857e-05   1.3692879398349324e-06   -1.6333913266185e-05
-1.385569149617857e-05   1.3692879398349324e-06   -1.6333913266185e-05
-2.8529664674391384e-06   8.61887966494175e-07   -3.436734833007951e-05
-2.8529664674391384e-06   8.61887966494175e-07   -3.436734833007951e-05
-2.8529664674391384e-06   8.61887966494175e-07   -3.436734833007951e-05
-2.8529664674391384e-06   8.61887966494175e-07   -3.436734833007951e-05
-8.561650602861388e-06   1.0180779977348809e-06   -2.4946588789786866e-05
-8.561650602861388e-06   1.0180779977348809e-06   -2.4946588789786866e-05
-8.561650602861388e-06   1.0180779977348809e-06   -2.4946588789786866e-05
-8.561650602861388e-06   1.0180779977348809e-06   -2.4946588789786866e-05
-2.852966467439152e-06   1.3692879398347155e-06   -1.602947328218063e-05
-2.852966467439152e-06   1.3692879398347155e-06   -1.602947328218063e-05
-2.852966467439152e-06   1.3692879398347155e-06   -1.602947328218063e-05
-2.852966467439152e-06   1.3692879398347155e-06   -1.602947328218063e-05
-1.385569149617857e-05   8.61887966494175e-07   -3.467178831408394e-05
-1.385569149617857e-05   8.61887966494175e-07   -3.467178831408394e-05
-1.385569149617857e-05   8.61887966494175e-07   -3.467178831408394e-05
-1.385569149617857e-05   8.61887966494175e-07   -3.467178831408394e-05
-1.332342651549691e-05   2.0329357477534907e-06   -1.630937016460041e-05
-1.332342651549691e-05   2.0329357477534907e-06   -1.630937016460041e-05
-1.332342651549691e-05   2.0329357477534907e-06   -1.630937016460041e-05
-1.332342651549691e-05   2.0329357477534907e-06   -1.630937016460041e-05
-2.3635468970862835e-06   1.4144008101044363e-06   -3.420471523269558e-05
-2.3635468970862835e-06   1.4144008101044363e-06   -3.420471523269558e-05
-2.3635468970862835e-06   1.4144008101044363e-06   -3.420471523269558e-05
-2.3635468970862835e-06   1.4144008101044363e-06   -3.420471523269558e-05
-8.087349172642784e-06   1.4655107783741054e-06   -2.4695710754396398e-05
-8.087349172642784e-06   1.4655107783741054e-06   -2.4695710754396398e-05
-8.087349172642784e-06   1.4655107783741054e-06   -2.4695710754396398e-05
-8.087349172642784e-06   1.4655107783741054e-06   -2.4695710754396398e-05
-2.3635468970862835e-06   2.0329357477534907e-06   -1.593824920201118e-05
-2.3635468970862835e-06   2.0329357477534907e-06   -1.593824920201118e-05
-2.3635468970862835e-06   2.0329357477534907e-06   -1.593824920201118e-05
-2.3635468970862835e-06   2.0329357477534907e-06   -1.593824920201118e-05
-1.332342651549691e-05   1.4144008101046532e-06   -3.4575836195284795e-05
-1.332342651549691e-05   1.4144008101046532e-06   -3.4575836195284795e-05
-1.332342651549691e-05   1.4144008101046532e-06   -3.4575836195284795e-05
-1.332342651549691e-05   1.4144008101046532e-06   -3.4575836195284795e-05
-1.2831615615829001e-05   2.7080926073236398e-06   -1.6694581224366528e-05
-1.2831615615829001e-05   2.7080926073236398e-06   -1.6694581224366528e-05
-1.2831615615829001e-05   2.7080926073236398e-06   -1.6694581224366528e-05
-1.2831615615829001e-05   2.7080926073236398e-06   -1.6694581224366528e-05
-1.9041078339433677e-06   1.9852615223880845e-06   -3.4473395543214644e-05
-1.9041078339433677e-06   1.9852615223880845e-06   -3.4473395543214644e-05
-1.9041078339433677e-06   1.9852615223880845e-06   -3.4473395543214644e-05
-1.9041078339433677e-06   1.9852615223880845e-06   -3.4473395543214644e-05
-7.66395060213062e-06   1.9245967857778497e-06   -2.483725875427012e-05
-7.66395060213062e-06   1.9245967857778497e-06   -2.483725875427012e-05
-7.66395060213062e-06   1.9245967857778497e-06   -2.483725875427012e-05
-7.66395060213062e-06   1.9245967857778497e-06   -2.483725875427012e-05
-1.4407352043439291e-05   2.390870499093282e-06   -1.3340545777693199e-05
-1.4407352043439291e-05   2.390870499093282e-06   -1.3340545777693199e-05
-1.4407352043439291e-05   2.390870499093282e-06   -1.3340545777693199e-05
-1.4407352043439291e-05   2.390870499093282e-06   -1.3340545777693199e-05
-2.5252320263252863e-05   2.8921501189938404e-06   -3.1114725038775275e-05
-2.5252320263252863e-05   2.8921501189938404e-06   -3.1114725038775275e-05
-2.5252320263252863e-05   2.8921501189938404e-06   -3.1114725038775275e-05
-2.5252320263252863e-05   2.8921501189938404e-06   -3.1114725038775275e-05
-2.4586907008290578e-05   3.0603616259503637e-06   -1.2528163808900187e-05
-2.4586907008290578e-05   3.0603616259503637e-06   -1.2528163808900187e-05
-2.4586907008290578e-05   3.0603616259503637e-06   -1.2528163808900187e-05
-2.4586907008290578e-05   3.0603616259503637e-06   -1.2528163808900187e-05
-1.3855691496178594e-05   3.4979195039108214e-06   -3.067605772252987e-05
-1.3855691496178594e-05   3.4979195039108214e-06   -3.067605772252987e-05
-1.3855691496178594e-05   3.4979195039108214e-06   -3.067605772252987e-05
-1.3855691496178594e-05   3.4979195039108214e-06   -3.067605772252987e-05
-1.938307049354074e-05   3.0857703911709973e-06   -2.1216469925948965e-05
-1.938307049354074e-05   3.0857703911709973e-06   -2.1216469925948965e-05
-1.938307049354074e-05   3.0857703911709973e-06   -2.1216469925948965e-05
-1.938307049354074e-05   3.0857703911709973e-06   -2.1216469925948965e-05
-1.3855691496178594e-05   3.0603616259503637e-06   -1.2790698535676477e-05
-1.3855691496178594e-05   3.0603616259503637e-06   -1.2790698535676477e-05
-1.3855691496178594e-05   3.0603616259503637e-06   -1.2790698535676477e-05
-1.3855691496178594e-05   3.0603616259503637e-06   -1.2790698535676477e-05
-2.4586907008290578e-05   3.4979195039108214e-06   -3.0413522995753552e-05
-2.4586907008290578e-05   3.4979195039108214e-06   -3.0413522995753552e-05
-2.4586907008290578e-05   3.4979195039108214e-06   -3.0413522995753552e-05
-2.4586907008290578e-05   3.4979195039108214e-06   -3.0413522995753552e-05
-2.384951599809651e-05   3.663007030325861e-06   -1.207611117004829e-05
-2.384951599809651e-05   3.663007030325861e-06   -1.207611117004829e-05
-2.384951599809651e-05   3.663007030325861e-06   -1.207611117004829e-05
-2.384951599809651e-05   3.663007030325861e-06   -1.207611117004829e-05
-1.3323426515496933e-05   4.019463817612643e-06   -2.9833467713419695e-05
-1.3323426515496933e-05   4.019463817612643e-06   -2.9833467713419695e-05
-1.3323426515496933e-05   4.019463817612643e-06   -2.9833467713419695e-05
-1.3323426515496933e-05   4.019463817612643e-06   -2.9833467713419695e-05
-1.8708905370810804e-05   3.5580116430316677e-06   -2.0580798316481358e-05
-1.8708905370810804e-05   3.5580116430316677e-06   -2.0580798316481358e-05
-1.8708905370810804e-05   3.5580116430316677e-06   -2.0580798316481358e-05
-1.8708905370810804e-05   3.5580116430316677e-06   -2.0580798316481358e-05
-1.3323426515496933e-05   3.663007030325861e-06   -1.2289985242420394e-05
-1.3323426515496933e-05   3.663007030325861e-06   -1.2289985242420394e-05
-1.3323426515496933e-05   3.663007030325861e-06   -1.2289985242420394e-05
-1.3323426515496933e-05   3.663007030325861e-06   -1.2289985242420394e-05
-2.384951599809651e-05   4.019463817612643e-06   -2.9619593641047712e-05
-2.384951599809651e-05   4.019463817612643e-06   -2.9619593641047712e-05
-2.384951599809651e-05   4.019463817612643e-06   -2.9619593641047712e-05
-2.384951599809651e-05   4.019463817612643e-06   -2.9619593641047712e-05
-2.3226705909550314e-05   4.336397580982643e-06   -1.2355700476928007e-05
-2.3226705909550314e-05   4.336397580982643e-06   -1.2355700476928007e-05
-2.3226705909550314e-05   4.336397580982643e-06   -1.2355700476928007e-05
-2.3226705909550314e-05   4.336397580982643e-06   -1.2355700476928007e-05
-1.2831615615829021e-05   4.595690330251112e-06   -2.9836426616024507e-05
-1.2831615615829021e-05   4.595690330251112e-06   -2.9836426616024507e-05
-1.2831615615829021e-05   4.595690330251112e-06   -2.9836426616024507e-05
-1.2831615615829021e-05   4.595690330251112e-06   -2.9836426616024507e-05
-1.8292259505487452e-05   3.992698757352298e-06   -2.037355852285499e-05
-1.8292259505487452e-05   3.992698757352298e-06   -2.037355852285499e-05
-1.8292259505487452e-05   3.992698757352298e-06   -2.037355852285499e-05
-1.8292259505487452e-05   3.992698757352298e-06   -2.037355852285499e-05
-2.5252320263252863e-05   4.111740674523669e-06   -6.677902655666051e-06
-2.5252320263252863e-05   4.111740674523669e-06   -6.677902655666051e-06
-2.5252320263252863e-05   4.111740674523669e-06   -6.677902655666051e-06
-2.5252320263252863e-05   4.111740674523669e-06   -6.677902655666051e-06
-3.668611209823325e-05   5.6733705711554516e-06   -2.479724444265439e-05
-3.668611209823325e-05   5.6733705711554516e-06   -2.479724444265439e-05
-3.668611209823325e-05   5.6733705711554516e-06   -2.479724444265439e-05
-3.668611209823325e-05   5.6733705711554516e-06   -2.479724444265439e-05
-3.515018294248844e-05   4.80753075647101e-06   -2.0789674167432607e-06
-3.515018294248844e-05   4.80753075647101e-06   -2.0789674167432607e-06
-3.515018294248844e-05   4.80753075647101e-06   -2.0789674167432607e-06
-3.515018294248844e-05   4.80753075647101e-06   -2.0789674167432607e-06
-2.4586907008290534e-05   6.478384204837732e-06   -2.068693937609309e-05
-2.4586907008290534e-05   6.478384204837732e-06   -2.068693937609309e-05
-2.4586907008290534e-05   6.478384204837732e-06   -2.068693937609309e-05
-2.4586907008290534e-05   6.478384204837732e-06   -2.068693937609309e-05
-2.916174987863133e-05   5.404576958379379e-06   -1.2417916910983473e-05
-2.916174987863133e-05   5.404576958379379e-06   -1.2417916910983473e-05
-2.916174987863133e-05   5.404576958379379e-06   -1.2417916910983473e-05
-2.916174987863133e-05   5.404576958379379e-06   -1.2417916910983473e-05
-2.458690700829056e-05   4.807530756471227e-06   -3.0814794857629904e-06
-2.458690700829056e-05   4.807530756471227e-06   -3.0814794857629904e-06
-2.458690700829056e-05   4.807530756471227e-06   -3.0814794857629904e-06
-2.458690700829056e-05   4.807530756471227e-06   -3.0814794857629904e-06
-3.5150182942488375e-05   6.478384204837515e-06   -1.9684427307073145e-05
-3.5150182942488375e-05   6.478384204837515e-06   -1.9684427307073145e-05
-3.5150182942488375e-05   6.478384204837515e-06   -1.9684427307073145e-05
-3.5150182942488375e-05   6.478384204837515e-06   -1.9684427307073145e-05
-3.3886431946837694e-05   5.057075646971044e-06   -1.5479727882210335e-07
-3.3886431946837694e-05   5.057075646971044e-06   -1.5479727882210335e-07
-3.3886431946837694e-05   5.057075646971044e-06   -1.5479727882210335e-07
-3.3886431946837694e-05   5.057075646971044e-06   -1.5479727882210335e-07
-2.384951599809651e-05   6.690558693800159e-06   -1.7863080354821445e-05
-2.384951599809651e-05   6.690558693800159e-06   -1.7863080354821445e-05
-2.384951599809651e-05   6.690558693800159e-06   -1.7863080354821445e-05
-2.384951599809651e-05   6.690558693800159e-06   -1.7863080354821445e-05
-2.86446091792399e-05   5.726593101049019e-06   -9.292879030598194e-06
-2.86446091792399e-05   5.726593101049019e-06   -9.292879030598194e-06
-2.86446091792399e-05   5.726593101049019e-06   -9.292879030598194e-06
-2.86446091792399e-05   5.726593101049019e-06   -9.292879030598194e-06
-2.384951599809651e-05   5.057075646971044e-06   -1.1348871069195182e-06
-2.384951599809651e-05   5.057075646971044e-06   -1.1348871069195182e-06
-2.384951599809651e-05   5.057075646971044e-06   -1.1348871069195182e-06
-2.384951599809651e-05   5.057075646971044e-06   -1.1348871069195182e-06
-3.388643194683756e-05   6.690558693800159e-06   -1.6882990526723976e-05
-3.388643194683756e-05   6.690558693800159e-06   -1.6882990526723976e-05
-3.388643194683756e-05   6.690558693800159e-06   -1.6882990526723976e-05
-3.388643194683756e-05   6.690558693800159e-06   -1.6882990526723976e-05
-3.252114041030702e-05   5.3714659342916915e-06   2.2933690120519263e-06
-3.252114041030702e-05   5.3714659342916915e-06   2.2933690120519263e-06
-3.252114041030702e-05   5.3714659342916915e-06   2.2933690120519263e-06
-3.252114041030702e-05   5.3714659342916915e-06   2.2933690120519263e-06
-2.3226705909550294e-05   6.871019455366011e-06   -1.4097087268520343e-05
-2.3226705909550294e-05   6.871019455366011e-06   -1.4097087268520343e-05
-2.3226705909550294e-05   6.871019455366011e-06   -1.4097087268520343e-05
-2.3226705909550294e-05   6.871019455366011e-06   -1.4097087268520343e-05
-2.7360087503203497e-05   5.778815609223183e-06   -6.552795638079944e-06
-2.7360087503203497e-05   5.778815609223183e-06   -6.552795638079944e-06
-2.7360087503203497e-05   5.778815609223183e-06   -6.552795638079944e-06
-2.7360087503203497e-05   5.778815609223183e-06   -6.552795638079944e-06
3.132579160973638e-05   -4.3641767405540235e-06   6.2782377833218105e-06
3.132579160973638e-05   -4.3641767405540235e-06   6.2782377833218105e-06
3.132579160973638e-05   -4.3641767405540235e-06   6.2782377833218105e-06
3.132579160973638e-05   -4.3641767405540235e-06   6.2782377833218105e-06
1.5081215818822991e-05   -6.45183150415978e-06   -2.204864805969715e-05
1.5081215818822991e-05   -6.45183150415978e-06   -2.204864805969715e-05
1.5081215818822991e-05   -6.45183150415978e-06   -2.204864805969715e-05
1.5081215818822991e-05   -6.45183150415978e-06   -2.204864805969715e-05
1.5692295626063422e-05   -4.059759102602659e-06   3.0632559343702487e-06
1.5692295626063422e-05   -4.059759102602659e-06   3.0632559343702487e-06
1.5692295626063422e-05   -4.059759102602659e-06   3.0632559343702487e-06
1.5692295626063422e-05   -4.059759102602659e-06   3.0632559343702487e-06
3.2750438867147955e-05   -6.30236369726124e-06   -2.402142004397556e-05
3.2750438867147955e-05   -6.30236369726124e-06   -2.402142004397556e-05
3.2750438867147955e-05   -6.30236369726124e-06   -2.402142004397556e-05
3.2750438867147955e-05   -6.30236369726124e-06   -2.402142004397556e-05
2.274765329390857e-05   -4.776146340173225e-06   -8.265841169496013e-06
2.274765329390857e-05   -4.776146340173225e-06   -8.265841169496013e-06
2.274765329390857e-05   -4.776146340173225e-06   -8.265841169496013e-06
2.274765329390857e-05   -4.776146340173225e-06   -8.265841169496013e-06
3.275043886714801e-05   -4.059759102602659e-06   4.408818691165441e-06
3.275043886714801e-05   -4.059759102602659e-06   4.408818691165441e-06
3.275043886714801e-05   -4.059759102602659e-06   4.408818691165441e-06
3.275043886714801e-05   -4.059759102602659e-06   4.408818691165441e-06
1.569229562606341e-05   -6.30236369726124e-06   -2.5366982800770752e-05
1.569229562606341e-05   -6.30236369726124e-06   -2.5366982800770752e-05
1.569229562606341e-05   -6.30236369726124e-06   -2.5366982800770752e-05
1.569229562606341e-05   -6.30236369726124e-06   -2.5366982800770752e-05
1.630035032401718e-05   -3.7968380480445096e-06   1.487536668363064e-06
1.630035032401718e-05   -3.7968380480445096e-06   1.487536668363064e-06
1.630035032401718e-05   -3.7968380480445096e-06   1.487536668363064e-06
1.630035032401718e-05   -3.7968380480445096e-06   1.487536668363064e-06
3.384304831727429e-05   -6.083157708156256e-06   -2.637850152433169e-05
3.384304831727429e-05   -6.083157708156256e-06   -2.637850152433169e-05
3.384304831727429e-05   -6.083157708156256e-06   -2.637850152433169e-05
3.384304831727429e-05   -6.083157708156256e-06   -2.637850152433169e-05
2.39484622057587e-05   -4.760110289259308e-06   -1.0681353123144076e-05
2.39484622057587e-05   -4.760110289259308e-06   -1.0681353123144076e-05
2.39484622057587e-05   -4.760110289259308e-06   -1.0681353123144076e-05
2.39484622057587e-05   -4.760110289259308e-06   -1.0681353123144076e-05
3.384304831727429e-05   -3.7968380480445096e-06   2.859328464430074e-06
3.384304831727429e-05   -3.7968380480445096e-06   2.859328464430074e-06
3.384304831727429e-05   -3.7968380480445096e-06   2.859328464430074e-06
3.384304831727429e-05   -3.7968380480445096e-06   2.859328464430074e-06
1.630035032401718e-05   -6.083157708156256e-06   -2.775029332039889e-05
1.630035032401718e-05   -6.083157708156256e-06   -2.775029332039889e-05
1.630035032401718e-05   -6.083157708156256e-06   -2.775029332039889e-05
1.630035032401718e-05   -6.083157708156256e-06   -2.775029332039889e-05
1.671231438418188e-05   -2.9668362190378873e-06   -1.681533847039179e-06
1.671231438418188e-05   -2.9668362190378873e-06   -1.681533847039179e-06
1.671231438418188e-05   -2.9668362190378873e-06   -1.681533847039179e-06
1.671231438418188e-05   -2.9668362190378873e-06   -1.681533847039179e-06
3.4998750200549095e-05   -5.229623403862644e-06   -3.0801254563422864e-05
3.4998750200549095e-05   -5.229623403862644e-06   -3.0801254563422864e-05
3.4998750200549095e-05   -5.229623403862644e-06   -3.0801254563422864e-05
3.4998750200549095e-05   -5.229623403862644e-06   -3.0801254563422864e-05
2.427961364868074e-05   -4.393478776301262e-06   -1.343771375351304e-05
2.427961364868074e-05   -4.393478776301262e-06   -1.343771375351304e-05
2.427961364868074e-05   -4.393478776301262e-06   -1.343771375351304e-05
2.427961364868074e-05   -4.393478776301262e-06   -1.343771375351304e-05
1.5081215818823018e-05   -2.037015910604954e-06   -7.530747527480133e-06
1.5081215818823018e-05   -2.037015910604954e-06   -7.530747527480133e-06
1.5081215818823018e-05   -2.037015910604954e-06   -7.530747527480133e-06
1.5081215818823018e-05   -2.037015910604954e-06   -7.530747527480133e-06
-9.396663337611974e-07   -4.164977937519236e-06   -3.5508994997935674e-05
-9.396663337611974e-07   -4.164977937519236e-06   -3.5508994997935674e-05
-9.396663337611974e-07   -4.164977937519236e-06   -3.5508994997935674e-05
-9.396663337611974e-07   -4.164977937519236e-06   -3.5508994997935674e-05
-3.129833405320819e-07   -1.6120919315836674e-06   -8.30654463961078e-06
-3.129833405320819e-07   -1.6120919315836674e-06   -8.30654463961078e-06
-3.129833405320819e-07   -1.6120919315836674e-06   -8.30654463961078e-06
-3.129833405320819e-07   -1.6120919315836674e-06   -8.30654463961078e-06
1.5692295626063422e-05   -3.963345380953928e-06   -3.357125751431438e-05
1.5692295626063422e-05   -3.963345380953928e-06   -3.357125751431438e-05
1.5692295626063422e-05   -3.963345380953928e-06   -3.357125751431438e-05
1.5692295626063422e-05   -3.963345380953928e-06   -3.357125751431438e-05
7.401929099638065e-06   -2.5205316825714467e-06   -2.0619668189301565e-05
7.401929099638065e-06   -2.5205316825714467e-06   -2.0619668189301565e-05
7.401929099638065e-06   -2.5205316825714467e-06   -2.0619668189301565e-05
7.401929099638065e-06   -2.5205316825714467e-06   -2.0619668189301565e-05
1.569229562606341e-05   -1.6120919315836674e-06   -6.895792569988488e-06
1.569229562606341e-05   -1.6120919315836674e-06   -6.895792569988488e-06
1.569229562606341e-05   -1.6120919315836674e-06   -6.895792569988488e-06
1.569229562606341e-05   -1.6120919315836674e-06   -6.895792569988488e-06
-3.129833405320819e-07   -3.963345380953928e-06   -3.498200958393664e-05
-3.129833405320819e-07   -3.963345380953928e-06   -3.498200958393664e-05
-3.129833405320819e-07   -3.963345380953928e-06   -3.498200958393664e-05
-3.129833405320819e-07   -3.963345380953928e-06   -3.498200958393664e-05
2.39020760424652e-07   -1.0928764180555967e-06   -8.508220058639666e-06
2.39020760424652e-07   -1.0928764180555967e-06   -8.508220058639666e-06
2.39020760424652e-07   -1.0928764180555967e-06   -8.508220058639666e-06
2.39020760424652e-07   -1.0928764180555967e-06   -8.508220058639666e-06
1.630035032401718e-05   -3.5895920727415515e-06   -3.377907327181543e-05
1.630035032401718e-05   -3.5895920727415515e-06   -3.377907327181543e-05
1.630035032401718e-05   -3.5895920727415515e-06   -3.377907327181543e-05
1.630035032401718e-05   -3.5895920727415515e-06   -3.377907327181543e-05
7.827122154470585e-06   -2.3113514187690426e-06   -2.0423970714954318e-05
7.827122154470585e-06   -2.3113514187690426e-06   -2.0423970714954318e-05
7.827122154470585e-06   -2.3113514187690426e-06   -2.0423970714954318e-05
7.827122154470585e-06   -2.3113514187690426e-06   -2.0423970714954318e-05
1.630035032401718e-05   -1.0928764180553798e-06   -7.010190665827963e-06
1.630035032401718e-05   -1.0928764180553798e-06   -7.010190665827963e-06
1.630035032401718e-05   -1.0928764180553798e-06   -7.010190665827963e-06
1.630035032401718e-05   -1.0928764180553798e-06   -7.010190665827963e-06
2.39020760424652e-07   -3.5895920727415515e-06   -3.527710266462746e-05
2.39020760424652e-07   -3.5895920727415515e-06   -3.527710266462746e-05
2.39020760424652e-07   -3.5895920727415515e-06   -3.527710266462746e-05
2.39020760424652e-07   -3.5895920727415515e-06   -3.527710266462746e-05
6.315367072960389e-07   -4.3913254939927267e-07   -8.849231235421228e-06
6.315367072960389e-07   -4.3913254939927267e-07   -8.849231235421228e-06
6.315367072960389e-07   -4.3913254939927267e-07   -8.849231235421228e-06
6.315367072960389e-07   -4.3913254939927267e-07   -8.849231235421228e-06
1.671231438418192e-05   -3.0576980816826235e-06   -3.407938804419423e-05
1.671231438418192e-05   -3.0576980816826235e-06   -3.407938804419423e-05
1.671231438418192e-05   -3.0576980816826235e-06   -3.407938804419423e-05
1.671231438418192e-05   -3.0576980816826235e-06   -3.407938804419423e-05
8.338226593162921e-06   -1.943769062573192e-06   -2.0790932470628784e-05
8.338226593162921e-06   -1.943769062573192e-06   -2.0790932470628784e-05
8.338226593162921e-06   -1.943769062573192e-06   -2.0790932470628784e-05
8.338226593162921e-06   -1.943769062573192e-06   -2.0790932470628784e-05
-9.396663337611974e-07   3.8411727629693825e-07   -1.1505301951720252e-05
-9.396663337611974e-07   3.8411727629693825e-07   -1.1505301951720252e-05
-9.396663337611974e-07   3.8411727629693825e-07   -1.1505301951720252e-05
-9.396663337611974e-07   3.8411727629693825e-07   -1.1505301951720252e-05
-1.672396107770518e-05   -2.1621270288572653e-06   -3.934020644138624e-05
-1.672396107770518e-05   -2.1621270288572653e-06   -3.934020644138624e-05
-1.672396107770518e-05   -2.1621270288572653e-06   -3.934020644138624e-05
-1.672396107770518e-05   -2.1621270288572653e-06   -3.934020644138624e-05
-1.5971841762963125e-05   8.61887966494175e-07   -1.2506780335740922e-05
-1.5971841762963125e-05   8.61887966494175e-07   -1.2506780335740922e-05
-1.5971841762963125e-05   8.61887966494175e-07   -1.2506780335740922e-05
-1.5971841762963125e-05   8.61887966494175e-07   -1.2506780335740922e-05
-3.129833405320819e-07   -1.9238528029322504e-06   -3.6933433244803484e-05
-3.129833405320819e-07   -1.9238528029322504e-06   -3.6933433244803484e-05
-3.129833405320819e-07   -1.9238528029322504e-06   -3.6933433244803484e-05
-3.129833405320819e-07   -1.9238528029322504e-06   -3.6933433244803484e-05
-8.387245395784354e-06   -4.018645113376511e-07   -2.4389522794339598e-05
-8.387245395784354e-06   -4.018645113376511e-07   -2.4389522794339598e-05
-8.387245395784354e-06   -4.018645113376511e-07   -2.4389522794339598e-05
-8.387245395784354e-06   -4.018645113376511e-07   -2.4389522794339598e-05
-3.129833405320819e-07   8.61887966494175e-07   -1.083533587408496e-05
-3.129833405320819e-07   8.61887966494175e-07   -1.083533587408496e-05
-3.129833405320819e-07   8.61887966494175e-07   -1.083533587408496e-05
-3.129833405320819e-07   8.61887966494175e-07   -1.083533587408496e-05
-1.5971841762963125e-05   -1.9238528029322504e-06   -3.860487770645919e-05
-1.5971841762963125e-05   -1.9238528029322504e-06   -3.860487770645919e-05
-1.5971841762963125e-05   -1.9238528029322504e-06   -3.860487770645919e-05
-1.5971841762963125e-05   -1.9238528029322504e-06   -3.860487770645919e-05
-1.5281837068604276e-05   1.4144008101046532e-06   -1.228280001179939e-05
-1.5281837068604276e-05   1.4144008101046532e-06   -1.228280001179939e-05
-1.5281837068604276e-05   1.4144008101046532e-06   -1.228280001179939e-05
-1.5281837068604276e-05   1.4144008101046532e-06   -1.228280001179939e-05
2.39020760424652e-07   -1.5552807363888692e-06   -3.636908746561848e-05
2.39020760424652e-07   -1.5552807363888692e-06   -3.636908746561848e-05
2.39020760424652e-07   -1.5552807363888692e-06   -3.636908746561848e-05
2.39020760424652e-07   -1.5552807363888692e-06   -3.636908746561848e-05
-7.775140180578543e-06   -1.2993690421173563e-07   -2.3867358863252706e-05
-7.775140180578543e-06   -1.2993690421173563e-07   -2.3867358863252706e-05
-7.775140180578543e-06   -1.2993690421173563e-07   -2.3867358863252706e-05
-7.775140180578543e-06   -1.2993690421173563e-07   -2.3867358863252706e-05
2.39020760424652e-07   1.4144008101046532e-06   -1.0500991083903555e-05
2.39020760424652e-07   1.4144008101046532e-06   -1.0500991083903555e-05
2.39020760424652e-07   1.4144008101046532e-06   -1.0500991083903555e-05
2.39020760424652e-07   1.4144008101046532e-06   -1.0500991083903555e-05
-1.5281837068604276e-05   -1.5552807363888692e-06   -3.815089639351446e-05
-1.5281837068604276e-05   -1.5552807363888692e-06   -3.815089639351446e-05
-1.5281837068604276e-05   -1.5552807363888692e-06   -3.815089639351446e-05
-1.5281837068604276e-05   -1.5552807363888692e-06   -3.815089639351446e-05
-1.4816798208180991e-05   1.9852615223883013e-06   -1.2497974219852562e-05
-1.4816798208180991e-05   1.9852615223883013e-06   -1.2497974219852562e-05
-1.4816798208180991e-05   1.9852615223883013e-06   -1.2497974219852562e-05
-1.4816798208180991e-05   1.9852615223883013e-06   -1.2497974219852562e-05
6.315367072960389e-07   -1.205433382242202e-06   -3.633078213620292e-05
6.315367072960389e-07   -1.205433382242202e-06   -3.633078213620292e-05
6.315367072960389e-07   -1.205433382242202e-06   -3.633078213620292e-05
6.315367072960389e-07   -1.205433382242202e-06   -3.633078213620292e-05
-7.339072151288652e-06   1.7507696242833725e-07   -2.3874740245364364e-05
-7.339072151288652e-06   1.7507696242833725e-07   -2.3874740245364364e-05
-7.339072151288652e-06   1.7507696242833725e-07   -2.3874740245364364e-05
-7.339072151288652e-06   1.7507696242833725e-07   -2.3874740245364364e-05
-1.672396107770518e-05   2.8921501189938404e-06   -9.378740388582619e-06
-1.672396107770518e-05   2.8921501189938404e-06   -9.378740388582619e-06
-1.672396107770518e-05   2.8921501189938404e-06   -9.378740388582619e-06
-1.672396107770518e-05   2.8921501189938404e-06   -9.378740388582619e-06
-3.2731630439979086e-05   6.021761277408017e-07   -3.743217372045751e-05
-3.2731630439979086e-05   6.021761277408017e-07   -3.743217372045751e-05
-3.2731630439979086e-05   6.021761277408017e-07   -3.743217372045751e-05
-3.2731630439979086e-05   6.021761277408017e-07   -3.743217372045751e-05
-3.166063943306115e-05   3.4979195039108214e-06   -9.986121852546739e-06
-3.166063943306115e-05   3.4979195039108214e-06   -9.986121852546739e-06
-3.166063943306115e-05   3.4979195039108214e-06   -9.986121852546739e-06
-3.166063943306115e-05   3.4979195039108214e-06   -9.986121852546739e-06
-1.5971841762963125e-05   1.039465989977062e-06   -3.4659045861016625e-05
-1.5971841762963125e-05   1.039465989977062e-06   -3.4659045861016625e-05
-1.5971841762963125e-05   1.039465989977062e-06   -3.4659045861016625e-05
-1.5971841762963125e-05   1.039465989977062e-06   -3.4659045861016625e-05
-2.4021364869208177e-05   2.2140630743293453e-06   -2.1947932267886233e-05
-2.4021364869208177e-05   2.2140630743293453e-06   -2.1947932267886233e-05
-2.4021364869208177e-05   2.2140630743293453e-06   -2.1947932267886233e-05
-2.4021364869208177e-05   2.2140630743293453e-06   -2.1947932267886233e-05
-1.5971841762963125e-05   3.4979195039108214e-06   -8.511049744186516e-06
-1.5971841762963125e-05   3.4979195039108214e-06   -8.511049744186516e-06
-1.5971841762963125e-05   3.4979195039108214e-06   -8.511049744186516e-06
-1.5971841762963125e-05   3.4979195039108214e-06   -8.511049744186516e-06
-3.1660639433061207e-05   1.039465989977062e-06   -3.6134117969377055e-05
-3.1660639433061207e-05   1.039465989977062e-06   -3.6134117969377055e-05
-3.1660639433061207e-05   1.039465989977062e-06   -3.6134117969377055e-05
-3.1660639433061207e-05   1.039465989977062e-06   -3.6134117969377055e-05
-3.062420438080316e-05   4.0194638176124266e-06   -9.087105058887442e-06
-3.062420438080316e-05   4.0194638176124266e-06   -9.087105058887442e-06
-3.062420438080316e-05   4.0194638176124266e-06   -9.087105058887442e-06
-3.062420438080316e-05   4.0194638176124266e-06   -9.087105058887442e-06
-1.5281837068604303e-05   1.4416746026905784e-06   -3.3111043716932474e-05
-1.5281837068604303e-05   1.4416746026905784e-06   -3.3111043716932474e-05
-1.5281837068604303e-05   1.4416746026905784e-06   -3.3111043716932474e-05
-1.5281837068604303e-05   1.4416746026905784e-06   -3.3111043716932474e-05
-2.305176168080019e-05   2.594586145502763e-06   -2.0852916288959824e-05
-2.305176168080019e-05   2.594586145502763e-06   -2.0852916288959824e-05
-2.305176168080019e-05   2.594586145502763e-06   -2.0852916288959824e-05
-2.305176168080019e-05   2.594586145502763e-06   -2.0852916288959824e-05
-1.5281837068604276e-05   4.0194638176124266e-06   -7.54043152993431e-06
-1.5281837068604276e-05   4.0194638176124266e-06   -7.54043152993431e-06
-1.5281837068604276e-05   4.0194638176124266e-06   -7.54043152993431e-06
-1.5281837068604276e-05   4.0194638176124266e-06   -7.54043152993431e-06
-3.062420438080321e-05   1.4416746026905784e-06   -3.4657717245885735e-05
-3.062420438080321e-05   1.4416746026905784e-06   -3.4657717245885735e-05
-3.062420438080321e-05   1.4416746026905784e-06   -3.4657717245885735e-05
-3.062420438080321e-05   1.4416746026905784e-06   -3.4657717245885735e-05
-2.9839615732746226e-05   4.595690330251112e-06   -9.116023047359579e-06
-2.9839615732746226e-05   4.595690330251112e-06   -9.116023047359579e-06
-2.9839615732746226e-05   4.595690330251112e-06   -9.116023047359579e-06
-2.9839615732746226e-05   4.595690330251112e-06   -9.116023047359579e-06
-1.4816798208181018e-05   1.7811629874874002e-06   -3.2465335849310244e-05
-1.4816798208181018e-05   1.7811629874874002e-06   -3.2465335849310244e-05
-1.4816798208181018e-05   1.7811629874874002e-06   -3.2465335849310244e-05
-1.4816798208181018e-05   1.7811629874874002e-06   -3.2465335849310244e-05
-2.2512420099199938e-05   2.860399971978643e-06   -2.028684155497366e-05
-2.2512420099199938e-05   2.860399971978643e-06   -2.028684155497366e-05
-2.2512420099199938e-05   2.860399971978643e-06   -2.028684155497366e-05
-2.2512420099199938e-05   2.860399971978643e-06   -2.028684155497366e-05
-3.2731630439979086e-05   5.673370571155668e-06   -5.3722221251926175e-06
-3.2731630439979086e-05   5.673370571155668e-06   -5.3722221251926175e-06
-3.2731630439979086e-05   5.673370571155668e-06   -5.3722221251926175e-06
-3.2731630439979086e-05   5.673370571155668e-06   -5.3722221251926175e-06
-4.946585124671398e-05   5.366472773765153e-06   -3.3446728814851695e-05
-4.946585124671398e-05   5.366472773765153e-06   -3.3446728814851695e-05
-4.946585124671398e-05   5.366472773765153e-06   -3.3446728814851695e-05
-4.946585124671398e-05   5.366472773765153e-06   -3.3446728814851695e-05
-4.73441412068688e-05   6.478384204837732e-06   -7.896188444170716e-08
-4.73441412068688e-05   6.478384204837732e-06   -7.896188444170716e-08
-4.73441412068688e-05   6.478384204837732e-06   -7.896188444170716e-08
-4.73441412068688e-05   6.478384204837732e-06   -7.896188444170716e-08
-3.16606394330611e-05   6.779344785578503e-06   -2.6398707855899073e-05
-3.16606394330611e-05   6.779344785578503e-06   -2.6398707855899073e-05
-3.16606394330611e-05   6.779344785578503e-06   -2.6398707855899073e-05
-3.16606394330611e-05   6.779344785578503e-06   -2.6398707855899073e-05
-3.856312614879332e-05   6.390372936870619e-06   -1.4661180220453972e-05
-3.856312614879332e-05   6.390372936870619e-06   -1.4661180220453972e-05
-3.856312614879332e-05   6.390372936870619e-06   -1.4661180220453972e-05
-3.856312614879332e-05   6.390372936870619e-06   -1.4661180220453972e-05
-3.166063943306118e-05   6.478384204837732e-06   -2.595382328861697e-07
-3.166063943306118e-05   6.478384204837732e-06   -2.595382328861697e-07
-3.166063943306118e-05   6.478384204837732e-06   -2.595382328861697e-07
-3.166063943306118e-05   6.478384204837732e-06   -2.595382328861697e-07
-4.734414120686872e-05   6.779344785578503e-06   -2.6218131507454393e-05
-4.734414120686872e-05   6.779344785578503e-06   -2.6218131507454393e-05
-4.734414120686872e-05   6.779344785578503e-06   -2.6218131507454393e-05
-4.734414120686872e-05   6.779344785578503e-06   -2.6218131507454393e-05
-4.558575609077496e-05   6.690558693800376e-06   2.9135838987305856e-06
-4.558575609077496e-05   6.690558693800376e-06   2.9135838987305856e-06
-4.558575609077496e-05   6.690558693800376e-06   2.9135838987305856e-06
-4.558575609077496e-05   6.690558693800376e-06   2.9135838987305856e-06
-3.062420438080316e-05   7.097518146119723e-06   -2.2266511289281048e-05
-3.062420438080316e-05   7.097518146119723e-06   -2.2266511289281048e-05
-3.062420438080316e-05   7.097518146119723e-06   -2.2266511289281048e-05
-3.062420438080316e-05   7.097518146119723e-06   -2.2266511289281048e-05
-3.776795747086543e-05   6.853072417186746e-06   -1.0213588701816969e-05
-3.776795747086543e-05   6.853072417186746e-06   -1.0213588701816969e-05
-3.776795747086543e-05   6.853072417186746e-06   -1.0213588701816969e-05
-3.776795747086543e-05   6.853072417186746e-06   -1.0213588701816969e-05
-3.062420438080321e-05   6.690558693800159e-06   2.6694082273386765e-06
-3.062420438080321e-05   6.690558693800159e-06   2.6694082273386765e-06
-3.062420438080321e-05   6.690558693800159e-06   2.6694082273386765e-06
-3.062420438080321e-05   6.690558693800159e-06   2.6694082273386765e-06
-4.5585756090775036e-05   7.097518146119723e-06   -2.2022335617889288e-05
-4.5585756090775036e-05   7.097518146119723e-06   -2.2022335617889288e-05
-4.5585756090775036e-05   7.097518146119723e-06   -2.2022335617889288e-05
-4.5585756090775036e-05   7.097518146119723e-06   -2.2022335617889288e-05
-4.374530723408802e-05   6.871019455366011e-06   6.928947479095085e-06
-4.374530723408802e-05   6.871019455366011e-06   6.928947479095085e-06
-4.374530723408802e-05   6.871019455366011e-06   6.928947479095085e-06
-4.374530723408802e-05   6.871019455366011e-06   6.928947479095085e-06
-2.9839615732746253e-05   7.63969750288535e-06   -1.6708411851652978e-05
-2.9839615732746253e-05   7.63969750288535e-06   -1.6708411851652978e-05
-2.9839615732746253e-05   7.63969750288535e-06   -1.6708411851652978e-05
-2.9839615732746253e-05   7.63969750288535e-06   -1.6708411851652978e-05
-3.598827438245518e-05   7.006845603850661e-06   -6.0809362960511574e-06
-3.598827438245518e-05   7.006845603850661e-06   -6.0809362960511574e-06
-3.598827438245518e-05   7.006845603850661e-06   -6.0809362960511574e-06
-3.598827438245518e-05   7.006845603850661e-06   -6.0809362960511574e-06
4.300553922089539e-05   -6.451831504159563e-06   1.4724737214617264e-05
4.300553922089539e-05   -6.451831504159563e-06   1.4724737214617264e-05
4.300553922089539e-05   -6.451831504159563e-06   1.4724737214617264e-05
4.300553922089539e-05   -6.451831504159563e-06   1.4724737214617264e-05
2.1600998723972714e-05   -8.151396586969289e-06   -2.19692359966062e-05
2.1600998723972714e-05   -8.151396586969289e-06   -2.19692359966062e-05
2.1600998723972714e-05   -8.151396586969289e-06   -2.19692359966062e-05
2.1600998723972714e-05   -8.151396586969289e-06   -2.19692359966062e-05
2.2123404015106043e-05   -6.30236369726124e-06   1.0575208877419131e-05
2.2123404015106043e-05   -6.30236369726124e-06   1.0575208877419131e-05
2.2123404015106043e-05   -6.30236369726124e-06   1.0575208877419131e-05
2.2123404015106043e-05   -6.30236369726124e-06   1.0575208877419131e-05
4.4070222190980204e-05   -8.355367429721669e-06   -2.4771019176228026e-05
4.4070222190980204e-05   -8.355367429721669e-06   -2.4771019176228026e-05
4.4070222190980204e-05   -8.355367429721669e-06   -2.4771019176228026e-05
4.4070222190980204e-05   -8.355367429721669e-06   -2.4771019176228026e-05
3.13962975689238e-05   -6.5901099676064214e-06   -4.706965950069923e-06
3.13962975689238e-05   -6.5901099676064214e-06   -4.706965950069923e-06
3.13962975689238e-05   -6.5901099676064214e-06   -4.706965950069923e-06
3.13962975689238e-05   -6.5901099676064214e-06   -4.706965950069923e-06
4.4070222190980204e-05   -6.30236369726124e-06   1.1807011116895535e-05
4.4070222190980204e-05   -6.30236369726124e-06   1.1807011116895535e-05
4.4070222190980204e-05   -6.30236369726124e-06   1.1807011116895535e-05
4.4070222190980204e-05   -6.30236369726124e-06   1.1807011116895535e-05
2.2123404015106043e-05   -8.355367429721669e-06   -2.600282141570424e-05
2.2123404015106043e-05   -8.355367429721669e-06   -2.600282141570424e-05
2.2123404015106043e-05   -8.355367429721669e-06   -2.600282141570424e-05
2.2123404015106043e-05   -8.355367429721669e-06   -2.600282141570424e-05
2.2564839231142245e-05   -6.083157708156256e-06   8.351254318475108e-06
2.2564839231142245e-05   -6.083157708156256e-06   8.351254318475108e-06
2.2564839231142245e-05   -6.083157708156256e-06   8.351254318475108e-06
2.2564839231142245e-05   -6.083157708156256e-06   8.351254318475108e-06
4.473319665518544e-05   -8.278624617262878e-06   -2.727872790946593e-05
4.473319665518544e-05   -8.278624617262878e-06   -2.727872790946593e-05
4.473319665518544e-05   -8.278624617262878e-06   -2.727872790946593e-05
4.473319665518544e-05   -8.278624617262878e-06   -2.727872790946593e-05
3.2498320945151124e-05   -6.796975351641894e-06   -7.77625795211472e-06
3.2498320945151124e-05   -6.796975351641894e-06   -7.77625795211472e-06
3.2498320945151124e-05   -6.796975351641894e-06   -7.77625795211472e-06
3.2498320945151124e-05   -6.796975351641894e-06   -7.77625795211472e-06
4.473319665518544e-05   -6.083157708156256e-06   9.6685344639392e-06
4.473319665518544e-05   -6.083157708156256e-06   9.6685344639392e-06
4.473319665518544e-05   -6.083157708156256e-06   9.6685344639392e-06
4.473319665518544e-05   -6.083157708156256e-06   9.6685344639392e-06
2.2564839231142245e-05   -8.278624617262878e-06   -2.8596008054930077e-05
2.2564839231142245e-05   -8.278624617262878e-06   -2.8596008054930077e-05
2.2564839231142245e-05   -8.278624617262878e-06   -2.8596008054930077e-05
2.2564839231142245e-05   -8.278624617262878e-06   -2.8596008054930077e-05
2.302524800702314e-05   -5.229623403862644e-06   4.042143166862805e-06
2.302524800702314e-05   -5.229623403862644e-06   4.042143166862805e-06
2.302524800702314e-05   -5.229623403862644e-06   4.042143166862805e-06
2.302524800702314e-05   -5.229623403862644e-06   4.042143166862805e-06
4.5386062715304415e-05   -7.815031575067423e-06   -3.167463644421632e-05
4.5386062715304415e-05   -7.815031575067423e-06   -3.167463644421632e-05
4.5386062715304415e-05   -7.815031575067423e-06   -3.167463644421632e-05
4.5386062715304415e-05   -7.815031575067423e-06   -3.167463644421632e-05
3.250928571750186e-05   -6.539670488010774e-06   -1.0978558100112703e-05
3.250928571750186e-05   -6.539670488010774e-06   -1.0978558100112703e-05
3.250928571750186e-05   -6.539670488010774e-06   -1.0978558100112703e-05
3.250928571750186e-05   -6.539670488010774e-06   -1.0978558100112703e-05
2.1600998723972714e-05   -4.164977937519236e-06   1.521428442841739e-06
2.1600998723972714e-05   -4.164977937519236e-06   1.521428442841739e-06
2.1600998723972714e-05   -4.164977937519236e-06   1.521428442841739e-06
2.1600998723972714e-05   -4.164977937519236e-06   1.521428442841739e-06
2.519827797059775e-06   -8.139480179841958e-06   -3.26652244474066e-05
2.519827797059775e-06   -8.139480179841958e-06   -3.26652244474066e-05
2.519827797059775e-06   -8.139480179841958e-06   -3.26652244474066e-05
2.519827797059775e-06   -8.139480179841958e-06   -3.26652244474066e-05
3.1281773935238217e-06   -3.963345380953928e-06   -1.0840102313133468e-07
3.1281773935238217e-06   -3.963345380953928e-06   -1.0840102313133468e-07
3.1281773935238217e-06   -3.963345380953928e-06   -1.0840102313133468e-07
3.1281773935238217e-06   -3.963345380953928e-06   -1.0840102313133468e-07
2.2123404015106097e-05   -8.095570692632104e-06   -2.9287776872094886e-05
2.2123404015106097e-05   -8.095570692632104e-06   -2.9287776872094886e-05
2.2123404015106097e-05   -8.095570692632104e-06   -2.9287776872094886e-05
2.2123404015106097e-05   -8.095570692632104e-06   -2.9287776872094886e-05
1.239020251223522e-05   -5.493504140566827e-06   -1.462701429854929e-05
1.239020251223522e-05   -5.493504140566827e-06   -1.462701429854929e-05
1.239020251223522e-05   -5.493504140566827e-06   -1.462701429854929e-05
1.239020251223522e-05   -5.493504140566827e-06   -1.462701429854929e-05
2.2123404015106043e-05   -3.963345380953928e-06   2.37093416387556e-06
2.2123404015106043e-05   -3.963345380953928e-06   2.37093416387556e-06
2.2123404015106043e-05   -3.963345380953928e-06   2.37093416387556e-06
2.2123404015106043e-05   -3.963345380953928e-06   2.37093416387556e-06
3.1281773935238217e-06   -8.095570692632104e-06   -3.1767112059101726e-05
3.1281773935238217e-06   -8.095570692632104e-06   -3.1767112059101726e-05
3.1281773935238217e-06   -8.095570692632104e-06   -3.1767112059101726e-05
3.1281773935238217e-06   -8.095570692632104e-06   -3.1767112059101726e-05
3.677248850703321e-06   -3.5895920727415515e-06   -3.1417105692856107e-07
3.677248850703321e-06   -3.5895920727415515e-06   -3.1417105692856107e-07
3.677248850703321e-06   -3.5895920727415515e-06   -3.1417105692856107e-07
3.677248850703321e-06   -3.5895920727415515e-06   -3.1417105692856107e-07
2.2564839231142245e-05   -7.984001112720318e-06   -2.9156842933672966e-05
2.2564839231142245e-05   -7.984001112720318e-06   -2.9156842933672966e-05
2.2564839231142245e-05   -7.984001112720318e-06   -2.9156842933672966e-05
2.2564839231142245e-05   -7.984001112720318e-06   -2.9156842933672966e-05
1.2733765095632738e-05   -5.551386029540055e-06   -1.4231288424398046e-05
1.2733765095632738e-05   -5.551386029540055e-06   -1.4231288424398046e-05
1.2733765095632738e-05   -5.551386029540055e-06   -1.4231288424398046e-05
1.2733765095632738e-05   -5.551386029540055e-06   -1.4231288424398046e-05
2.2564839231142245e-05   -3.5895920727415515e-06   2.3224743670584877e-06
2.2564839231142245e-05   -3.5895920727415515e-06   2.3224743670584877e-06
2.2564839231142245e-05   -3.5895920727415515e-06   2.3224743670584877e-06
2.2564839231142245e-05   -3.5895920727415515e-06   2.3224743670584877e-06
3.6772488507033076e-06   -7.984001112720318e-06   -3.179348835765999e-05
3.6772488507033076e-06   -7.984001112720318e-06   -3.179348835765999e-05
3.6772488507033076e-06   -7.984001112720318e-06   -3.179348835765999e-05
3.6772488507033076e-06   -7.984001112720318e-06   -3.179348835765999e-05
4.4971563809352816e-06   -3.0576980816826235e-06   -7.014892901761709e-07
4.4971563809352816e-06   -3.0576980816826235e-06   -7.014892901761709e-07
4.4971563809352816e-06   -3.0576980816826235e-06   -7.014892901761709e-07
4.4971563809352816e-06   -3.0576980816826235e-06   -7.014892901761709e-07
2.3025248007023125e-05   -7.762983560287385e-06   -2.8758470713159895e-05
2.3025248007023125e-05   -7.762983560287385e-06   -2.8758470713159895e-05
2.3025248007023125e-05   -7.762983560287385e-06   -2.8758470713159895e-05
2.3025248007023125e-05   -7.762983560287385e-06   -2.8758470713159895e-05
1.3393556826898404e-05   -5.461834293962373e-06   -1.4086341639413659e-05
1.3393556826898404e-05   -5.461834293962373e-06   -1.4086341639413659e-05
1.3393556826898404e-05   -5.461834293962373e-06   -1.4086341639413659e-05
1.3393556826898404e-05   -5.461834293962373e-06   -1.4086341639413659e-05
2.519827797059775e-06   -2.1621270288572653e-06   -3.1667377629097e-06
2.519827797059775e-06   -2.1621270288572653e-06   -3.1667377629097e-06
2.519827797059775e-06   -2.1621270288572653e-06   -3.1667377629097e-06
2.519827797059775e-06   -2.1621270288572653e-06   -3.1667377629097e-06
-1.6362247527367367e-05   -9.778651993720298e-06   -3.92067782825394e-05
-1.6362247527367367e-05   -9.778651993720298e-06   -3.92067782825394e-05
-1.6362247527367367e-05   -9.778651993720298e-06   -3.92067782825394e-05
-1.6362247527367367e-05   -9.778651993720298e-06   -3.92067782825394e-05
-1.5414156652074577e-05   -1.9238528029322504e-06   -6.900504595093579e-06
-1.5414156652074577e-05   -1.9238528029322504e-06   -6.900504595093579e-06
-1.5414156652074577e-05   -1.9238528029322504e-06   -6.900504595093579e-06
-1.5414156652074577e-05   -1.9238528029322504e-06   -6.900504595093579e-06
3.1281773935238217e-06   -9.991652654757271e-06   -3.296371475999555e-05
3.1281773935238217e-06   -9.991652654757271e-06   -3.296371475999555e-05
3.1281773935238217e-06   -9.991652654757271e-06   -3.296371475999555e-05
3.1281773935238217e-06   -9.991652654757271e-06   -3.296371475999555e-05
-6.31593761417312e-06   -5.518981201976152e-06   -1.990712595216932e-05
-6.31593761417312e-06   -5.518981201976152e-06   -1.990712595216932e-05
-6.31593761417312e-06   -5.518981201976152e-06   -1.990712595216932e-05
-6.31593761417312e-06   -5.518981201976152e-06   -1.990712595216932e-05
3.1281773935238217e-06   -1.9238528029322504e-06   -2.0598246839982165e-06
3.1281773935238217e-06   -1.9238528029322504e-06   -2.0598246839982165e-06
3.1281773935238217e-06   -1.9238528029322504e-06   -2.0598246839982165e-06
3.1281773935238217e-06   -1.9238528029322504e-06   -2.0598246839982165e-06
-1.5414156652074605e-05   -9.991652654757271e-06   -3.780439467109063e-05
-1.5414156652074605e-05   -9.991652654757271e-06   -3.780439467109063e-05
-1.5414156652074605e-05   -9.991652654757271e-06   -3.780439467109063e-05
-1.5414156652074605e-05   -9.991652654757271e-06   -3.780439467109063e-05
-1.459662640141247e-05   -1.5552807363888692e-06   -6.437575620069167e-06
-1.459662640141247e-05   -1.5552807363888692e-06   -6.437575620069167e-06
-1.459662640141247e-05   -1.5552807363888692e-06   -6.437575620069167e-06
-1.459662640141247e-05   -1.5552807363888692e-06   -6.437575620069167e-06
3.6772488507033076e-06   -9.940980339971477e-06   -3.186261461144595e-05
3.6772488507033076e-06   -9.940980339971477e-06   -3.186261461144595e-05
3.6772488507033076e-06   -9.940980339971477e-06   -3.186261461144595e-05
3.6772488507033076e-06   -9.940980339971477e-06   -3.186261461144595e-05
-5.642954183253634e-06   -5.64122121830509e-06   -1.8908798361184226e-05
-5.642954183253634e-06   -5.64122121830509e-06   -1.8908798361184226e-05
-5.642954183253634e-06   -5.64122121830509e-06   -1.8908798361184226e-05
-5.642954183253634e-06   -5.64122121830509e-06   -1.8908798361184226e-05
3.6772488507033076e-06   -1.5552807363888692e-06   -1.406155857919581e-06
3.6772488507033076e-06   -1.5552807363888692e-06   -1.406155857919581e-06
3.6772488507033076e-06   -1.5552807363888692e-06   -1.406155857919581e-06
3.6772488507033076e-06   -1.5552807363888692e-06   -1.406155857919581e-06
-1.4596626401412518e-05   -9.940980339971477e-06   -3.6894034373595756e-05
-1.4596626401412518e-05   -9.940980339971477e-06   -3.6894034373595756e-05
-1.4596626401412518e-05   -9.940980339971477e-06   -3.6894034373595756e-05
-1.4596626401412518e-05   -9.940980339971477e-06   -3.6894034373595756e-05
-1.318574913369509e-05   -1.2054333822424188e-06   -6.411160601648086e-06
-1.318574913369509e-05   -1.2054333822424188e-06   -6.411160601648086e-06
-1.318574913369509e-05   -1.2054333822424188e-06   -6.411160601648086e-06
-1.318574913369509e-05   -1.2054333822424188e-06   -6.411160601648086e-06
4.4971563809352816e-06   -9.58779428029792e-06   -3.0853253253865535e-05
4.4971563809352816e-06   -9.58779428029792e-06   -3.0853253253865535e-05
4.4971563809352816e-06   -9.58779428029792e-06   -3.0853253253865535e-05
4.4971563809352816e-06   -9.58779428029792e-06   -3.0853253253865535e-05
-4.768172112130435e-06   -5.512522205104405e-06   -1.7856202343871923e-05
-4.768172112130435e-06   -5.512522205104405e-06   -1.7856202343871923e-05
-4.768172112130435e-06   -5.512522205104405e-06   -1.7856202343871923e-05
-4.768172112130435e-06   -5.512522205104405e-06   -1.7856202343871923e-05
-1.6362247527367327e-05   6.021761277408017e-07   -4.4546356261469805e-06
-1.6362247527367327e-05   6.021761277408017e-07   -4.4546356261469805e-06
-1.6362247527367327e-05   6.021761277408017e-07   -4.4546356261469805e-06
-1.6362247527367327e-05   6.021761277408017e-07   -4.4546356261469805e-06
-3.741224323775931e-05   -1.2153038346606046e-05   -4.719109049474183e-05
-3.741224323775931e-05   -1.2153038346606046e-05   -4.719109049474183e-05
-3.741224323775931e-05   -1.2153038346606046e-05   -4.719109049474183e-05
-3.741224323775931e-05   -1.2153038346606046e-05   -4.719109049474183e-05
-3.6276859494644256e-05   1.039465989977062e-06   -1.1730069407667274e-05
-3.6276859494644256e-05   1.039465989977062e-06   -1.1730069407667274e-05
-3.6276859494644256e-05   1.039465989977062e-06   -1.1730069407667274e-05
-3.6276859494644256e-05   1.039465989977062e-06   -1.1730069407667274e-05
-1.5414156652074577e-05   -1.3586195106717134e-05   -3.772584415393356e-05
-1.5414156652074577e-05   -1.3586195106717134e-05   -3.772584415393356e-05
-1.5414156652074577e-05   -1.3586195106717134e-05   -3.772584415393356e-05
-1.5414156652074577e-05   -1.3586195106717134e-05   -3.772584415393356e-05
-2.5989182278742892e-05   -6.159738293138152e-06   -2.4556675530967007e-05
-2.5989182278742892e-05   -6.159738293138152e-06   -2.4556675530967007e-05
-2.5989182278742892e-05   -6.159738293138152e-06   -2.4556675530967007e-05
-2.5989182278742892e-05   -6.159738293138152e-06   -2.4556675530967007e-05
-1.5414156652074577e-05   1.039465989977062e-06   -2.954672749650888e-06
-1.5414156652074577e-05   1.039465989977062e-06   -2.954672749650888e-06
-1.5414156652074577e-05   1.039465989977062e-06   -2.954672749650888e-06
-1.5414156652074577e-05   1.039465989977062e-06   -2.954672749650888e-06
-3.627685949464431e-05   -1.3586195106716917e-05   -4.650124081195014e-05
-3.627685949464431e-05   -1.3586195106716917e-05   -4.650124081195014e-05
-3.627685949464431e-05   -1.3586195106716917e-05   -4.650124081195014e-05
-3.627685949464431e-05   -1.3586195106716917e-05   -4.650124081195014e-05
-3.5188838719553426e-05   1.4416746026905784e-06   -1.0457541413351826e-05
-3.5188838719553426e-05   1.4416746026905784e-06   -1.0457541413351826e-05
-3.5188838719553426e-05   1.4416746026905784e-06   -1.0457541413351826e-05
-3.5188838719553426e-05   1.4416746026905784e-06   -1.0457541413351826e-05
-1.4596626401412505e-05   -1.365802284708376e-05   -3.571807680705552e-05
-1.4596626401412505e-05   -1.365802284708376e-05   -3.571807680705552e-05
-1.4596626401412505e-05   -1.365802284708376e-05   -3.571807680705552e-05
-1.4596626401412505e-05   -1.365802284708376e-05   -3.571807680705552e-05
-2.4882021115781476e-05   -6.177032951285369e-06   -2.3064346220586375e-05
-2.4882021115781476e-05   -6.177032951285369e-06   -2.3064346220586375e-05
-2.4882021115781476e-05   -6.177032951285369e-06   -2.3064346220586375e-05
-2.4882021115781476e-05   -6.177032951285369e-06   -2.3064346220586375e-05
-1.4596626401412505e-05   1.4416746026905784e-06   -1.3977229434872744e-06
-1.4596626401412505e-05   1.4416746026905784e-06   -1.3977229434872744e-06
-1.4596626401412505e-05   1.4416746026905784e-06   -1.3977229434872744e-06
-1.4596626401412505e-05   1.4416746026905784e-06   -1.3977229434872744e-06
-3.518883871955348e-05   -1.3658022847083543e-05   -4.4777895276920166e-05
-3.518883871955348e-05   -1.3658022847083543e-05   -4.4777895276920166e-05
-3.518883871955348e-05   -1.3658022847083543e-05   -4.4777895276920166e-05
-3.518883871955348e-05   -1.3658022847083543e-05   -4.4777895276920166e-05
-3.340304978921784e-05   1.7811629874874002e-06   -9.164453363675034e-06
-3.340304978921784e-05   1.7811629874874002e-06   -9.164453363675034e-06
-3.340304978921784e-05   1.7811629874874002e-06   -9.164453363675034e-06
-3.340304978921784e-05   1.7811629874874002e-06   -9.164453363675034e-06
-1.3185749133695144e-05   -1.2440763665342181e-05   -3.432679846451499e-05
-1.3185749133695144e-05   -1.2440763665342181e-05   -3.432679846451499e-05
-1.3185749133695144e-05   -1.2440763665342181e-05   -3.432679846451499e-05
-1.3185749133695144e-05   -1.2440763665342181e-05   -3.432679846451499e-05
-2.3791756900023035e-05   -5.4388598753233675e-06   -2.085126112797987e-05
-2.3791756900023035e-05   -5.4388598753233675e-06   -2.085126112797987e-05
-2.3791756900023035e-05   -5.4388598753233675e-06   -2.085126112797987e-05
-2.3791756900023035e-05   -5.4388598753233675e-06   -2.085126112797987e-05
-3.741224323775931e-05   5.36647277376537e-06   -7.938180726715464e-06
-3.741224323775931e-05   5.36647277376537e-06   -7.938180726715464e-06
-3.741224323775931e-05   5.36647277376537e-06   -7.938180726715464e-06
-3.741224323775931e-05   5.36647277376537e-06   -7.938180726715464e-06
-6.432439433996792e-05   0.0   -5.60116495613225e-05
-6.432439433996792e-05   0.0   -5.60116495613225e-05
-6.432439433996792e-05   0.0   -5.60116495613225e-05
-6.432439433996792e-05   0.0   -5.60116495613225e-05
-6.26660253142636e-05   6.77934478557872e-06   -6.062266165536589e-06
-6.26660253142636e-05   6.77934478557872e-06   -6.062266165536589e-06
-6.26660253142636e-05   6.77934478557872e-06   -6.062266165536589e-06
-6.26660253142636e-05   6.77934478557872e-06   -6.062266165536589e-06
-3.6276859494644256e-05   0.0   -4.597660232688822e-05
-3.6276859494644256e-05   0.0   -4.597660232688822e-05
-3.6276859494644256e-05   0.0   -4.597660232688822e-05
-3.6276859494644256e-05   0.0   -4.597660232688822e-05
-4.8039015084917126e-05   2.080284272059133e-06   -2.7621180239668865e-05
-4.8039015084917126e-05   2.080284272059133e-06   -2.7621180239668865e-05
-4.8039015084917126e-05   2.080284272059133e-06   -2.7621180239668865e-05
-4.8039015084917126e-05   2.080284272059133e-06   -2.7621180239668865e-05
-3.627685949464428e-05   6.77934478557872e-06   -1.994659294189441e-06
-3.627685949464428e-05   6.77934478557872e-06   -1.994659294189441e-06
-3.627685949464428e-05   6.77934478557872e-06   -1.994659294189441e-06
-3.627685949464428e-05   6.77934478557872e-06   -1.994659294189441e-06
-6.266602531426348e-05   0.0   -5.0044209198235514e-05
-6.266602531426348e-05   0.0   -5.0044209198235514e-05
-6.266602531426348e-05   0.0   -5.0044209198235514e-05
-6.266602531426348e-05   0.0   -5.0044209198235514e-05
-6.126125292332468e-05   7.097518146119723e-06   -2.324846344419298e-06
-6.126125292332468e-05   7.097518146119723e-06   -2.324846344419298e-06
-6.126125292332468e-05   7.097518146119723e-06   -2.324846344419298e-06
-6.126125292332468e-05   7.097518146119723e-06   -2.324846344419298e-06
-3.518883871955348e-05   0.0   -4.152035912969958e-05
-3.518883871955348e-05   0.0   -4.152035912969958e-05
-3.518883871955348e-05   0.0   -4.152035912969958e-05
-3.518883871955348e-05   0.0   -4.152035912969958e-05
-4.75528408860139e-05   3.2848996935172688e-06   -2.288462866837515e-05
-4.75528408860139e-05   3.2848996935172688e-06   -2.288462866837515e-05
-4.75528408860139e-05   3.2848996935172688e-06   -2.288462866837515e-05
-4.75528408860139e-05   3.2848996935172688e-06   -2.288462866837515e-05
-3.518883871955348e-05   7.097518146119723e-06   1.933664543252624e-06
-3.518883871955348e-05   7.097518146119723e-06   1.933664543252624e-06
-3.518883871955348e-05   7.097518146119723e-06   1.933664543252624e-06
-3.518883871955348e-05   7.097518146119723e-06   1.933664543252624e-06
-6.126125292332457e-05   0.0   -4.57788700173712e-05
-6.126125292332457e-05   0.0   -4.57788700173712e-05
-6.126125292332457e-05   0.0   -4.57788700173712e-05
-6.126125292332457e-05   0.0   -4.57788700173712e-05
-5.845653214308592e-05   7.63969750288535e-06   3.6973685379092713e-06
-5.845653214308592e-05   7.63969750288535e-06   3.6973685379092713e-06
-5.845653214308592e-05   7.63969750288535e-06   3.6973685379092713e-06
-5.845653214308592e-05   7.63969750288535e-06   3.6973685379092713e-06
-3.3403049789217866e-05   0.0   -3.347461688347315e-05
-3.3403049789217866e-05   0.0   -3.347461688347315e-05
-3.3403049789217866e-05   0.0   -3.347461688347315e-05
-3.3403049789217866e-05   0.0   -3.347461688347315e-05
-4.509827390201428e-05   4.048329127534674e-06   -1.641157417200023e-05
-4.509827390201428e-05   4.048329127534674e-06   -1.641157417200023e-05
-4.509827390201428e-05   4.048329127534674e-06   -1.641157417200023e-05
-4.509827390201428e-05   4.048329127534674e-06   -1.641157417200023e-05
4.7577348234788724e-05   -8.151396586969289e-06   2.8366334610968266e-05
4.7577348234788724e-05   -8.151396586969289e-06   2.8366334610968266e-05
4.7577348234788724e-05   -8.151396586969289e-06   2.8366334610968266e-05
4.7577348234788724e-05   -8.151396586969289e-06   2.8366334610968266e-05
2.4663263884528314e-05   -6.297932362663581e-06   -8.711727438215789e-06
2.4663263884528314e-05   -6.297932362663581e-06   -8.711727438215789e-06
2.4663263884528314e-05   -6.297932362663581e-06   -8.711727438215789e-06
2.4663263884528314e-05   -6.297932362663581e-06   -8.711727438215789e-06
2.4047179980599308e-05   -8.355367429721669e-06   2.5033326980658088e-05
2.4047179980599308e-05   -8.355367429721669e-06   2.5033326980658088e-05
2.4047179980599308e-05   -8.355367429721669e-06   2.5033326980658088e-05
2.4047179980599308e-05   -8.355367429721669e-06   2.5033326980658088e-05
4.707456678515229e-05   -6.921234496063853e-06   -1.4206130787125168e-05
4.707456678515229e-05   -6.921234496063853e-06   -1.4206130787125168e-05
4.707456678515229e-05   -6.921234496063853e-06   -1.4206130787125168e-05
4.707456678515229e-05   -6.921234496063853e-06   -1.4206130787125168e-05
3.4372951219141366e-05   -7.032797009846599e-06   7.030165997829461e-06
3.4372951219141366e-05   -7.032797009846599e-06   7.030165997829461e-06
3.4372951219141366e-05   -7.032797009846599e-06   7.030165997829461e-06
3.4372951219141366e-05   -7.032797009846599e-06   7.030165997829461e-06
4.707456678515229e-05   -8.355367429721669e-06   2.417284722046331e-05
4.707456678515229e-05   -8.355367429721669e-06   2.417284722046331e-05
4.707456678515229e-05   -8.355367429721669e-06   2.417284722046331e-05
4.707456678515229e-05   -8.355367429721669e-06   2.417284722046331e-05
2.4047179980599308e-05   -6.921234496063853e-06   -1.3345651026930284e-05
2.4047179980599308e-05   -6.921234496063853e-06   -1.3345651026930284e-05
2.4047179980599308e-05   -6.921234496063853e-06   -1.3345651026930284e-05
2.4047179980599308e-05   -6.921234496063853e-06   -1.3345651026930284e-05
2.3489443587236108e-05   -8.278624617262878e-06   2.2465891821933518e-05
2.3489443587236108e-05   -8.278624617262878e-06   2.2465891821933518e-05
2.3489443587236108e-05   -8.278624617262878e-06   2.2465891821933518e-05
2.3489443587236108e-05   -8.278624617262878e-06   2.2465891821933518e-05
4.649150190619255e-05   -6.9773167659828265e-06   -1.6651656753761848e-05
4.649150190619255e-05   -6.9773167659828265e-06   -1.6651656753761848e-05
4.649150190619255e-05   -6.9773167659828265e-06   -1.6651656753761848e-05
4.649150190619255e-05   -6.9773167659828265e-06   -1.6651656753761848e-05
3.435202579619957e-05   -7.156182772282034e-06   3.688123033339331e-06
3.435202579619957e-05   -7.156182772282034e-06   3.688123033339331e-06
3.435202579619957e-05   -7.156182772282034e-06   3.688123033339331e-06
3.435202579619957e-05   -7.156182772282034e-06   3.688123033339331e-06
4.649150190619263e-05   -8.278624617263095e-06   2.1685107111165525e-05
4.649150190619263e-05   -8.278624617263095e-06   2.1685107111165525e-05
4.649150190619263e-05   -8.278624617263095e-06   2.1685107111165525e-05
4.649150190619263e-05   -8.278624617263095e-06   2.1685107111165525e-05
2.3489443587236108e-05   -6.9773167659828265e-06   -1.5870872042993882e-05
2.3489443587236108e-05   -6.9773167659828265e-06   -1.5870872042993882e-05
2.3489443587236108e-05   -6.9773167659828265e-06   -1.5870872042993882e-05
2.3489443587236108e-05   -6.9773167659828265e-06   -1.5870872042993882e-05
2.2808767611350747e-05   -7.815031575067423e-06   1.8288852889360684e-05
2.2808767611350747e-05   -7.815031575067423e-06   1.8288852889360684e-05
2.2808767611350747e-05   -7.815031575067423e-06   1.8288852889360684e-05
2.2808767611350747e-05   -7.815031575067423e-06   1.8288852889360684e-05
4.557779670161029e-05   -6.82740334124912e-06   -2.0252105868029738e-05
4.557779670161029e-05   -6.82740334124912e-06   -2.0252105868029738e-05
4.557779670161029e-05   -6.82740334124912e-06   -2.0252105868029738e-05
4.557779670161029e-05   -6.82740334124912e-06   -2.0252105868029738e-05
3.31839695030502e-05   -6.8043586817762404e-06   3.904460005535069e-07
3.31839695030502e-05   -6.8043586817762404e-06   3.904460005535069e-07
3.31839695030502e-05   -6.8043586817762404e-06   3.904460005535069e-07
3.31839695030502e-05   -6.8043586817762404e-06   3.904460005535069e-07
2.4663263884528314e-05   -8.139480179841958e-06   2.1167126040144653e-05
2.4663263884528314e-05   -8.139480179841958e-06   2.1167126040144653e-05
2.4663263884528314e-05   -8.139480179841958e-06   2.1167126040144653e-05
2.4663263884528314e-05   -8.139480179841958e-06   2.1167126040144653e-05
5.192563537514098e-06   -3.8750672803999735e-06   -8.72539346521387e-06
5.192563537514098e-06   -3.8750672803999735e-06   -8.72539346521387e-06
5.192563537514098e-06   -3.8750672803999735e-06   -8.72539346521387e-06
5.192563537514098e-06   -3.8750672803999735e-06   -8.72539346521387e-06
4.217624732418863e-06   -8.095570692632104e-06   2.414048123410028e-05
4.217624732418863e-06   -8.095570692632104e-06   2.414048123410028e-05
4.217624732418863e-06   -8.095570692632104e-06   2.414048123410028e-05
4.217624732418863e-06   -8.095570692632104e-06   2.414048123410028e-05
2.4047179980599308e-05   -4.108721176243786e-06   -1.1300887222699717e-05
2.4047179980599308e-05   -4.108721176243786e-06   -1.1300887222699717e-05
2.4047179980599308e-05   -4.108721176243786e-06   -1.1300887222699717e-05
2.4047179980599308e-05   -4.108721176243786e-06   -1.1300887222699717e-05
1.4509030914625887e-05   -5.830247791696846e-06   5.6289438565276925e-06
1.4509030914625887e-05   -5.830247791696846e-06   5.6289438565276925e-06
1.4509030914625887e-05   -5.830247791696846e-06   5.6289438565276925e-06
1.4509030914625887e-05   -5.830247791696846e-06   5.6289438565276925e-06
2.404717998059928e-05   -8.095570692632104e-06   2.1748371524267523e-05
2.404717998059928e-05   -8.095570692632104e-06   2.1748371524267523e-05
2.404717998059928e-05   -8.095570692632104e-06   2.1748371524267523e-05
2.404717998059928e-05   -8.095570692632104e-06   2.1748371524267523e-05
4.217624732418877e-06   -4.108721176244003e-06   -8.908777512866878e-06
4.217624732418877e-06   -4.108721176244003e-06   -8.908777512866878e-06
4.217624732418877e-06   -4.108721176244003e-06   -8.908777512866878e-06
4.217624732418877e-06   -4.108721176244003e-06   -8.908777512866878e-06
3.521713694999728e-06   -7.984001112720318e-06   2.4168909983942775e-05
3.521713694999728e-06   -7.984001112720318e-06   2.4168909983942775e-05
3.521713694999728e-06   -7.984001112720318e-06   2.4168909983942775e-05
3.521713694999728e-06   -7.984001112720318e-06   2.4168909983942775e-05
2.3489443587236108e-05   -4.210912711466886e-06   -1.1374492877203437e-05
2.3489443587236108e-05   -4.210912711466886e-06   -1.1374492877203437e-05
2.3489443587236108e-05   -4.210912711466886e-06   -1.1374492877203437e-05
2.3489443587236108e-05   -4.210912711466886e-06   -1.1374492877203437e-05
1.3671703621099195e-05   -5.7094949176681635e-06   5.887556390079564e-06
1.3671703621099195e-05   -5.7094949176681635e-06   5.887556390079564e-06
1.3671703621099195e-05   -5.7094949176681635e-06   5.887556390079564e-06
1.3671703621099195e-05   -5.7094949176681635e-06   5.887556390079564e-06
2.348944358723615e-05   -7.984001112720318e-06   2.1905056943190575e-05
2.348944358723615e-05   -7.984001112720318e-06   2.1905056943190575e-05
2.348944358723615e-05   -7.984001112720318e-06   2.1905056943190575e-05
2.348944358723615e-05   -7.984001112720318e-06   2.1905056943190575e-05
3.521713694999728e-06   -4.210912711466886e-06   -9.11063983645129e-06
3.521713694999728e-06   -4.210912711466886e-06   -9.11063983645129e-06
3.521713694999728e-06   -4.210912711466886e-06   -9.11063983645129e-06
3.521713694999728e-06   -4.210912711466886e-06   -9.11063983645129e-06
2.7478564001095254e-06   -7.762983560287385e-06   2.4946299170604388e-05
2.7478564001095254e-06   -7.762983560287385e-06   2.4946299170604388e-05
2.7478564001095254e-06   -7.762983560287385e-06   2.4946299170604388e-05
2.7478564001095254e-06   -7.762983560287385e-06   2.4946299170604388e-05
2.2808767611350733e-05   -4.112924147846699e-06   -1.0678588495595213e-05
2.2808767611350733e-05   -4.112924147846699e-06   -1.0678588495595213e-05
2.2808767611350733e-05   -4.112924147846699e-06   -1.0678588495595213e-05
2.2808767611350733e-05   -4.112924147846699e-06   -1.0678588495595213e-05
1.3160958391708038e-05   -5.456647141534733e-06   6.207327333355181e-06
1.3160958391708038e-05   -5.456647141534733e-06   6.207327333355181e-06
1.3160958391708038e-05   -5.456647141534733e-06   6.207327333355181e-06
1.3160958391708038e-05   -5.456647141534733e-06   6.207327333355181e-06
5.192563537514098e-06   -9.778651993720298e-06   2.1754134923595024e-05
5.192563537514098e-06   -9.778651993720298e-06   2.1754134923595024e-05
5.192563537514098e-06   -9.778651993720298e-06   2.1754134923595024e-05
5.192563537514098e-06   -9.778651993720298e-06   2.1754134923595024e-05
-1.3515857356029103e-05   -1.6000108786181407e-06   -4.5193818965824206e-06
-1.3515857356029103e-05   -1.6000108786181407e-06   -4.5193818965824206e-06
-1.3515857356029103e-05   -1.6000108786181407e-06   -4.5193818965824206e-06
-1.3515857356029103e-05   -1.6000108786181407e-06   -4.5193818965824206e-06
-1.5031983984745327e-05   -9.991652654757271e-06   2.7925717268375595e-05
-1.5031983984745327e-05   -9.991652654757271e-06   2.7925717268375595e-05
-1.5031983984745327e-05   -9.991652654757271e-06   2.7925717268375595e-05
-1.5031983984745327e-05   -9.991652654757271e-06   2.7925717268375595e-05
4.217624732418877e-06   -1.6885880961424373e-06   -9.138802662066701e-06
4.217624732418877e-06   -1.6885880961424373e-06   -9.138802662066701e-06
4.217624732418877e-06   -1.6885880961424373e-06   -9.138802662066701e-06
4.217624732418877e-06   -1.6885880961424373e-06   -9.138802662066701e-06
-4.618612770866955e-06   -5.578548850112175e-06   7.922236295791415e-06
-4.618612770866955e-06   -5.578548850112175e-06   7.922236295791415e-06
-4.618612770866955e-06   -5.578548850112175e-06   7.922236295791415e-06
-4.618612770866955e-06   -5.578548850112175e-06   7.922236295791415e-06
4.217624732418863e-06   -9.991652654757271e-06   2.2943878533206727e-05
4.217624732418863e-06   -9.991652654757271e-06   2.2943878533206727e-05
4.217624732418863e-06   -9.991652654757271e-06   2.2943878533206727e-05
4.217624732418863e-06   -9.991652654757271e-06   2.2943878533206727e-05
-1.50319839847453e-05   -1.6885880961426541e-06   -4.156963926897888e-06
-1.50319839847453e-05   -1.6885880961426541e-06   -4.156963926897888e-06
-1.50319839847453e-05   -1.6885880961426541e-06   -4.156963926897888e-06
-1.50319839847453e-05   -1.6885880961426541e-06   -4.156963926897888e-06
-1.595976702888633e-05   -9.940980339971477e-06   2.8985848271764064e-05
-1.595976702888633e-05   -9.940980339971477e-06   2.8985848271764064e-05
-1.595976702888633e-05   -9.940980339971477e-06   2.8985848271764064e-05
-1.595976702888633e-05   -9.940980339971477e-06   2.8985848271764064e-05
3.521713694999728e-06   -1.7975394372925745e-06   -8.369350809653286e-06
3.521713694999728e-06   -1.7975394372925745e-06   -8.369350809653286e-06
3.521713694999728e-06   -1.7975394372925745e-06   -8.369350809653286e-06
3.521713694999728e-06   -1.7975394372925745e-06   -8.369350809653286e-06
-5.6455714308017155e-06   -5.557729819211034e-06   9.165571962500146e-06
-5.6455714308017155e-06   -5.557729819211034e-06   9.165571962500146e-06
-5.6455714308017155e-06   -5.557729819211034e-06   9.165571962500146e-06
-5.6455714308017155e-06   -5.557729819211034e-06   9.165571962500146e-06
3.5217136949997145e-06   -9.940980339971477e-06   2.4099783730156986e-05
3.5217136949997145e-06   -9.940980339971477e-06   2.4099783730156986e-05
3.5217136949997145e-06   -9.940980339971477e-06   2.4099783730156986e-05
3.5217136949997145e-06   -9.940980339971477e-06   2.4099783730156986e-05
-1.595976702888629e-05   -1.7975394372925745e-06   -3.4832862680459235e-06
-1.595976702888629e-05   -1.7975394372925745e-06   -3.4832862680459235e-06
-1.595976702888629e-05   -1.7975394372925745e-06   -3.4832862680459235e-06
-1.595976702888629e-05   -1.7975394372925745e-06   -3.4832862680459235e-06
-1.7049642227088546e-05   -9.58779428029792e-06   3.0356668428747294e-05
-1.7049642227088546e-05   -9.58779428029792e-06   3.0356668428747294e-05
-1.7049642227088546e-05   -9.58779428029792e-06   3.0356668428747294e-05
-1.7049642227088546e-05   -9.58779428029792e-06   3.0356668428747294e-05
2.7478564001095254e-06   -1.7844934274882217e-06   -7.321143128268589e-06
2.7478564001095254e-06   -1.7844934274882217e-06   -7.321143128268589e-06
2.7478564001095254e-06   -1.7844934274882217e-06   -7.321143128268589e-06
2.7478564001095254e-06   -1.7844934274882217e-06   -7.321143128268589e-06
-6.4824013679362115e-06   -5.332435889387555e-06   1.019138529561388e-05
-6.4824013679362115e-06   -5.332435889387555e-06   1.019138529561388e-05
-6.4824013679362115e-06   -5.332435889387555e-06   1.019138529561388e-05
-6.4824013679362115e-06   -5.332435889387555e-06   1.019138529561388e-05
-1.3515857356029116e-05   -1.2153038346606046e-05   2.6330136065062145e-05
-1.3515857356029116e-05   -1.2153038346606046e-05   2.6330136065062145e-05
-1.3515857356029116e-05   -1.2153038346606046e-05   2.6330136065062145e-05
-1.3515857356029116e-05   -1.2153038346606046e-05   2.6330136065062145e-05
-3.478662163303853e-05   1.8048004548423813e-06   -7.464344490842748e-07
-3.478662163303853e-05   1.8048004548423813e-06   -7.464344490842748e-07
-3.478662163303853e-05   1.8048004548423813e-06   -7.464344490842748e-07
-3.478662163303853e-05   1.8048004548423813e-06   -7.464344490842748e-07
-3.661269367223358e-05   -1.3586195106716917e-05   3.7178800946318724e-05
-3.661269367223358e-05   -1.3586195106716917e-05   3.7178800946318724e-05
-3.661269367223358e-05   -1.3586195106716917e-05   3.7178800946318724e-05
-3.661269367223358e-05   -1.3586195106716917e-05   3.7178800946318724e-05
-1.50319839847453e-05   1.7046934945926396e-06   -7.96358169361422e-06
-1.50319839847453e-05   1.7046934945926396e-06   -7.96358169361422e-06
-1.50319839847453e-05   1.7046934945926396e-06   -7.96358169361422e-06
-1.50319839847453e-05   1.7046934945926396e-06   -7.96358169361422e-06
-2.4640257847957322e-05   -5.006889509431172e-06   1.2077157880820003e-05
-2.4640257847957322e-05   -5.006889509431172e-06   1.2077157880820003e-05
-2.4640257847957322e-05   -5.006889509431172e-06   1.2077157880820003e-05
-2.4640257847957322e-05   -5.006889509431172e-06   1.2077157880820003e-05
-1.50319839847453e-05   -1.3586195106717134e-05   2.8004267785532977e-05
-1.50319839847453e-05   -1.3586195106717134e-05   2.8004267785532977e-05
-1.50319839847453e-05   -1.3586195106717134e-05   2.8004267785532977e-05
-1.50319839847453e-05   -1.3586195106717134e-05   2.8004267785532977e-05
-3.661269367223351e-05   1.7046934945926396e-06   1.2109514671717302e-06
-3.661269367223351e-05   1.7046934945926396e-06   1.2109514671717302e-06
-3.661269367223351e-05   1.7046934945926396e-06   1.2109514671717302e-06
-3.661269367223351e-05   1.7046934945926396e-06   1.2109514671717302e-06
-3.772487558760867e-05   -1.3658022847083543e-05   3.926553208826876e-05
-3.772487558760867e-05   -1.3658022847083543e-05   3.926553208826876e-05
-3.772487558760867e-05   -1.3658022847083543e-05   3.926553208826876e-05
-3.772487558760867e-05   -1.3658022847083543e-05   3.926553208826876e-05
-1.595976702888629e-05   1.5148542361902335e-06   -6.113375092899531e-06
-1.595976702888629e-05   1.5148542361902335e-06   -6.113375092899531e-06
-1.595976702888629e-05   1.5148542361902335e-06   -6.113375092899531e-06
-1.595976702888629e-05   1.5148542361902335e-06   -6.113375092899531e-06
-2.5823707953930044e-05   -5.778616036417419e-06   1.4702608612404732e-05
-2.5823707953930044e-05   -5.778616036417419e-06   1.4702608612404732e-05
-2.5823707953930044e-05   -5.778616036417419e-06   1.4702608612404732e-05
-2.5823707953930044e-05   -5.778616036417419e-06   1.4702608612404732e-05
-1.595976702888629e-05   -1.365802284708376e-05   3.0161805838304205e-05
-1.595976702888629e-05   -1.365802284708376e-05   3.0161805838304205e-05
-1.595976702888629e-05   -1.365802284708376e-05   3.0161805838304205e-05
-1.595976702888629e-05   -1.365802284708376e-05   3.0161805838304205e-05
-3.772487558760861e-05   1.5148542361902335e-06   2.99035115706493e-06
-3.772487558760861e-05   1.5148542361902335e-06   2.99035115706493e-06
-3.772487558760861e-05   1.5148542361902335e-06   2.99035115706493e-06
-3.772487558760861e-05   1.5148542361902335e-06   2.99035115706493e-06
-3.892415814520759e-05   -1.2440763665342181e-05   4.015653287583955e-05
-3.892415814520759e-05   -1.2440763665342181e-05   4.015653287583955e-05
-3.892415814520759e-05   -1.2440763665342181e-05   4.015653287583955e-05
-3.892415814520759e-05   -1.2440763665342181e-05   4.015653287583955e-05
-1.7049642227088546e-05   1.2992248661714348e-06   -4.544986773267253e-06
-1.7049642227088546e-05   1.2992248661714348e-06   -4.544986773267253e-06
-1.7049642227088546e-05   1.2992248661714348e-06   -4.544986773267253e-06
-1.7049642227088546e-05   1.2992248661714348e-06   -4.544986773267253e-06
-2.7046425560445666e-05   -5.819168021048253e-06   1.63873545146599e-05
-2.7046425560445666e-05   -5.819168021048253e-06   1.63873545146599e-05
-2.7046425560445666e-05   -5.819168021048253e-06   1.63873545146599e-05
-2.7046425560445666e-05   -5.819168021048253e-06   1.63873545146599e-05
-3.4786621633038395e-05   0.0   2.9104163943609513e-05
-3.4786621633038395e-05   0.0   2.9104163943609513e-05
-3.4786621633038395e-05   0.0   2.9104163943609513e-05
-3.4786621633038395e-05   0.0   2.9104163943609513e-05
-6.116832304068374e-05   8.0317164684535e-06   -1.0046308521393862e-05
-6.116832304068374e-05   8.0317164684535e-06   -1.0046308521393862e-05
-6.116832304068374e-05   8.0317164684535e-06   -1.0046308521393862e-05
-6.116832304068374e-05   8.0317164684535e-06   -1.0046308521393862e-05
-6.367881278215555e-05   0.0   4.23602220305133e-05
-6.367881278215555e-05   0.0   4.23602220305133e-05
-6.367881278215555e-05   0.0   4.23602220305133e-05
-6.367881278215555e-05   0.0   4.23602220305133e-05
-3.661269367223351e-05   7.761304331888475e-06   -7.406759085156443e-06
-3.661269367223351e-05   7.761304331888475e-06   -7.406759085156443e-06
-3.661269367223351e-05   7.761304331888475e-06   -7.406759085156443e-06
-3.661269367223351e-05   7.761304331888475e-06   -7.406759085156443e-06
-4.697110537520804e-05   4.764459982450333e-06   1.1655367029463743e-05
-4.697110537520804e-05   4.764459982450333e-06   1.1655367029463743e-05
-4.697110537520804e-05   4.764459982450333e-06   1.1655367029463743e-05
-4.697110537520804e-05   4.764459982450333e-06   1.1655367029463743e-05
-3.6612693672233486e-05   0.0   3.7703439431380337e-05
-3.6612693672233486e-05   0.0   3.7703439431380337e-05
-3.6612693672233486e-05   0.0   3.7703439431380337e-05
-3.6612693672233486e-05   0.0   3.7703439431380337e-05
-6.367881278215566e-05   7.761304331888475e-06   -2.749976486023575e-06
-6.367881278215566e-05   7.761304331888475e-06   -2.749976486023575e-06
-6.367881278215566e-05   7.761304331888475e-06   -2.749976486023575e-06
-6.367881278215566e-05   7.761304331888475e-06   -2.749976486023575e-06
-6.494221021532604e-05   0.0   4.706252529073501e-05
-6.494221021532604e-05   0.0   4.706252529073501e-05
-6.494221021532604e-05   0.0   4.706252529073501e-05
-6.494221021532604e-05   0.0   4.706252529073501e-05
-3.772487558760861e-05   7.565761758743066e-06   -2.8391561440398953e-06
-3.772487558760861e-05   7.565761758743066e-06   -2.8391561440398953e-06
-3.772487558760861e-05   7.565761758743066e-06   -2.8391561440398953e-06
-3.772487558760861e-05   7.565761758743066e-06   -2.8391561440398953e-06
-4.940286081288518e-05   3.980929519199674e-06   1.8775051908480887e-05
-4.940286081288518e-05   3.980929519199674e-06   1.8775051908480887e-05
-4.940286081288518e-05   3.980929519199674e-06   1.8775051908480887e-05
-4.940286081288518e-05   3.980929519199674e-06   1.8775051908480887e-05
-3.772487558760861e-05   0.0   4.252306823548951e-05
-3.772487558760861e-05   0.0   4.252306823548951e-05
-3.772487558760861e-05   0.0   4.252306823548951e-05
-3.772487558760861e-05   0.0   4.252306823548951e-05
-6.494221021532615e-05   7.565761758743066e-06   1.7003009112059875e-06
-6.494221021532615e-05   7.565761758743066e-06   1.7003009112059875e-06
-6.494221021532615e-05   7.565761758743066e-06   1.7003009112059875e-06
-6.494221021532615e-05   7.565761758743066e-06   1.7003009112059875e-06
-6.63453842297794e-05   0.0   5.333103003133657e-05
-6.63453842297794e-05   0.0   5.333103003133657e-05
-6.63453842297794e-05   0.0   5.333103003133657e-05
-6.63453842297794e-05   0.0   5.333103003133657e-05
-3.892415814520755e-05   6.315265971262602e-06   3.839826974292486e-06
-3.892415814520755e-05   6.315265971262602e-06   3.839826974292486e-06
-3.892415814520755e-05   6.315265971262602e-06   3.839826974292486e-06
-3.892415814520755e-05   6.315265971262602e-06   3.839826974292486e-06
-4.980125245443711e-05   2.801419679159022e-06   2.4076625264936823e-05
-4.980125245443711e-05   2.801419679159022e-06   2.4076625264936823e-05
-4.980125245443711e-05   2.801419679159022e-06   2.4076625264936823e-05
-4.980125245443711e-05   2.801419679159022e-06   2.4076625264936823e-05
4.1919346747835356e-05   -6.297932362663581e-06   2.9697356431970118e-05
4.1919346747835356e-05   -6.297932362663581e-06   2.9697356431970118e-05
4.1919346747835356e-05   -6.297932362663581e-06   2.9697356431970118e-05
4.1919346747835356e-05   -6.297932362663581e-06   2.9697356431970118e-05
2.118595914895877e-05   -4.763576889857792e-06   -3.937676282474221e-06
2.118595914895877e-05   -4.763576889857792e-06   -3.937676282474221e-06
2.118595914895877e-05   -4.763576889857792e-06   -3.937676282474221e-06
2.118595914895877e-05   -4.763576889857792e-06   -3.937676282474221e-06
2.0631098671733517e-05   -6.921234496063853e-06   2.5907917143505382e-05
2.0631098671733517e-05   -6.921234496063853e-06   2.5907917143505382e-05
2.0631098671733517e-05   -6.921234496063853e-06   2.5907917143505382e-05
2.0631098671733517e-05   -6.921234496063853e-06   2.5907917143505382e-05
4.093057375840633e-05   -5.395307601690049e-06   -8.840097470906756e-06
4.093057375840633e-05   -5.395307601690049e-06   -8.840097470906756e-06
4.093057375840633e-05   -5.395307601690049e-06   -8.840097470906756e-06
4.093057375840633e-05   -5.395307601690049e-06   -8.840097470906756e-06
2.977925859408553e-05   -5.61199362614272e-06   9.875439417632878e-06
2.977925859408553e-05   -5.61199362614272e-06   9.875439417632878e-06
2.977925859408553e-05   -5.61199362614272e-06   9.875439417632878e-06
2.977925859408553e-05   -5.61199362614272e-06   9.875439417632878e-06
4.0930573758406254e-05   -6.921234496063853e-06   2.4992361006881067e-05
4.0930573758406254e-05   -6.921234496063853e-06   2.4992361006881067e-05
4.0930573758406254e-05   -6.921234496063853e-06   2.4992361006881067e-05
4.0930573758406254e-05   -6.921234496063853e-06   2.4992361006881067e-05
2.0631098671733557e-05   -5.395307601690049e-06   -7.924541334282495e-06
2.0631098671733557e-05   -5.395307601690049e-06   -7.924541334282495e-06
2.0631098671733557e-05   -5.395307601690049e-06   -7.924541334282495e-06
2.0631098671733557e-05   -5.395307601690049e-06   -7.924541334282495e-06
1.9916209902126683e-05   -6.977316765983043e-06   2.324634624205346e-05
1.9916209902126683e-05   -6.977316765983043e-06   2.324634624205346e-05
1.9916209902126683e-05   -6.977316765983043e-06   2.324634624205346e-05
1.9916209902126683e-05   -6.977316765983043e-06   2.324634624205346e-05
3.992969504092305e-05   -5.4883327898856e-06   -1.100285270826595e-05
3.992969504092305e-05   -5.4883327898856e-06   -1.100285270826595e-05
3.992969504092305e-05   -5.4883327898856e-06   -1.100285270826595e-05
3.992969504092305e-05   -5.4883327898856e-06   -1.100285270826595e-05
2.9506076683070096e-05   -5.856190303945609e-06   6.590559063258472e-06
2.9506076683070096e-05   -5.856190303945609e-06   6.590559063258472e-06
2.9506076683070096e-05   -5.856190303945609e-06   6.590559063258472e-06
2.9506076683070096e-05   -5.856190303945609e-06   6.590559063258472e-06
3.992969504092305e-05   -6.9773167659828265e-06   2.23529558563948e-05
3.992969504092305e-05   -6.9773167659828265e-06   2.23529558563948e-05
3.992969504092305e-05   -6.9773167659828265e-06   2.23529558563948e-05
3.992969504092305e-05   -6.9773167659828265e-06   2.23529558563948e-05
1.9916209902126683e-05   -5.4883327898856e-06   -1.0109462322607289e-05
1.9916209902126683e-05   -5.4883327898856e-06   -1.0109462322607289e-05
1.9916209902126683e-05   -5.4883327898856e-06   -1.0109462322607289e-05
1.9916209902126683e-05   -5.4883327898856e-06   -1.0109462322607289e-05
1.9165843967177872e-05   -6.827403341248903e-06   1.9295044772697605e-05
1.9165843967177872e-05   -6.827403341248903e-06   1.9295044772697605e-05
1.9165843967177872e-05   -6.827403341248903e-06   1.9295044772697605e-05
1.9165843967177872e-05   -6.827403341248903e-06   1.9295044772697605e-05
3.8676542574913757e-05   -5.449728460631912e-06   -1.404939116856599e-05
3.8676542574913757e-05   -5.449728460631912e-06   -1.404939116856599e-05
3.8676542574913757e-05   -5.449728460631912e-06   -1.404939116856599e-05
3.8676542574913757e-05   -5.449728460631912e-06   -1.404939116856599e-05
2.8198118862677517e-05   -5.701589730660239e-06   3.5657651138454056e-06
2.8198118862677517e-05   -5.701589730660239e-06   3.5657651138454056e-06
2.8198118862677517e-05   -5.701589730660239e-06   3.5657651138454056e-06
2.8198118862677517e-05   -5.701589730660239e-06   3.5657651138454056e-06
2.118595914895877e-05   -3.8750672803999735e-06   2.804565594899012e-05
2.118595914895877e-05   -3.8750672803999735e-06   2.804565594899012e-05
2.118595914895877e-05   -3.8750672803999735e-06   2.804565594899012e-05
2.118595914895877e-05   -3.8750672803999735e-06   2.804565594899012e-05
2.2861235062344667e-06   -1.6760267722863622e-06   -2.1346458173490245e-06
2.2861235062344667e-06   -1.6760267722863622e-06   -2.1346458173490245e-06
2.2861235062344667e-06   -1.6760267722863622e-06   -2.1346458173490245e-06
2.2861235062344667e-06   -1.6760267722863622e-06   -2.1346458173490245e-06
1.7345033594055425e-06   -4.108721176243786e-06   2.9209128676212356e-05
1.7345033594055425e-06   -4.108721176243786e-06   2.9209128676212356e-05
1.7345033594055425e-06   -4.108721176243786e-06   2.9209128676212356e-05
1.7345033594055425e-06   -4.108721176243786e-06   2.9209128676212356e-05
2.0631098671733557e-05   -2.014641628783143e-06   -3.541644572810842e-06
2.0631098671733557e-05   -2.014641628783143e-06   -3.541644572810842e-06
2.0631098671733557e-05   -2.014641628783143e-06   -3.541644572810842e-06
2.0631098671733557e-05   -2.014641628783143e-06   -3.541644572810842e-06
1.1349390409751324e-05   -2.7144423877733474e-06   1.2347749652553638e-05
1.1349390409751324e-05   -2.7144423877733474e-06   1.2347749652553638e-05
1.1349390409751324e-05   -2.7144423877733474e-06   1.2347749652553638e-05
1.1349390409751324e-05   -2.7144423877733474e-06   1.2347749652553638e-05
2.0631098671733537e-05   -4.108721176243786e-06   2.795268094773595e-05
2.0631098671733537e-05   -4.108721176243786e-06   2.795268094773595e-05
2.0631098671733537e-05   -4.108721176243786e-06   2.795268094773595e-05
2.0631098671733537e-05   -4.108721176243786e-06   2.795268094773595e-05
1.7345033594055425e-06   -2.014641628783143e-06   -2.285196844334326e-06
1.7345033594055425e-06   -2.014641628783143e-06   -2.285196844334326e-06
1.7345033594055425e-06   -2.014641628783143e-06   -2.285196844334326e-06
1.7345033594055425e-06   -2.014641628783143e-06   -2.285196844334326e-06
1.0308053755483243e-06   -4.210912711466669e-06   2.8927972879087827e-05
1.0308053755483243e-06   -4.210912711466669e-06   2.8927972879087827e-05
1.0308053755483243e-06   -4.210912711466669e-06   2.8927972879087827e-05
1.0308053755483243e-06   -4.210912711466669e-06   2.8927972879087827e-05
1.9916209902126683e-05   -2.235500259393109e-06   -3.732948803120053e-06
1.9916209902126683e-05   -2.235500259393109e-06   -3.732948803120053e-06
1.9916209902126683e-05   -2.235500259393109e-06   -3.732948803120053e-06
1.9916209902126683e-05   -2.235500259393109e-06   -3.732948803120053e-06
1.064912148491265e-05   -2.841988837927619e-06   1.2076091706024418e-05
1.064912148491265e-05   -2.841988837927619e-06   1.2076091706024418e-05
1.064912148491265e-05   -2.841988837927619e-06   1.2076091706024418e-05
1.064912148491265e-05   -2.841988837927619e-06   1.2076091706024418e-05
1.991620990212665e-05   -4.210912711466669e-06   2.7742725407843745e-05
1.991620990212665e-05   -4.210912711466669e-06   2.7742725407843745e-05
1.991620990212665e-05   -4.210912711466669e-06   2.7742725407843745e-05
1.991620990212665e-05   -4.210912711466669e-06   2.7742725407843745e-05
1.0308053755483243e-06   -2.235500259393109e-06   -2.5477013318761337e-06
1.0308053755483243e-06   -2.235500259393109e-06   -2.5477013318761337e-06
1.0308053755483243e-06   -2.235500259393109e-06   -2.5477013318761337e-06
1.0308053755483243e-06   -2.235500259393109e-06   -2.5477013318761337e-06
2.534919669137123e-07   -4.112924147846916e-06   2.934670425454506e-05
2.534919669137123e-07   -4.112924147846916e-06   2.934670425454506e-05
2.534919669137123e-07   -4.112924147846916e-06   2.934670425454506e-05
2.534919669137123e-07   -4.112924147846916e-06   2.934670425454506e-05
1.916584396717786e-05   -2.328392398339308e-06   -3.24460146226618e-06
1.916584396717786e-05   -2.328392398339308e-06   -3.24460146226618e-06
1.916584396717786e-05   -2.328392398339308e-06   -3.24460146226618e-06
1.916584396717786e-05   -2.328392398339308e-06   -3.24460146226618e-06
1.0080568673052995e-05   -2.813374219995976e-06   1.218851312093631e-05
1.0080568673052995e-05   -2.813374219995976e-06   1.218851312093631e-05
1.0080568673052995e-05   -2.813374219995976e-06   1.218851312093631e-05
1.0080568673052995e-05   -2.813374219995976e-06   1.218851312093631e-05
2.2861235062344667e-06   -1.6000108786179239e-06   2.8663907153428445e-05
2.2861235062344667e-06   -1.6000108786179239e-06   2.8663907153428445e-05
2.2861235062344667e-06   -1.6000108786179239e-06   2.8663907153428445e-05
2.2861235062344667e-06   -1.6000108786179239e-06   2.8663907153428445e-05
-1.6027218439338545e-05   1.4999386376626789e-06   1.6402872419704617e-09
-1.6027218439338545e-05   1.4999386376626789e-06   1.6402872419704617e-09
-1.6027218439338545e-05   1.4999386376626789e-06   1.6402872419704617e-09
-1.6027218439338545e-05   1.4999386376626789e-06   1.6402872419704617e-09
-1.664891409555227e-05   -1.6885880961426541e-06   3.0737673505415366e-05
-1.664891409555227e-05   -1.6885880961426541e-06   3.0737673505415366e-05
-1.664891409555227e-05   -1.6885880961426541e-06   3.0737673505415366e-05
-1.664891409555227e-05   -1.6885880961426541e-06   3.0737673505415366e-05
1.7345033594055425e-06   1.242361867862538e-06   -1.659925564583952e-06
1.7345033594055425e-06   1.242361867862538e-06   -1.659925564583952e-06
1.7345033594055425e-06   1.242361867862538e-06   -1.659925564583952e-06
1.7345033594055425e-06   1.242361867862538e-06   -1.659925564583952e-06
-7.150891753720737e-06   -8.929188861830223e-10   1.3895019162675612e-05
-7.150891753720737e-06   -8.929188861830223e-10   1.3895019162675612e-05
-7.150891753720737e-06   -8.929188861830223e-10   1.3895019162675612e-05
-7.150891753720737e-06   -8.929188861830223e-10   1.3895019162675612e-05
1.7345033594055425e-06   -1.6885880961426541e-06   2.8979103527012424e-05
1.7345033594055425e-06   -1.6885880961426541e-06   2.8979103527012424e-05
1.7345033594055425e-06   -1.6885880961426541e-06   2.8979103527012424e-05
1.7345033594055425e-06   -1.6885880961426541e-06   2.8979103527012424e-05
-1.664891409555227e-05   1.242361867862538e-06   9.864441381888123e-08
-1.664891409555227e-05   1.242361867862538e-06   9.864441381888123e-08
-1.664891409555227e-05   1.242361867862538e-06   9.864441381888123e-08
-1.664891409555227e-05   1.242361867862538e-06   9.864441381888123e-08
-1.748133726048014e-05   -1.7975394372925745e-06   3.134934578554252e-05
-1.748133726048014e-05   -1.7975394372925745e-06   3.134934578554252e-05
-1.748133726048014e-05   -1.7975394372925745e-06   3.134934578554252e-05
-1.748133726048014e-05   -1.7975394372925745e-06   3.134934578554252e-05
1.0308053755483243e-06   1.0026003621349533e-06   -1.1843091541614663e-06
1.0308053755483243e-06   1.0026003621349533e-06   -1.1843091541614663e-06
1.0308053755483243e-06   1.0026003621349533e-06   -1.1843091541614663e-06
1.0308053755483243e-06   1.0026003621349533e-06   -1.1843091541614663e-06
-7.763853236466235e-06   -7.220553480656328e-08   1.4118338737360945e-05
-7.763853236466235e-06   -7.220553480656328e-08   1.4118338737360945e-05
-7.763853236466235e-06   -7.220553480656328e-08   1.4118338737360945e-05
-7.763853236466235e-06   -7.220553480656328e-08   1.4118338737360945e-05
1.0308053755483243e-06   -1.7975394372925745e-06   2.966926190588594e-05
1.0308053755483243e-06   -1.7975394372925745e-06   2.966926190588594e-05
1.0308053755483243e-06   -1.7975394372925745e-06   2.966926190588594e-05
1.0308053755483243e-06   -1.7975394372925745e-06   2.966926190588594e-05
-1.748133726048014e-05   1.0026003621349533e-06   4.95774725495007e-07
-1.748133726048014e-05   1.0026003621349533e-06   4.95774725495007e-07
-1.748133726048014e-05   1.0026003621349533e-06   4.95774725495007e-07
-1.748133726048014e-05   1.0026003621349533e-06   4.95774725495007e-07
-1.836819737794187e-05   -1.7844934274882217e-06   3.2082988415576934e-05
-1.836819737794187e-05   -1.7844934274882217e-06   3.2082988415576934e-05
-1.836819737794187e-05   -1.7844934274882217e-06   3.2082988415576934e-05
-1.836819737794187e-05   -1.7844934274882217e-06   3.2082988415576934e-05
2.5349196691372585e-07   8.30297307793243e-07   -5.220349336848302e-07
2.5349196691372585e-07   8.30297307793243e-07   -5.220349336848302e-07
2.5349196691372585e-07   8.30297307793243e-07   -5.220349336848302e-07
2.5349196691372585e-07   8.30297307793243e-07   -5.220349336848302e-07
-8.545142054744602e-06   -1.2278308112562922e-07   1.4714203335764223e-05
-8.545142054744602e-06   -1.2278308112562922e-07   1.4714203335764223e-05
-8.545142054744602e-06   -1.2278308112562922e-07   1.4714203335764223e-05
-8.545142054744602e-06   -1.2278308112562922e-07   1.4714203335764223e-05
-1.6027218439338477e-05   1.8048004548423813e-06   2.5922121029825783e-05
-1.6027218439338477e-05   1.8048004548423813e-06   2.5922121029825783e-05
-1.6027218439338477e-05   1.8048004548423813e-06   2.5922121029825783e-05
-1.6027218439338477e-05   1.8048004548423813e-06   2.5922121029825783e-05
-3.398044713669258e-05   4.872769751228419e-06   -2.1591452212658437e-06
-3.398044713669258e-05   4.872769751228419e-06   -2.1591452212658437e-06
-3.398044713669258e-05   4.872769751228419e-06   -2.1591452212658437e-06
-3.398044713669258e-05   4.872769751228419e-06   -2.1591452212658437e-06
-3.4883657271316866e-05   1.7046934945926396e-06   2.8677498384312942e-05
-3.4883657271316866e-05   1.7046934945926396e-06   2.8677498384312942e-05
-3.4883657271316866e-05   1.7046934945926396e-06   2.8677498384312942e-05
-3.4883657271316866e-05   1.7046934945926396e-06   2.8677498384312942e-05
-1.664891409555223e-05   4.615431237282343e-06   -3.4601828875753613e-06
-1.664891409555223e-05   4.615431237282343e-06   -3.4601828875753613e-06
-1.664891409555223e-05   4.615431237282343e-06   -3.4601828875753613e-06
-1.664891409555223e-05   4.615431237282343e-06   -3.4601828875753613e-06
-2.518639289439307e-05   3.3035476564160582e-06   1.1556078592345816e-05
-2.518639289439307e-05   3.3035476564160582e-06   1.1556078592345816e-05
-2.518639289439307e-05   3.3035476564160582e-06   1.1556078592345816e-05
-2.518639289439307e-05   3.3035476564160582e-06   1.1556078592345816e-05
-1.664891409555227e-05   1.7046934945926396e-06   2.6931055738699087e-05
-1.664891409555227e-05   1.7046934945926396e-06   2.6931055738699087e-05
-1.664891409555227e-05   1.7046934945926396e-06   2.6931055738699087e-05
-1.664891409555227e-05   1.7046934945926396e-06   2.6931055738699087e-05
-3.488365727131681e-05   4.615431237282126e-06   -1.7137402419614527e-06
-3.488365727131681e-05   4.615431237282126e-06   -1.7137402419614527e-06
-3.488365727131681e-05   4.615431237282126e-06   -1.7137402419614527e-06
-3.488365727131681e-05   4.615431237282126e-06   -1.7137402419614527e-06
-3.599131721200513e-05   1.5148542361902335e-06   3.04363153441256e-05
-3.599131721200513e-05   1.5148542361902335e-06   3.04363153441256e-05
-3.599131721200513e-05   1.5148542361902335e-06   3.04363153441256e-05
-3.599131721200513e-05   1.5148542361902335e-06   3.04363153441256e-05
-1.748133726048014e-05   4.376618208584964e-06   -2.130709625186014e-06
-1.748133726048014e-05   4.376618208584964e-06   -2.130709625186014e-06
-1.748133726048014e-05   4.376618208584964e-06   -2.130709625186014e-06
-1.748133726048014e-05   4.376618208584964e-06   -2.130709625186014e-06
-2.5857593257148858e-05   3.246039101497257e-06   1.2508064500181017e-05
-2.5857593257148858e-05   3.246039101497257e-06   1.2508064500181017e-05
-2.5857593257148858e-05   3.246039101497257e-06   1.2508064500181017e-05
-2.5857593257148858e-05   3.246039101497257e-06   1.2508064500181017e-05
-1.748133726048014e-05   1.5148542361902335e-06   2.8719256960688832e-05
-1.748133726048014e-05   1.5148542361902335e-06   2.8719256960688832e-05
-1.748133726048014e-05   1.5148542361902335e-06   2.8719256960688832e-05
-1.748133726048014e-05   1.5148542361902335e-06   2.8719256960688832e-05
-3.5991317212005064e-05   4.376618208584964e-06   -4.136512417493273e-07
-3.5991317212005064e-05   4.376618208584964e-06   -4.136512417493273e-07
-3.5991317212005064e-05   4.376618208584964e-06   -4.136512417493273e-07
-3.5991317212005064e-05   4.376618208584964e-06   -4.136512417493273e-07
-3.716244614106689e-05   1.2992248661716516e-06   3.1830420084285336e-05
-3.716244614106689e-05   1.2992248661716516e-06   3.1830420084285336e-05
-3.716244614106689e-05   1.2992248661716516e-06   3.1830420084285336e-05
-3.716244614106689e-05   1.2992248661716516e-06   3.1830420084285336e-05
-1.836819737794183e-05   4.054651241827039e-06   -1.146583679649581e-06
-1.836819737794183e-05   4.054651241827039e-06   -1.146583679649581e-06
-1.836819737794183e-05   4.054651241827039e-06   -1.146583679649581e-06
-1.836819737794183e-05   4.054651241827039e-06   -1.146583679649581e-06
-2.6981058353870582e-05   3.0529161905595327e-06   1.3809225644325967e-05
-2.6981058353870582e-05   3.0529161905595327e-06   1.3809225644325967e-05
-2.6981058353870582e-05   3.0529161905595327e-06   1.3809225644325967e-05
-2.6981058353870582e-05   3.0529161905595327e-06   1.3809225644325967e-05
-3.398044713669258e-05   8.031716468453716e-06   1.3643998654275978e-05
-3.398044713669258e-05   8.031716468453716e-06   1.3643998654275978e-05
-3.398044713669258e-05   8.031716468453716e-06   1.3643998654275978e-05
-3.398044713669258e-05   8.031716468453716e-06   1.3643998654275978e-05
-5.118945319809899e-05   7.924741303709472e-06   -1.5101863213581239e-05
-5.118945319809899e-05   7.924741303709472e-06   -1.5101863213581239e-05
-5.118945319809899e-05   7.924741303709472e-06   -1.5101863213581239e-05
-5.118945319809899e-05   7.924741303709472e-06   -1.5101863213581239e-05
-5.281211023601169e-05   7.761304331888475e-06   2.0251530611387503e-05
-5.281211023601169e-05   7.761304331888475e-06   2.0251530611387503e-05
-5.281211023601169e-05   7.761304331888475e-06   2.0251530611387503e-05
-5.281211023601169e-05   7.761304331888475e-06   2.0251530611387503e-05
-3.488365727131681e-05   8.080875630893467e-06   -9.820967109173571e-06
-3.488365727131681e-05   8.080875630893467e-06   -9.820967109173571e-06
-3.488365727131681e-05   8.080875630893467e-06   -9.820967109173571e-06
-3.488365727131681e-05   8.080875630893467e-06   -9.820967109173571e-06
-4.147687570510158e-05   8.071112083178904e-06   1.1735884090962245e-06
-4.147687570510158e-05   8.071112083178904e-06   1.1735884090962245e-06
-4.147687570510158e-05   8.071112083178904e-06   1.1735884090962245e-06
-4.147687570510158e-05   8.071112083178904e-06   1.1735884090962245e-06
-3.488365727131676e-05   7.761304331888475e-06   2.005978783198455e-05
-3.488365727131676e-05   7.761304331888475e-06   2.005978783198455e-05
-3.488365727131676e-05   7.761304331888475e-06   2.005978783198455e-05
-3.488365727131676e-05   7.761304331888475e-06   2.005978783198455e-05
-5.281211023601169e-05   8.08087563089325e-06   -9.629224329770836e-06
-5.281211023601169e-05   8.08087563089325e-06   -9.629224329770836e-06
-5.281211023601169e-05   8.08087563089325e-06   -9.629224329770836e-06
-5.281211023601169e-05   8.08087563089325e-06   -9.629224329770836e-06
-5.4403277316275453e-05   7.565761758743066e-06   2.4881756088703183e-05
-5.4403277316275453e-05   7.565761758743066e-06   2.4881756088703183e-05
-5.4403277316275453e-05   7.565761758743066e-06   2.4881756088703183e-05
-5.4403277316275453e-05   7.565761758743066e-06   2.4881756088703183e-05
-3.5991317212005064e-05   8.024008501546394e-06   -6.07979213076309e-06
-3.5991317212005064e-05   8.024008501546394e-06   -6.07979213076309e-06
-3.5991317212005064e-05   8.024008501546394e-06   -6.07979213076309e-06
-3.5991317212005064e-05   8.024008501546394e-06   -6.07979213076309e-06
-4.334448392179921e-05   8.073552781478512e-06   6.145759150934921e-06
-4.334448392179921e-05   8.073552781478512e-06   6.145759150934921e-06
-4.334448392179921e-05   8.073552781478512e-06   6.145759150934921e-06
-4.334448392179921e-05   8.073552781478512e-06   6.145759150934921e-06
-3.5991317212005064e-05   7.565761758743066e-06   2.4606808043020937e-05
-3.5991317212005064e-05   7.565761758743066e-06   2.4606808043020937e-05
-3.5991317212005064e-05   7.565761758743066e-06   2.4606808043020937e-05
-3.5991317212005064e-05   7.565761758743066e-06   2.4606808043020937e-05
-5.440327731627555e-05   8.024008501546394e-06   -5.8048440850810065e-06
-5.440327731627555e-05   8.024008501546394e-06   -5.8048440850810065e-06
-5.440327731627555e-05   8.024008501546394e-06   -5.8048440850810065e-06
-5.440327731627555e-05   8.024008501546394e-06   -5.8048440850810065e-06
-5.628051594186312e-05   6.315265971262602e-06   3.261653425072684e-05
-5.628051594186312e-05   6.315265971262602e-06   3.261653425072684e-05
-5.628051594186312e-05   6.315265971262602e-06   3.261653425072684e-05
-5.628051594186312e-05   6.315265971262602e-06   3.261653425072684e-05
-3.716244614106686e-05   7.390755200912787e-06   1.077910449429325e-07
-3.716244614106686e-05   7.390755200912787e-06   1.077910449429325e-07
-3.716244614106686e-05   7.390755200912787e-06   1.077910449429325e-07
-3.716244614106686e-05   7.390755200912787e-06   1.077910449429325e-07
-4.400398485110443e-05   7.69325313300926e-06   1.1328856802414456e-05
-4.400398485110443e-05   7.69325313300926e-06   1.1328856802414456e-05
-4.400398485110443e-05   7.69325313300926e-06   1.1328856802414456e-05
-4.400398485110443e-05   7.69325313300926e-06   1.1328856802414456e-05
3.4077219474059016e-05   -4.763576889857792e-06   2.623038568872969e-05
3.4077219474059016e-05   -4.763576889857792e-06   2.623038568872969e-05
3.4077219474059016e-05   -4.763576889857792e-06   2.623038568872969e-05
3.4077219474059016e-05   -4.763576889857792e-06   2.623038568872969e-05
1.6859114514759792e-05   -3.5030811019621383e-06   -1.7101584373648265e-06
1.6859114514759792e-05   -3.5030811019621383e-06   -1.7101584373648265e-06
1.6859114514759792e-05   -3.5030811019621383e-06   -1.7101584373648265e-06
1.6859114514759792e-05   -3.5030811019621383e-06   -1.7101584373648265e-06
1.6219732310453443e-05   -5.395307601689832e-06   2.2800078475547036e-05
1.6219732310453443e-05   -5.395307601689832e-06   2.2800078475547036e-05
1.6219732310453443e-05   -5.395307601689832e-06   2.2800078475547036e-05
1.6219732310453443e-05   -5.395307601689832e-06   2.2800078475547036e-05
3.2901910445425806e-05   -4.061277867085326e-06   -5.803969590169409e-06
3.2901910445425806e-05   -4.061277867085326e-06   -5.803969590169409e-06
3.2901910445425806e-05   -4.061277867085326e-06   -5.803969590169409e-06
3.2901910445425806e-05   -4.061277867085326e-06   -5.803969590169409e-06
2.3869468032659186e-05   -4.3852319801009065e-06   9.444473565584262e-06
2.3869468032659186e-05   -4.3852319801009065e-06   9.444473565584262e-06
2.3869468032659186e-05   -4.3852319801009065e-06   9.444473565584262e-06
2.3869468032659186e-05   -4.3852319801009065e-06   9.444473565584262e-06
3.2901910445425745e-05   -5.395307601690049e-06   2.1999660634784484e-05
3.2901910445425745e-05   -5.395307601690049e-06   2.1999660634784484e-05
3.2901910445425745e-05   -5.395307601690049e-06   2.1999660634784484e-05
3.2901910445425745e-05   -5.395307601690049e-06   2.1999660634784484e-05
1.6219732310453497e-05   -4.061277867085326e-06   -5.003551749406749e-06
1.6219732310453497e-05   -4.061277867085326e-06   -5.003551749406749e-06
1.6219732310453497e-05   -4.061277867085326e-06   -5.003551749406749e-06
1.6219732310453497e-05   -4.061277867085326e-06   -5.003551749406749e-06
1.5508902677197192e-05   -5.4883327898856e-06   2.0426582781477736e-05
1.5508902677197192e-05   -5.4883327898856e-06   2.0426582781477736e-05
1.5508902677197192e-05   -5.4883327898856e-06   2.0426582781477736e-05
1.5508902677197192e-05   -5.4883327898856e-06   2.0426582781477736e-05
3.1836892219524985e-05   -4.172827452932331e-06   -7.576036324573906e-06
3.1836892219524985e-05   -4.172827452932331e-06   -7.576036324573906e-06
3.1836892219524985e-05   -4.172827452932331e-06   -7.576036324573906e-06
3.1836892219524985e-05   -4.172827452932331e-06   -7.576036324573906e-06
2.3431086388053307e-05   -4.601829036715165e-06   6.691041011481938e-06
2.3431086388053307e-05   -4.601829036715165e-06   6.691041011481938e-06
2.3431086388053307e-05   -4.601829036715165e-06   6.691041011481938e-06
2.3431086388053307e-05   -4.601829036715165e-06   6.691041011481938e-06
3.1836892219524877e-05   -5.488332789885383e-06   1.9637279579305794e-05
3.1836892219524877e-05   -5.488332789885383e-06   1.9637279579305794e-05
3.1836892219524877e-05   -5.488332789885383e-06   1.9637279579305794e-05
3.1836892219524877e-05   -5.488332789885383e-06   1.9637279579305794e-05
1.5508902677197226e-05   -4.172827452932331e-06   -6.786733122401923e-06
1.5508902677197226e-05   -4.172827452932331e-06   -6.786733122401923e-06
1.5508902677197226e-05   -4.172827452932331e-06   -6.786733122401923e-06
1.5508902677197226e-05   -4.172827452932331e-06   -6.786733122401923e-06
1.482489608643441e-05   -5.449728460631912e-06   1.7111857806012955e-05
1.482489608643441e-05   -5.449728460631912e-06   1.7111857806012955e-05
1.482489608643441e-05   -5.449728460631912e-06   1.7111857806012955e-05
1.482489608643441e-05   -5.449728460631912e-06   1.7111857806012955e-05
3.0629973854428435e-05   -4.214912567492924e-06   -9.970828009860317e-06
3.0629973854428435e-05   -4.214912567492924e-06   -9.970828009860317e-06
3.0629973854428435e-05   -4.214912567492924e-06   -9.970828009860317e-06
3.0629973854428435e-05   -4.214912567492924e-06   -9.970828009860317e-06
2.223263677713695e-05   -4.522833836772058e-06   4.209486547193458e-06
2.223263677713695e-05   -4.522833836772058e-06   4.209486547193458e-06
2.223263677713695e-05   -4.522833836772058e-06   4.209486547193458e-06
2.223263677713695e-05   -4.522833836772058e-06   4.209486547193458e-06
1.6859114514759792e-05   -1.6760267722863622e-06   2.747028932172438e-05
1.6859114514759792e-05   -1.6760267722863622e-06   2.747028932172438e-05
1.6859114514759792e-05   -1.6760267722863622e-06   2.747028932172438e-05
1.6859114514759792e-05   -1.6760267722863622e-06   2.747028932172438e-05
6.967102972963167e-07   -6.712170489190337e-07   1.1358347933055355e-06
6.967102972963167e-07   -6.712170489190337e-07   1.1358347933055355e-06
6.967102972963167e-07   -6.712170489190337e-07   1.1358347933055355e-06
6.967102972963167e-07   -6.712170489190337e-07   1.1358347933055355e-06
8.254798075639665e-08   -2.014641628783143e-06   2.775199594440541e-05
8.254798075639665e-08   -2.014641628783143e-06   2.775199594440541e-05
8.254798075639665e-08   -2.014641628783143e-06   2.775199594440541e-05
8.254798075639665e-08   -2.014641628783143e-06   2.775199594440541e-05
1.6219732310453497e-05   -1.0662737831388259e-06   2.8766802085691216e-07
1.6219732310453497e-05   -1.0662737831388259e-06   2.8766802085691216e-07
1.6219732310453497e-05   -1.0662737831388259e-06   2.8766802085691216e-07
1.6219732310453497e-05   -1.0662737831388259e-06   2.8766802085691216e-07
8.361610568525423e-06   -1.307187905987407e-06   1.3529086064446286e-05
8.361610568525423e-06   -1.307187905987407e-06   1.3529086064446286e-05
8.361610568525423e-06   -1.307187905987407e-06   1.3529086064446286e-05
8.361610568525423e-06   -1.307187905987407e-06   1.3529086064446286e-05
1.6219732310453476e-05   -2.014641628783143e-06   2.7182975237018743e-05
1.6219732310453476e-05   -2.014641628783143e-06   2.7182975237018743e-05
1.6219732310453476e-05   -2.014641628783143e-06   2.7182975237018743e-05
1.6219732310453476e-05   -2.014641628783143e-06   2.7182975237018743e-05
8.254798075639665e-08   -1.0662737831388259e-06   8.566887282436325e-07
8.254798075639665e-08   -1.0662737831388259e-06   8.566887282436325e-07
8.254798075639665e-08   -1.0662737831388259e-06   8.566887282436325e-07
8.254798075639665e-08   -1.0662737831388259e-06   8.566887282436325e-07
-5.558623810844008e-07   -2.235500259393109e-06   2.7329124318428797e-05
-5.558623810844008e-07   -2.235500259393109e-06   2.7329124318428797e-05
-5.558623810844008e-07   -2.235500259393109e-06   2.7329124318428797e-05
-5.558623810844008e-07   -2.235500259393109e-06   2.7329124318428797e-05
1.5508902677197226e-05   -1.3587868969531115e-06   2.848787049552874e-08
1.5508902677197226e-05   -1.3587868969531115e-06   2.848787049552874e-08
1.5508902677197226e-05   -1.3587868969531115e-06   2.848787049552874e-08
1.5508902677197226e-05   -1.3587868969531115e-06   2.848787049552874e-08
7.655699818831066e-06   -1.5137379710977207e-06   1.3210129945593013e-05
7.655699818831066e-06   -1.5137379710977207e-06   1.3210129945593013e-05
7.655699818831066e-06   -1.5137379710977207e-06   1.3210129945593013e-05
7.655699818831066e-06   -1.5137379710977207e-06   1.3210129945593013e-05
1.5508902677197192e-05   -2.235500259393109e-06   2.6803096300965e-05
1.5508902677197192e-05   -2.235500259393109e-06   2.6803096300965e-05
1.5508902677197192e-05   -2.235500259393109e-06   2.6803096300965e-05
1.5508902677197192e-05   -2.235500259393109e-06   2.6803096300965e-05
-5.558623810844008e-07   -1.3587868969528946e-06   5.545158879596791e-07
-5.558623810844008e-07   -1.3587868969528946e-06   5.545158879596791e-07
-5.558623810844008e-07   -1.3587868969528946e-06   5.545158879596791e-07
-5.558623810844008e-07   -1.3587868969528946e-06   5.545158879596791e-07
-1.2205028140835334e-06   -2.328392398339525e-06   2.7534044501308736e-05
-1.2205028140835334e-06   -2.328392398339525e-06   2.7534044501308736e-05
-1.2205028140835334e-06   -2.328392398339525e-06   2.7534044501308736e-05
-1.2205028140835334e-06   -2.328392398339525e-06   2.7534044501308736e-05
1.482489608643445e-05   -1.5883892027282725e-06   3.477110830788551e-07
1.482489608643445e-05   -1.5883892027282725e-06   3.477110830788551e-07
1.482489608643445e-05   -1.5883892027282725e-06   3.477110830788551e-07
1.482489608643445e-05   -1.5883892027282725e-06   3.477110830788551e-07
7.126443933246703e-06   -1.6235006110508444e-06   1.3199531516719181e-05
7.126443933246703e-06   -1.6235006110508444e-06   1.3199531516719181e-05
7.126443933246703e-06   -1.6235006110508444e-06   1.3199531516719181e-05
7.126443933246703e-06   -1.6235006110508444e-06   1.3199531516719181e-05
6.967102972963032e-07   1.4999386376626789e-06   2.83494915505669e-05
6.967102972963032e-07   1.4999386376626789e-06   2.83494915505669e-05
6.967102972963032e-07   1.4999386376626789e-06   2.83494915505669e-05
6.967102972963032e-07   1.4999386376626789e-06   2.83494915505669e-05
-1.4996213809331097e-05   2.16950686836412e-06   2.5963589779422072e-06
-1.4996213809331097e-05   2.16950686836412e-06   2.5963589779422072e-06
-1.4996213809331097e-05   2.16950686836412e-06   2.5963589779422072e-06
-1.4996213809331097e-05   2.16950686836412e-06   2.5963589779422072e-06
-1.5638137718678097e-05   1.242361867862538e-06   2.8736973453684323e-05
-1.5638137718678097e-05   1.242361867862538e-06   2.8736973453684323e-05
-1.5638137718678097e-05   1.242361867862538e-06   2.8736973453684323e-05
-1.5638137718678097e-05   1.242361867862538e-06   2.8736973453684323e-05
8.254798075639665e-08   1.8418722504099597e-06   2.17612439176501e-06
8.254798075639665e-08   1.8418722504099597e-06   2.17612439176501e-06
8.254798075639665e-08   1.8418722504099597e-06   2.17612439176501e-06
8.254798075639665e-08   1.8418722504099597e-06   2.17612439176501e-06
-7.4752479244451664e-06   1.7066468769000006e-06   1.4853586124540289e-05
-7.4752479244451664e-06   1.7066468769000006e-06   1.4853586124540289e-05
-7.4752479244451664e-06   1.7066468769000006e-06   1.4853586124540289e-05
-7.4752479244451664e-06   1.7066468769000006e-06   1.4853586124540289e-05
8.254798075639665e-08   1.242361867862538e-06   2.8377267224155702e-05
8.254798075639665e-08   1.242361867862538e-06   2.8377267224155702e-05
8.254798075639665e-08   1.242361867862538e-06   2.8377267224155702e-05
8.254798075639665e-08   1.242361867862538e-06   2.8377267224155702e-05
-1.5638137718678097e-05   1.8418722504099597e-06   2.5358306212934414e-06
-1.5638137718678097e-05   1.8418722504099597e-06   2.5358306212934414e-06
-1.5638137718678097e-05   1.8418722504099597e-06   2.5358306212934414e-06
-1.5638137718678097e-05   1.8418722504099597e-06   2.5358306212934414e-06
-1.6315699426017207e-05   1.0026003621349533e-06   2.9005229767344173e-05
-1.6315699426017207e-05   1.0026003621349533e-06   2.9005229767344173e-05
-1.6315699426017207e-05   1.0026003621349533e-06   2.9005229767344173e-05
-1.6315699426017207e-05   1.0026003621349533e-06   2.9005229767344173e-05
-5.558623810844143e-07   1.5237891474691786e-06   2.4261214212554626e-06
-5.558623810844143e-07   1.5237891474691786e-06   2.4261214212554626e-06
-5.558623810844143e-07   1.5237891474691786e-06   2.4261214212554626e-06
-5.558623810844143e-07   1.5237891474691786e-06   2.4261214212554626e-06
-8.071374599094648e-06   1.520224557834105e-06   1.4954113871720287e-05
-8.071374599094648e-06   1.520224557834105e-06   1.4954113871720287e-05
-8.071374599094648e-06   1.520224557834105e-06   1.4954113871720287e-05
-8.071374599094648e-06   1.520224557834105e-06   1.4954113871720287e-05
-5.558623810844008e-07   1.0026003621349533e-06   2.8692516496143573e-05
-5.558623810844008e-07   1.0026003621349533e-06   2.8692516496143573e-05
-5.558623810844008e-07   1.0026003621349533e-06   2.8692516496143573e-05
-5.558623810844008e-07   1.0026003621349533e-06   2.8692516496143573e-05
-1.6315699426017207e-05   1.5237891474691786e-06   2.738834692456063e-06
-1.6315699426017207e-05   1.5237891474691786e-06   2.738834692456063e-06
-1.6315699426017207e-05   1.5237891474691786e-06   2.738834692456063e-06
-1.6315699426017207e-05   1.5237891474691786e-06   2.738834692456063e-06
-1.7014718972056814e-05   8.302973077934598e-07   2.9432149475669715e-05
-1.7014718972056814e-05   8.302973077934598e-07   2.9432149475669715e-05
-1.7014718972056814e-05   8.302973077934598e-07   2.9432149475669715e-05
-1.7014718972056814e-05   8.302973077934598e-07   2.9432149475669715e-05
-1.2205028140835334e-06   1.2407264669330592e-06   2.86219838356366e-06
-1.2205028140835334e-06   1.2407264669330592e-06   2.86219838356366e-06
-1.2205028140835334e-06   1.2407264669330592e-06   2.86219838356366e-06
-1.2205028140835334e-06   1.2407264669330592e-06   2.86219838356366e-06
-8.716510084531988e-06   1.34175245112948e-06   1.5294928243793902e-05
-8.716510084531988e-06   1.34175245112948e-06   1.5294928243793902e-05
-8.716510084531988e-06   1.34175245112948e-06   1.5294928243793902e-05
-8.716510084531988e-06   1.34175245112948e-06   1.5294928243793902e-05
-1.4996213809331151e-05   4.872769751228636e-06   2.4749665402648173e-05
-1.4996213809331151e-05   4.872769751228636e-06   2.4749665402648173e-05
-1.4996213809331151e-05   4.872769751228636e-06   2.4749665402648173e-05
-1.4996213809331151e-05   4.872769751228636e-06   2.4749665402648173e-05
-3.0206128134185623e-05   4.934706635019437e-06   -5.63029675167896e-07
-3.0206128134185623e-05   4.934706635019437e-06   -5.63029675167896e-07
-3.0206128134185623e-05   4.934706635019437e-06   -5.63029675167896e-07
-3.0206128134185623e-05   4.934706635019437e-06   -5.63029675167896e-07
-3.095121481127709e-05   4.615431237282126e-06   2.51825775751135e-05
-3.095121481127709e-05   4.615431237282126e-06   2.51825775751135e-05
-3.095121481127709e-05   4.615431237282126e-06   2.51825775751135e-05
-3.095121481127709e-05   4.615431237282126e-06   2.51825775751135e-05
-1.5638137718678124e-05   4.622816941987282e-06   -3.4364900204132427e-07
-1.5638137718678124e-05   4.622816941987282e-06   -3.4364900204132427e-07
-1.5638137718678124e-05   4.622816941987282e-06   -3.4364900204132427e-07
-1.5638137718678124e-05   4.622816941987282e-06   -3.4364900204132427e-07
-2.2845426588574675e-05   4.748505855394739e-06   1.1593085766408687e-05
-2.2845426588574675e-05   4.748505855394739e-06   1.1593085766408687e-05
-2.2845426588574675e-05   4.748505855394739e-06   1.1593085766408687e-05
-2.2845426588574675e-05   4.748505855394739e-06   1.1593085766408687e-05
-1.5638137718678124e-05   4.615431237282126e-06   2.5178146152290162e-05
-1.5638137718678124e-05   4.615431237282126e-06   2.5178146152290162e-05
-1.5638137718678124e-05   4.615431237282126e-06   2.5178146152290162e-05
-1.5638137718678124e-05   4.615431237282126e-06   2.5178146152290162e-05
-3.095121481127709e-05   4.622816941987282e-06   -3.3921757921823083e-07
-3.095121481127709e-05   4.622816941987282e-06   -3.3921757921823083e-07
-3.095121481127709e-05   4.622816941987282e-06   -3.3921757921823083e-07
-3.095121481127709e-05   4.622816941987282e-06   -3.3921757921823083e-07
-3.1776461367260655e-05   4.376618208584964e-06   2.6353444290650938e-05
-3.1776461367260655e-05   4.376618208584964e-06   2.6353444290650938e-05
-3.1776461367260655e-05   4.376618208584964e-06   2.6353444290650938e-05
-3.1776461367260655e-05   4.376618208584964e-06   2.6353444290650938e-05
-1.6315699426017234e-05   4.334449665231851e-06   6.108088479241406e-07
-1.6315699426017234e-05   4.334449665231851e-06   6.108088479241406e-07
-1.6315699426017234e-05   4.334449665231851e-06   6.108088479241406e-07
-1.6315699426017234e-05   4.334449665231851e-06   6.108088479241406e-07
-2.3382395534219676e-05   4.572928702818529e-06   1.2245548272375988e-05
-2.3382395534219676e-05   4.572928702818529e-06   1.2245548272375988e-05
-2.3382395534219676e-05   4.572928702818529e-06   1.2245548272375988e-05
-2.3382395534219676e-05   4.572928702818529e-06   1.2245548272375988e-05
-1.6315699426017234e-05   4.376618208584964e-06   2.6378745416663125e-05
-1.6315699426017234e-05   4.376618208584964e-06   2.6378745416663125e-05
-1.6315699426017234e-05   4.376618208584964e-06   2.6378745416663125e-05
-1.6315699426017234e-05   4.376618208584964e-06   2.6378745416663125e-05
-3.1776461367260655e-05   4.334449665231851e-06   5.855077219120344e-07
-3.1776461367260655e-05   4.334449665231851e-06   5.855077219120344e-07
-3.1776461367260655e-05   4.334449665231851e-06   5.855077219120344e-07
-3.1776461367260655e-05   4.334449665231851e-06   5.855077219120344e-07
-3.2562631679432236e-05   4.054651241826822e-06   2.719484986247675e-05
-3.2562631679432236e-05   4.054651241826822e-06   2.719484986247675e-05
-3.2562631679432236e-05   4.054651241826822e-06   2.719484986247675e-05
-3.2562631679432236e-05   4.054651241826822e-06   2.719484986247675e-05
-1.7014718972056814e-05   3.981523865061263e-06   1.3255384429104212e-06
-1.7014718972056814e-05   3.981523865061263e-06   1.3255384429104212e-06
-1.7014718972056814e-05   3.981523865061263e-06   1.3255384429104212e-06
-1.7014718972056814e-05   3.981523865061263e-06   1.3255384429104212e-06
-2.424046661162187e-05   4.343780260321274e-06   1.3151097338363481e-05
-2.424046661162187e-05   4.343780260321274e-06   1.3151097338363481e-05
-2.424046661162187e-05   4.343780260321274e-06   1.3151097338363481e-05
-2.424046661162187e-05   4.343780260321274e-06   1.3151097338363481e-05
-3.0206128134185542e-05   7.924741303709472e-06   1.1908294639453876e-05
-3.0206128134185542e-05   7.924741303709472e-06   1.1908294639453876e-05
-3.0206128134185542e-05   7.924741303709472e-06   1.1908294639453876e-05
-3.0206128134185542e-05   7.924741303709472e-06   1.1908294639453876e-05
-4.4678480134809984e-05   7.114300406183124e-06   -1.2698556566769457e-05
-4.4678480134809984e-05   7.114300406183124e-06   -1.2698556566769457e-05
-4.4678480134809984e-05   7.114300406183124e-06   -1.2698556566769457e-05
-4.4678480134809984e-05   7.114300406183124e-06   -1.2698556566769457e-05
-4.585205701122474e-05   8.08087563089325e-06   1.654251129585703e-05
-4.585205701122474e-05   8.08087563089325e-06   1.654251129585703e-05
-4.585205701122474e-05   8.08087563089325e-06   1.654251129585703e-05
-4.585205701122474e-05   8.08087563089325e-06   1.654251129585703e-05
-3.095121481127709e-05   7.1928099441536785e-06   -7.759386292012027e-06
-3.095121481127709e-05   7.1928099441536785e-06   -7.759386292012027e-06
-3.095121481127709e-05   7.1928099441536785e-06   -7.759386292012027e-06
-3.095121481127709e-05   7.1928099441536785e-06   -7.759386292012027e-06
-3.6469413043098794e-05   7.532212543175424e-06   1.2339692016111723e-06
-3.6469413043098794e-05   7.532212543175424e-06   1.2339692016111723e-06
-3.6469413043098794e-05   7.532212543175424e-06   1.2339692016111723e-06
-3.6469413043098794e-05   7.532212543175424e-06   1.2339692016111723e-06
-3.095121481127701e-05   8.080875630893467e-06   1.7075350707900947e-05
-3.095121481127701e-05   8.080875630893467e-06   1.7075350707900947e-05
-3.095121481127701e-05   8.080875630893467e-06   1.7075350707900947e-05
-3.095121481127701e-05   8.080875630893467e-06   1.7075350707900947e-05
-4.5852057011224796e-05   7.192809944153462e-06   -8.292225704055727e-06
-4.5852057011224796e-05   7.192809944153462e-06   -8.292225704055727e-06
-4.5852057011224796e-05   7.192809944153462e-06   -8.292225704055727e-06
-4.5852057011224796e-05   7.192809944153462e-06   -8.292225704055727e-06
-4.699718309024111e-05   8.024008501546394e-06   2.0141598136975926e-05
-4.699718309024111e-05   8.024008501546394e-06   2.0141598136975926e-05
-4.699718309024111e-05   8.024008501546394e-06   2.0141598136975926e-05
-4.699718309024111e-05   8.024008501546394e-06   2.0141598136975926e-05
-3.1776461367260655e-05   7.114499727111159e-06   -4.680566136663878e-06
-3.1776461367260655e-05   7.114499727111159e-06   -4.680566136663878e-06
-3.1776461367260655e-05   7.114499727111159e-06   -4.680566136663878e-06
-3.1776461367260655e-05   7.114499727111159e-06   -4.680566136663878e-06
-3.7916969148549804e-05   7.67089880653461e-06   5.219774051164682e-06
-3.7916969148549804e-05   7.67089880653461e-06   5.219774051164682e-06
-3.7916969148549804e-05   7.67089880653461e-06   5.219774051164682e-06
-3.7916969148549804e-05   7.67089880653461e-06   5.219774051164682e-06
-3.1776461367260655e-05   8.024008501546394e-06   2.068730340163712e-05
-3.1776461367260655e-05   8.024008501546394e-06   2.068730340163712e-05
-3.1776461367260655e-05   8.024008501546394e-06   2.068730340163712e-05
-3.1776461367260655e-05   8.024008501546394e-06   2.068730340163712e-05
-4.6997183090241194e-05   7.114499727111159e-06   -5.2262714013250186e-06
-4.6997183090241194e-05   7.114499727111159e-06   -5.2262714013250186e-06
-4.6997183090241194e-05   7.114499727111159e-06   -5.2262714013250186e-06
-4.6997183090241194e-05   7.114499727111159e-06   -5.2262714013250186e-06
-4.8333735975334915e-05   7.39075520091257e-06   2.6302368786564403e-05
-4.8333735975334915e-05   7.39075520091257e-06   2.6302368786564403e-05
-4.8333735975334915e-05   7.39075520091257e-06   2.6302368786564403e-05
-4.8333735975334915e-05   7.39075520091257e-06   2.6302368786564403e-05
-3.256263167943221e-05   6.568088575727464e-06   5.10794935170973e-07
-3.256263167943221e-05   6.568088575727464e-06   5.10794935170973e-07
-3.256263167943221e-05   6.568088575727464e-06   5.10794935170973e-07
-3.256263167943221e-05   6.568088575727464e-06   5.10794935170973e-07
-3.827622179373099e-05   7.44527834542865e-06   9.507131263848385e-06
-3.827622179373099e-05   7.44527834542865e-06   9.507131263848385e-06
-3.827622179373099e-05   7.44527834542865e-06   9.507131263848385e-06
-3.827622179373099e-05   7.44527834542865e-06   9.507131263848385e-06
2.5943660489752364e-05   -3.5030811019621383e-06   2.1953637047381045e-05
2.5943660489752364e-05   -3.5030811019621383e-06   2.1953637047381045e-05
2.5943660489752364e-05   -3.5030811019621383e-06   2.1953637047381045e-05
2.5943660489752364e-05   -3.5030811019621383e-06   2.1953637047381045e-05
1.2207002695398863e-05   -2.3242496775318505e-06   -2.3349375521670816e-07
1.2207002695398863e-05   -2.3242496775318505e-06   -2.3349375521670816e-07
1.2207002695398863e-05   -2.3242496775318505e-06   -2.3349375521670816e-07
1.2207002695398863e-05   -2.3242496775318505e-06   -2.3349375521670816e-07
1.1635324704419005e-05   -4.061277867085326e-06   1.9281946523193707e-05
1.1635324704419005e-05   -4.061277867085326e-06   1.9281946523193707e-05
1.1635324704419005e-05   -4.061277867085326e-06   1.9281946523193707e-05
1.1635324704419005e-05   -4.061277867085326e-06   1.9281946523193707e-05
2.4837077002741185e-05   -2.8176882880086296e-06   -3.4671277214558607e-06
2.4837077002741185e-05   -2.8176882880086296e-06   -3.4671277214558607e-06
2.4837077002741185e-05   -2.8176882880086296e-06   -3.4671277214558607e-06
2.4837077002741185e-05   -2.8176882880086296e-06   -3.4671277214558607e-06
1.7778448149652125e-05   -3.2001314562531873e-06   8.526719601305971e-06
1.7778448149652125e-05   -3.2001314562531873e-06   8.526719601305971e-06
1.7778448149652125e-05   -3.2001314562531873e-06   8.526719601305971e-06
1.7778448149652125e-05   -3.2001314562531873e-06   8.526719601305971e-06
2.4837077002741144e-05   -4.061277867085326e-06   1.8535792775747784e-05
2.4837077002741144e-05   -4.061277867085326e-06   1.8535792775747784e-05
2.4837077002741144e-05   -4.061277867085326e-06   1.8535792775747784e-05
2.4837077002741144e-05   -4.061277867085326e-06   1.8535792775747784e-05
1.1635324704419022e-05   -2.8176882880086296e-06   -2.7209739740097346e-06
1.1635324704419022e-05   -2.8176882880086296e-06   -2.7209739740097346e-06
1.1635324704419022e-05   -2.8176882880086296e-06   -2.7209739740097346e-06
1.1635324704419022e-05   -2.8176882880086296e-06   -2.7209739740097346e-06
1.1003846122687481e-05   -4.172827452932331e-06   1.74047743258987e-05
1.1003846122687481e-05   -4.172827452932331e-06   1.74047743258987e-05
1.1003846122687481e-05   -4.172827452932331e-06   1.74047743258987e-05
1.1003846122687481e-05   -4.172827452932331e-06   1.74047743258987e-05
2.386665733211545e-05   -2.949016084879009e-06   -4.767531177313211e-06
2.386665733211545e-05   -2.949016084879009e-06   -4.767531177313211e-06
2.386665733211545e-05   -2.949016084879009e-06   -4.767531177313211e-06
2.386665733211545e-05   -2.949016084879009e-06   -4.767531177313211e-06
1.732323568577842e-05   -3.4006072656159137e-06   6.40912627502448e-06
1.732323568577842e-05   -3.4006072656159137e-06   6.40912627502448e-06
1.732323568577842e-05   -3.4006072656159137e-06   6.40912627502448e-06
1.732323568577842e-05   -3.4006072656159137e-06   6.40912627502448e-06
2.3866657332115414e-05   -4.172827452932331e-06   1.667048750506682e-05
2.3866657332115414e-05   -4.172827452932331e-06   1.667048750506682e-05
2.3866657332115414e-05   -4.172827452932331e-06   1.667048750506682e-05
2.3866657332115414e-05   -4.172827452932331e-06   1.667048750506682e-05
1.1003846122687498e-05   -2.949016084879009e-06   -4.033244356481305e-06
1.1003846122687498e-05   -2.949016084879009e-06   -4.033244356481305e-06
1.1003846122687498e-05   -2.949016084879009e-06   -4.033244356481305e-06
1.1003846122687498e-05   -2.949016084879009e-06   -4.033244356481305e-06
1.042048690420342e-05   -4.214912567492707e-06   1.485781178287948e-05
1.042048690420342e-05   -4.214912567492707e-06   1.485781178287948e-05
1.042048690420342e-05   -4.214912567492707e-06   1.485781178287948e-05
1.042048690420342e-05   -4.214912567492707e-06   1.485781178287948e-05
2.278151156850419e-05   -3.0694586017376065e-06   -6.431168370408104e-06
2.278151156850419e-05   -3.0694586017376065e-06   -6.431168370408104e-06
2.278151156850419e-05   -3.0694586017376065e-06   -6.431168370408104e-06
2.278151156850419e-05   -3.0694586017376065e-06   -6.431168370408104e-06
1.6306770629483576e-05   -3.3799845323800697e-06   4.54638208634506e-06
1.6306770629483576e-05   -3.3799845323800697e-06   4.54638208634506e-06
1.6306770629483576e-05   -3.3799845323800697e-06   4.54638208634506e-06
1.6306770629483576e-05   -3.3799845323800697e-06   4.54638208634506e-06
1.2207002695398822e-05   -6.712170489190337e-07   2.4904043298689115e-05
1.2207002695398822e-05   -6.712170489190337e-07   2.4904043298689115e-05
1.2207002695398822e-05   -6.712170489190337e-07   2.4904043298689115e-05
1.2207002695398822e-05   -6.712170489190337e-07   2.4904043298689115e-05
-7.912379610845255e-07   -1.671218311720228e-08   3.633011790697932e-06
-7.912379610845255e-07   -1.671218311720228e-08   3.633011790697932e-06
-7.912379610845255e-07   -1.671218311720228e-08   3.633011790697932e-06
-7.912379610845255e-07   -1.671218311720228e-08   3.633011790697932e-06
-1.3289663871284403e-06   -1.0662737831388259e-06   2.494589769755774e-05
-1.3289663871284403e-06   -1.0662737831388259e-06   2.494589769755774e-05
-1.3289663871284403e-06   -1.0662737831388259e-06   2.494589769755774e-05
-1.3289663871284403e-06   -1.0662737831388259e-06   2.494589769755774e-05
1.1635324704419022e-05   -4.4505477630519576e-07   2.966014474211731e-06
1.1635324704419022e-05   -4.4505477630519576e-07   2.966014474211731e-06
1.1635324704419022e-05   -4.4505477630519576e-07   2.966014474211731e-06
1.1635324704419022e-05   -4.4505477630519576e-07   2.966014474211731e-06
5.342407418785731e-06   -5.655035965567139e-07   1.3526479242418135e-05
5.342407418785731e-06   -5.655035965567139e-07   1.3526479242418135e-05
5.342407418785731e-06   -5.655035965567139e-07   1.3526479242418135e-05
5.342407418785731e-06   -5.655035965567139e-07   1.3526479242418135e-05
1.1635324704418978e-05   -1.0662737831388259e-06   2.4573166293457367e-05
1.1635324704418978e-05   -1.0662737831388259e-06   2.4573166293457367e-05
1.1635324704418978e-05   -1.0662737831388259e-06   2.4573166293457367e-05
1.1635324704418978e-05   -1.0662737831388259e-06   2.4573166293457367e-05
-1.3289663871284403e-06   -4.4505477630519576e-07   3.3387458783119958e-06
-1.3289663871284403e-06   -4.4505477630519576e-07   3.3387458783119958e-06
-1.3289663871284403e-06   -4.4505477630519576e-07   3.3387458783119958e-06
-1.3289663871284403e-06   -4.4505477630519576e-07   3.3387458783119958e-06
-1.8782465272844785e-06   -1.3587868969528946e-06   2.4566140219439204e-05
-1.8782465272844785e-06   -1.3587868969528946e-06   2.4566140219439204e-05
-1.8782465272844785e-06   -1.3587868969528946e-06   2.4566140219439204e-05
-1.8782465272844785e-06   -1.3587868969528946e-06   2.4566140219439204e-05
1.1003846122687498e-05   -7.818787292144386e-07   2.749840902176149e-06
1.1003846122687498e-05   -7.818787292144386e-07   2.749840902176149e-06
1.1003846122687498e-05   -7.818787292144386e-07   2.749840902176149e-06
1.1003846122687498e-05   -7.818787292144386e-07   2.749840902176149e-06
4.738513578421545e-06   -8.294256513221741e-07   1.3220589962551561e-05
4.738513578421545e-06   -8.294256513221741e-07   1.3220589962551561e-05
4.738513578421545e-06   -8.294256513221741e-07   1.3220589962551561e-05
4.738513578421545e-06   -8.294256513221741e-07   1.3220589962551561e-05
1.1003846122687481e-05   -1.3587868969528946e-06   2.4219995318796152e-05
1.1003846122687481e-05   -1.3587868969528946e-06   2.4219995318796152e-05
1.1003846122687481e-05   -1.3587868969528946e-06   2.4219995318796152e-05
1.1003846122687481e-05   -1.3587868969528946e-06   2.4219995318796152e-05
-1.8782465272844785e-06   -7.818787292144386e-07   3.0959858028192008e-06
-1.8782465272844785e-06   -7.818787292144386e-07   3.0959858028192008e-06
-1.8782465272844785e-06   -7.818787292144386e-07   3.0959858028192008e-06
-1.8782465272844785e-06   -7.818787292144386e-07   3.0959858028192008e-06
-2.430574518718978e-06   -1.5883892027282725e-06   2.4732805947472246e-05
-2.430574518718978e-06   -1.5883892027282725e-06   2.4732805947472246e-05
-2.430574518718978e-06   -1.5883892027282725e-06   2.4732805947472246e-05
-2.430574518718978e-06   -1.5883892027282725e-06   2.4732805947472246e-05
1.0420486904203427e-05   -1.0928148568335478e-06   3.017025635064616e-06
1.0420486904203427e-05   -1.0928148568335478e-06   3.017025635064616e-06
1.0420486904203427e-05   -1.0928148568335478e-06   3.017025635064616e-06
1.0420486904203427e-05   -1.0928148568335478e-06   3.017025635064616e-06
4.2785628825559296e-06   -1.023821083087433e-06   1.3212169406896194e-05
4.2785628825559296e-06   -1.023821083087433e-06   1.3212169406896194e-05
4.2785628825559296e-06   -1.023821083087433e-06   1.3212169406896194e-05
4.2785628825559296e-06   -1.023821083087433e-06   1.3212169406896194e-05
-7.912379610845255e-07   2.16950686836412e-06   2.635552946438606e-05
-7.912379610845255e-07   2.16950686836412e-06   2.635552946438606e-05
-7.912379610845255e-07   2.16950686836412e-06   2.635552946438606e-05
-7.912379610845255e-07   2.16950686836412e-06   2.635552946438606e-05
-1.3516660691341491e-05   2.234903493713485e-06   5.185729555833929e-06
-1.3516660691341491e-05   2.234903493713485e-06   5.185729555833929e-06
-1.3516660691341491e-05   2.234903493713485e-06   5.185729555833929e-06
-1.3516660691341491e-05   2.234903493713485e-06   5.185729555833929e-06
-1.405755803568925e-05   1.8418722504099597e-06   2.6275873652689772e-05
-1.405755803568925e-05   1.8418722504099597e-06   2.6275873652689772e-05
-1.405755803568925e-05   1.8418722504099597e-06   2.6275873652689772e-05
-1.405755803568925e-05   1.8418722504099597e-06   2.6275873652689772e-05
-1.3289663871284403e-06   1.8594394030943106e-06   5.051013946811103e-06
-1.3289663871284403e-06   1.8594394030943106e-06   5.051013946811103e-06
-1.3289663871284403e-06   1.8594394030943106e-06   5.051013946811103e-06
-1.3289663871284403e-06   1.8594394030943106e-06   5.051013946811103e-06
-7.4428130085446836e-06   1.990462522300624e-06   1.5162144444314245e-05
-7.4428130085446836e-06   1.990462522300624e-06   1.5162144444314245e-05
-7.4428130085446836e-06   1.990462522300624e-06   1.5162144444314245e-05
-7.4428130085446836e-06   1.990462522300624e-06   1.5162144444314245e-05
-1.3289663871284403e-06   1.8418722504099597e-06   2.6265333361079118e-05
-1.3289663871284403e-06   1.8418722504099597e-06   2.6265333361079118e-05
-1.3289663871284403e-06   1.8418722504099597e-06   2.6265333361079118e-05
-1.3289663871284403e-06   1.8418722504099597e-06   2.6265333361079118e-05
-1.405755803568925e-05   1.8594394030943106e-06   5.061554238421648e-06
-1.405755803568925e-05   1.8594394030943106e-06   5.061554238421648e-06
-1.405755803568925e-05   1.8594394030943106e-06   5.061554238421648e-06
-1.405755803568925e-05   1.8594394030943106e-06   5.061554238421648e-06
-1.461181349326796e-05   1.5237891474691786e-06   2.6417458488968296e-05
-1.461181349326796e-05   1.5237891474691786e-06   2.6417458488968296e-05
-1.461181349326796e-05   1.5237891474691786e-06   2.6417458488968296e-05
-1.461181349326796e-05   1.5237891474691786e-06   2.6417458488968296e-05
-1.8782465272844785e-06   1.4899770411913593e-06   5.215134142762582e-06
-1.8782465272844785e-06   1.4899770411913593e-06   5.215134142762582e-06
-1.8782465272844785e-06   1.4899770411913593e-06   5.215134142762582e-06
-1.8782465272844785e-06   1.4899770411913593e-06   5.215134142762582e-06
-7.944764489411612e-06   1.7384198311075306e-06   1.5176931739025227e-05
-7.944764489411612e-06   1.7384198311075306e-06   1.5176931739025227e-05
-7.944764489411612e-06   1.7384198311075306e-06   1.5176931739025227e-05
-7.944764489411612e-06   1.7384198311075306e-06   1.5176931739025227e-05
-1.8782465272844785e-06   1.5237891474691786e-06   2.6437745752735123e-05
-1.8782465272844785e-06   1.5237891474691786e-06   2.6437745752735123e-05
-1.8782465272844785e-06   1.5237891474691786e-06   2.6437745752735123e-05
-1.8782465272844785e-06   1.5237891474691786e-06   2.6437745752735123e-05
-1.4611813493267973e-05   1.4899770411913593e-06   5.194846878995999e-06
-1.4611813493267973e-05   1.4899770411913593e-06   5.194846878995999e-06
-1.4611813493267973e-05   1.4899770411913593e-06   5.194846878995999e-06
-1.4611813493267973e-05   1.4899770411913593e-06   5.194846878995999e-06
-1.5165712026547919e-05   1.2407264669330592e-06   2.674253063654616e-05
-1.5165712026547919e-05   1.2407264669330592e-06   2.674253063654616e-05
-1.5165712026547919e-05   1.2407264669330592e-06   2.674253063654616e-05
-1.5165712026547919e-05   1.2407264669330592e-06   2.674253063654616e-05
-2.4305745187189914e-06   1.1394586435257634e-06   5.578062150875707e-06
-2.4305745187189914e-06   1.1394586435257634e-06   5.578062150875707e-06
-2.4305745187189914e-06   1.1394586435257634e-06   5.578062150875707e-06
-2.4305745187189914e-06   1.1394586435257634e-06   5.578062150875707e-06
-8.47038824139783e-06   1.4929367783813935e-06   1.5432331474427073e-05
-8.47038824139783e-06   1.4929367783813935e-06   1.5432331474427073e-05
-8.47038824139783e-06   1.4929367783813935e-06   1.5432331474427073e-05
-8.47038824139783e-06   1.4929367783813935e-06   1.5432331474427073e-05
-1.3516660691341464e-05   4.934706635019437e-06   2.3198216656210866e-05
-1.3516660691341464e-05   4.934706635019437e-06   2.3198216656210866e-05
-1.3516660691341464e-05   4.934706635019437e-06   2.3198216656210866e-05
-1.3516660691341464e-05   4.934706635019437e-06   2.3198216656210866e-05
-2.5968771802481293e-05   4.4030013065629765e-06   2.1256749405705122e-06
-2.5968771802481293e-05   4.4030013065629765e-06   2.1256749405705122e-06
-2.5968771802481293e-05   4.4030013065629765e-06   2.1256749405705122e-06
-2.5968771802481293e-05   4.4030013065629765e-06   2.1256749405705122e-06
-2.6551020591052474e-05   4.622816941987282e-06   2.3049227535345846e-05
-2.6551020591052474e-05   4.622816941987282e-06   2.3049227535345846e-05
-2.6551020591052474e-05   4.622816941987282e-06   2.3049227535345846e-05
-2.6551020591052474e-05   4.622816941987282e-06   2.3049227535345846e-05
-1.4057558035689263e-05   4.044206118639223e-06   2.5739564370828166e-06
-1.4057558035689263e-05   4.044206118639223e-06   2.5739564370828166e-06
-1.4057558035689263e-05   4.044206118639223e-06   2.5739564370828166e-06
-1.4057558035689263e-05   4.044206118639223e-06   2.5739564370828166e-06
-1.9957134303339797e-05   4.441531027068232e-06   1.2168188604776229e-05
-1.9957134303339797e-05   4.441531027068232e-06   1.2168188604776229e-05
-1.9957134303339797e-05   4.441531027068232e-06   1.2168188604776229e-05
-1.9957134303339797e-05   4.441531027068232e-06   1.2168188604776229e-05
-1.405755803568925e-05   4.6228169419874985e-06   2.3396394029354898e-05
-1.405755803568925e-05   4.6228169419874985e-06   2.3396394029354898e-05
-1.405755803568925e-05   4.6228169419874985e-06   2.3396394029354898e-05
-1.405755803568925e-05   4.6228169419874985e-06   2.3396394029354898e-05
-2.655102059105242e-05   4.044206118639223e-06   2.226789943073873e-06
-2.655102059105242e-05   4.044206118639223e-06   2.226789943073873e-06
-2.655102059105242e-05   4.044206118639223e-06   2.226789943073873e-06
-2.655102059105242e-05   4.044206118639223e-06   2.226789943073873e-06
-2.719161735186405e-05   4.334449665231851e-06   2.3914262543352823e-05
-2.719161735186405e-05   4.334449665231851e-06   2.3914262543352823e-05
-2.719161735186405e-05   4.334449665231851e-06   2.3914262543352823e-05
-2.719161735186405e-05   4.334449665231851e-06   2.3914262543352823e-05
-1.4611813493267973e-05   3.7091661634256444e-06   3.323092880109591e-06
-1.4611813493267973e-05   3.7091661634256444e-06   3.323092880109591e-06
-1.4611813493267973e-05   3.7091661634256444e-06   3.323092880109591e-06
-1.4611813493267973e-05   3.7091661634256444e-06   3.323092880109591e-06
-2.037352610934919e-05   4.2127971085323575e-06   1.2623768673181602e-05
-2.037352610934919e-05   4.2127971085323575e-06   1.2623768673181602e-05
-2.037352610934919e-05   4.2127971085323575e-06   1.2623768673181602e-05
-2.037352610934919e-05   4.2127971085323575e-06   1.2623768673181602e-05
-1.4611813493267973e-05   4.334449665231851e-06   2.4289432644436428e-05
-1.4611813493267973e-05   4.334449665231851e-06   2.4289432644436428e-05
-1.4611813493267973e-05   4.334449665231851e-06   2.4289432644436428e-05
-1.4611813493267973e-05   4.334449665231851e-06   2.4289432644436428e-05
-2.7191617351864024e-05   3.7091661634256444e-06   2.947922779025932e-06
-2.7191617351864024e-05   3.7091661634256444e-06   2.947922779025932e-06
-2.7191617351864024e-05   3.7091661634256444e-06   2.947922779025932e-06
-2.7191617351864024e-05   3.7091661634256444e-06   2.947922779025932e-06
-2.7776914283909188e-05   3.981523865061263e-06   2.4561701215603145e-05
-2.7776914283909188e-05   3.981523865061263e-06   2.4561701215603145e-05
-2.7776914283909188e-05   3.981523865061263e-06   2.4561701215603145e-05
-2.7776914283909188e-05   3.981523865061263e-06   2.4561701215603145e-05
-1.516571202654796e-05   3.318337223718118e-06   3.940942771473756e-06
-1.516571202654796e-05   3.318337223718118e-06   3.940942771473756e-06
-1.516571202654796e-05   3.318337223718118e-06   3.940942771473756e-06
-1.516571202654796e-05   3.318337223718118e-06   3.940942771473756e-06
-2.103924033055167e-05   3.953978468794169e-06   1.334877186443418e-05
-2.103924033055167e-05   3.953978468794169e-06   1.334877186443418e-05
-2.103924033055167e-05   3.953978468794169e-06   1.334877186443418e-05
-2.103924033055167e-05   3.953978468794169e-06   1.334877186443418e-05
-2.5968771802481293e-05   7.114300406183124e-06   1.1229931106051443e-05
-2.5968771802481293e-05   7.114300406183124e-06   1.1229931106051443e-05
-2.5968771802481293e-05   7.114300406183124e-06   1.1229931106051443e-05
-2.5968771802481293e-05   7.114300406183124e-06   1.1229931106051443e-05
-3.781109467362035e-05   6.077602889654164e-06   -9.129292189097597e-06
-3.781109467362035e-05   6.077602889654164e-06   -9.129292189097597e-06
-3.781109467362035e-05   6.077602889654164e-06   -9.129292189097597e-06
-3.781109467362035e-05   6.077602889654164e-06   -9.129292189097597e-06
-3.885836948123197e-05   7.192809944153462e-06   1.4943383922670682e-05
-3.885836948123197e-05   7.192809944153462e-06   1.4943383922670682e-05
-3.885836948123197e-05   7.192809944153462e-06   1.4943383922670682e-05
-3.885836948123197e-05   7.192809944153462e-06   1.4943383922670682e-05
-2.6551020591052474e-05   6.050018444351364e-06   -4.883189327747179e-06
-2.6551020591052474e-05   6.050018444351364e-06   -4.883189327747179e-06
-2.6551020591052474e-05   6.050018444351364e-06   -4.883189327747179e-06
-2.6551020591052474e-05   6.050018444351364e-06   -4.883189327747179e-06
-3.1068136211911984e-05   6.510781328060238e-06   2.3688789767933025e-06
-3.1068136211911984e-05   6.510781328060238e-06   2.3688789767933025e-06
-3.1068136211911984e-05   6.510781328060238e-06   2.3688789767933025e-06
-3.1068136211911984e-05   6.510781328060238e-06   2.3688789767933025e-06
-2.6551020591052366e-05   7.192809944153462e-06   1.5629058822552104e-05
-2.6551020591052366e-05   7.192809944153462e-06   1.5629058822552104e-05
-2.6551020591052366e-05   7.192809944153462e-06   1.5629058822552104e-05
-2.6551020591052366e-05   7.192809944153462e-06   1.5629058822552104e-05
-3.8858369481232054e-05   6.050018444351364e-06   -5.568864227628492e-06
-3.8858369481232054e-05   6.050018444351364e-06   -5.568864227628492e-06
-3.8858369481232054e-05   6.050018444351364e-06   -5.568864227628492e-06
-3.8858369481232054e-05   6.050018444351364e-06   -5.568864227628492e-06
-3.979524293232993e-05   7.114499727111159e-06   1.793608662398866e-05
-3.979524293232993e-05   7.114499727111159e-06   1.793608662398866e-05
-3.979524293232993e-05   7.114499727111159e-06   1.793608662398866e-05
-3.979524293232993e-05   7.114499727111159e-06   1.793608662398866e-05
-2.719161735186405e-05   5.927662959131141e-06   -2.3578539493332613e-06
-2.719161735186405e-05   5.927662959131141e-06   -2.3578539493332613e-06
-2.719161735186405e-05   5.927662959131141e-06   -2.3578539493332613e-06
-2.719161735186405e-05   5.927662959131141e-06   -2.3578539493332613e-06
-3.227584172099836e-05   6.58370566823923e-06   5.722227707093683e-06
-3.227584172099836e-05   6.58370566823923e-06   5.722227707093683e-06
-3.227584172099836e-05   6.58370566823923e-06   5.722227707093683e-06
-3.227584172099836e-05   6.58370566823923e-06   5.722227707093683e-06
-2.719161735186405e-05   7.114499727111159e-06   1.8648188684776857e-05
-2.719161735186405e-05   7.114499727111159e-06   1.8648188684776857e-05
-2.719161735186405e-05   7.114499727111159e-06   1.8648188684776857e-05
-2.719161735186405e-05   7.114499727111159e-06   1.8648188684776857e-05
-3.979524293233001e-05   5.927662959131141e-06   -3.0699560101214024e-06
-3.979524293233001e-05   5.927662959131141e-06   -3.0699560101214024e-06
-3.979524293233001e-05   5.927662959131141e-06   -3.0699560101214024e-06
-3.979524293233001e-05   5.927662959131141e-06   -3.0699560101214024e-06
-4.0870984688572685e-05   6.568088575727247e-06   2.308139571877447e-05
-4.0870984688572685e-05   6.568088575727247e-06   2.308139571877447e-05
-4.0870984688572685e-05   6.568088575727247e-06   2.308139571877447e-05
-4.0870984688572685e-05   6.568088575727247e-06   2.308139571877447e-05
-2.7776914283909188e-05   5.385691217146349e-06   1.9673834594837467e-06
-2.7776914283909188e-05   5.385691217146349e-06   1.9673834594837467e-06
-2.7776914283909188e-05   5.385691217146349e-06   1.9673834594837467e-06
-2.7776914283909188e-05   5.385691217146349e-06   1.9673834594837467e-06
-3.252761542911278e-05   6.358728926679469e-06   9.301396075769484e-06
-3.252761542911278e-05   6.358728926679469e-06   9.301396075769484e-06
-3.252761542911278e-05   6.358728926679469e-06   9.301396075769484e-06
-3.252761542911278e-05   6.358728926679469e-06   9.301396075769484e-06
1.794460324123148e-05   -2.3242496775318505e-06   1.7919804948586182e-05
1.794460324123148e-05   -2.3242496775318505e-06   1.7919804948586182e-05
1.794460324123148e-05   -2.3242496775318505e-06   1.7919804948586182e-05
1.794460324123148e-05   -2.3242496775318505e-06   1.7919804948586182e-05
7.450321109242855e-06   -1.1525962473966488e-06   1.1323267866864039e-06
7.450321109242855e-06   -1.1525962473966488e-06   1.1323267866864039e-06
7.450321109242855e-06   -1.1525962473966488e-06   1.1323267866864039e-06
7.450321109242855e-06   -1.1525962473966488e-06   1.1323267866864039e-06
6.989644670308744e-06   -2.8176882880086296e-06   1.6103372657356963e-05
6.989644670308744e-06   -2.8176882880086296e-06   1.6103372657356963e-05
6.989644670308744e-06   -2.8176882880086296e-06   1.6103372657356963e-05
6.989644670308744e-06   -2.8176882880086296e-06   1.6103372657356963e-05
1.696286871202824e-05   -1.5950346485070054e-06   -1.2522595958764596e-06
1.696286871202824e-05   -1.5950346485070054e-06   -1.2522595958764596e-06
1.696286871202824e-05   -1.5950346485070054e-06   -1.2522595958764596e-06
1.696286871202824e-05   -1.5950346485070054e-06   -1.2522595958764596e-06
1.1723532256352226e-05   -2.0191300604110313e-06   7.734425077393007e-06
1.1723532256352226e-05   -2.0191300604110313e-06   7.734425077393007e-06
1.1723532256352226e-05   -2.0191300604110313e-06   7.734425077393007e-06
1.1723532256352226e-05   -2.0191300604110313e-06   7.734425077393007e-06
1.6962868712028268e-05   -2.8176882880086296e-06   1.5369780473656042e-05
1.6962868712028268e-05   -2.8176882880086296e-06   1.5369780473656042e-05
1.6962868712028268e-05   -2.8176882880086296e-06   1.5369780473656042e-05
1.6962868712028268e-05   -2.8176882880086296e-06   1.5369780473656042e-05
6.98964467030872e-06   -1.5950346485070054e-06   -5.186674121755719e-07
6.98964467030872e-06   -1.5950346485070054e-06   -5.186674121755719e-07
6.98964467030872e-06   -1.5950346485070054e-06   -5.186674121755719e-07
6.98964467030872e-06   -1.5950346485070054e-06   -5.186674121755719e-07
6.471687892446926e-06   -2.949016084879009e-06   1.4755553692715243e-05
6.471687892446926e-06   -2.949016084879009e-06   1.4755553692715243e-05
6.471687892446926e-06   -2.949016084879009e-06   1.4755553692715243e-05
6.471687892446926e-06   -2.949016084879009e-06   1.4755553692715243e-05
1.6119552635219453e-05   -1.746774798796905e-06   -2.045565650221539e-06
1.6119552635219453e-05   -1.746774798796905e-06   -2.045565650221539e-06
1.6119552635219453e-05   -1.746774798796905e-06   -2.045565650221539e-06
1.6119552635219453e-05   -1.746774798796905e-06   -2.045565650221539e-06
1.1289522969748807e-05   -2.206998580313855e-06   6.280618061140137e-06
1.1289522969748807e-05   -2.206998580313855e-06   6.280618061140137e-06
1.1289522969748807e-05   -2.206998580313855e-06   6.280618061140137e-06
1.1289522969748807e-05   -2.206998580313855e-06   6.280618061140137e-06
1.6119552635219473e-05   -2.949016084879009e-06   1.4034208921065867e-05
1.6119552635219473e-05   -2.949016084879009e-06   1.4034208921065867e-05
1.6119552635219473e-05   -2.949016084879009e-06   1.4034208921065867e-05
1.6119552635219473e-05   -2.949016084879009e-06   1.4034208921065867e-05
6.471687892446916e-06   -1.746774798796905e-06   -1.32422087857219e-06
6.471687892446916e-06   -1.746774798796905e-06   -1.32422087857219e-06
6.471687892446916e-06   -1.746774798796905e-06   -1.32422087857219e-06
6.471687892446916e-06   -1.746774798796905e-06   -1.32422087857219e-06
6.007160647004612e-06   -3.0694586017376065e-06   1.300119057215225e-05
6.007160647004612e-06   -3.0694586017376065e-06   1.300119057215225e-05
6.007160647004612e-06   -3.0694586017376065e-06   1.300119057215225e-05
6.007160647004612e-06   -3.0694586017376065e-06   1.300119057215225e-05
1.5162095275483996e-05   -1.945535459822907e-06   -2.9313876937955407e-06
1.5162095275483996e-05   -1.945535459822907e-06   -2.9313876937955407e-06
1.5162095275483996e-05   -1.945535459822907e-06   -2.9313876937955407e-06
1.5162095275483996e-05   -1.945535459822907e-06   -2.9313876937955407e-06
1.0477448424999798e-05   -2.242563144869668e-06   5.054573668039121e-06
1.0477448424999798e-05   -2.242563144869668e-06   5.054573668039121e-06
1.0477448424999798e-05   -2.242563144869668e-06   5.054573668039121e-06
1.0477448424999798e-05   -2.242563144869668e-06   5.054573668039121e-06
7.450321109242882e-06   -1.671218311720228e-08   2.209659963310097e-05
7.450321109242882e-06   -1.671218311720228e-08   2.209659963310097e-05
7.450321109242882e-06   -1.671218311720228e-08   2.209659963310097e-05
7.450321109242882e-06   -1.671218311720228e-08   2.209659963310097e-05
-2.3922827920118942e-06   5.796738894374258e-07   6.050091441209054e-06
-2.3922827920118942e-06   5.796738894374258e-07   6.050091441209054e-06
-2.3922827920118942e-06   5.796738894374258e-07   6.050091441209054e-06
-2.3922827920118942e-06   5.796738894374258e-07   6.050091441209054e-06
-2.815820505156947e-06   -4.4505477630519576e-07   2.2137058358543456e-05
-2.815820505156947e-06   -4.4505477630519576e-07   2.2137058358543456e-05
-2.815820505156947e-06   -4.4505477630519576e-07   2.2137058358543456e-05
-2.815820505156947e-06   -4.4505477630519576e-07   2.2137058358543456e-05
6.98964467030872e-06   1.3277397863651653e-07   5.4479191464690095e-06
6.98964467030872e-06   1.3277397863651653e-07   5.4479191464690095e-06
6.98964467030872e-06   1.3277397863651653e-07   5.4479191464690095e-06
6.98964467030872e-06   1.3277397863651653e-07   5.4479191464690095e-06
2.237614349161447e-06   2.4043105051373484e-08   1.3433208205866046e-05
2.237614349161447e-06   2.4043105051373484e-08   1.3433208205866046e-05
2.237614349161447e-06   2.4043105051373484e-08   1.3433208205866046e-05
2.237614349161447e-06   2.4043105051373484e-08   1.3433208205866046e-05
6.989644670308737e-06   -4.4505477630519576e-07   2.1790361105578456e-05
6.989644670308737e-06   -4.4505477630519576e-07   2.1790361105578456e-05
6.989644670308737e-06   -4.4505477630519576e-07   2.1790361105578456e-05
6.989644670308737e-06   -4.4505477630519576e-07   2.1790361105578456e-05
-2.815820505156947e-06   1.3277397863651653e-07   5.794616399434145e-06
-2.815820505156947e-06   1.3277397863651653e-07   5.794616399434145e-06
-2.815820505156947e-06   1.3277397863651653e-07   5.794616399434145e-06
-2.815820505156947e-06   1.3277397863651653e-07   5.794616399434145e-06
-3.2489801276369224e-06   -7.818787292144386e-07   2.1868477263997394e-05
-3.2489801276369224e-06   -7.818787292144386e-07   2.1868477263997394e-05
-3.2489801276369224e-06   -7.818787292144386e-07   2.1868477263997394e-05
-3.2489801276369224e-06   -7.818787292144386e-07   2.1868477263997394e-05
6.471687892446916e-06   -2.3214820817334808e-07   5.3375255845662184e-06
6.471687892446916e-06   -2.3214820817334808e-07   5.3375255845662184e-06
6.471687892446916e-06   -2.3214820817334808e-07   5.3375255845662184e-06
6.471687892446916e-06   -2.3214820817334808e-07   5.3375255845662184e-06
1.7714059819779284e-06   -2.7357470586011987e-07   1.3196184667294084e-05
1.7714059819779284e-06   -2.7357470586011987e-07   1.3196184667294084e-05
1.7714059819779284e-06   -2.7357470586011987e-07   1.3196184667294084e-05
1.7714059819779284e-06   -2.7357470586011987e-07   1.3196184667294084e-05
6.471687892446936e-06   -7.818787292144386e-07   2.1538638951372696e-05
6.471687892446936e-06   -7.818787292144386e-07   2.1538638951372696e-05
6.471687892446936e-06   -7.818787292144386e-07   2.1538638951372696e-05
6.471687892446936e-06   -7.818787292144386e-07   2.1538638951372696e-05
-3.2489801276369224e-06   -2.3214820817334808e-07   5.6673638971910245e-06
-3.2489801276369224e-06   -2.3214820817334808e-07   5.6673638971910245e-06
-3.2489801276369224e-06   -2.3214820817334808e-07   5.6673638971910245e-06
-3.2489801276369224e-06   -2.3214820817334808e-07   5.6673638971910245e-06
-3.6785941182310264e-06   -1.0928148568335478e-06   2.2063323244885403e-05
-3.6785941182310264e-06   -1.0928148568335478e-06   2.2063323244885403e-05
-3.6785941182310264e-06   -1.0928148568335478e-06   2.2063323244885403e-05
-3.6785941182310264e-06   -1.0928148568335478e-06   2.2063323244885403e-05
6.007160647004585e-06   -5.907964456444269e-07   5.619187589445823e-06
6.007160647004585e-06   -5.907964456444269e-07   5.619187589445823e-06
6.007160647004585e-06   -5.907964456444269e-07   5.619187589445823e-06
6.007160647004585e-06   -5.907964456444269e-07   5.619187589445823e-06
1.4039895812044016e-06   -5.207840320320617e-07   1.3249131917611608e-05
1.4039895812044016e-06   -5.207840320320617e-07   1.3249131917611608e-05
1.4039895812044016e-06   -5.207840320320617e-07   1.3249131917611608e-05
1.4039895812044016e-06   -5.207840320320617e-07   1.3249131917611608e-05
-2.3922827920118942e-06   2.234903493713485e-06   2.396791106656012e-05
-2.3922827920118942e-06   2.234903493713485e-06   2.396791106656012e-05
-2.3922827920118942e-06   2.234903493713485e-06   2.396791106656012e-05
-2.3922827920118942e-06   2.234903493713485e-06   2.396791106656012e-05
-1.207082681600936e-05   2.2019323698931666e-06   7.817221685605552e-06
-1.207082681600936e-05   2.2019323698931666e-06   7.817221685605552e-06
-1.207082681600936e-05   2.2019323698931666e-06   7.817221685605552e-06
-1.207082681600936e-05   2.2019323698931666e-06   7.817221685605552e-06
-1.2488949406463636e-05   1.8594394030943106e-06   2.3811673515461277e-05
-1.2488949406463636e-05   1.8594394030943106e-06   2.3811673515461277e-05
-1.2488949406463636e-05   1.8594394030943106e-06   2.3811673515461277e-05
-1.2488949406463636e-05   1.8594394030943106e-06   2.3811673515461277e-05
-2.8158205051569336e-06   1.796684550459159e-06   7.72744492486487e-06
-2.8158205051569336e-06   1.796684550459159e-06   7.72744492486487e-06
-2.8158205051569336e-06   1.796684550459159e-06   7.72744492486487e-06
-2.8158205051569336e-06   1.796684550459159e-06   7.72744492486487e-06
-7.460615568547497e-06   1.9725275705715804e-06   1.5363264218448724e-05
-7.460615568547497e-06   1.9725275705715804e-06   1.5363264218448724e-05
-7.460615568547497e-06   1.9725275705715804e-06   1.5363264218448724e-05
-7.460615568547497e-06   1.9725275705715804e-06   1.5363264218448724e-05
-2.815820505156947e-06   1.8594394030945274e-06   2.3849326427042618e-05
-2.815820505156947e-06   1.8594394030945274e-06   2.3849326427042618e-05
-2.815820505156947e-06   1.8594394030945274e-06   2.3849326427042618e-05
-2.815820505156947e-06   1.8594394030945274e-06   2.3849326427042618e-05
-1.2488949406463663e-05   1.796684550459159e-06   7.689792013283693e-06
-1.2488949406463663e-05   1.796684550459159e-06   7.689792013283693e-06
-1.2488949406463663e-05   1.796684550459159e-06   7.689792013283693e-06
-1.2488949406463663e-05   1.796684550459159e-06   7.689792013283693e-06
-1.2917020825044771e-05   1.4899770411913593e-06   2.393130665480337e-05
-1.2917020825044771e-05   1.4899770411913593e-06   2.393130665480337e-05
-1.2917020825044771e-05   1.4899770411913593e-06   2.393130665480337e-05
-1.2917020825044771e-05   1.4899770411913593e-06   2.393130665480337e-05
-3.248980127636909e-06   1.396112125962674e-06   7.87422444159427e-06
-3.248980127636909e-06   1.396112125962674e-06   7.87422444159427e-06
-3.248980127636909e-06   1.396112125962674e-06   7.87422444159427e-06
-3.248980127636909e-06   1.396112125962674e-06   7.87422444159427e-06
-7.843282873025594e-06   1.6787534339574419e-06   1.536181089911243e-05
-7.843282873025594e-06   1.6787534339574419e-06   1.536181089911243e-05
-7.843282873025594e-06   1.6787534339574419e-06   1.536181089911243e-05
-7.843282873025594e-06   1.6787534339574419e-06   1.536181089911243e-05
-3.2489801276369224e-06   1.4899770411913593e-06   2.3987625603940748e-05
-3.2489801276369224e-06   1.4899770411913593e-06   2.3987625603940748e-05
-3.2489801276369224e-06   1.4899770411913593e-06   2.3987625603940748e-05
-3.2489801276369224e-06   1.4899770411913593e-06   2.3987625603940748e-05
-1.2917020825044826e-05   1.3961121259624572e-06   7.81790549245708e-06
-1.2917020825044826e-05   1.3961121259624572e-06   7.81790549245708e-06
-1.2917020825044826e-05   1.3961121259624572e-06   7.81790549245708e-06
-1.2917020825044826e-05   1.3961121259624572e-06   7.81790549245708e-06
-1.3340001741310876e-05   1.1394586435259802e-06   2.4249694231736393e-05
-1.3340001741310876e-05   1.1394586435259802e-06   2.4249694231736393e-05
-1.3340001741310876e-05   1.1394586435259802e-06   2.4249694231736393e-05
-1.3340001741310876e-05   1.1394586435259802e-06   2.4249694231736393e-05
-3.6785941182310264e-06   1.0105904411541588e-06   8.224669114692941e-06
-3.6785941182310264e-06   1.0105904411541588e-06   8.224669114692941e-06
-3.6785941182310264e-06   1.0105904411541588e-06   8.224669114692941e-06
-3.6785941182310264e-06   1.0105904411541588e-06   8.224669114692941e-06
-8.243685169878254e-06   1.3919812416441453e-06   1.5604319720477207e-05
-8.243685169878254e-06   1.3919812416441453e-06   1.5604319720477207e-05
-8.243685169878254e-06   1.3919812416441453e-06   1.5604319720477207e-05
-8.243685169878254e-06   1.3919812416441453e-06   1.5604319720477207e-05
-1.207082681600936e-05   4.4030013065629765e-06   2.1207096974078536e-05
-1.207082681600936e-05   4.4030013065629765e-06   2.1207096974078536e-05
-1.207082681600936e-05   4.4030013065629765e-06   2.1207096974078536e-05
-1.207082681600936e-05   4.4030013065629765e-06   2.1207096974078536e-05
-2.1592274861441136e-05   3.7807753780606888e-06   4.9646813412574905e-06
-2.1592274861441136e-05   3.7807753780606888e-06   4.9646813412574905e-06
-2.1592274861441136e-05   3.7807753780606888e-06   4.9646813412574905e-06
-2.1592274861441136e-05   3.7807753780606888e-06   4.9646813412574905e-06
-2.2041100414007365e-05   4.044206118639223e-06   2.0928838469352678e-05
-2.2041100414007365e-05   4.044206118639223e-06   2.0928838469352678e-05
-2.2041100414007365e-05   4.044206118639223e-06   2.0928838469352678e-05
-2.2041100414007365e-05   4.044206118639223e-06   2.0928838469352678e-05
-1.2488949406463636e-05   3.3854773773562413e-06   5.403824034883151e-06
-1.2488949406463636e-05   3.3854773773562413e-06   5.403824034883151e-06
-1.2488949406463636e-05   3.3854773773562413e-06   5.403824034883151e-06
-1.2488949406463636e-05   3.3854773773562413e-06   5.403824034883151e-06
-1.699993299926288e-05   3.836081026037234e-06   1.2651767833673621e-05
-1.699993299926288e-05   3.836081026037234e-06   1.2651767833673621e-05
-1.699993299926288e-05   3.836081026037234e-06   1.2651767833673621e-05
-1.699993299926288e-05   3.836081026037234e-06   1.2651767833673621e-05
-1.2488949406463663e-05   4.0442061186390064e-06   2.1324075714122717e-05
-1.2488949406463663e-05   4.0442061186390064e-06   2.1324075714122717e-05
-1.2488949406463663e-05   4.0442061186390064e-06   2.1324075714122717e-05
-1.2488949406463663e-05   4.0442061186390064e-06   2.1324075714122717e-05
-2.204110041400731e-05   3.3854773773560245e-06   5.0085867901134376e-06
-2.204110041400731e-05   3.3854773773560245e-06   5.0085867901134376e-06
-2.204110041400731e-05   3.3854773773560245e-06   5.0085867901134376e-06
-2.204110041400731e-05   3.3854773773560245e-06   5.0085867901134376e-06
-2.254593226559882e-05   3.7091661634256444e-06   2.164550802189586e-05
-2.254593226559882e-05   3.7091661634256444e-06   2.164550802189586e-05
-2.254593226559882e-05   3.7091661634256444e-06   2.164550802189586e-05
-2.254593226559882e-05   3.7091661634256444e-06   2.164550802189586e-05
-1.2917020825044771e-05   3.019091773390258e-06   6.011366921660367e-06
-1.2917020825044771e-05   3.019091773390258e-06   6.011366921660367e-06
-1.2917020825044771e-05   3.019091773390258e-06   6.011366921660367e-06
-1.2917020825044771e-05   3.019091773390258e-06   6.011366921660367e-06
-1.7309549903220202e-05   3.5670715841469233e-06   1.3003460832166166e-05
-1.7309549903220202e-05   3.5670715841469233e-06   1.3003460832166166e-05
-1.7309549903220202e-05   3.5670715841469233e-06   1.3003460832166166e-05
-1.7309549903220202e-05   3.5670715841469233e-06   1.3003460832166166e-05
-1.2917020825044826e-05   3.7091661634256444e-06   2.205955265591707e-05
-1.2917020825044826e-05   3.7091661634256444e-06   2.205955265591707e-05
-1.2917020825044826e-05   3.7091661634256444e-06   2.205955265591707e-05
-1.2917020825044826e-05   3.7091661634256444e-06   2.205955265591707e-05
-2.2545932265598766e-05   3.0190917733904747e-06   5.597322287639373e-06
-2.2545932265598766e-05   3.0190917733904747e-06   5.597322287639373e-06
-2.2545932265598766e-05   3.0190917733904747e-06   5.597322287639373e-06
-2.2545932265598766e-05   3.0190917733904747e-06   5.597322287639373e-06
-2.299431287318605e-05   3.318337223717901e-06   2.2247679877115305e-05
-2.299431287318605e-05   3.318337223717901e-06   2.2247679877115305e-05
-2.299431287318605e-05   3.318337223717901e-06   2.2247679877115305e-05
-2.299431287318605e-05   3.318337223717901e-06   2.2247679877115305e-05
-1.3340001741310822e-05   2.608911108278964e-06   6.582816993253417e-06
-1.3340001741310822e-05   2.608911108278964e-06   6.582816993253417e-06
-1.3340001741310822e-05   2.608911108278964e-06   6.582816993253417e-06
-1.3340001741310822e-05   2.608911108278964e-06   6.582816993253417e-06
-1.7816242490461095e-05   3.283234492752231e-06   1.3638624211152799e-05
-1.7816242490461095e-05   3.283234492752231e-06   1.3638624211152799e-05
-1.7816242490461095e-05   3.283234492752231e-06   1.3638624211152799e-05
-1.7816242490461095e-05   3.283234492752231e-06   1.3638624211152799e-05
-2.1592274861441136e-05   6.077602889653947e-06   1.0200812797226202e-05
-2.1592274861441136e-05   6.077602889653947e-06   1.0200812797226202e-05
-2.1592274861441136e-05   6.077602889653947e-06   1.0200812797226202e-05
-2.1592274861441136e-05   6.077602889653947e-06   1.0200812797226202e-05
-3.053638816940147e-05   4.968239349888593e-06   -5.37166083990038e-06
-3.053638816940147e-05   4.968239349888593e-06   -5.37166083990038e-06
-3.053638816940147e-05   4.968239349888593e-06   -5.37166083990038e-06
-3.053638816940147e-05   4.968239349888593e-06   -5.37166083990038e-06
-3.147599545035961e-05   6.050018444351364e-06   1.3094640263003809e-05
-3.147599545035961e-05   6.050018444351364e-06   1.3094640263003809e-05
-3.147599545035961e-05   6.050018444351364e-06   1.3094640263003809e-05
-3.147599545035961e-05   6.050018444351364e-06   1.3094640263003809e-05
-2.2041100414007283e-05   4.842986885138191e-06   -1.9059658620552283e-06
-2.2041100414007283e-05   4.842986885138191e-06   -1.9059658620552283e-06
-2.2041100414007283e-05   4.842986885138191e-06   -1.9059658620552283e-06
-2.2041100414007283e-05   4.842986885138191e-06   -1.9059658620552283e-06
-2.5421213735475905e-05   5.383885165083564e-06   3.403017372425812e-06
-2.5421213735475905e-05   5.383885165083564e-06   3.403017372425812e-06
-2.5421213735475905e-05   5.383885165083564e-06   3.403017372425812e-06
-2.5421213735475905e-05   5.383885165083564e-06   3.403017372425812e-06
-2.2041100414007338e-05   6.050018444351364e-06   1.3818859198531843e-05
-2.2041100414007338e-05   6.050018444351364e-06   1.3818859198531843e-05
-2.2041100414007338e-05   6.050018444351364e-06   1.3818859198531843e-05
-2.2041100414007338e-05   6.050018444351364e-06   1.3818859198531843e-05
-3.1475995450359505e-05   4.842986885138191e-06   -2.6301847975830454e-06
-3.1475995450359505e-05   4.842986885138191e-06   -2.6301847975830454e-06
-3.1475995450359505e-05   4.842986885138191e-06   -2.6301847975830454e-06
-3.1475995450359505e-05   4.842986885138191e-06   -2.6301847975830454e-06
-3.229500434913851e-05   5.927662959131141e-06   1.5595649608075206e-05
-3.229500434913851e-05   5.927662959131141e-06   1.5595649608075206e-05
-3.229500434913851e-05   5.927662959131141e-06   1.5595649608075206e-05
-3.229500434913851e-05   5.927662959131141e-06   1.5595649608075206e-05
-2.254593226559874e-05   4.687526816695266e-06   9.127782097067931e-08
-2.254593226559874e-05   4.687526816695266e-06   9.127782097067931e-08
-2.254593226559874e-05   4.687526816695266e-06   9.127782097067931e-08
-2.254593226559874e-05   4.687526816695266e-06   9.127782097067931e-08
-2.641890068602319e-05   5.388522444279187e-06   6.125627811795308e-06
-2.641890068602319e-05   5.388522444279187e-06   6.125627811795308e-06
-2.641890068602319e-05   5.388522444279187e-06   6.125627811795308e-06
-2.641890068602319e-05   5.388522444279187e-06   6.125627811795308e-06
-2.2545932265598766e-05   5.927662959131141e-06   1.6339731293536666e-05
-2.2545932265598766e-05   5.927662959131141e-06   1.6339731293536666e-05
-2.2545932265598766e-05   5.927662959131141e-06   1.6339731293536666e-05
-2.2545932265598766e-05   5.927662959131141e-06   1.6339731293536666e-05
-3.229500434913843e-05   4.687526816695049e-06   -6.528038644908348e-07
-3.229500434913843e-05   4.687526816695049e-06   -6.528038644908348e-07
-3.229500434913843e-05   4.687526816695049e-06   -6.528038644908348e-07
-3.229500434913843e-05   4.687526816695049e-06   -6.528038644908348e-07
-3.324437088810699e-05   5.385691217146349e-06   1.9939018382130304e-05
-3.324437088810699e-05   5.385691217146349e-06   1.9939018382130304e-05
-3.324437088810699e-05   5.385691217146349e-06   1.9939018382130304e-05
-3.324437088810699e-05   5.385691217146349e-06   1.9939018382130304e-05
-2.299431287318594e-05   4.16400093747782e-06   3.5886025250629443e-06
-2.299431287318594e-05   4.16400093747782e-06   3.5886025250629443e-06
-2.299431287318594e-05   4.16400093747782e-06   3.5886025250629443e-06
-2.299431287318594e-05   4.16400093747782e-06   3.5886025250629443e-06
-2.6636688397846072e-05   5.160351942502524e-06   9.061417796480694e-06
-2.6636688397846072e-05   5.160351942502524e-06   9.061417796480694e-06
-2.6636688397846072e-05   5.160351942502524e-06   9.061417796480694e-06
-2.6636688397846072e-05   5.160351942502524e-06   9.061417796480694e-06
1.0039454104129005e-05   -1.1525962473966488e-06   1.4141633006482459e-05
1.0039454104129005e-05   -1.1525962473966488e-06   1.4141633006482459e-05
1.0039454104129005e-05   -1.1525962473966488e-06   1.4141633006482459e-05
1.0039454104129005e-05   -1.1525962473966488e-06   1.4141633006482459e-05
2.6538616583251384e-06   1.0232772399711675e-08   2.530009675353771e-06
2.6538616583251384e-06   1.0232772399711675e-08   2.530009675353771e-06
2.6538616583251384e-06   1.0232772399711675e-08   2.530009675353771e-06
2.6538616583251384e-06   1.0232772399711675e-08   2.530009675353771e-06
2.308100611486897e-06   -1.5950346485070054e-06   1.3175256833841231e-05
2.308100611486897e-06   -1.5950346485070054e-06   1.3175256833841231e-05
2.308100611486897e-06   -1.5950346485070054e-06   1.3175256833841231e-05
2.308100611486897e-06   -1.5950346485070054e-06   1.3175256833841231e-05
9.18395314761194e-06   -3.8693714549597677e-07   9.906441051597001e-07
9.18395314761194e-06   -3.8693714549597677e-07   9.906441051597001e-07
9.18395314761194e-06   -3.8693714549597677e-07   9.906441051597001e-07
9.18395314761194e-06   -3.8693714549597677e-07   9.906441051597001e-07
5.690714703524615e-06   -8.372882188091221e-07   7.08291882262703e-06
5.690714703524615e-06   -8.372882188091221e-07   7.08291882262703e-06
5.690714703524615e-06   -8.372882188091221e-07   7.08291882262703e-06
5.690714703524615e-06   -8.372882188091221e-07   7.08291882262703e-06
9.183953147611954e-06   -1.5950346485070054e-06   1.2450398332034814e-05
9.183953147611954e-06   -1.5950346485070054e-06   1.2450398332034814e-05
9.183953147611954e-06   -1.5950346485070054e-06   1.2450398332034814e-05
9.183953147611954e-06   -1.5950346485070054e-06   1.2450398332034814e-05
2.3081006114868938e-06   -3.8693714549597677e-07   1.715502606966469e-06
2.3081006114868938e-06   -3.8693714549597677e-07   1.715502606966469e-06
2.3081006114868938e-06   -3.8693714549597677e-07   1.715502606966469e-06
2.3081006114868938e-06   -3.8693714549597677e-07   1.715502606966469e-06
1.904646888082984e-06   -1.746774798796688e-06   1.2359018330259275e-05
1.904646888082984e-06   -1.746774798796688e-06   1.2359018330259275e-05
1.904646888082984e-06   -1.746774798796688e-06   1.2359018330259275e-05
1.904646888082984e-06   -1.746774798796688e-06   1.2359018330259275e-05
8.459038719424905e-06   -5.573792291796225e-07   7.213946029192104e-07
8.459038719424905e-06   -5.573792291796225e-07   7.213946029192104e-07
8.459038719424905e-06   -5.573792291796225e-07   7.213946029192104e-07
8.459038719424905e-06   -5.573792291796225e-07   7.213946029192104e-07
5.279224334832172e-06   -1.0107333834223696e-06   6.293097736452709e-06
5.279224334832172e-06   -1.0107333834223696e-06   6.293097736452709e-06
5.279224334832172e-06   -1.0107333834223696e-06   6.293097736452709e-06
5.279224334832172e-06   -1.0107333834223696e-06   6.293097736452709e-06
8.459038719424925e-06   -1.746774798796905e-06   1.16453809884889e-05
8.459038719424925e-06   -1.746774798796905e-06   1.16453809884889e-05
8.459038719424925e-06   -1.746774798796905e-06   1.16453809884889e-05
8.459038719424925e-06   -1.746774798796905e-06   1.16453809884889e-05
1.9046468880829772e-06   -5.573792291796225e-07   1.4350319446894497e-06
1.9046468880829772e-06   -5.573792291796225e-07   1.4350319446894497e-06
1.9046468880829772e-06   -5.573792291796225e-07   1.4350319446894497e-06
1.9046468880829772e-06   -5.573792291796225e-07   1.4350319446894497e-06
1.554829836963301e-06   -1.945535459822907e-06   1.1410795282012012e-05
1.554829836963301e-06   -1.945535459822907e-06   1.1410795282012012e-05
1.554829836963301e-06   -1.945535459822907e-06   1.1410795282012012e-05
1.554829836963301e-06   -1.945535459822907e-06   1.1410795282012012e-05
7.60934470316336e-06   -8.397716026861332e-07   6.564788573965811e-07
7.60934470316336e-06   -8.397716026861332e-07   6.564788573965811e-07
7.60934470316336e-06   -8.397716026861332e-07   6.564788573965811e-07
7.60934470316336e-06   -8.397716026861332e-07   6.564788573965811e-07
4.667491119228443e-06   -1.0987455542471863e-06   5.714952534891329e-06
4.667491119228443e-06   -1.0987455542471863e-06   5.714952534891329e-06
4.667491119228443e-06   -1.0987455542471863e-06   5.714952534891329e-06
4.667491119228443e-06   -1.0987455542471863e-06   5.714952534891329e-06
2.653861658325142e-06   5.796738894374258e-07   1.939926342935024e-05
2.653861658325142e-06   5.796738894374258e-07   1.939926342935024e-05
2.653861658325142e-06   5.796738894374258e-07   1.939926342935024e-05
2.653861658325142e-06   5.796738894374258e-07   1.939926342935024e-05
-4.069898420175919e-06   1.1078445681092161e-06   8.509899039051724e-06
-4.069898420175919e-06   1.1078445681092161e-06   8.509899039051724e-06
-4.069898420175919e-06   1.1078445681092161e-06   8.509899039051724e-06
-4.069898420175919e-06   1.1078445681092161e-06   8.509899039051724e-06
-4.373910675769475e-06   1.3277397863673338e-07   1.9458243278101957e-05
-4.373910675769475e-06   1.3277397863673338e-07   1.9458243278101957e-05
-4.373910675769475e-06   1.3277397863673338e-07   1.9458243278101957e-05
-4.373910675769475e-06   1.3277397863673338e-07   1.9458243278101957e-05
2.3081006114868938e-06   6.60107121330019e-07   8.005157913725555e-06
2.3081006114868938e-06   6.60107121330019e-07   8.005157913725555e-06
2.3081006114868938e-06   6.60107121330019e-07   8.005157913725555e-06
2.3081006114868938e-06   6.60107121330019e-07   8.005157913725555e-06
-9.210910987091293e-07   5.750032246282471e-07   1.3438206435407074e-05
-9.210910987091293e-07   5.750032246282471e-07   1.3438206435407074e-05
-9.210910987091293e-07   5.750032246282471e-07   1.3438206435407074e-05
-9.210910987091293e-07   5.750032246282471e-07   1.3438206435407074e-05
2.308100611486897e-06   1.3277397863651653e-07   1.9141843392485867e-05
2.308100611486897e-06   1.3277397863651653e-07   1.9141843392485867e-05
2.308100611486897e-06   1.3277397863651653e-07   1.9141843392485867e-05
2.308100611486897e-06   1.3277397863651653e-07   1.9141843392485867e-05
-4.373910675769461e-06   6.60107121330019e-07   8.321557799341483e-06
-4.373910675769461e-06   6.60107121330019e-07   8.321557799341483e-06
-4.373910675769461e-06   6.60107121330019e-07   8.321557799341483e-06
-4.373910675769461e-06   6.60107121330019e-07   8.321557799341483e-06
-4.686913643297264e-06   -2.3214820817334808e-07   1.932891943357245e-05
-4.686913643297264e-06   -2.3214820817334808e-07   1.932891943357245e-05
-4.686913643297264e-06   -2.3214820817334808e-07   1.932891943357245e-05
-4.686913643297264e-06   -2.3214820817334808e-07   1.932891943357245e-05
1.9046468880829772e-06   2.8144285878445394e-07   8.034830574430818e-06
1.9046468880829772e-06   2.8144285878445394e-07   8.034830574430818e-06
1.9046468880829772e-06   2.8144285878445394e-07   8.034830574430818e-06
1.9046468880829772e-06   2.8144285878445394e-07   8.034830574430818e-06
-1.2459342275722478e-06   2.632310074345565e-07   1.3296726211333028e-05
-1.2459342275722478e-06   2.632310074345565e-07   1.3296726211333028e-05
-1.2459342275722478e-06   2.632310074345565e-07   1.3296726211333028e-05
-1.2459342275722478e-06   2.632310074345565e-07   1.3296726211333028e-05
1.904646888082984e-06   -2.3214820817334808e-07   1.9020764793397873e-05
1.904646888082984e-06   -2.3214820817334808e-07   1.9020764793397873e-05
1.904646888082984e-06   -2.3214820817334808e-07   1.9020764793397873e-05
1.904646888082984e-06   -2.3214820817334808e-07   1.9020764793397873e-05
-4.686913643297278e-06   2.8144285878456236e-07   8.342985214605477e-06
-4.686913643297278e-06   2.8144285878456236e-07   8.342985214605477e-06
-4.686913643297278e-06   2.8144285878456236e-07   8.342985214605477e-06
-4.686913643297278e-06   2.8144285878456236e-07   8.342985214605477e-06
-4.995376135011337e-06   -5.907964456446438e-07   1.9578762761365376e-05
-4.995376135011337e-06   -5.907964456446438e-07   1.9578762761365376e-05
-4.995376135011337e-06   -5.907964456446438e-07   1.9578762761365376e-05
-4.995376135011337e-06   -5.907964456446438e-07   1.9578762761365376e-05
1.5548298369632977e-06   -1.0455297687686493e-07   8.370006726813716e-06
1.5548298369632977e-06   -1.0455297687686493e-07   8.370006726813716e-06
1.5548298369632977e-06   -1.0455297687686493e-07   8.370006726813716e-06
1.5548298369632977e-06   -1.0455297687686493e-07   8.370006726813716e-06
-1.5204653019436145e-06   -1.5638802270865303e-08   1.3442150120228271e-05
-1.5204653019436145e-06   -1.5638802270865303e-08   1.3442150120228271e-05
-1.5204653019436145e-06   -1.5638802270865303e-08   1.3442150120228271e-05
-1.5204653019436145e-06   -1.5638802270865303e-08   1.3442150120228271e-05
-4.069898420175919e-06   2.2019323698931666e-06   2.1503078755242047e-05
-4.069898420175919e-06   2.2019323698931666e-06   2.1503078755242047e-05
-4.069898420175919e-06   2.2019323698931666e-06   2.1503078755242047e-05
-4.069898420175919e-06   2.2019323698931666e-06   2.1503078755242047e-05
-1.0676627518002395e-05   2.0782231441035396e-06   1.041763805672408e-05
-1.0676627518002395e-05   2.0782231441035396e-06   1.041763805672408e-05
-1.0676627518002395e-05   2.0782231441035396e-06   1.041763805672408e-05
-1.0676627518002395e-05   2.0782231441035396e-06   1.041763805672408e-05
-1.096856381936238e-05   1.796684550459159e-06   2.1312811088226857e-05
-1.096856381936238e-05   1.796684550459159e-06   2.1312811088226857e-05
-1.096856381936238e-05   1.796684550459159e-06   2.1312811088226857e-05
-1.096856381936238e-05   1.796684550459159e-06   2.1312811088226857e-05
-4.373910675769461e-06   1.6662500249493058e-06   1.039998323087792e-05
-4.373910675769461e-06   1.6662500249493058e-06   1.039998323087792e-05
-4.373910675769461e-06   1.6662500249493058e-06   1.039998323087792e-05
-4.373910675769461e-06   1.6662500249493058e-06   1.039998323087792e-05
-7.5365230277334996e-06   1.8887851486764544e-06   1.5537482743249004e-05
-7.5365230277334996e-06   1.8887851486764544e-06   1.5537482743249004e-05
-7.5365230277334996e-06   1.8887851486764544e-06   1.5537482743249004e-05
-7.5365230277334996e-06   1.8887851486764544e-06   1.5537482743249004e-05
-4.373910675769461e-06   1.796684550459159e-06   2.139107180353271e-05
-4.373910675769461e-06   1.796684550459159e-06   2.139107180353271e-05
-4.373910675769461e-06   1.796684550459159e-06   2.139107180353271e-05
-4.373910675769461e-06   1.796684550459159e-06   2.139107180353271e-05
-1.096856381936238e-05   1.6662500249493058e-06   1.032172251557215e-05
-1.096856381936238e-05   1.6662500249493058e-06   1.032172251557215e-05
-1.096856381936238e-05   1.6662500249493058e-06   1.032172251557215e-05
-1.096856381936238e-05   1.6662500249493058e-06   1.032172251557215e-05
-1.1269979342640136e-05   1.396112125962674e-06   2.1451958811532145e-05
-1.1269979342640136e-05   1.396112125962674e-06   2.1451958811532145e-05
-1.1269979342640136e-05   1.396112125962674e-06   2.1451958811532145e-05
-1.1269979342640136e-05   1.396112125962674e-06   2.1451958811532145e-05
-4.6869136432972506e-06   1.2564101818897996e-06   1.056400381240451e-05
-4.6869136432972506e-06   1.2564101818897996e-06   1.056400381240451e-05
-4.6869136432972506e-06   1.2564101818897996e-06   1.056400381240451e-05
-4.6869136432972506e-06   1.2564101818897996e-06   1.056400381240451e-05
-7.79626311518012e-06   1.5757989170307545e-06   1.5554619691124567e-05
-7.79626311518012e-06   1.5757989170307545e-06   1.5554619691124567e-05
-7.79626311518012e-06   1.5757989170307545e-06   1.5554619691124567e-05
-7.79626311518012e-06   1.5757989170307545e-06   1.5554619691124567e-05
-4.686913643297278e-06   1.3961121259624572e-06   2.1535779977975805e-05
-4.686913643297278e-06   1.3961121259624572e-06   2.1535779977975805e-05
-4.686913643297278e-06   1.3961121259624572e-06   2.1535779977975805e-05
-4.686913643297278e-06   1.3961121259624572e-06   2.1535779977975805e-05
-1.1269979342640136e-05   1.2564101818897996e-06   1.0480182645960904e-05
-1.1269979342640136e-05   1.2564101818897996e-06   1.0480182645960904e-05
-1.1269979342640136e-05   1.2564101818897996e-06   1.0480182645960904e-05
-1.1269979342640136e-05   1.2564101818897996e-06   1.0480182645960904e-05
-1.156662418517809e-05   1.0105904411543756e-06   2.1795191221910286e-05
-1.156662418517809e-05   1.0105904411543756e-06   2.1795191221910286e-05
-1.156662418517809e-05   1.0105904411543756e-06   2.1795191221910286e-05
-1.156662418517809e-05   1.0105904411543756e-06   2.1795191221910286e-05
-4.995376135011323e-06   8.641870778400328e-07   1.0930953156287762e-05
-4.995376135011323e-06   8.641870778400328e-07   1.0930953156287762e-05
-4.995376135011323e-06   8.641870778400328e-07   1.0930953156287762e-05
-4.995376135011323e-06   8.641870778400328e-07   1.0930953156287762e-05
-8.072646612477998e-06   1.2691875930603662e-06   1.5816736976266593e-05
-8.072646612477998e-06   1.2691875930603662e-06   1.5816736976266593e-05
-8.072646612477998e-06   1.2691875930603662e-06   1.5816736976266593e-05
-8.072646612477998e-06   1.2691875930603662e-06   1.5816736976266593e-05
-1.0676627518002395e-05   3.7807753780606888e-06   1.894964843252153e-05
-1.0676627518002395e-05   3.7807753780606888e-06   1.894964843252153e-05
-1.0676627518002395e-05   3.7807753780606888e-06   1.894964843252153e-05
-1.0676627518002395e-05   3.7807753780606888e-06   1.894964843252153e-05
-1.7167510274850403e-05   3.0925847239192438e-06   7.718596111956763e-06
-1.7167510274850403e-05   3.0925847239192438e-06   7.718596111956763e-06
-1.7167510274850403e-05   3.0925847239192438e-06   7.718596111956763e-06
-1.7167510274850403e-05   3.0925847239192438e-06   7.718596111956763e-06
-1.7485976648138555e-05   3.3854773773562413e-06   1.8602045133088614e-05
-1.7485976648138555e-05   3.3854773773562413e-06   1.8602045133088614e-05
-1.7485976648138555e-05   3.3854773773562413e-06   1.8602045133088614e-05
-1.7485976648138555e-05   3.3854773773562413e-06   1.8602045133088614e-05
-1.0968563819362354e-05   2.677480749459964e-06   8.164488395199674e-06
-1.0968563819362354e-05   2.677480749459964e-06   8.164488395199674e-06
-1.0968563819362354e-05   2.677480749459964e-06   8.164488395199674e-06
-1.0968563819362354e-05   2.677480749459964e-06   8.164488395199674e-06
-1.4040622948380943e-05   3.18045936515554e-06   1.2982799774147332e-05
-1.4040622948380943e-05   3.18045936515554e-06   1.2982799774147332e-05
-1.4040622948380943e-05   3.18045936515554e-06   1.2982799774147332e-05
-1.4040622948380943e-05   3.18045936515554e-06   1.2982799774147332e-05
-1.0968563819362408e-05   3.3854773773560245e-06   1.9026843109826315e-05
-1.0968563819362408e-05   3.3854773773560245e-06   1.9026843109826315e-05
-1.0968563819362408e-05   3.3854773773560245e-06   1.9026843109826315e-05
-1.0968563819362408e-05   3.3854773773560245e-06   1.9026843109826315e-05
-1.7485976648138555e-05   2.6774807494600724e-06   7.739690418461865e-06
-1.7485976648138555e-05   2.6774807494600724e-06   7.739690418461865e-06
-1.7485976648138555e-05   2.6774807494600724e-06   7.739690418461865e-06
-1.7485976648138555e-05   2.6774807494600724e-06   7.739690418461865e-06
-1.7862817300663073e-05   3.0190917733904747e-06   1.9213709020772453e-05
-1.7862817300663073e-05   3.0190917733904747e-06   1.9213709020772453e-05
-1.7862817300663073e-05   3.0190917733904747e-06   1.9213709020772453e-05
-1.7862817300663073e-05   3.0190917733904747e-06   1.9213709020772453e-05
-1.1269979342640109e-05   2.2995730734518514e-06   8.65735697736414e-06
-1.1269979342640109e-05   2.2995730734518514e-06   8.65735697736414e-06
-1.1269979342640109e-05   2.2995730734518514e-06   8.65735697736414e-06
-1.1269979342640109e-05   2.2995730734518514e-06   8.65735697736414e-06
-1.4246179843706888e-05   2.8871430669787567e-06   1.3265149149692531e-05
-1.4246179843706888e-05   2.8871430669787567e-06   1.3265149149692531e-05
-1.4246179843706888e-05   2.8871430669787567e-06   1.3265149149692531e-05
-1.4246179843706888e-05   2.8871430669787567e-06   1.3265149149692531e-05
-1.1269979342640136e-05   3.019091773390258e-06   1.964542024073565e-05
-1.1269979342640136e-05   3.019091773390258e-06   1.964542024073565e-05
-1.1269979342640136e-05   3.019091773390258e-06   1.964542024073565e-05
-1.1269979342640136e-05   3.019091773390258e-06   1.964542024073565e-05
-1.7862817300663073e-05   2.2995730734518514e-06   8.225645757401e-06
-1.7862817300663073e-05   2.2995730734518514e-06   8.225645757401e-06
-1.7862817300663073e-05   2.2995730734518514e-06   8.225645757401e-06
-1.7862817300663073e-05   2.2995730734518514e-06   8.225645757401e-06
-1.8185798064494904e-05   2.6089111082787473e-06   1.980242147269287e-05
-1.8185798064494904e-05   2.6089111082787473e-06   1.980242147269287e-05
-1.8185798064494904e-05   2.6089111082787473e-06   1.980242147269287e-05
-1.8185798064494904e-05   2.6089111082787473e-06   1.980242147269287e-05
-1.1566624185178063e-05   1.8951801929434874e-06   9.198703556366136e-06
-1.1566624185178063e-05   1.8951801929434874e-06   9.198703556366136e-06
-1.1566624185178063e-05   1.8951801929434874e-06   9.198703556366136e-06
-1.1566624185178063e-05   1.8951801929434874e-06   9.198703556366136e-06
-1.460116419057378e-05   2.592823264705368e-06   1.38376843889684e-05
-1.460116419057378e-05   2.592823264705368e-06   1.38376843889684e-05
-1.460116419057378e-05   2.592823264705368e-06   1.38376843889684e-05
-1.460116419057378e-05   2.592823264705368e-06   1.38376843889684e-05
-1.716751027485043e-05   4.968239349888593e-06   8.866009982738221e-06
-1.716751027485043e-05   4.968239349888593e-06   8.866009982738221e-06
-1.716751027485043e-05   4.968239349888593e-06   8.866009982738221e-06
-1.716751027485043e-05   4.968239349888593e-06   8.866009982738221e-06
-2.303751552693706e-05   3.8131643644860776e-06   -1.6103770953143724e-06
-2.303751552693706e-05   3.8131643644860776e-06   -1.6103770953143724e-06
-2.303751552693706e-05   3.8131643644860776e-06   -1.6103770953143724e-06
-2.303751552693706e-05   3.8131643644860776e-06   -1.6103770953143724e-06
-2.3854634330463663e-05   4.842986885138191e-06   1.0942423725640409e-05
-2.3854634330463663e-05   4.842986885138191e-06   1.0942423725640409e-05
-2.3854634330463663e-05   4.842986885138191e-06   1.0942423725640409e-05
-2.3854634330463663e-05   4.842986885138191e-06   1.0942423725640409e-05
-1.74859766481385e-05   3.6012056263388676e-06   1.0730630103781462e-06
-1.74859766481385e-05   3.6012056263388676e-06   1.0730630103781462e-06
-1.74859766481385e-05   3.6012056263388676e-06   1.0730630103781462e-06
-1.74859766481385e-05   3.6012056263388676e-06   1.0730630103781462e-06
-1.964354174642855e-05   4.226150802631528e-06   4.294037735086848e-06
-1.964354174642855e-05   4.226150802631528e-06   4.294037735086848e-06
-1.964354174642855e-05   4.226150802631528e-06   4.294037735086848e-06
-1.964354174642855e-05   4.226150802631528e-06   4.294037735086848e-06
-1.74859766481385e-05   4.842986885138191e-06   1.1687492480919948e-05
-1.74859766481385e-05   4.842986885138191e-06   1.1687492480919948e-05
-1.74859766481385e-05   4.842986885138191e-06   1.1687492480919948e-05
-1.74859766481385e-05   4.842986885138191e-06   1.1687492480919948e-05
-2.3854634330463718e-05   3.601205626338759e-06   3.279942550985795e-07
-2.3854634330463718e-05   3.601205626338759e-06   3.279942550985795e-07
-2.3854634330463718e-05   3.601205626338759e-06   3.279942550985795e-07
-2.3854634330463718e-05   3.601205626338759e-06   3.279942550985795e-07
-2.4557440211931173e-05   4.687526816695049e-06   1.294899396875218e-05
-2.4557440211931173e-05   4.687526816695049e-06   1.294899396875218e-05
-2.4557440211931173e-05   4.687526816695049e-06   1.294899396875218e-05
-2.4557440211931173e-05   4.687526816695049e-06   1.294899396875218e-05
-1.786281730066302e-05   3.4230758411089033e-06   2.549959701990314e-06
-1.786281730066302e-05   3.4230758411089033e-06   2.549959701990314e-06
-1.786281730066302e-05   3.4230758411089033e-06   2.549959701990314e-06
-1.786281730066302e-05   3.4230758411089033e-06   2.549959701990314e-06
-2.0429645258078933e-05   4.171888168677084e-06   6.3787189011428515e-06
-2.0429645258078933e-05   4.171888168677084e-06   6.3787189011428515e-06
-2.0429645258078933e-05   4.171888168677084e-06   6.3787189011428515e-06
-2.0429645258078933e-05   4.171888168677084e-06   6.3787189011428515e-06
-1.7862817300663073e-05   4.687526816695266e-06   1.3707664554103813e-05
-1.7862817300663073e-05   4.687526816695266e-06   1.3707664554103813e-05
-1.7862817300663073e-05   4.687526816695266e-06   1.3707664554103813e-05
-1.7862817300663073e-05   4.687526816695266e-06   1.3707664554103813e-05
-2.4557440211931227e-05   3.4230758411089033e-06   1.791289116638518e-06
-2.4557440211931227e-05   3.4230758411089033e-06   1.791289116638518e-06
-2.4557440211931227e-05   3.4230758411089033e-06   1.791289116638518e-06
-2.4557440211931227e-05   3.4230758411089033e-06   1.791289116638518e-06
-2.53977846205927e-05   4.164000937478037e-06   1.6497601091531883e-05
-2.53977846205927e-05   4.164000937478037e-06   1.6497601091531883e-05
-2.53977846205927e-05   4.164000937478037e-06   1.6497601091531883e-05
-2.53977846205927e-05   4.164000937478037e-06   1.6497601091531883e-05
-1.8185798064494822e-05   2.9368983004212854e-06   5.2138850802692805e-06
-1.8185798064494822e-05   2.9368983004212854e-06   5.2138850802692805e-06
-1.8185798064494822e-05   2.9368983004212854e-06   5.2138850802692805e-06
-1.8185798064494822e-05   2.9368983004212854e-06   5.2138850802692805e-06
-2.062233074731179e-05   3.9507937323981276e-06   8.666435625777653e-06
-2.062233074731179e-05   3.9507937323981276e-06   8.666435625777653e-06
-2.062233074731179e-05   3.9507937323981276e-06   8.666435625777653e-06
-2.062233074731179e-05   3.9507937323981276e-06   8.666435625777653e-06
2.1155138051724562e-06   1.0232772399711675e-08   1.0590431630603867e-05
2.1155138051724562e-06   1.0232772399711675e-08   1.0590431630603867e-05
2.1155138051724562e-06   1.0232772399711675e-08   1.0590431630603867e-05
2.1155138051724562e-06   1.0232772399711675e-08   1.0590431630603867e-05
-2.1417129169301498e-06   1.1292473995713108e-06   4.166462536735909e-06
-2.1417129169301498e-06   1.1292473995713108e-06   4.166462536735909e-06
-2.1417129169301498e-06   1.1292473995713108e-06   4.166462536735909e-06
-2.1417129169301498e-06   1.1292473995713108e-06   4.166462536735909e-06
-2.388175211362605e-06   -3.8693714549586835e-07   1.0432564287003244e-05
-2.388175211362605e-06   -3.8693714549586835e-07   1.0432564287003244e-05
-2.388175211362605e-06   -3.8693714549586835e-07   1.0432564287003244e-05
-2.388175211362605e-06   -3.8693714549586835e-07   1.0432564287003244e-05
1.3667314104000666e-06   7.586301200290801e-07   3.487046224750416e-06
1.3667314104000666e-06   7.586301200290801e-07   3.487046224750416e-06
1.3667314104000666e-06   7.586301200290801e-07   3.487046224750416e-06
1.3667314104000666e-06   7.586301200290801e-07   3.487046224750416e-06
-3.6452340253900734e-07   3.1396030335115654e-07   6.6392728029889545e-06
-3.6452340253900734e-07   3.1396030335115654e-07   6.6392728029889545e-06
-3.6452340253900734e-07   3.1396030335115654e-07   6.6392728029889545e-06
-3.6452340253900734e-07   3.1396030335115654e-07   6.6392728029889545e-06
1.3667314104000666e-06   -3.8693714549586835e-07   9.74522392768823e-06
1.3667314104000666e-06   -3.8693714549586835e-07   9.74522392768823e-06
1.3667314104000666e-06   -3.8693714549586835e-07   9.74522392768823e-06
1.3667314104000666e-06   -3.8693714549586835e-07   9.74522392768823e-06
-2.388175211362605e-06   7.586301200290801e-07   4.1743865840655585e-06
-2.388175211362605e-06   7.586301200290801e-07   4.1743865840655585e-06
-2.388175211362605e-06   7.586301200290801e-07   4.1743865840655585e-06
-2.388175211362605e-06   7.586301200290801e-07   4.1743865840655585e-06
-2.6929006027757733e-06   -5.57379229179731e-07   1.015134638767041e-05
-2.6929006027757733e-06   -5.57379229179731e-07   1.015134638767041e-05
-2.6929006027757733e-06   -5.57379229179731e-07   1.015134638767041e-05
-2.6929006027757733e-06   -5.57379229179731e-07   1.015134638767041e-05
7.162850463667233e-07   5.557510484485413e-07   3.801492139189318e-06
7.162850463667233e-07   5.557510484485413e-07   3.801492139189318e-06
7.162850463667233e-07   5.557510484485413e-07   3.801492139189318e-06
7.162850463667233e-07   5.557510484485413e-07   3.801492139189318e-06
-7.674299268115939e-07   1.5612533660217063e-07   6.514125854927688e-06
-7.674299268115939e-07   1.5612533660217063e-07   6.514125854927688e-06
-7.674299268115939e-07   1.5612533660217063e-07   6.514125854927688e-06
-7.674299268115939e-07   1.5612533660217063e-07   6.514125854927688e-06
7.162850463667233e-07   -5.57379229179731e-07   9.483468221093367e-06
7.162850463667233e-07   -5.57379229179731e-07   9.483468221093367e-06
7.162850463667233e-07   -5.57379229179731e-07   9.483468221093367e-06
7.162850463667233e-07   -5.57379229179731e-07   9.483468221093367e-06
-2.6929006027757665e-06   5.557510484485413e-07   4.469370305766195e-06
-2.6929006027757665e-06   5.557510484485413e-07   4.469370305766195e-06
-2.6929006027757665e-06   5.557510484485413e-07   4.469370305766195e-06
-2.6929006027757665e-06   5.557510484485413e-07   4.469370305766195e-06
-2.9480273848137257e-06   -8.397716026862416e-07   1.0039136453064983e-05
-2.9480273848137257e-06   -8.397716026862416e-07   1.0039136453064983e-05
-2.9480273848137257e-06   -8.397716026862416e-07   1.0039136453064983e-05
-2.9480273848137257e-06   -8.397716026862416e-07   1.0039136453064983e-05
-1.0029026606633937e-07   1.265491651914353e-07   4.713115461092991e-06
-1.0029026606633937e-07   1.265491651914353e-07   4.713115461092991e-06
-1.0029026606633937e-07   1.265491651914353e-07   4.713115461092991e-06
-1.0029026606633937e-07   1.265491651914353e-07   4.713115461092991e-06
-1.2053758456182382e-06   1.3105545139944271e-08   6.6229909323769446e-06
-1.2053758456182382e-06   1.3105545139944271e-08   6.6229909323769446e-06
-1.2053758456182382e-06   1.3105545139944271e-08   6.6229909323769446e-06
-1.2053758456182382e-06   1.3105545139944271e-08   6.6229909323769446e-06
-2.1417129169301498e-06   1.1078445681093245e-06   1.6924827363401588e-05
-2.1417129169301498e-06   1.1078445681093245e-06   1.6924827363401588e-05
-2.1417129169301498e-06   1.1078445681093245e-06   1.6924827363401588e-05
-2.1417129169301498e-06   1.1078445681093245e-06   1.6924827363401588e-05
-5.7028251434723285e-06   1.3307827333022349e-06   1.1123403218280415e-05
-5.7028251434723285e-06   1.3307827333022349e-06   1.1123403218280415e-05
-5.7028251434723285e-06   1.3307827333022349e-06   1.1123403218280415e-05
-5.7028251434723285e-06   1.3307827333022349e-06   1.1123403218280415e-05
-5.889253235751742e-06   6.60107121330019e-07   1.6876660829522592e-05
-5.889253235751742e-06   6.60107121330019e-07   1.6876660829522592e-05
-5.889253235751742e-06   6.60107121330019e-07   1.6876660829522592e-05
-5.889253235751742e-06   6.60107121330019e-07   1.6876660829522592e-05
-2.388175211362605e-06   9.175091809305105e-07   1.0887089553113737e-05
-2.388175211362605e-06   9.175091809305105e-07   1.0887089553113737e-05
-2.388175211362605e-06   9.175091809305105e-07   1.0887089553113737e-05
-2.388175211362605e-06   9.175091809305105e-07   1.0887089553113737e-05
-4.055675270705571e-06   9.554820508333528e-07   1.3643472596743618e-05
-4.055675270705571e-06   9.554820508333528e-07   1.3643472596743618e-05
-4.055675270705571e-06   9.554820508333528e-07   1.3643472596743618e-05
-4.055675270705571e-06   9.554820508333528e-07   1.3643472596743618e-05
-2.388175211362598e-06   6.60107121330019e-07   1.672221959376225e-05
-2.388175211362598e-06   6.60107121330019e-07   1.672221959376225e-05
-2.388175211362598e-06   6.60107121330019e-07   1.672221959376225e-05
-2.388175211362598e-06   6.60107121330019e-07   1.672221959376225e-05
-5.889253235751756e-06   9.175091809305105e-07   1.1041530788874108e-05
-5.889253235751756e-06   9.175091809305105e-07   1.1041530788874108e-05
-5.889253235751756e-06   9.175091809305105e-07   1.1041530788874108e-05
-5.889253235751756e-06   9.175091809305105e-07   1.1041530788874108e-05
-6.081623187556258e-06   2.8144285878456236e-07   1.690449740552691e-05
-6.081623187556258e-06   2.8144285878456236e-07   1.690449740552691e-05
-6.081623187556258e-06   2.8144285878456236e-07   1.690449740552691e-05
-6.081623187556258e-06   2.8144285878456236e-07   1.690449740552691e-05
-2.6929006027757665e-06   5.370301723097446e-07   1.1103274042777557e-05
-2.6929006027757665e-06   5.370301723097446e-07   1.1103274042777557e-05
-2.6929006027757665e-06   5.370301723097446e-07   1.1103274042777557e-05
-2.6929006027757665e-06   5.370301723097446e-07   1.1103274042777557e-05
-4.246201533188439e-06   6.540685379973236e-07   1.3621885907386442e-05
-4.246201533188439e-06   6.540685379973236e-07   1.3621885907386442e-05
-4.246201533188439e-06   6.540685379973236e-07   1.3621885907386442e-05
-4.246201533188439e-06   6.540685379973236e-07   1.3621885907386442e-05
-2.6929006027757665e-06   2.8144285878456236e-07   1.6751145017411642e-05
-2.6929006027757665e-06   2.8144285878456236e-07   1.6751145017411642e-05
-2.6929006027757665e-06   2.8144285878456236e-07   1.6751145017411642e-05
-2.6929006027757665e-06   2.8144285878456236e-07   1.6751145017411642e-05
-6.081623187556258e-06   5.370301723097446e-07   1.1256626430892797e-05
-6.081623187556258e-06   5.370301723097446e-07   1.1256626430892797e-05
-6.081623187556258e-06   5.370301723097446e-07   1.1256626430892797e-05
-6.081623187556258e-06   5.370301723097446e-07   1.1256626430892797e-05
-6.270538421606961e-06   -1.0455297687686493e-07   1.7227477296089563e-05
-6.270538421606961e-06   -1.0455297687686493e-07   1.7227477296089563e-05
-6.270538421606961e-06   -1.0455297687686493e-07   1.7227477296089563e-05
-6.270538421606961e-06   -1.0455297687686493e-07   1.7227477296089563e-05
-2.9480273848137257e-06   1.2589916960554278e-07   1.1551687613544823e-05
-2.9480273848137257e-06   1.2589916960554278e-07   1.1551687613544823e-05
-2.9480273848137257e-06   1.2589916960554278e-07   1.1551687613544823e-05
-2.9480273848137257e-06   1.2589916960554278e-07   1.1551687613544823e-05
-4.436142910968002e-06   3.58786836453847e-07   1.3892147557026244e-05
-4.436142910968002e-06   3.58786836453847e-07   1.3892147557026244e-05
-4.436142910968002e-06   3.58786836453847e-07   1.3892147557026244e-05
-4.436142910968002e-06   3.58786836453847e-07   1.3892147557026244e-05
-5.7028251434723285e-06   2.0782231441035396e-06   1.9040554815663634e-05
-5.7028251434723285e-06   2.0782231441035396e-06   1.9040554815663634e-05
-5.7028251434723285e-06   2.0782231441035396e-06   1.9040554815663634e-05
-5.7028251434723285e-06   2.0782231441035396e-06   1.9040554815663634e-05
-9.246086603955533e-06   1.6025540907446028e-06   1.2849717616176279e-05
-9.246086603955533e-06   1.6025540907446028e-06   1.2849717616176279e-05
-9.246086603955533e-06   1.6025540907446028e-06   1.2849717616176279e-05
-9.246086603955533e-06   1.6025540907446028e-06   1.2849717616176279e-05
-9.404237318197801e-06   1.6662500249493058e-06   1.8687561672371678e-05
-9.404237318197801e-06   1.6662500249493058e-06   1.8687561672371678e-05
-9.404237318197801e-06   1.6662500249493058e-06   1.8687561672371678e-05
-9.404237318197801e-06   1.6662500249493058e-06   1.8687561672371678e-05
-5.889253235751756e-06   1.2203757104704577e-06   1.309677945698245e-05
-5.889253235751756e-06   1.2203757104704577e-06   1.309677945698245e-05
-5.889253235751756e-06   1.2203757104704577e-06   1.309677945698245e-05
-5.889253235751756e-06   1.2203757104704577e-06   1.309677945698245e-05
-7.564785161682616e-06   1.6093365508042246e-06   1.5655956162666837e-05
-7.564785161682616e-06   1.6093365508042246e-06   1.5655956162666837e-05
-7.564785161682616e-06   1.6093365508042246e-06   1.5655956162666837e-05
-7.564785161682616e-06   1.6093365508042246e-06   1.5655956162666837e-05
-5.889253235751756e-06   1.6662500249493058e-06   1.8955086261059084e-05
-5.889253235751756e-06   1.6662500249493058e-06   1.8955086261059084e-05
-5.889253235751756e-06   1.6662500249493058e-06   1.8955086261059084e-05
-5.889253235751756e-06   1.6662500249493058e-06   1.8955086261059084e-05
-9.404237318197801e-06   1.2203757104704577e-06   1.2829254868294935e-05
-9.404237318197801e-06   1.2203757104704577e-06   1.2829254868294935e-05
-9.404237318197801e-06   1.2203757104704577e-06   1.2829254868294935e-05
-9.404237318197801e-06   1.2203757104704577e-06   1.2829254868294935e-05
-9.573563809540231e-06   1.2564101818897996e-06   1.8870889860288145e-05
-9.573563809540231e-06   1.2564101818897996e-06   1.8870889860288145e-05
-9.573563809540231e-06   1.2564101818897996e-06   1.8870889860288145e-05
-9.573563809540231e-06   1.2564101818897996e-06   1.8870889860288145e-05
-6.081623187556258e-06   8.320332768270216e-07   1.3305614966685887e-05
-6.081623187556258e-06   8.320332768270216e-07   1.3305614966685887e-05
-6.081623187556258e-06   8.320332768270216e-07   1.3305614966685887e-05
-6.081623187556258e-06   8.320332768270216e-07   1.3305614966685887e-05
-7.699932906496285e-06   1.3037341690279509e-06   1.5719777296265334e-05
-7.699932906496285e-06   1.3037341690279509e-06   1.5719777296265334e-05
-7.699932906496285e-06   1.3037341690279509e-06   1.5719777296265334e-05
-7.699932906496285e-06   1.3037341690279509e-06   1.5719777296265334e-05
-6.081623187556258e-06   1.2564101818897996e-06   1.912551600332578e-05
-6.081623187556258e-06   1.2564101818897996e-06   1.912551600332578e-05
-6.081623187556258e-06   1.2564101818897996e-06   1.912551600332578e-05
-6.081623187556258e-06   1.2564101818897996e-06   1.912551600332578e-05
-9.573563809540231e-06   8.320332768270216e-07   1.3050988823648199e-05
-9.573563809540231e-06   8.320332768270216e-07   1.3050988823648199e-05
-9.573563809540231e-06   8.320332768270216e-07   1.3050988823648199e-05
-9.573563809540231e-06   8.320332768270216e-07   1.3050988823648199e-05
-9.73940289425936e-06   8.641870778401412e-07   1.925673608846746e-05
-9.73940289425936e-06   8.641870778401412e-07   1.925673608846746e-05
-9.73940289425936e-06   8.641870778401412e-07   1.925673608846746e-05
-9.73940289425936e-06   8.641870778401412e-07   1.925673608846746e-05
-6.270538421606961e-06   4.642844847809347e-07   1.3715236856549212e-05
-6.270538421606961e-06   4.642844847809347e-07   1.3715236856549212e-05
-6.270538421606961e-06   4.642844847809347e-07   1.3715236856549212e-05
-6.270538421606961e-06   4.642844847809347e-07   1.3715236856549212e-05
-7.85048191456007e-06   1.00289557207272e-06   1.60253093590959e-05
-7.85048191456007e-06   1.00289557207272e-06   1.60253093590959e-05
-7.85048191456007e-06   1.00289557207272e-06   1.60253093590959e-05
-7.85048191456007e-06   1.00289557207272e-06   1.60253093590959e-05
-9.246086603955533e-06   3.092584723919352e-06   1.646902583136566e-05
-9.246086603955533e-06   3.092584723919352e-06   1.646902583136566e-05
-9.246086603955533e-06   3.092584723919352e-06   1.646902583136566e-05
-9.246086603955533e-06   3.092584723919352e-06   1.646902583136566e-05
-1.2733686706505368e-05   2.1708304428353893e-06   1.0103306425132279e-05
-1.2733686706505368e-05   2.1708304428353893e-06   1.0103306425132279e-05
-1.2733686706505368e-05   2.1708304428353893e-06   1.0103306425132279e-05
-1.2733686706505368e-05   2.1708304428353893e-06   1.0103306425132279e-05
-1.2907584821320728e-05   2.6774807494600724e-06   1.5985145528891716e-05
-1.2907584821320728e-05   2.6774807494600724e-06   1.5985145528891716e-05
-1.2907584821320728e-05   2.6774807494600724e-06   1.5985145528891716e-05
-1.2907584821320728e-05   2.6774807494600724e-06   1.5985145528891716e-05
-9.404237318197801e-06   1.7688440442808389e-06   1.0691415046794306e-05
-9.404237318197801e-06   1.7688440442808389e-06   1.0691415046794306e-05
-9.404237318197801e-06   1.7688440442808389e-06   1.0691415046794306e-05
-9.404237318197801e-06   1.7688440442808389e-06   1.0691415046794306e-05
-1.1049421613912655e-05   2.4056488770573658e-06   1.305130597331989e-05
-1.1049421613912655e-05   2.4056488770573658e-06   1.305130597331989e-05
-1.1049421613912655e-05   2.4056488770573658e-06   1.305130597331989e-05
-1.1049421613912655e-05   2.4056488770573658e-06   1.305130597331989e-05
-9.404237318197801e-06   2.6774807494600724e-06   1.6530327551999148e-05
-9.404237318197801e-06   2.6774807494600724e-06   1.6530327551999148e-05
-9.404237318197801e-06   2.6774807494600724e-06   1.6530327551999148e-05
-9.404237318197801e-06   2.6774807494600724e-06   1.6530327551999148e-05
-1.2907584821320674e-05   1.7688440442809473e-06   1.0146233023686929e-05
-1.2907584821320674e-05   1.7688440442809473e-06   1.0146233023686929e-05
-1.2907584821320674e-05   1.7688440442809473e-06   1.0146233023686929e-05
-1.2907584821320674e-05   1.7688440442809473e-06   1.0146233023686929e-05
-1.3147144052726915e-05   2.299573073451743e-06   1.651481808875627e-05
-1.3147144052726915e-05   2.299573073451743e-06   1.651481808875627e-05
-1.3147144052726915e-05   2.299573073451743e-06   1.651481808875627e-05
-1.3147144052726915e-05   2.299573073451743e-06   1.651481808875627e-05
-9.573563809540231e-06   1.4108295685595455e-06   1.1092097119713728e-05
-9.573563809540231e-06   1.4108295685595455e-06   1.1092097119713728e-05
-9.573563809540231e-06   1.4108295685595455e-06   1.1092097119713728e-05
-9.573563809540231e-06   1.4108295685595455e-06   1.1092097119713728e-05
-1.1143892533779873e-05   2.1094963818576312e-06   1.3290111572134293e-05
-1.1143892533779873e-05   2.1094963818576312e-06   1.3290111572134293e-05
-1.1143892533779873e-05   2.1094963818576312e-06   1.3290111572134293e-05
-1.1143892533779873e-05   2.1094963818576312e-06   1.3290111572134293e-05
-9.573563809540231e-06   2.299573073451743e-06   1.704806419169138e-05
-9.573563809540231e-06   2.299573073451743e-06   1.704806419169138e-05
-9.573563809540231e-06   2.299573073451743e-06   1.704806419169138e-05
-9.573563809540231e-06   2.299573073451743e-06   1.704806419169138e-05
-1.3147144052726861e-05   1.410829568559654e-06   1.0558851016778399e-05
-1.3147144052726861e-05   1.410829568559654e-06   1.0558851016778399e-05
-1.3147144052726861e-05   1.410829568559654e-06   1.0558851016778399e-05
-1.3147144052726861e-05   1.410829568559654e-06   1.0558851016778399e-05
-1.3339015250445562e-05   1.8951801929434874e-06   1.7102639021219905e-05
-1.3339015250445562e-05   1.8951801929434874e-06   1.7102639021219905e-05
-1.3339015250445562e-05   1.8951801929434874e-06   1.7102639021219905e-05
-1.3339015250445562e-05   1.8951801929434874e-06   1.7102639021219905e-05
-9.73940289425936e-06   1.0456977174192958e-06   1.1612974579557392e-05
-9.73940289425936e-06   1.0456977174192958e-06   1.1612974579557392e-05
-9.73940289425936e-06   1.0456977174192958e-06   1.1612974579557392e-05
-9.73940289425936e-06   1.0456977174192958e-06   1.1612974579557392e-05
-1.134273297764615e-05   1.8274207901747123e-06   1.3816157541548767e-05
-1.134273297764615e-05   1.8274207901747123e-06   1.3816157541548767e-05
-1.134273297764615e-05   1.8274207901747123e-06   1.3816157541548767e-05
-1.134273297764615e-05   1.8274207901747123e-06   1.3816157541548767e-05
-1.2733686706505368e-05   3.813164364485969e-06   7.280045046685808e-06
-1.2733686706505368e-05   3.813164364485969e-06   7.280045046685808e-06
-1.2733686706505368e-05   3.813164364485969e-06   7.280045046685808e-06
-1.2733686706505368e-05   3.813164364485969e-06   7.280045046685808e-06
-1.549122003867068e-05   2.5722930870466587e-06   1.939633393280021e-06
-1.549122003867068e-05   2.5722930870466587e-06   1.939633393280021e-06
-1.549122003867068e-05   2.5722930870466587e-06   1.939633393280021e-06
-1.549122003867068e-05   2.5722930870466587e-06   1.939633393280021e-06
-1.6148570002628385e-05   3.6012056263388676e-06   8.540742658070697e-06
-1.6148570002628385e-05   3.6012056263388676e-06   8.540742658070697e-06
-1.6148570002628385e-05   3.6012056263388676e-06   8.540742658070697e-06
-1.6148570002628385e-05   3.6012056263388676e-06   8.540742658070697e-06
-1.2907584821320674e-05   2.3049131884432224e-06   3.916876151961821e-06
-1.2907584821320674e-05   2.3049131884432224e-06   3.916876151961821e-06
-1.2907584821320674e-05   2.3049131884432224e-06   3.916876151961821e-06
-1.2907584821320674e-05   2.3049131884432224e-06   3.916876151961821e-06
-1.382292401345763e-05   3.0405320573742307e-06   5.001070150831577e-06
-1.382292401345763e-05   3.0405320573742307e-06   5.001070150831577e-06
-1.382292401345763e-05   3.0405320573742307e-06   5.001070150831577e-06
-1.382292401345763e-05   3.0405320573742307e-06   5.001070150831577e-06
-1.29075848213207e-05   3.601205626338759e-06   9.318518120807998e-06
-1.29075848213207e-05   3.601205626338759e-06   9.318518120807998e-06
-1.29075848213207e-05   3.601205626338759e-06   9.318518120807998e-06
-1.29075848213207e-05   3.601205626338759e-06   9.318518120807998e-06
-1.6148570002628385e-05   2.3049131884432224e-06   3.1391006892245446e-06
-1.6148570002628385e-05   2.3049131884432224e-06   3.1391006892245446e-06
-1.6148570002628385e-05   2.3049131884432224e-06   3.1391006892245446e-06
-1.6148570002628385e-05   2.3049131884432224e-06   3.1391006892245446e-06
-1.6712359070130995e-05   3.4230758411089033e-06   1.0057851206028679e-05
-1.6712359070130995e-05   3.4230758411089033e-06   1.0057851206028679e-05
-1.6712359070130995e-05   3.4230758411089033e-06   1.0057851206028679e-05
-1.6712359070130995e-05   3.4230758411089033e-06   1.0057851206028679e-05
-1.3147144052726888e-05   2.1209411289142615e-06   4.897107004338567e-06
-1.3147144052726888e-05   2.1209411289142615e-06   4.897107004338567e-06
-1.3147144052726888e-05   2.1209411289142615e-06   4.897107004338567e-06
-1.3147144052726888e-05   2.1209411289142615e-06   4.897107004338567e-06
-1.4380891388241412e-05   2.9363612006178506e-06   6.464100520507621e-06
-1.4380891388241412e-05   2.9363612006178506e-06   6.464100520507621e-06
-1.4380891388241412e-05   2.9363612006178506e-06   6.464100520507621e-06
-1.4380891388241412e-05   2.9363612006178506e-06   6.464100520507621e-06
-1.3147144052726888e-05   3.4230758411090117e-06   1.083913203334542e-05
-1.3147144052726888e-05   3.4230758411090117e-06   1.083913203334542e-05
-1.3147144052726888e-05   3.4230758411090117e-06   1.083913203334542e-05
-1.3147144052726888e-05   3.4230758411090117e-06   1.083913203334542e-05
-1.671235907013105e-05   2.1209411289142615e-06   4.1158261770218035e-06
-1.671235907013105e-05   2.1209411289142615e-06   4.1158261770218035e-06
-1.671235907013105e-05   2.1209411289142615e-06   4.1158261770218035e-06
-1.671235907013105e-05   2.1209411289142615e-06   4.1158261770218035e-06
-1.7428983797713646e-05   2.9368983004212854e-06   1.280199841620464e-05
-1.7428983797713646e-05   2.9368983004212854e-06   1.280199841620464e-05
-1.7428983797713646e-05   2.9368983004212854e-06   1.280199841620464e-05
-1.7428983797713646e-05   2.9368983004212854e-06   1.280199841620464e-05
-1.3339015250445535e-05   1.6967971702213595e-06   6.7294448488775926e-06
-1.3339015250445535e-05   1.6967971702213595e-06   6.7294448488775926e-06
-1.3339015250445535e-05   1.6967971702213595e-06   6.7294448488775926e-06
-1.3339015250445535e-05   1.6967971702213595e-06   6.7294448488775926e-06
-1.453877553431903e-05   2.7343524150883814e-06   8.106512175079485e-06
-1.453877553431903e-05   2.7343524150883814e-06   8.106512175079485e-06
-1.453877553431903e-05   2.7343524150883814e-06   8.106512175079485e-06
-1.453877553431903e-05   2.7343524150883814e-06   8.106512175079485e-06
-6.170437160600265e-06   1.1292473995713108e-06   7.590701136023992e-06
-6.170437160600265e-06   1.1292473995713108e-06   7.590701136023992e-06
-6.170437160600265e-06   1.1292473995713108e-06   7.590701136023992e-06
-6.170437160600265e-06   1.1292473995713108e-06   7.590701136023992e-06
-6.8227068849638124e-06   2.146510042903599e-06   7.1139425147507054e-06
-6.8227068849638124e-06   2.146510042903599e-06   7.1139425147507054e-06
-6.8227068849638124e-06   2.146510042903599e-06   7.1139425147507054e-06
-6.8227068849638124e-06   2.146510042903599e-06   7.1139425147507054e-06
-7.001935097215002e-06   7.586301200290801e-07   8.133611572771874e-06
-7.001935097215002e-06   7.586301200290801e-07   8.133611572771874e-06
-7.001935097215002e-06   7.586301200290801e-07   8.133611572771874e-06
-7.001935097215002e-06   7.586301200290801e-07   8.133611572771874e-06
-6.917304031909195e-06   1.674283862784147e-06   7.443167551609133e-06
-6.917304031909195e-06   1.674283862784147e-06   7.443167551609133e-06
-6.917304031909195e-06   1.674283862784147e-06   7.443167551609133e-06
-6.917304031909195e-06   1.674283862784147e-06   7.443167551609133e-06
-6.563218778181599e-06   1.3325659272956335e-06   7.058056223356292e-06
-6.563218778181599e-06   1.3325659272956335e-06   7.058056223356292e-06
-6.563218778181599e-06   1.3325659272956335e-06   7.058056223356292e-06
-6.563218778181599e-06   1.3325659272956335e-06   7.058056223356292e-06
-6.917304031909208e-06   7.586301200290801e-07   7.5842193271188655e-06
-6.917304031909208e-06   7.586301200290801e-07   7.5842193271188655e-06
-6.917304031909208e-06   7.586301200290801e-07   7.5842193271188655e-06
-6.917304031909208e-06   7.586301200290801e-07   7.5842193271188655e-06
-7.001935097215002e-06   1.674283862784147e-06   7.992559797262216e-06
-7.001935097215002e-06   1.674283862784147e-06   7.992559797262216e-06
-7.001935097215002e-06   1.674283862784147e-06   7.992559797262216e-06
-7.001935097215002e-06   1.674283862784147e-06   7.992559797262216e-06
-7.234410997245523e-06   5.557510484485413e-07   8.37901976955452e-06
-7.234410997245523e-06   5.557510484485413e-07   8.37901976955452e-06
-7.234410997245523e-06   5.557510484485413e-07   8.37901976955452e-06
-7.234410997245523e-06   5.557510484485413e-07   8.37901976955452e-06
-7.644569753093124e-06   1.3489077380319592e-06   8.586723682217168e-06
-7.644569753093124e-06   1.3489077380319592e-06   8.586723682217168e-06
-7.644569753093124e-06   1.3489077380319592e-06   8.586723682217168e-06
-7.644569753093124e-06   1.3489077380319592e-06   8.586723682217168e-06
-7.007342358891026e-06   1.129204409362045e-06   7.656500022415599e-06
-7.007342358891026e-06   1.129204409362045e-06   7.656500022415599e-06
-7.007342358891026e-06   1.129204409362045e-06   7.656500022415599e-06
-7.007342358891026e-06   1.129204409362045e-06   7.656500022415599e-06
-7.644569753093138e-06   5.557510484485413e-07   7.903125755804386e-06
-7.644569753093138e-06   5.557510484485413e-07   7.903125755804386e-06
-7.644569753093138e-06   5.557510484485413e-07   7.903125755804386e-06
-7.644569753093138e-06   5.557510484485413e-07   7.903125755804386e-06
-7.234410997245523e-06   1.3489077380319592e-06   9.062617695967186e-06
-7.234410997245523e-06   1.3489077380319592e-06   9.062617695967186e-06
-7.234410997245523e-06   1.3489077380319592e-06   9.062617695967186e-06
-7.234410997245523e-06   1.3489077380319592e-06   9.062617695967186e-06
-7.383738135884934e-06   1.265491651914353e-07   9.188311135333732e-06
-7.383738135884934e-06   1.265491651914353e-07   9.188311135333732e-06
-7.383738135884934e-06   1.265491651914353e-07   9.188311135333732e-06
-7.383738135884934e-06   1.265491651914353e-07   9.188311135333732e-06
-8.419456616192802e-06   5.492089736820792e-07   1.0660912717418906e-05
-8.419456616192802e-06   5.492089736820792e-07   1.0660912717418906e-05
-8.419456616192802e-06   5.492089736820792e-07   1.0660912717418906e-05
-8.419456616192802e-06   5.492089736820792e-07   1.0660912717418906e-05
-7.322934355686208e-06   8.80972398641512e-07   8.63431756159872e-06
-7.322934355686208e-06   8.80972398641512e-07   8.63431756159872e-06
-7.322934355686208e-06   8.80972398641512e-07   8.63431756159872e-06
-7.322934355686208e-06   8.80972398641512e-07   8.63431756159872e-06
-6.8227068849638124e-06   1.3307827333022349e-06   1.5024236504452047e-05
-6.8227068849638124e-06   1.3307827333022349e-06   1.5024236504452047e-05
-6.8227068849638124e-06   1.3307827333022349e-06   1.5024236504452047e-05
-6.8227068849638124e-06   1.3307827333022349e-06   1.5024236504452047e-05
-6.961502098685061e-06   5.562958352573594e-07   1.432821900942304e-05
-6.961502098685061e-06   5.562958352573594e-07   1.432821900942304e-05
-6.961502098685061e-06   5.562958352573594e-07   1.432821900942304e-05
-6.961502098685061e-06   5.562958352573594e-07   1.432821900942304e-05
-7.018925056387237e-06   9.175091809305105e-07   1.4454535570386062e-05
-7.018925056387237e-06   9.175091809305105e-07   1.4454535570386062e-05
-7.018925056387237e-06   9.175091809305105e-07   1.4454535570386062e-05
-7.018925056387237e-06   9.175091809305105e-07   1.4454535570386062e-05
-7.001935097215002e-06   2.6454422854025423e-07   1.4817997943199787e-05
-7.001935097215002e-06   2.6454422854025423e-07   1.4817997943199787e-05
-7.001935097215002e-06   2.6454422854025423e-07   1.4817997943199787e-05
-7.001935097215002e-06   2.6454422854025423e-07   1.4817997943199787e-05
-6.930991063963639e-06   6.776593267505385e-07   1.4451888828854675e-05
-6.930991063963639e-06   6.776593267505385e-07   1.4451888828854675e-05
-6.930991063963639e-06   6.776593267505385e-07   1.4451888828854675e-05
-6.930991063963639e-06   6.776593267505385e-07   1.4451888828854675e-05
-7.001935097215009e-06   9.175091809304021e-07   1.484631454182008e-05
-7.001935097215009e-06   9.175091809304021e-07   1.484631454182008e-05
-7.001935097215009e-06   9.175091809304021e-07   1.484631454182008e-05
-7.001935097215009e-06   9.175091809304021e-07   1.484631454182008e-05
-7.018925056387237e-06   2.6454422854025423e-07   1.4426218971765633e-05
-7.018925056387237e-06   2.6454422854025423e-07   1.4426218971765633e-05
-7.018925056387237e-06   2.6454422854025423e-07   1.4426218971765633e-05
-7.018925056387237e-06   2.6454422854025423e-07   1.4426218971765633e-05
-7.08968057629134e-06   5.370301723097446e-07   1.4647637423167699e-05
-7.08968057629134e-06   5.370301723097446e-07   1.4647637423167699e-05
-7.08968057629134e-06   5.370301723097446e-07   1.4647637423167699e-05
-7.08968057629134e-06   5.370301723097446e-07   1.4647637423167699e-05
-7.234410997245523e-06   -7.177996668735311e-08   1.5254140874822902e-05
-7.234410997245523e-06   -7.177996668735311e-08   1.5254140874822902e-05
-7.234410997245523e-06   -7.177996668735311e-08   1.5254140874822902e-05
-7.234410997245523e-06   -7.177996668735311e-08   1.5254140874822902e-05
-7.0009324506778355e-06   4.370515608672254e-07   1.4559711047344235e-05
-7.0009324506778355e-06   4.370515608672254e-07   1.4559711047344235e-05
-7.0009324506778355e-06   4.370515608672254e-07   1.4559711047344235e-05
-7.0009324506778355e-06   4.370515608672254e-07   1.4559711047344235e-05
-7.234410997245523e-06   5.370301723097446e-07   1.50129235065658e-05
-7.234410997245523e-06   5.370301723097446e-07   1.50129235065658e-05
-7.234410997245523e-06   5.370301723097446e-07   1.50129235065658e-05
-7.234410997245523e-06   5.370301723097446e-07   1.50129235065658e-05
-7.089680576291327e-06   -7.177996668735311e-08   1.488885479142461e-05
-7.089680576291327e-06   -7.177996668735311e-08   1.488885479142461e-05
-7.089680576291327e-06   -7.177996668735311e-08   1.488885479142461e-05
-7.089680576291327e-06   -7.177996668735311e-08   1.488885479142461e-05
-7.142300245823857e-06   1.258991696056512e-07   1.5064040292220911e-05
-7.142300245823857e-06   1.258991696056512e-07   1.5064040292220911e-05
-7.142300245823857e-06   1.258991696056512e-07   1.5064040292220911e-05
-7.142300245823857e-06   1.258991696056512e-07   1.5064040292220911e-05
-7.383738135884914e-06   -5.125183884580119e-07   1.5849487310494004e-05
-7.383738135884914e-06   -5.125183884580119e-07   1.5849487310494004e-05
-7.383738135884914e-06   -5.125183884580119e-07   1.5849487310494004e-05
-7.383738135884914e-06   -5.125183884580119e-07   1.5849487310494004e-05
-7.109673246317713e-06   1.5549983895578952e-07   1.4991901558100018e-05
-7.109673246317713e-06   1.5549983895578952e-07   1.4991901558100018e-05
-7.109673246317713e-06   1.5549983895578952e-07   1.4991901558100018e-05
-7.109673246317713e-06   1.5549983895578952e-07   1.4991901558100018e-05
-6.961502098685074e-06   1.6025540907446028e-06   1.6571260195536396e-05
-6.961502098685074e-06   1.6025540907446028e-06   1.6571260195536396e-05
-6.961502098685074e-06   1.6025540907446028e-06   1.6571260195536396e-05
-6.961502098685074e-06   1.6025540907446028e-06   1.6571260195536396e-05
-7.533874490248712e-06   1.5576274245166508e-07   1.4749231400621298e-05
-7.533874490248712e-06   1.5576274245166508e-07   1.4749231400621298e-05
-7.533874490248712e-06   1.5576274245166508e-07   1.4749231400621298e-05
-7.533874490248712e-06   1.5576274245166508e-07   1.4749231400621298e-05
-7.555135634256096e-06   1.2203757104704577e-06   1.5723886389517813e-05
-7.555135634256096e-06   1.2203757104704577e-06   1.5723886389517813e-05
-7.555135634256096e-06   1.2203757104704577e-06   1.5723886389517813e-05
-7.555135634256096e-06   1.2203757104704577e-06   1.5723886389517813e-05
-7.018925056387237e-06   -8.945403782382316e-08   1.561609994204621e-05
-7.018925056387237e-06   -8.945403782382316e-08   1.561609994204621e-05
-7.018925056387237e-06   -8.945403782382316e-08   1.561609994204621e-05
-7.018925056387237e-06   -8.945403782382316e-08   1.561609994204621e-05
-7.255434108299584e-06   6.973068451169933e-07   1.553822516546896e-05
-7.255434108299584e-06   6.973068451169933e-07   1.553822516546896e-05
-7.255434108299584e-06   6.973068451169933e-07   1.553822516546896e-05
-7.255434108299584e-06   6.973068451169933e-07   1.553822516546896e-05
-7.018925056387237e-06   1.2203757104704577e-06   1.6509784238494295e-05
-7.018925056387237e-06   1.2203757104704577e-06   1.6509784238494295e-05
-7.018925056387237e-06   1.2203757104704577e-06   1.6509784238494295e-05
-7.018925056387237e-06   1.2203757104704577e-06   1.6509784238494295e-05
-7.555135634256096e-06   -8.945403782382316e-08   1.4830202093069688e-05
-7.555135634256096e-06   -8.945403782382316e-08   1.4830202093069688e-05
-7.555135634256096e-06   -8.945403782382316e-08   1.4830202093069688e-05
-7.555135634256096e-06   -8.945403782382316e-08   1.4830202093069688e-05
-7.591515390530589e-06   8.320332768270216e-07   1.596760553253414e-05
-7.591515390530589e-06   8.320332768270216e-07   1.596760553253414e-05
-7.591515390530589e-06   8.320332768270216e-07   1.596760553253414e-05
-7.591515390530589e-06   8.320332768270216e-07   1.596760553253414e-05
-7.089680576291327e-06   -3.8300076721741166e-07   1.5860234601895338e-05
-7.089680576291327e-06   -3.8300076721741166e-07   1.5860234601895338e-05
-7.089680576291327e-06   -3.8300076721741166e-07   1.5860234601895338e-05
-7.089680576291327e-06   -3.8300076721741166e-07   1.5860234601895338e-05
-7.262222877078188e-06   4.5495183206869486e-07   1.5645033543635118e-05
-7.262222877078188e-06   4.5495183206869486e-07   1.5645033543635118e-05
-7.262222877078188e-06   4.5495183206869486e-07   1.5645033543635118e-05
-7.262222877078188e-06   4.5495183206869486e-07   1.5645033543635118e-05
-7.089680576291327e-06   8.320332768269132e-07   1.6696625958960573e-05
-7.089680576291327e-06   8.320332768269132e-07   1.6696625958960573e-05
-7.089680576291327e-06   8.320332768269132e-07   1.6696625958960573e-05
-7.089680576291327e-06   8.320332768269132e-07   1.6696625958960573e-05
-7.591515390530589e-06   -3.8300076721741166e-07   1.5131214175468703e-05
-7.591515390530589e-06   -3.8300076721741166e-07   1.5131214175468703e-05
-7.591515390530589e-06   -3.8300076721741166e-07   1.5131214175468703e-05
-7.591515390530589e-06   -3.8300076721741166e-07   1.5131214175468703e-05
-7.615928646638931e-06   4.642844847809347e-07   1.6404549195306014e-05
-7.615928646638931e-06   4.642844847809347e-07   1.6404549195306014e-05
-7.615928646638931e-06   4.642844847809347e-07   1.6404549195306014e-05
-7.615928646638931e-06   4.642844847809347e-07   1.6404549195306014e-05
-7.142300245823857e-06   -6.769972686021899e-07   1.6299937579310577e-05
-7.142300245823857e-06   -6.769972686021899e-07   1.6299937579310577e-05
-7.142300245823857e-06   -6.769972686021899e-07   1.6299937579310577e-05
-7.142300245823857e-06   -6.769972686021899e-07   1.6299937579310577e-05
-7.28123541045159e-06   2.0595824160900213e-07   1.600172288089622e-05
-7.28123541045159e-06   2.0595824160900213e-07   1.600172288089622e-05
-7.28123541045159e-06   2.0595824160900213e-07   1.600172288089622e-05
-7.28123541045159e-06   2.0595824160900213e-07   1.600172288089622e-05
-7.533874490248712e-06   2.1708304428353893e-06   1.3509826764167038e-05
-7.533874490248712e-06   2.1708304428353893e-06   1.3509826764167038e-05
-7.533874490248712e-06   2.1708304428353893e-06   1.3509826764167038e-05
-7.533874490248712e-06   2.1708304428353893e-06   1.3509826764167038e-05
-8.34468067251881e-06   7.149603360217713e-07   1.1284961062961978e-05
-8.34468067251881e-06   7.149603360217713e-07   1.1284961062961978e-05
-8.34468067251881e-06   7.149603360217713e-07   1.1284961062961978e-05
-8.34468067251881e-06   7.149603360217713e-07   1.1284961062961978e-05
-8.36134171301663e-06   1.7688440442809473e-06   1.2759624632400265e-05
-8.36134171301663e-06   1.7688440442809473e-06   1.2759624632400265e-05
-8.36134171301663e-06   1.7688440442809473e-06   1.2759624632400265e-05
-8.36134171301663e-06   1.7688440442809473e-06   1.2759624632400265e-05
-7.555135634256096e-06   3.914741515859176e-07   1.224236977008297e-05
-7.555135634256096e-06   3.914741515859176e-07   1.224236977008297e-05
-7.555135634256096e-06   3.914741515859176e-07   1.224236977008297e-05
-7.555135634256096e-06   3.914741515859176e-07   1.224236977008297e-05
-7.928067703193755e-06   1.2903899158665853e-06   1.2324573759743985e-05
-7.928067703193755e-06   1.2903899158665853e-06   1.2324573759743985e-05
-7.928067703193755e-06   1.2903899158665853e-06   1.2324573759743985e-05
-7.928067703193755e-06   1.2903899158665853e-06   1.2324573759743985e-05
-7.555135634256096e-06   1.7688440442808389e-06   1.3586046568017185e-05
-7.555135634256096e-06   1.7688440442808389e-06   1.3586046568017185e-05
-7.555135634256096e-06   1.7688440442808389e-06   1.3586046568017185e-05
-7.555135634256096e-06   1.7688440442808389e-06   1.3586046568017185e-05
-8.36134171301663e-06   3.914741515859176e-07   1.1415947834465996e-05
-8.36134171301663e-06   3.914741515859176e-07   1.1415947834465996e-05
-8.36134171301663e-06   3.914741515859176e-07   1.1415947834465996e-05
-8.36134171301663e-06   3.914741515859176e-07   1.1415947834465996e-05
-8.45440544517396e-06   1.410829568559654e-06   1.3230764957668098e-05
-8.45440544517396e-06   1.410829568559654e-06   1.3230764957668098e-05
-8.45440544517396e-06   1.410829568559654e-06   1.3230764957668098e-05
-8.45440544517396e-06   1.410829568559654e-06   1.3230764957668098e-05
-7.591515390530589e-06   1.1424811700698088e-07   1.2570563737527467e-05
-7.591515390530589e-06   1.1424811700698088e-07   1.2570563737527467e-05
-7.591515390530589e-06   1.1424811700698088e-07   1.2570563737527467e-05
-7.591515390530589e-06   1.1424811700698088e-07   1.2570563737527467e-05
-7.908088758064476e-06   1.0252082932110597e-06   1.2551609911028067e-05
-7.908088758064476e-06   1.0252082932110597e-06   1.2551609911028067e-05
-7.908088758064476e-06   1.0252082932110597e-06   1.2551609911028067e-05
-7.908088758064476e-06   1.0252082932110597e-06   1.2551609911028067e-05
-7.591515390530589e-06   1.410829568559654e-06   1.4008713828599615e-05
-7.591515390530589e-06   1.410829568559654e-06   1.4008713828599615e-05
-7.591515390530589e-06   1.410829568559654e-06   1.4008713828599615e-05
-7.591515390530589e-06   1.410829568559654e-06   1.4008713828599615e-05
-8.45440544517396e-06   1.1424811700698088e-07   1.1792614866595905e-05
-8.45440544517396e-06   1.1424811700698088e-07   1.1792614866595905e-05
-8.45440544517396e-06   1.1424811700698088e-07   1.1792614866595905e-05
-8.45440544517396e-06   1.1424811700698088e-07   1.1792614866595905e-05
-8.510694754347543e-06   1.0456977174192958e-06   1.381559093759999e-05
-8.510694754347543e-06   1.0456977174192958e-06   1.381559093759999e-05
-8.510694754347543e-06   1.0456977174192958e-06   1.381559093759999e-05
-8.510694754347543e-06   1.0456977174192958e-06   1.381559093759999e-05
-7.6159286466389036e-06   -1.6536484349688116e-07   1.3050951627968503e-05
-7.6159286466389036e-06   -1.6536484349688116e-07   1.3050951627968503e-05
-7.6159286466389036e-06   -1.6536484349688116e-07   1.3050951627968503e-05
-7.6159286466389036e-06   -1.6536484349688116e-07   1.3050951627968503e-05
-7.950564576592078e-06   7.880487453586541e-07   1.3036630024576582e-05
-7.950564576592078e-06   7.880487453586541e-07   1.3036630024576582e-05
-7.950564576592078e-06   7.880487453586541e-07   1.3036630024576582e-05
-7.950564576592078e-06   7.880487453586541e-07   1.3036630024576582e-05
-8.34468067251881e-06   2.5722930870466587e-06   5.21715443469004e-06
-8.34468067251881e-06   2.5722930870466587e-06   5.21715443469004e-06
-8.34468067251881e-06   2.5722930870466587e-06   5.21715443469004e-06
-8.34468067251881e-06   2.5722930870466587e-06   5.21715443469004e-06
-8.283363801967543e-06   1.183372192803411e-06   4.485996682396264e-06
-8.283363801967543e-06   1.183372192803411e-06   4.485996682396264e-06
-8.283363801967543e-06   1.183372192803411e-06   4.485996682396264e-06
-8.283363801967543e-06   1.183372192803411e-06   4.485996682396264e-06
-8.70951941185714e-06   2.3049131884432224e-06   5.719605834199489e-06
-8.70951941185714e-06   2.3049131884432224e-06   5.719605834199489e-06
-8.70951941185714e-06   2.3049131884432224e-06   5.719605834199489e-06
-8.70951941185714e-06   2.3049131884432224e-06   5.719605834199489e-06
-8.36134171301663e-06   9.538099776502614e-07   5.949971595941011e-06
-8.36134171301663e-06   9.538099776502614e-07   5.949971595941011e-06
-8.36134171301663e-06   9.538099776502614e-07   5.949971595941011e-06
-8.36134171301663e-06   9.538099776502614e-07   5.949971595941011e-06
-8.150621625649997e-06   1.8115392580637403e-06   5.084133882081881e-06
-8.150621625649997e-06   1.8115392580637403e-06   5.084133882081881e-06
-8.150621625649997e-06   1.8115392580637403e-06   5.084133882081881e-06
-8.150621625649997e-06   1.8115392580637403e-06   5.084133882081881e-06
-8.361341713016603e-06   2.3049131884432224e-06   6.5302677606749945e-06
-8.361341713016603e-06   2.3049131884432224e-06   6.5302677606749945e-06
-8.361341713016603e-06   2.3049131884432224e-06   6.5302677606749945e-06
-8.361341713016603e-06   2.3049131884432224e-06   6.5302677606749945e-06
-8.709519411857194e-06   9.538099776502614e-07   5.139309669465261e-06
-8.709519411857194e-06   9.538099776502614e-07   5.139309669465261e-06
-8.709519411857194e-06   9.538099776502614e-07   5.139309669465261e-06
-8.709519411857194e-06   9.538099776502614e-07   5.139309669465261e-06
-9.083402283276793e-06   2.1209411289142615e-06   6.778774511998734e-06
-9.083402283276793e-06   2.1209411289142615e-06   6.778774511998734e-06
-9.083402283276793e-06   2.1209411289142615e-06   6.778774511998734e-06
-9.083402283276793e-06   2.1209411289142615e-06   6.778774511998734e-06
-8.454405445173932e-06   8.038637401985176e-07   6.520692881723498e-06
-8.454405445173932e-06   8.038637401985176e-07   6.520692881723498e-06
-8.454405445173932e-06   8.038637401985176e-07   6.520692881723498e-06
-8.454405445173932e-06   8.038637401985176e-07   6.520692881723498e-06
-8.455406358710447e-06   1.6784448974591982e-06   5.997612376594905e-06
-8.455406358710447e-06   1.6784448974591982e-06   5.997612376594905e-06
-8.455406358710447e-06   1.6784448974591982e-06   5.997612376594905e-06
-8.455406358710447e-06   1.6784448974591982e-06   5.997612376594905e-06
-8.454405445173932e-06   2.1209411289142615e-06   7.569020945228213e-06
-8.454405445173932e-06   2.1209411289142615e-06   7.569020945228213e-06
-8.454405445173932e-06   2.1209411289142615e-06   7.569020945228213e-06
-8.454405445173932e-06   2.1209411289142615e-06   7.569020945228213e-06
-9.083402283276848e-06   8.038637401985176e-07   5.730446448493965e-06
-9.083402283276848e-06   8.038637401985176e-07   5.730446448493965e-06
-9.083402283276848e-06   8.038637401985176e-07   5.730446448493965e-06
-9.083402283276848e-06   8.038637401985176e-07   5.730446448493965e-06
-9.636811765889575e-06   1.6967971702213595e-06   8.723934484777623e-06
-9.636811765889575e-06   1.6967971702213595e-06   8.723934484777623e-06
-9.636811765889575e-06   1.6967971702213595e-06   8.723934484777623e-06
-9.636811765889575e-06   1.6967971702213595e-06   8.723934484777623e-06
-8.510694754347516e-06   5.004368244595917e-07   7.564889006331005e-06
-8.510694754347516e-06   5.004368244595917e-07   7.564889006331005e-06
-8.510694754347516e-06   5.004368244595917e-07   7.564889006331005e-06
-8.510694754347516e-06   5.004368244595917e-07   7.564889006331005e-06
-8.558696979562587e-06   1.518764804832361e-06   7.033895926798006e-06
-8.558696979562587e-06   1.518764804832361e-06   7.033895926798006e-06
-8.558696979562587e-06   1.518764804832361e-06   7.033895926798006e-06
-8.558696979562587e-06   1.518764804832361e-06   7.033895926798006e-06
-1.620359450717341e-05   2.146510042903599e-06   6.37639793859313e-06
-1.620359450717341e-05   2.146510042903599e-06   6.37639793859313e-06
-1.620359450717341e-05   2.146510042903599e-06   6.37639793859313e-06
-1.620359450717341e-05   2.146510042903599e-06   6.37639793859313e-06
-1.0972096940078556e-05   2.9682129497286e-06   1.5588582294512847e-05
-1.0972096940078556e-05   2.9682129497286e-06   1.5588582294512847e-05
-1.0972096940078556e-05   2.9682129497286e-06   1.5588582294512847e-05
-1.0972096940078556e-05   2.9682129497286e-06   1.5588582294512847e-05
-1.0969113468004469e-05   1.674283862784147e-06   7.2127946305022524e-06
-1.0969113468004469e-05   1.674283862784147e-06   7.2127946305022524e-06
-1.0969113468004469e-05   1.674283862784147e-06   7.2127946305022524e-06
-1.0969113468004469e-05   1.674283862784147e-06   7.2127946305022524e-06
-1.786652100350936e-05   1.1864726665814646e-06   1.9001160574065427e-05
-1.786652100350936e-05   1.1864726665814646e-06   1.9001160574065427e-05
-1.786652100350936e-05   1.1864726665814646e-06   1.9001160574065427e-05
-1.786652100350936e-05   1.1864726665814646e-06   1.9001160574065427e-05
-1.3279567307334049e-05   1.7552089731712048e-06   1.1014995963152689e-05
-1.3279567307334049e-05   1.7552089731712048e-06   1.1014995963152689e-05
-1.3279567307334049e-05   1.7552089731712048e-06   1.1014995963152689e-05
-1.3279567307334049e-05   1.7552089731712048e-06   1.1014995963152689e-05
-1.7866521003509393e-05   1.674283862784147e-06   7.505481348223775e-06
-1.7866521003509393e-05   1.674283862784147e-06   7.505481348223775e-06
-1.7866521003509393e-05   1.674283862784147e-06   7.505481348223775e-06
-1.7866521003509393e-05   1.674283862784147e-06   7.505481348223775e-06
-1.0969113468004445e-05   1.1864726665814646e-06   1.8708473856343796e-05
-1.0969113468004445e-05   1.1864726665814646e-06   1.8708473856343796e-05
-1.0969113468004445e-05   1.1864726665814646e-06   1.8708473856343796e-05
-1.0969113468004445e-05   1.1864726665814646e-06   1.8708473856343796e-05
-1.1124484367705833e-05   1.3489077380319592e-06   8.053415371638261e-06
-1.1124484367705833e-05   1.3489077380319592e-06   8.053415371638261e-06
-1.1124484367705833e-05   1.3489077380319592e-06   8.053415371638261e-06
-1.1124484367705833e-05   1.3489077380319592e-06   8.053415371638261e-06
-1.7934604617167335e-05   8.457193649529101e-07   1.9705528811254892e-05
-1.7934604617167335e-05   8.457193649529101e-07   1.9705528811254892e-05
-1.7934604617167335e-05   8.457193649529101e-07   1.9705528811254892e-05
-1.7934604617167335e-05   8.457193649529101e-07   1.9705528811254892e-05
-1.417959261934456e-05   1.0906795247448006e-06   1.3300199385675015e-05
-1.417959261934456e-05   1.0906795247448006e-06   1.3300199385675015e-05
-1.417959261934456e-05   1.0906795247448006e-06   1.3300199385675015e-05
-1.417959261934456e-05   1.0906795247448006e-06   1.3300199385675015e-05
-1.793460461716737e-05   1.3489077380319592e-06   8.35532839548577e-06
-1.793460461716737e-05   1.3489077380319592e-06   8.35532839548577e-06
-1.793460461716737e-05   1.3489077380319592e-06   8.35532839548577e-06
-1.793460461716737e-05   1.3489077380319592e-06   8.35532839548577e-06
-1.112448436770582e-05   8.457193649529101e-07   1.940361578740745e-05
-1.112448436770582e-05   8.457193649529101e-07   1.940361578740745e-05
-1.112448436770582e-05   8.457193649529101e-07   1.940361578740745e-05
-1.112448436770582e-05   8.457193649529101e-07   1.940361578740745e-05
-1.1011386329906244e-05   5.492089736820792e-07   9.522627749910465e-06
-1.1011386329906244e-05   5.492089736820792e-07   9.522627749910465e-06
-1.1011386329906244e-05   5.492089736820792e-07   9.522627749910465e-06
-1.1011386329906244e-05   5.492089736820792e-07   9.522627749910465e-06
-1.813767920157106e-05   -6.067266463913334e-07   2.2093343908062503e-05
-1.813767920157106e-05   -6.067266463913334e-07   2.2093343908062503e-05
-1.813767920157106e-05   -6.067266463913334e-07   2.2093343908062503e-05
-1.813767920157106e-05   -6.067266463913334e-07   2.2093343908062503e-05
-1.396899602250385e-05   5.218093427860449e-07   1.4468417016110741e-05
-1.396899602250385e-05   5.218093427860449e-07   1.4468417016110741e-05
-1.396899602250385e-05   5.218093427860449e-07   1.4468417016110741e-05
-1.396899602250385e-05   5.218093427860449e-07   1.4468417016110741e-05
-1.0972096940078577e-05   5.562958352573594e-07   1.4548388316187362e-05
-1.0972096940078577e-05   5.562958352573594e-07   1.4548388316187362e-05
-1.0972096940078577e-05   5.562958352573594e-07   1.4548388316187362e-05
-1.0972096940078577e-05   5.562958352573594e-07   1.4548388316187362e-05
-6.7481392686460375e-06   -3.403116581656053e-06   1.921267031842683e-05
-6.7481392686460375e-06   -3.403116581656053e-06   1.921267031842683e-05
-6.7481392686460375e-06   -3.403116581656053e-06   1.921267031842683e-05
-6.7481392686460375e-06   -3.403116581656053e-06   1.921267031842683e-05
-6.7655190948791625e-06   2.6454422854025423e-07   1.2204186159899813e-05
-6.7655190948791625e-06   2.6454422854025423e-07   1.2204186159899813e-05
-6.7655190948791625e-06   2.6454422854025423e-07   1.2204186159899813e-05
-6.7655190948791625e-06   2.6454422854025423e-07   1.2204186159899813e-05
-1.0969113468004445e-05   -2.792200132359845e-06   2.104422339831532e-05
-1.0969113468004445e-05   -2.792200132359845e-06   2.104422339831532e-05
-1.0969113468004445e-05   -2.792200132359845e-06   2.104422339831532e-05
-1.0969113468004445e-05   -2.792200132359845e-06   2.104422339831532e-05
-8.818080483492466e-06   -1.6839915816364116e-06   1.6794243293694573e-05
-8.818080483492466e-06   -1.6839915816364116e-06   1.6794243293694573e-05
-8.818080483492466e-06   -1.6839915816364116e-06   1.6794243293694573e-05
-8.818080483492466e-06   -1.6839915816364116e-06   1.6794243293694573e-05
-1.0969113468004455e-05   2.6454422854025423e-07   1.4038232776439634e-05
-1.0969113468004455e-05   2.6454422854025423e-07   1.4038232776439634e-05
-1.0969113468004455e-05   2.6454422854025423e-07   1.4038232776439634e-05
-1.0969113468004455e-05   2.6454422854025423e-07   1.4038232776439634e-05
-6.7655190948791625e-06   -2.792200132359845e-06   1.9210176781775268e-05
-6.7655190948791625e-06   -2.792200132359845e-06   1.9210176781775268e-05
-6.7655190948791625e-06   -2.792200132359845e-06   1.9210176781775268e-05
-6.7655190948791625e-06   -2.792200132359845e-06   1.9210176781775268e-05
-6.797390827469342e-06   -7.177996668735311e-08   1.2575829650407478e-05
-6.797390827469342e-06   -7.177996668735311e-08   1.2575829650407478e-05
-6.797390827469342e-06   -7.177996668735311e-08   1.2575829650407478e-05
-6.797390827469342e-06   -7.177996668735311e-08   1.2575829650407478e-05
-1.112448436770582e-05   -2.8536281334982125e-06   2.1456761117554716e-05
-1.112448436770582e-05   -2.8536281334982125e-06   2.1456761117554716e-05
-1.112448436770582e-05   -2.8536281334982125e-06   2.1456761117554716e-05
-1.112448436770582e-05   -2.8536281334982125e-06   2.1456761117554716e-05
-8.75751657159836e-06   -1.471552630040904e-06   1.668256948863461e-05
-8.75751657159836e-06   -1.471552630040904e-06   1.668256948863461e-05
-8.75751657159836e-06   -1.471552630040904e-06   1.668256948863461e-05
-8.75751657159836e-06   -1.471552630040904e-06   1.668256948863461e-05
-1.1124484367705833e-05   -7.177996668735311e-08   1.4244938550494058e-05
-1.1124484367705833e-05   -7.177996668735311e-08   1.4244938550494058e-05
-1.1124484367705833e-05   -7.177996668735311e-08   1.4244938550494058e-05
-1.1124484367705833e-05   -7.177996668735311e-08   1.4244938550494058e-05
-6.797390827469342e-06   -2.8536281334982125e-06   1.978765221746827e-05
-6.797390827469342e-06   -2.8536281334982125e-06   1.978765221746827e-05
-6.797390827469342e-06   -2.8536281334982125e-06   1.978765221746827e-05
-6.797390827469342e-06   -2.8536281334982125e-06   1.978765221746827e-05
-6.7373946672818065e-06   -5.125183884580119e-07   1.3040572463345523e-05
-6.7373946672818065e-06   -5.125183884580119e-07   1.3040572463345523e-05
-6.7373946672818065e-06   -5.125183884580119e-07   1.3040572463345523e-05
-6.7373946672818065e-06   -5.125183884580119e-07   1.3040572463345523e-05
-1.1011386329906213e-05   -2.874241712700541e-06   2.1580925895598358e-05
-1.1011386329906213e-05   -2.874241712700541e-06   2.1580925895598358e-05
-1.1011386329906213e-05   -2.874241712700541e-06   2.1580925895598358e-05
-1.1011386329906213e-05   -2.874241712700541e-06   2.1580925895598358e-05
-8.803903407723402e-06   -1.6486656662254105e-06   1.716644206407525e-05
-8.803903407723402e-06   -1.6486656662254105e-06   1.716644206407525e-05
-8.803903407723402e-06   -1.6486656662254105e-06   1.716644206407525e-05
-8.803903407723402e-06   -1.6486656662254105e-06   1.716644206407525e-05
-6.7481392686460375e-06   1.5576274245166508e-07   1.346182806621324e-05
-6.7481392686460375e-06   1.5576274245166508e-07   1.346182806621324e-05
-6.7481392686460375e-06   1.5576274245166508e-07   1.346182806621324e-05
-6.7481392686460375e-06   1.5576274245166508e-07   1.346182806621324e-05
-4.985016828939305e-06   -2.659118599811737e-06   1.4711436660366416e-05
-4.985016828939305e-06   -2.659118599811737e-06   1.4711436660366416e-05
-4.985016828939305e-06   -2.659118599811737e-06   1.4711436660366416e-05
-4.985016828939305e-06   -2.659118599811737e-06   1.4711436660366416e-05
-4.944850421240995e-06   -8.945403782382316e-08   1.1880784956113646e-05
-4.944850421240995e-06   -8.945403782382316e-08   1.1880784956113646e-05
-4.944850421240995e-06   -8.945403782382316e-08   1.1880784956113646e-05
-4.944850421240995e-06   -8.945403782382316e-08   1.1880784956113646e-05
-6.7655190948791625e-06   -2.6115909946017193e-06   1.6428514919577272e-05
-6.7655190948791625e-06   -2.6115909946017193e-06   1.6428514919577272e-05
-6.7655190948791625e-06   -2.6115909946017193e-06   1.6428514919577272e-05
-6.7655190948791625e-06   -2.6115909946017193e-06   1.6428514919577272e-05
-5.825529179925105e-06   -1.3426195311535394e-06   1.4100482183251674e-05
-5.825529179925105e-06   -1.3426195311535394e-06   1.4100482183251674e-05
-5.825529179925105e-06   -1.3426195311535394e-06   1.4100482183251674e-05
-5.825529179925105e-06   -1.3426195311535394e-06   1.4100482183251674e-05
-6.7655190948791625e-06   -8.945403782382316e-08   1.3394067130180227e-05
-6.7655190948791625e-06   -8.945403782382316e-08   1.3394067130180227e-05
-6.7655190948791625e-06   -8.945403782382316e-08   1.3394067130180227e-05
-6.7655190948791625e-06   -8.945403782382316e-08   1.3394067130180227e-05
-4.944850421240995e-06   -2.6115909946017193e-06   1.4915232745510597e-05
-4.944850421240995e-06   -2.6115909946017193e-06   1.4915232745510597e-05
-4.944850421240995e-06   -2.6115909946017193e-06   1.4915232745510597e-05
-4.944850421240995e-06   -2.6115909946017193e-06   1.4915232745510597e-05
-4.91187044003382e-06   -3.8300076721741166e-07   1.2162866278951428e-05
-4.91187044003382e-06   -3.8300076721741166e-07   1.2162866278951428e-05
-4.91187044003382e-06   -3.8300076721741166e-07   1.2162866278951428e-05
-4.91187044003382e-06   -3.8300076721741166e-07   1.2162866278951428e-05
-6.797390827469342e-06   -2.690239403761995e-06   1.668974343993734e-05
-6.797390827469342e-06   -2.690239403761995e-06   1.668974343993734e-05
-6.797390827469342e-06   -2.690239403761995e-06   1.668974343993734e-05
-6.797390827469342e-06   -2.690239403761995e-06   1.668974343993734e-05
-5.778509539260948e-06   -1.429409301310214e-06   1.423510989811881e-05
-5.778509539260948e-06   -1.429409301310214e-06   1.423510989811881e-05
-5.778509539260948e-06   -1.429409301310214e-06   1.423510989811881e-05
-5.778509539260948e-06   -1.429409301310214e-06   1.423510989811881e-05
-6.797390827469342e-06   -3.8300076721735745e-07   1.354720946087826e-05
-6.797390827469342e-06   -3.8300076721735745e-07   1.354720946087826e-05
-6.797390827469342e-06   -3.8300076721735745e-07   1.354720946087826e-05
-6.797390827469342e-06   -3.8300076721735745e-07   1.354720946087826e-05
-4.91187044003382e-06   -2.690239403761995e-06   1.53054002580106e-05
-4.91187044003382e-06   -2.690239403761995e-06   1.53054002580106e-05
-4.91187044003382e-06   -2.690239403761995e-06   1.53054002580106e-05
-4.91187044003382e-06   -2.690239403761995e-06   1.53054002580106e-05
-4.821700770647443e-06   -6.769972686022441e-07   1.2600351551313757e-05
-4.821700770647443e-06   -6.769972686022441e-07   1.2600351551313757e-05
-4.821700770647443e-06   -6.769972686022441e-07   1.2600351551313757e-05
-4.821700770647443e-06   -6.769972686022441e-07   1.2600351551313757e-05
-6.7373946672818065e-06   -2.7998667947464373e-06   1.7066896428057424e-05
-6.7373946672818065e-06   -2.7998667947464373e-06   1.7066896428057424e-05
-6.7373946672818065e-06   -2.7998667947464373e-06   1.7066896428057424e-05
-6.7373946672818065e-06   -2.7998667947464373e-06   1.7066896428057424e-05
-5.723873391332766e-06   -1.5570261862292228e-06   1.4631989936365399e-05
-5.723873391332766e-06   -1.5570261862292228e-06   1.4631989936365399e-05
-5.723873391332766e-06   -1.5570261862292228e-06   1.4631989936365399e-05
-5.723873391332766e-06   -1.5570261862292228e-06   1.4631989936365399e-05
-4.985016828939305e-06   7.149603360217713e-07   9.182150987284139e-06
-4.985016828939305e-06   7.149603360217713e-07   9.182150987284139e-06
-4.985016828939305e-06   7.149603360217713e-07   9.182150987284139e-06
-4.985016828939305e-06   7.149603360217713e-07   9.182150987284139e-06
-4.1802705440240366e-06   -1.0931891249167614e-06   9.438505118913127e-06
-4.1802705440240366e-06   -1.0931891249167614e-06   9.438505118913127e-06
-4.1802705440240366e-06   -1.0931891249167614e-06   9.438505118913127e-06
-4.1802705440240366e-06   -1.0931891249167614e-06   9.438505118913127e-06
-4.095517695311933e-06   3.914741515859176e-07   8.291417436993615e-06
-4.095517695311933e-06   3.914741515859176e-07   8.291417436993615e-06
-4.095517695311933e-06   3.914741515859176e-07   8.291417436993615e-06
-4.095517695311933e-06   3.914741515859176e-07   8.291417436993615e-06
-4.944850421240995e-06   -1.2777511753029984e-06   1.0708507176342055e-05
-4.944850421240995e-06   -1.2777511753029984e-06   1.0708507176342055e-05
-4.944850421240995e-06   -1.2777511753029984e-06   1.0708507176342055e-05
-4.944850421240995e-06   -1.2777511753029984e-06   1.0708507176342055e-05
-4.5184268119318935e-06   -2.497286319763729e-07   9.3809876348309e-06
-4.5184268119318935e-06   -2.497286319763729e-07   9.3809876348309e-06
-4.5184268119318935e-06   -2.497286319763729e-07   9.3809876348309e-06
-4.5184268119318935e-06   -2.497286319763729e-07   9.3809876348309e-06
-4.944850421240995e-06   3.914741515859176e-07   9.292952633126834e-06
-4.944850421240995e-06   3.914741515859176e-07   9.292952633126834e-06
-4.944850421240995e-06   3.914741515859176e-07   9.292952633126834e-06
-4.944850421240995e-06   3.914741515859176e-07   9.292952633126834e-06
-4.095517695311933e-06   -1.2777511753029984e-06   9.706971980208672e-06
-4.095517695311933e-06   -1.2777511753029984e-06   9.706971980208672e-06
-4.095517695311933e-06   -1.2777511753029984e-06   9.706971980208672e-06
-4.095517695311933e-06   -1.2777511753029984e-06   9.706971980208672e-06
-4.060266634430963e-06   1.1424811700698088e-07   8.682034451764774e-06
-4.060266634430963e-06   1.1424811700698088e-07   8.682034451764774e-06
-4.060266634430963e-06   1.1424811700698088e-07   8.682034451764774e-06
-4.060266634430963e-06   1.1424811700698088e-07   8.682034451764774e-06
-4.91187044003382e-06   -1.419387531735334e-06   1.1021555517014877e-05
-4.91187044003382e-06   -1.419387531735334e-06   1.1021555517014877e-05
-4.91187044003382e-06   -1.419387531735334e-06   1.1021555517014877e-05
-4.91187044003382e-06   -1.419387531735334e-06   1.1021555517014877e-05
-4.4342187341268045e-06   -4.4607011047535664e-07   9.641478887747015e-06
-4.4342187341268045e-06   -4.4607011047535664e-07   9.641478887747015e-06
-4.4342187341268045e-06   -4.4607011047535664e-07   9.641478887747015e-06
-4.4342187341268045e-06   -4.4607011047535664e-07   9.641478887747015e-06
-4.91187044003382e-06   1.1424811700698088e-07   9.60221584101026e-06
-4.91187044003382e-06   1.1424811700698088e-07   9.60221584101026e-06
-4.91187044003382e-06   1.1424811700698088e-07   9.60221584101026e-06
-4.91187044003382e-06   1.1424811700698088e-07   9.60221584101026e-06
-4.060266634430963e-06   -1.419387531735334e-06   1.0101374127769445e-05
-4.060266634430963e-06   -1.419387531735334e-06   1.0101374127769445e-05
-4.060266634430963e-06   -1.419387531735334e-06   1.0101374127769445e-05
-4.060266634430963e-06   -1.419387531735334e-06   1.0101374127769445e-05
-3.9988422886621145e-06   -1.6536484349682695e-07   9.172556884310692e-06
-3.9988422886621145e-06   -1.6536484349682695e-07   9.172556884310692e-06
-3.9988422886621145e-06   -1.6536484349682695e-07   9.172556884310692e-06
-3.9988422886621145e-06   -1.6536484349682695e-07   9.172556884310692e-06
-4.821700770647443e-06   -1.6046611229816573e-06   1.140756545531035e-05
-4.821700770647443e-06   -1.6046611229816573e-06   1.140756545531035e-05
-4.821700770647443e-06   -1.6046611229816573e-06   1.140756545531035e-05
-4.821700770647443e-06   -1.6046611229816573e-06   1.140756545531035e-05
-4.370753895033573e-06   -6.186143530344549e-07   1.006435926731905e-05
-4.370753895033573e-06   -6.186143530344549e-07   1.006435926731905e-05
-4.370753895033573e-06   -6.186143530344549e-07   1.006435926731905e-05
-4.370753895033573e-06   -6.186143530344549e-07   1.006435926731905e-05
-4.1802705440240366e-06   1.1833721928033569e-06   2.131649466701282e-06
-4.1802705440240366e-06   1.1833721928033569e-06   2.131649466701282e-06
-4.1802705440240366e-06   1.1833721928033569e-06   2.131649466701282e-06
-4.1802705440240366e-06   1.1833721928033569e-06   2.131649466701282e-06
-2.4548117905897064e-06   -1.1900547455952985e-07   4.2259874553408645e-06
-2.4548117905897064e-06   -1.1900547455952985e-07   4.2259874553408645e-06
-2.4548117905897064e-06   -1.1900547455952985e-07   4.2259874553408645e-06
-2.4548117905897064e-06   -1.1900547455952985e-07   4.2259874553408645e-06
-2.5981961765650418e-06   9.538099776503156e-07   2.152766186134668e-06
-2.5981961765650418e-06   9.538099776503156e-07   2.152766186134668e-06
-2.5981961765650418e-06   9.538099776503156e-07   2.152766186134668e-06
-2.5981961765650418e-06   9.538099776503156e-07   2.152766186134668e-06
-4.095517695311933e-06   -1.6731504290636782e-07   5.320977063046745e-06
-4.095517695311933e-06   -1.6731504290636782e-07   5.320977063046745e-06
-4.095517695311933e-06   -1.6731504290636782e-07   5.320977063046745e-06
-4.095517695311933e-06   -1.6731504290636782e-07   5.320977063046745e-06
-3.2175022284524225e-06   6.091574296375707e-07   3.3917344680878248e-06
-3.2175022284524225e-06   6.091574296375707e-07   3.3917344680878248e-06
-3.2175022284524225e-06   6.091574296375707e-07   3.3917344680878248e-06
-3.2175022284524225e-06   6.091574296375707e-07   3.3917344680878248e-06
-4.095517695311933e-06   9.538099776502614e-07   2.825441198468304e-06
-4.095517695311933e-06   9.538099776502614e-07   2.825441198468304e-06
-4.095517695311933e-06   9.538099776502614e-07   2.825441198468304e-06
-4.095517695311933e-06   9.538099776502614e-07   2.825441198468304e-06
-2.5981961765649876e-06   -1.6731504290636782e-07   4.648302050712675e-06
-2.5981961765649876e-06   -1.6731504290636782e-07   4.648302050712675e-06
-2.5981961765649876e-06   -1.6731504290636782e-07   4.648302050712675e-06
-2.5981961765649876e-06   -1.6731504290636782e-07   4.648302050712675e-06
-2.7165343850606627e-06   8.038637401984634e-07   2.788443529059062e-06
-2.7165343850606627e-06   8.038637401984634e-07   2.788443529059062e-06
-2.7165343850606627e-06   8.038637401984634e-07   2.788443529059062e-06
-2.7165343850606627e-06   8.038637401984634e-07   2.788443529059062e-06
-4.060266634430963e-06   -2.3225115619018573e-07   5.649666215842787e-06
-4.060266634430963e-06   -2.3225115619018573e-07   5.649666215842787e-06
-4.060266634430963e-06   -2.3225115619018573e-07   5.649666215842787e-06
-4.060266634430963e-06   -2.3225115619018573e-07   5.649666215842787e-06
-3.2794699703812087e-06   4.9646082940269e-07   3.911111251070853e-06
-3.2794699703812087e-06   4.9646082940269e-07   3.911111251070853e-06
-3.2794699703812087e-06   4.9646082940269e-07   3.911111251070853e-06
-3.2794699703812087e-06   4.9646082940269e-07   3.911111251070853e-06
-4.060266634430963e-06   8.038637401984634e-07   3.4101124668924846e-06
-4.060266634430963e-06   8.038637401984634e-07   3.4101124668924846e-06
-4.060266634430963e-06   8.038637401984634e-07   3.4101124668924846e-06
-4.060266634430963e-06   8.038637401984634e-07   3.4101124668924846e-06
-2.7165343850606627e-06   -2.3225115619018573e-07   5.027997278009581e-06
-2.7165343850606627e-06   -2.3225115619018573e-07   5.027997278009581e-06
-2.7165343850606627e-06   -2.3225115619018573e-07   5.027997278009581e-06
-2.7165343850606627e-06   -2.3225115619018573e-07   5.027997278009581e-06
-2.999105377697402e-06   5.004368244595917e-07   3.925298378158228e-06
-2.999105377697402e-06   5.004368244595917e-07   3.925298378158228e-06
-2.999105377697402e-06   5.004368244595917e-07   3.925298378158228e-06
-2.999105377697402e-06   5.004368244595917e-07   3.925298378158228e-06
-3.9988422886621145e-06   -3.1261887731515127e-07   6.07935998416404e-06
-3.9988422886621145e-06   -3.1261887731515127e-07   6.07935998416404e-06
-3.9988422886621145e-06   -3.1261887731515127e-07   6.07935998416404e-06
-3.9988422886621145e-06   -3.1261887731515127e-07   6.07935998416404e-06
-3.2913344668145344e-06   4.193842660233358e-07   4.460978395081445e-06
-3.2913344668145344e-06   4.193842660233358e-07   4.460978395081445e-06
-3.2913344668145344e-06   4.193842660233358e-07   4.460978395081445e-06
-3.2913344668145344e-06   4.193842660233358e-07   4.460978395081445e-06
-3.813788140328267e-05   2.968212949728627e-06   1.6551113347032448e-05
-3.813788140328267e-05   2.968212949728627e-06   1.6551113347032448e-05
-3.813788140328267e-05   2.968212949728627e-06   1.6551113347032448e-05
-3.813788140328267e-05   2.968212949728627e-06   1.6551113347032448e-05
-8.941850809048873e-06   -1.8891097762111224e-05   5.2095577910318235e-05
-8.941850809048873e-06   -1.8891097762111224e-05   5.2095577910318235e-05
-8.941850809048873e-06   -1.8891097762111224e-05   5.2095577910318235e-05
-8.941850809048873e-06   -1.8891097762111224e-05   5.2095577910318235e-05
-1.0511840312632813e-05   1.1864726665814646e-06   9.064523782801372e-06
-1.0511840312632813e-05   1.1864726665814646e-06   9.064523782801372e-06
-1.0511840312632813e-05   1.1864726665814646e-06   9.064523782801372e-06
-1.0511840312632813e-05   1.1864726665814646e-06   9.064523782801372e-06
-3.478301895457285e-05   -1.4721594212866225e-05   5.906132831370329e-05
-3.478301895457285e-05   -1.4721594212866225e-05   5.906132831370329e-05
-3.478301895457285e-05   -1.4721594212866225e-05   5.906132831370329e-05
-3.478301895457285e-05   -1.4721594212866225e-05   5.906132831370329e-05
-2.318511919349777e-05   -7.327430896648528e-06   3.5294997388847536e-05
-2.318511919349777e-05   -7.327430896648528e-06   3.5294997388847536e-05
-2.318511919349777e-05   -7.327430896648528e-06   3.5294997388847536e-05
-2.318511919349777e-05   -7.327430896648528e-06   3.5294997388847536e-05
-3.478301895457279e-05   1.1864726665814646e-06   1.860936391046996e-05
-3.478301895457279e-05   1.1864726665814646e-06   1.860936391046996e-05
-3.478301895457279e-05   1.1864726665814646e-06   1.860936391046996e-05
-3.478301895457279e-05   1.1864726665814646e-06   1.860936391046996e-05
-1.0511840312632833e-05   -1.4721594212866225e-05   4.9516488186034686e-05
-1.0511840312632833e-05   -1.4721594212866225e-05   4.9516488186034686e-05
-1.0511840312632833e-05   -1.4721594212866225e-05   4.9516488186034686e-05
-1.0511840312632833e-05   -1.4721594212866225e-05   4.9516488186034686e-05
-1.0757726692142163e-05   8.457193649529372e-07   9.962318636766329e-06
-1.0757726692142163e-05   8.457193649529372e-07   9.962318636766329e-06
-1.0757726692142163e-05   8.457193649529372e-07   9.962318636766329e-06
-1.0757726692142163e-05   8.457193649529372e-07   9.962318636766329e-06
-3.282054759906525e-05   -1.2717632644098448e-05   5.487169802040223e-05
-3.282054759906525e-05   -1.2717632644098448e-05   5.487169802040223e-05
-3.282054759906525e-05   -1.2717632644098448e-05   5.487169802040223e-05
-3.282054759906525e-05   -1.2717632644098448e-05   5.487169802040223e-05
-2.2498106400116118e-05   -6.94607066576737e-06   3.420469216848839e-05
-2.2498106400116118e-05   -6.94607066576737e-06   3.420469216848839e-05
-2.2498106400116118e-05   -6.94607066576737e-06   3.420469216848839e-05
-2.2498106400116118e-05   -6.94607066576737e-06   3.420469216848839e-05
-3.2820547599065194e-05   8.457193649529372e-07   1.8100329842197127e-05
-3.2820547599065194e-05   8.457193649529372e-07   1.8100329842197127e-05
-3.2820547599065194e-05   8.457193649529372e-07   1.8100329842197127e-05
-3.2820547599065194e-05   8.457193649529372e-07   1.8100329842197127e-05
-1.0757726692142176e-05   -1.2717632644098448e-05   4.6733686814971406e-05
-1.0757726692142176e-05   -1.2717632644098448e-05   4.6733686814971406e-05
-1.0757726692142176e-05   -1.2717632644098448e-05   4.6733686814971406e-05
-1.0757726692142176e-05   -1.2717632644098448e-05   4.6733686814971406e-05
-1.1800611395168023e-05   -6.067266463913605e-07   1.2467488162197962e-05
-1.1800611395168023e-05   -6.067266463913605e-07   1.2467488162197962e-05
-1.1800611395168023e-05   -6.067266463913605e-07   1.2467488162197962e-05
-1.1800611395168023e-05   -6.067266463913605e-07   1.2467488162197962e-05
-3.030223331788971e-05   -1.0053091077881561e-05   4.897134335896148e-05
-3.030223331788971e-05   -1.0053091077881561e-05   4.897134335896148e-05
-3.030223331788971e-05   -1.0053091077881561e-05   4.897134335896148e-05
-3.030223331788971e-05   -1.0053091077881561e-05   4.897134335896148e-05
-2.1648493734981983e-05   -6.413665491092471e-06   3.236478870204186e-05
-2.1648493734981983e-05   -6.413665491092471e-06   3.236478870204186e-05
-2.1648493734981983e-05   -6.413665491092471e-06   3.236478870204186e-05
-2.1648493734981983e-05   -6.413665491092471e-06   3.236478870204186e-05
-8.941850809048859e-06   -3.403116581656053e-06   9.435262393990535e-06
-8.941850809048859e-06   -3.403116581656053e-06   9.435262393990535e-06
-8.941850809048859e-06   -3.403116581656053e-06   9.435262393990535e-06
-8.941850809048859e-06   -3.403116581656053e-06   9.435262393990535e-06
-3.107807463451973e-06   -5.926619521511877e-06   1.7644566206071858e-05
-3.107807463451973e-06   -5.926619521511877e-06   1.7644566206071858e-05
-3.107807463451973e-06   -5.926619521511877e-06   1.7644566206071858e-05
-3.107807463451973e-06   -5.926619521511877e-06   1.7644566206071858e-05
-3.4813761322889734e-06   -2.792200132359845e-06   8.378642362787792e-06
-3.4813761322889734e-06   -2.792200132359845e-06   8.378642362787792e-06
-3.4813761322889734e-06   -2.792200132359845e-06   8.378642362787792e-06
-3.4813761322889734e-06   -2.792200132359845e-06   8.378642362787792e-06
-1.0511840312632833e-05   -7.828251735668332e-06   2.311771362534594e-05
-1.0511840312632833e-05   -7.828251735668332e-06   2.311771362534594e-05
-1.0511840312632833e-05   -7.828251735668332e-06   2.311771362534594e-05
-1.0511840312632833e-05   -7.828251735668332e-06   2.311771362534594e-05
-6.171067585836117e-06   -4.090802507545859e-06   1.3640622877144545e-05
-6.171067585836117e-06   -4.090802507545859e-06   1.3640622877144545e-05
-6.171067585836117e-06   -4.090802507545859e-06   1.3640622877144545e-05
-6.171067585836117e-06   -4.090802507545859e-06   1.3640622877144545e-05
-1.0511840312632806e-05   -2.792200132359845e-06   1.140027332477276e-05
-1.0511840312632806e-05   -2.792200132359845e-06   1.140027332477276e-05
-1.0511840312632806e-05   -2.792200132359845e-06   1.140027332477276e-05
-1.0511840312632806e-05   -2.792200132359845e-06   1.140027332477276e-05
-3.4813761322889734e-06   -7.828251735668332e-06   2.009608266336085e-05
-3.4813761322889734e-06   -7.828251735668332e-06   2.009608266336085e-05
-3.4813761322889734e-06   -7.828251735668332e-06   2.009608266336085e-05
-3.4813761322889734e-06   -7.828251735668332e-06   2.009608266336085e-05
-3.8021714350373377e-06   -2.8536281334982396e-06   9.422150595750123e-06
-3.8021714350373377e-06   -2.8536281334982396e-06   9.422150595750123e-06
-3.8021714350373377e-06   -2.8536281334982396e-06   9.422150595750123e-06
-3.8021714350373377e-06   -2.8536281334982396e-06   9.422150595750123e-06
-1.0757726692142176e-05   -7.1758170854374485e-06   2.3608056062088316e-05
-1.0757726692142176e-05   -7.1758170854374485e-06   2.3608056062088316e-05
-1.0757726692142176e-05   -7.1758170854374485e-06   2.3608056062088316e-05
-1.0757726692142176e-05   -7.1758170854374485e-06   2.3608056062088316e-05
-6.969520714140935e-06   -4.992141850709397e-06   1.5984174291249508e-05
-6.969520714140935e-06   -4.992141850709397e-06   1.5984174291249508e-05
-6.969520714140935e-06   -4.992141850709397e-06   1.5984174291249508e-05
-6.969520714140935e-06   -4.992141850709397e-06   1.5984174291249508e-05
-1.0757726692142163e-05   -2.8536281334982396e-06   1.2015463966913621e-05
-1.0757726692142163e-05   -2.8536281334982396e-06   1.2015463966913621e-05
-1.0757726692142163e-05   -2.8536281334982396e-06   1.2015463966913621e-05
-1.0757726692142163e-05   -2.8536281334982396e-06   1.2015463966913621e-05
-3.8021714350373377e-06   -7.1758170854374485e-06   2.1014742690924784e-05
-3.8021714350373377e-06   -7.1758170854374485e-06   2.1014742690924784e-05
-3.8021714350373377e-06   -7.1758170854374485e-06   2.1014742690924784e-05
-3.8021714350373377e-06   -7.1758170854374485e-06   2.1014742690924784e-05
-4.325611892570097e-06   -2.874241712700541e-06   1.0315632236742586e-05
-4.325611892570097e-06   -2.874241712700541e-06   1.0315632236742586e-05
-4.325611892570097e-06   -2.874241712700541e-06   1.0315632236742586e-05
-4.325611892570097e-06   -2.874241712700541e-06   1.0315632236742586e-05
-1.1800611395168016e-05   -6.762573854425974e-06   2.5106964026107626e-05
-1.1800611395168016e-05   -6.762573854425974e-06   2.5106964026107626e-05
-1.1800611395168016e-05   -6.762573854425974e-06   2.5106964026107626e-05
-1.1800611395168016e-05   -6.762573854425974e-06   2.5106964026107626e-05
-7.441184121391716e-06   -4.559586839809706e-06   1.6519459694377408e-05
-7.441184121391716e-06   -4.559586839809706e-06   1.6519459694377408e-05
-7.441184121391716e-06   -4.559586839809706e-06   1.6519459694377408e-05
-7.441184121391716e-06   -4.559586839809706e-06   1.6519459694377408e-05
-3.107807463451973e-06   -2.659118599811737e-06   5.10885577737467e-06
-3.107807463451973e-06   -2.659118599811737e-06   5.10885577737467e-06
-3.107807463451973e-06   -2.659118599811737e-06   5.10885577737467e-06
-3.107807463451973e-06   -2.659118599811737e-06   5.10885577737467e-06
-1.7382600404037228e-06   -1.6956108879552352e-06   7.96953944290238e-06
-1.7382600404037228e-06   -1.6956108879552352e-06   7.96953944290238e-06
-1.7382600404037228e-06   -1.6956108879552352e-06   7.96953944290238e-06
-1.7382600404037228e-06   -1.6956108879552352e-06   7.96953944290238e-06
-1.675843327150707e-06   -2.6115909946017193e-06   5.840090835173488e-06
-1.675843327150707e-06   -2.6115909946017193e-06   5.840090835173488e-06
-1.675843327150707e-06   -2.6115909946017193e-06   5.840090835173488e-06
-1.675843327150707e-06   -2.6115909946017193e-06   5.840090835173488e-06
-3.4813761322889734e-06   -2.206407103629103e-06   8.606201842486876e-06
-3.4813761322889734e-06   -2.206407103629103e-06   8.606201842486876e-06
-3.4813761322889734e-06   -2.206407103629103e-06   8.606201842486876e-06
-3.4813761322889734e-06   -2.206407103629103e-06   8.606201842486876e-06
-2.3420866133172253e-06   -2.164155532330411e-06   6.682035034754653e-06
-2.3420866133172253e-06   -2.164155532330411e-06   6.682035034754653e-06
-2.3420866133172253e-06   -2.164155532330411e-06   6.682035034754653e-06
-2.3420866133172253e-06   -2.164155532330411e-06   6.682035034754653e-06
-3.48137613228896e-06   -2.6115909946017193e-06   5.596980500589864e-06
-3.48137613228896e-06   -2.6115909946017193e-06   5.596980500589864e-06
-3.48137613228896e-06   -2.6115909946017193e-06   5.596980500589864e-06
-3.48137613228896e-06   -2.6115909946017193e-06   5.596980500589864e-06
-1.675843327150707e-06   -2.2064071036290996e-06   8.849312177070445e-06
-1.675843327150707e-06   -2.2064071036290996e-06   8.849312177070445e-06
-1.675843327150707e-06   -2.2064071036290996e-06   8.849312177070445e-06
-1.675843327150707e-06   -2.2064071036290996e-06   8.849312177070445e-06
-1.6840679848686361e-06   -2.690239403761995e-06   6.247712324200191e-06
-1.6840679848686361e-06   -2.690239403761995e-06   6.247712324200191e-06
-1.6840679848686361e-06   -2.690239403761995e-06   6.247712324200191e-06
-1.6840679848686361e-06   -2.690239403761995e-06   6.247712324200191e-06
-3.8021714350373377e-06   -2.817788560460423e-06   9.854414235166978e-06
-3.8021714350373377e-06   -2.817788560460423e-06   9.854414235166978e-06
-3.8021714350373377e-06   -2.817788560460423e-06   9.854414235166978e-06
-3.8021714350373377e-06   -2.817788560460423e-06   9.854414235166978e-06
-2.490110973484591e-06   -2.3658916936571806e-06   7.396508679163809e-06
-2.490110973484591e-06   -2.3658916936571806e-06   7.396508679163809e-06
-2.490110973484591e-06   -2.3658916936571806e-06   7.396508679163809e-06
-2.490110973484591e-06   -2.3658916936571806e-06   7.396508679163809e-06
-3.8021714350373377e-06   -2.690239403761995e-06   6.324241818219246e-06
-3.8021714350373377e-06   -2.690239403761995e-06   6.324241818219246e-06
-3.8021714350373377e-06   -2.690239403761995e-06   6.324241818219246e-06
-3.8021714350373377e-06   -2.690239403761995e-06   6.324241818219246e-06
-1.6840679848686361e-06   -2.817788560460423e-06   9.77788474114795e-06
-1.6840679848686361e-06   -2.817788560460423e-06   9.77788474114795e-06
-1.6840679848686361e-06   -2.817788560460423e-06   9.77788474114795e-06
-1.6840679848686361e-06   -2.817788560460423e-06   9.77788474114795e-06
-1.7194185549110688e-06   -2.79986679474641e-06   6.8597494001271415e-06
-1.7194185549110688e-06   -2.79986679474641e-06   6.8597494001271415e-06
-1.7194185549110688e-06   -2.79986679474641e-06   6.8597494001271415e-06
-1.7194185549110688e-06   -2.79986679474641e-06   6.8597494001271415e-06
-4.325611892570097e-06   -3.398012400779785e-06   1.1562292326512154e-05
-4.325611892570097e-06   -3.398012400779785e-06   1.1562292326512154e-05
-4.325611892570097e-06   -3.398012400779785e-06   1.1562292326512154e-05
-4.325611892570097e-06   -3.398012400779785e-06   1.1562292326512154e-05
-2.660035832649163e-06   -2.5786833430115855e-06   8.294734791983036e-06
-2.660035832649163e-06   -2.5786833430115855e-06   8.294734791983036e-06
-2.660035832649163e-06   -2.5786833430115855e-06   8.294734791983036e-06
-2.660035832649163e-06   -2.5786833430115855e-06   8.294734791983036e-06
-1.7382600404037228e-06   -1.0931891249167614e-06   1.4989185395984455e-06
-1.7382600404037228e-06   -1.0931891249167614e-06   1.4989185395984455e-06
-1.7382600404037228e-06   -1.0931891249167614e-06   1.4989185395984455e-06
-1.7382600404037228e-06   -1.0931891249167614e-06   1.4989185395984455e-06
-1.3010430355269039e-06   2.4630249304068396e-07   3.031308518500859e-06
-1.3010430355269039e-06   2.4630249304068396e-07   3.031308518500859e-06
-1.3010430355269039e-06   2.4630249304068396e-07   3.031308518500859e-06
-1.3010430355269039e-06   2.4630249304068396e-07   3.031308518500859e-06
-1.0573510707154675e-06   -1.2777511753029984e-06   2.4358075481443076e-06
-1.0573510707154675e-06   -1.2777511753029984e-06   2.4358075481443076e-06
-1.0573510707154675e-06   -1.2777511753029984e-06   2.4358075481443076e-06
-1.0573510707154675e-06   -1.2777511753029984e-06   2.4358075481443076e-06
-1.675843327150707e-06   5.965262826272181e-08   2.6641856933967624e-06
-1.675843327150707e-06   5.965262826272181e-08   2.6641856933967624e-06
-1.675843327150707e-06   5.965262826272181e-08   2.6641856933967624e-06
-1.675843327150707e-06   5.965262826272181e-08   2.6641856933967624e-06
-1.353671884858973e-06   -5.273228393789587e-07   2.479418570162093e-06
-1.353671884858973e-06   -5.273228393789587e-07   2.479418570162093e-06
-1.353671884858973e-06   -5.273228393789587e-07   2.479418570162093e-06
-1.353671884858973e-06   -5.273228393789587e-07   2.479418570162093e-06
-1.675843327150707e-06   -1.2777511753029984e-06   1.6333652660048504e-06
-1.675843327150707e-06   -1.2777511753029984e-06   1.6333652660048504e-06
-1.675843327150707e-06   -1.2777511753029984e-06   1.6333652660048504e-06
-1.675843327150707e-06   -1.2777511753029984e-06   1.6333652660048504e-06
-1.0573510707154675e-06   5.965262826272181e-08   3.4666279755361925e-06
-1.0573510707154675e-06   5.965262826272181e-08   3.4666279755361925e-06
-1.0573510707154675e-06   5.965262826272181e-08   3.4666279755361925e-06
-1.0573510707154675e-06   5.965262826272181e-08   3.4666279755361925e-06
-9.256230079057715e-07   -1.419387531735334e-06   2.676339154999562e-06
-9.256230079057715e-07   -1.419387531735334e-06   2.676339154999562e-06
-9.256230079057715e-07   -1.419387531735334e-06   2.676339154999562e-06
-9.256230079057715e-07   -1.419387531735334e-06   2.676339154999562e-06
-1.6840679848686361e-06   -2.319349120766682e-07   3.2279425448091708e-06
-1.6840679848686361e-06   -2.319349120766682e-07   3.2279425448091708e-06
-1.6840679848686361e-06   -2.319349120766682e-07   3.2279425448091708e-06
-1.6840679848686361e-06   -2.319349120766682e-07   3.2279425448091708e-06
-1.2312578339821942e-06   -6.724114836514564e-07   2.737544902943267e-06
-1.2312578339821942e-06   -6.724114836514564e-07   2.737544902943267e-06
-1.2312578339821942e-06   -6.724114836514564e-07   2.737544902943267e-06
-1.2312578339821942e-06   -6.724114836514564e-07   2.737544902943267e-06
-1.6840679848686361e-06   -1.419387531735334e-06   1.9638675832044507e-06
-1.6840679848686361e-06   -1.419387531735334e-06   1.9638675832044507e-06
-1.6840679848686361e-06   -1.419387531735334e-06   1.9638675832044507e-06
-1.6840679848686361e-06   -1.419387531735334e-06   1.9638675832044507e-06
-9.256230079057715e-07   -2.319349120766682e-07   3.9404141166043635e-06
-9.256230079057715e-07   -2.319349120766682e-07   3.9404141166043635e-06
-9.256230079057715e-07   -2.319349120766682e-07   3.9404141166043635e-06
-9.256230079057715e-07   -2.319349120766682e-07   3.9404141166043635e-06
-7.238552763950078e-07   -1.6046611229816844e-06   2.9416763187000566e-06
-7.238552763950078e-07   -1.6046611229816844e-06   2.9416763187000566e-06
-7.238552763950078e-07   -1.6046611229816844e-06   2.9416763187000566e-06
-7.238552763950078e-07   -1.6046611229816844e-06   2.9416763187000566e-06
-1.7194185549110688e-06   -8.254341635927216e-07   4.133412273926718e-06
-1.7194185549110688e-06   -8.254341635927216e-07   4.133412273926718e-06
-1.7194185549110688e-06   -8.254341635927216e-07   4.133412273926718e-06
-1.7194185549110688e-06   -8.254341635927216e-07   4.133412273926718e-06
-1.1337318231261916e-06   -8.922665130722086e-07   3.1973671306396404e-06
-1.1337318231261916e-06   -8.922665130722086e-07   3.1973671306396404e-06
-1.1337318231261916e-06   -8.922665130722086e-07   3.1973671306396404e-06
-1.1337318231261916e-06   -8.922665130722086e-07   3.1973671306396404e-06
-1.3010430355269039e-06   -1.1900547455950274e-07   -2.1284775527816114e-06
-1.3010430355269039e-06   -1.1900547455950274e-07   -2.1284775527816114e-06
-1.3010430355269039e-06   -1.1900547455950274e-07   -2.1284775527816114e-06
-1.3010430355269039e-06   -1.1900547455950274e-07   -2.1284775527816114e-06
-2.528030170057113e-07   1.8195241854211813e-07   -2.0083611938548395e-07
-2.528030170057113e-07   1.8195241854211813e-07   -2.0083611938548395e-07
-2.528030170057113e-07   1.8195241854211813e-07   -2.0083611938548395e-07
-2.528030170057113e-07   1.8195241854211813e-07   -2.0083611938548395e-07
-1.3901009140494542e-08   -1.6731504290636782e-07   -1.661957226829617e-06
-1.3901009140494542e-08   -1.6731504290636782e-07   -1.661957226829617e-06
-1.3901009140494542e-08   -1.6731504290636782e-07   -1.661957226829617e-06
-1.3901009140494542e-08   -1.6731504290636782e-07   -1.661957226829617e-06
-1.0573510707154675e-06   3.1306852740700726e-07   -2.1110393305938564e-07
-1.0573510707154675e-06   3.1306852740700726e-07   -2.1110393305938564e-07
-1.0573510707154675e-06   3.1306852740700726e-07   -2.1110393305938564e-07
-1.0573510707154675e-06   3.1306852740700726e-07   -2.1110393305938564e-07
-5.998095078353291e-07   8.543302817594909e-08   -8.37091904987966e-07
-5.998095078353291e-07   8.543302817594909e-08   -8.37091904987966e-07
-5.998095078353291e-07   8.543302817594909e-08   -8.37091904987966e-07
-5.998095078353291e-07   8.543302817594909e-08   -8.37091904987966e-07
-1.0573510707154675e-06   -1.6731504290636782e-07   -1.9501873690177824e-06
-1.0573510707154675e-06   -1.6731504290636782e-07   -1.9501873690177824e-06
-1.0573510707154675e-06   -1.6731504290636782e-07   -1.9501873690177824e-06
-1.0573510707154675e-06   -1.6731504290636782e-07   -1.9501873690177824e-06
-1.3901009140440332e-08   3.1306852740700726e-07   7.712620912861705e-08
-1.3901009140440332e-08   3.1306852740700726e-07   7.712620912861705e-08
-1.3901009140440332e-08   3.1306852740700726e-07   7.712620912861705e-08
-1.3901009140440332e-08   3.1306852740700726e-07   7.712620912861705e-08
1.0915210231656316e-07   -2.3225115619018573e-07   -1.478095669601217e-06
1.0915210231656316e-07   -2.3225115619018573e-07   -1.478095669601217e-06
1.0915210231656316e-07   -2.3225115619018573e-07   -1.478095669601217e-06
1.0915210231656316e-07   -2.3225115619018573e-07   -1.478095669601217e-06
-9.256230079057715e-07   2.6320398935282844e-07   -5.074357322325902e-08
-9.256230079057715e-07   2.6320398935282844e-07   -5.074357322325902e-08
-9.256230079057715e-07   2.6320398935282844e-07   -5.074357322325902e-08
-9.256230079057715e-07   2.6320398935282844e-07   -5.074357322325902e-08
-4.243380490827125e-07   5.540044130806815e-08   -7.615363757678859e-07
-4.243380490827125e-07   5.540044130806815e-08   -7.615363757678859e-07
-4.243380490827125e-07   5.540044130806815e-08   -7.615363757678859e-07
-4.243380490827125e-07   5.540044130806815e-08   -7.615363757678859e-07
-9.256230079057715e-07   -2.3225115619018573e-07   -1.775368756927096e-06
-9.256230079057715e-07   -2.3225115619018573e-07   -1.775368756927096e-06
-9.256230079057715e-07   -2.3225115619018573e-07   -1.775368756927096e-06
-9.256230079057715e-07   -2.3225115619018573e-07   -1.775368756927096e-06
1.0915210231656316e-07   2.6320398935282844e-07   2.4652951410251154e-07
1.0915210231656316e-07   2.6320398935282844e-07   2.4652951410251154e-07
1.0915210231656316e-07   2.6320398935282844e-07   2.4652951410251154e-07
1.0915210231656316e-07   2.6320398935282844e-07   2.4652951410251154e-07
2.6089923764634204e-07   -3.1261887731515127e-07   -1.2055224499324911e-06
2.6089923764634204e-07   -3.1261887731515127e-07   -1.2055224499324911e-06
2.6089923764634204e-07   -3.1261887731515127e-07   -1.2055224499324911e-06
2.6089923764634204e-07   -3.1261887731515127e-07   -1.2055224499324911e-06
-7.238552763950078e-07   2.164293473895259e-07   1.1830613864675563e-07
-7.238552763950078e-07   2.164293473895259e-07   1.1830613864675563e-07
-7.238552763950078e-07   2.164293473895259e-07   1.1830613864675563e-07
-7.238552763950078e-07   2.164293473895259e-07   1.1830613864675563e-07
-2.660080150828064e-07   1.8120600056632688e-08   -5.257873818072961e-07
-2.660080150828064e-07   1.8120600056632688e-08   -5.257873818072961e-07
-2.660080150828064e-07   1.8120600056632688e-08   -5.257873818072961e-07
-2.660080150828064e-07   1.8120600056632688e-08   -5.257873818072961e-07
              </DataArray>   
             <DataArray type="Float64" NumberOfComponents="3" Name="Stress" format="ascii">   
-1.983525873079163   -0.49588146826979074   -0.49588146826979074
-1.983525873079163   -0.49588146826979074   -0.49588146826979074
-1.983525873079163   -0.49588146826979074   -0.49588146826979074
-1.983525873079163   -0.49588146826979074   -0.49588146826979074
-1.147673372181889   -0.036729960639965635   -0.023154986774508307
-1.147673372181889   -0.036729960639965635   -0.023154986774508307
-1.147673372181889   -0.036729960639965635   -0.023154986774508307
-1.147673372181889   -0.036729960639965635   -0.023154986774508307
-1.2367449521463008   -0.3091862380365752   -0.3091862380365752
-1.2367449521463008   -0.3091862380365752   -0.3091862380365752
-1.2367449521463008   -0.3091862380365752   -0.3091862380365752
-1.2367449521463008   -0.3091862380365752   -0.3091862380365752
-1.9115652180100624   -0.15727131204014833   -0.06023658549705213
-1.9115652180100624   -0.15727131204014833   -0.06023658549705213
-1.9115652180100624   -0.15727131204014833   -0.06023658549705213
-1.9115652180100624   -0.15727131204014833   -0.06023658549705213
-1.4991434098191714   -0.24594795697570457   -0.004159735362871619
-1.4991434098191714   -0.24594795697570457   -0.004159735362871619
-1.4991434098191714   -0.24594795697570457   -0.004159735362871619
-1.4991434098191714   -0.24594795697570457   -0.004159735362871619
-2.0756262650029167   -0.5189065662507292   -0.5189065662507292
-2.0756262650029167   -0.5189065662507292   -0.5189065662507292
-2.0756262650029167   -0.5189065662507292   -0.5189065662507292
-2.0756262650029167   -0.5189065662507292   -0.5189065662507292
-1.1116211631379485   0.013511758189506395   -0.00626528922089456
-1.1116211631379485   0.013511758189506395   -0.00626528922089456
-1.1116211631379485   0.013511758189506395   -0.00626528922089456
-1.1116211631379485   0.013511758189506395   -0.00626528922089456
-1.24003391555981   -0.3100084788899525   -0.3100084788899525
-1.24003391555981   -0.3100084788899525   -0.3100084788899525
-1.24003391555981   -0.3100084788899525   -0.3100084788899525
-1.24003391555981   -0.3100084788899525   -0.3100084788899525
-1.9755859167619048   -0.1587173724631093   -0.08823945663276217
-1.9755859167619048   -0.1587173724631093   -0.08823945663276217
-1.9755859167619048   -0.1587173724631093   -0.08823945663276217
-1.9755859167619048   -0.1587173724631093   -0.08823945663276217
-1.554844659359025   -0.23149202690100212   -0.08249586362799993
-1.554844659359025   -0.23149202690100212   -0.08249586362799993
-1.554844659359025   -0.23149202690100212   -0.08249586362799993
-1.554844659359025   -0.23149202690100212   -0.08249586362799993
-2.140216167714149   -0.5350540419285372   -0.5350540419285372
-2.140216167714149   -0.5350540419285372   -0.5350540419285372
-2.140216167714149   -0.5350540419285372   -0.5350540419285372
-2.140216167714149   -0.5350540419285372   -0.5350540419285372
-1.1082047758085114   0.033527079374531185   0.005601661602047003
-1.1082047758085114   0.033527079374531185   0.005601661602047003
-1.1082047758085114   0.033527079374531185   0.005601661602047003
-1.1082047758085114   0.033527079374531185   0.005601661602047003
-1.2391579373227188   -0.3097894843306797   -0.3097894843306797
-1.2391579373227188   -0.3097894843306797   -0.3097894843306797
-1.2391579373227188   -0.3097894843306797   -0.3097894843306797
-1.2391579373227188   -0.3097894843306797   -0.3097894843306797
-2.090025101978183   -0.13906897210366903   -0.053045649834277064
-2.090025101978183   -0.13906897210366903   -0.053045649834277064
-2.090025101978183   -0.13906897210366903   -0.053045649834277064
-2.090025101978183   -0.13906897210366903   -0.053045649834277064
-1.5960952154747798   -0.22782897617359293   -0.1490553648673678
-1.5960952154747798   -0.22782897617359293   -0.1490553648673678
-1.5960952154747798   -0.22782897617359293   -0.1490553648673678
-1.5960952154747798   -0.22782897617359293   -0.1490553648673678
-1.2618848696655514   -0.31547121741638784   -0.31547121741638784
-1.2618848696655514   -0.31547121741638784   -0.31547121741638784
-1.2618848696655514   -0.31547121741638784   -0.31547121741638784
-1.2618848696655514   -0.31547121741638784   -0.31547121741638784
-0.5267572404837574   -0.03529242802482685   -0.011447467896563049
-0.5267572404837574   -0.03529242802482685   -0.011447467896563049
-0.5267572404837574   -0.03529242802482685   -0.011447467896563049
-0.5267572404837574   -0.03529242802482685   -0.011447467896563049
-0.5527360649632562   -0.13818401624081406   -0.13818401624081406
-0.5527360649632562   -0.13818401624081406   -0.13818401624081406
-0.5527360649632562   -0.13818401624081406   -0.13818401624081406
-0.5527360649632562   -0.13818401624081406   -0.13818401624081406
-1.1487351302546975   -0.13525168362838097   -0.04307168298675268
-1.1487351302546975   -0.13525168362838097   -0.04307168298675268
-1.1487351302546975   -0.13525168362838097   -0.04307168298675268
-1.1487351302546975   -0.13525168362838097   -0.04307168298675268
-0.8473836875776479   -0.1606094570960113   0.006588122122584195
-0.8473836875776479   -0.1606094570960113   0.006588122122584195
-0.8473836875776479   -0.1606094570960113   0.006588122122584195
-0.8473836875776479   -0.1606094570960113   0.006588122122584195
-1.2367449521462996   -0.3091862380365749   -0.3091862380365749
-1.2367449521462996   -0.3091862380365749   -0.3091862380365749
-1.2367449521462996   -0.3091862380365749   -0.3091862380365749
-1.2367449521462996   -0.3091862380365749   -0.3091862380365749
-0.49679849392485526   0.003678287314177464   -0.0003584646038007483
-0.49679849392485526   0.003678287314177464   -0.0003584646038007483
-0.49679849392485526   0.003678287314177464   -0.0003584646038007483
-0.49679849392485526   0.003678287314177464   -0.0003584646038007483
-0.5402072820125672   -0.1350518205031418   -0.1350518205031418
-0.5402072820125672   -0.1350518205031418   -0.1350518205031418
-0.5402072820125672   -0.1350518205031418   -0.1350518205031418
-0.5402072820125672   -0.1350518205031418   -0.1350518205031418
-1.145653456773767   -0.11028380355310907   -0.03783086029658139
-1.145653456773767   -0.11028380355310907   -0.03783086029658139
-1.145653456773767   -0.11028380355310907   -0.03783086029658139
-1.145653456773767   -0.11028380355310907   -0.03783086029658139
-0.8353942329633778   -0.13517207574026535   -0.04365656221917652
-0.8353942329633778   -0.13517207574026535   -0.04365656221917652
-0.8353942329633778   -0.13517207574026535   -0.04365656221917652
-0.8353942329633778   -0.13517207574026535   -0.04365656221917652
-1.24003391555981   -0.3100084788899525   -0.3100084788899525
-1.24003391555981   -0.3100084788899525   -0.3100084788899525
-1.24003391555981   -0.3100084788899525   -0.3100084788899525
-1.24003391555981   -0.3100084788899525   -0.3100084788899525
-0.4768909115896807   0.03360876647054595   0.012869444637607377
-0.4768909115896807   0.03360876647054595   0.012869444637607377
-0.4768909115896807   0.03360876647054595   0.012869444637607377
-0.4768909115896807   0.03360876647054595   0.012869444637607377
-0.5287659905491064   -0.1321914976372766   -0.1321914976372766
-0.5287659905491064   -0.1321914976372766   -0.1321914976372766
-0.5287659905491064   -0.1321914976372766   -0.1321914976372766
-0.5287659905491064   -0.1321914976372766   -0.1321914976372766
-1.1370257135359407   -0.08504158992428205   -0.023876259803201516
-1.1370257135359407   -0.08504158992428205   -0.023876259803201516
-1.1370257135359407   -0.08504158992428205   -0.023876259803201516
-1.1370257135359407   -0.08504158992428205   -0.023876259803201516
-0.8393199442692996   -0.11956440351287462   -0.09723552908856209
-0.8393199442692996   -0.11956440351287462   -0.09723552908856209
-0.8393199442692996   -0.11956440351287462   -0.09723552908856209
-0.8393199442692996   -0.11956440351287462   -0.09723552908856209
-0.5748991792216446   -0.14372479480541114   -0.14372479480541114
-0.5748991792216446   -0.14372479480541114   -0.14372479480541114
-0.5748991792216446   -0.14372479480541114   -0.14372479480541114
-0.5748991792216446   -0.14372479480541114   -0.14372479480541114
0.06757782405397325   0.004311672911575443   0.000562696880077318
0.06757782405397325   0.004311672911575443   0.000562696880077318
0.06757782405397325   0.004311672911575443   0.000562696880077318
0.06757782405397325   0.004311672911575443   0.000562696880077318
0.0882421474071128   0.0220605368517782   0.0220605368517782
0.0882421474071128   0.0220605368517782   0.0220605368517782
0.0882421474071128   0.0220605368517782   0.0220605368517782
0.0882421474071128   0.0220605368517782   0.0220605368517782
-0.5196073978029631   -0.08980473577060323   -0.02091996090955929
-0.5196073978029631   -0.08980473577060323   -0.02091996090955929
-0.5196073978029631   -0.08980473577060323   -0.02091996090955929
-0.5196073978029631   -0.08980473577060323   -0.02091996090955929
-0.2227647851127628   -0.056496925552869115   0.03765132157174926
-0.2227647851127628   -0.056496925552869115   0.03765132157174926
-0.2227647851127628   -0.056496925552869115   0.03765132157174926
-0.2227647851127628   -0.056496925552869115   0.03765132157174926
-0.5527360649632572   -0.1381840162408143   -0.1381840162408143
-0.5527360649632572   -0.1381840162408143   -0.1381840162408143
-0.5527360649632572   -0.1381840162408143   -0.1381840162408143
-0.5527360649632572   -0.1381840162408143   -0.1381840162408143
0.08984480150300503   0.038913804257587996   0.013220539925428772
0.08984480150300503   0.038913804257587996   0.013220539925428772
0.08984480150300503   0.038913804257587996   0.013220539925428772
0.08984480150300503   0.038913804257587996   0.013220539925428772
0.09950665214171041   0.024876663035427602   0.024876663035427602
0.09950665214171041   0.024876663035427602   0.024876663035427602
0.09950665214171041   0.024876663035427602   0.024876663035427602
0.09950665214171041   0.024876663035427602   0.024876663035427602
-0.501070620133482   -0.06039315358541607   -0.014027178025444897
-0.501070620133482   -0.06039315358541607   -0.014027178025444897
-0.501070620133482   -0.06039315358541607   -0.014027178025444897
-0.501070620133482   -0.06039315358541607   -0.014027178025444897
-0.21351657113343137   -0.034891835650788426   -0.012924841167890229
-0.21351657113343137   -0.034891835650788426   -0.012924841167890229
-0.21351657113343137   -0.034891835650788426   -0.012924841167890229
-0.21351657113343137   -0.034891835650788426   -0.012924841167890229
-0.5402072820125682   -0.13505182050314204   -0.13505182050314204
-0.5402072820125682   -0.13505182050314204   -0.13505182050314204
-0.5402072820125682   -0.13505182050314204   -0.13505182050314204
-0.5402072820125682   -0.13505182050314204   -0.13505182050314204
0.10775229018890257   0.06864430612126073   0.02233721018555456
0.10775229018890257   0.06864430612126073   0.02233721018555456
0.10775229018890257   0.06864430612126073   0.02233721018555456
0.10775229018890257   0.06864430612126073   0.02233721018555456
0.11459707891226875   0.028649269728067188   0.028649269728067188
0.11459707891226875   0.028649269728067188   0.028649269728067188
0.11459707891226875   0.028649269728067188   0.028649269728067188
0.11459707891226875   0.028649269728067188   0.028649269728067188
-0.4809001674123831   -0.025333099808247207   0.0002792202173082653
-0.4809001674123831   -0.025333099808247207   0.0002792202173082653
-0.4809001674123831   -0.025333099808247207   0.0002792202173082653
-0.4809001674123831   -0.025333099808247207   0.0002792202173082653
-0.20694712840149684   -0.014063547202550545   -0.0630491378292622
-0.20694712840149684   -0.014063547202550545   -0.0630491378292622
-0.20694712840149684   -0.014063547202550545   -0.0630491378292622
-0.20694712840149684   -0.014063547202550545   -0.0630491378292622
0.07400327788404756   0.01850081947101189   0.01850081947101189
0.07400327788404756   0.01850081947101189   0.01850081947101189
0.07400327788404756   0.01850081947101189   0.01850081947101189
0.07400327788404756   0.01850081947101189   0.01850081947101189
0.7183304933122271   0.06593335619611525   0.02226087009287611
0.7183304933122271   0.06593335619611525   0.02226087009287611
0.7183304933122271   0.06593335619611525   0.02226087009287611
0.7183304933122271   0.06593335619611525   0.02226087009287611
0.7801685902318671   0.19504214755796678   0.19504214755796678
0.7801685902318671   0.19504214755796678   0.19504214755796678
0.7801685902318671   0.19504214755796678   0.19504214755796678
0.7801685902318671   0.19504214755796678   0.19504214755796678
0.06720845236770065   -0.05056157454501063   -0.010485826948494415
0.06720845236770065   -0.05056157454501063   -0.010485826948494415
0.06720845236770065   -0.05056157454501063   -0.010485826948494415
0.06720845236770065   -0.05056157454501063   -0.010485826948494415
0.40944204044512217   0.05098670071709164   0.07433679824771112
0.40944204044512217   0.05098670071709164   0.07433679824771112
0.40944204044512217   0.05098670071709164   0.07433679824771112
0.40944204044512217   0.05098670071709164   0.07433679824771112
0.0882421474071131   0.022060536851778275   0.022060536851778275
0.0882421474071131   0.022060536851778275   0.022060536851778275
0.0882421474071131   0.022060536851778275   0.022060536851778275
0.0882421474071131   0.022060536851778275   0.022060536851778275
0.7270845962735871   0.09036973724231115   0.0342945880822281
0.7270845962735871   0.09036973724231115   0.0342945880822281
0.7270845962735871   0.09036973724231115   0.0342945880822281
0.7270845962735871   0.09036973724231115   0.0342945880822281
0.7770322834393718   0.19425807085984295   0.19425807085984295
0.7770322834393718   0.19425807085984295   0.19425807085984295
0.7770322834393718   0.19425807085984295   0.19425807085984295
0.7770322834393718   0.19425807085984295   0.19425807085984295
0.0852283430977111   -0.02179392211832875   0.00015570296918663608
0.0852283430977111   -0.02179392211832875   0.00015570296918663608
0.0852283430977111   -0.02179392211832875   0.00015570296918663608
0.0852283430977111   -0.02179392211832875   0.00015570296918663608
0.40662922240073684   0.06699357179803084   0.019285070801062232
0.40662922240073684   0.06699357179803084   0.019285070801062232
0.40662922240073684   0.06699357179803084   0.019285070801062232
0.40662922240073684   0.06699357179803084   0.019285070801062232
0.09950665214171057   0.024876663035427644   0.024876663035427644
0.09950665214171057   0.024876663035427644   0.024876663035427644
0.09950665214171057   0.024876663035427644   0.024876663035427644
0.09950665214171057   0.024876663035427644   0.024876663035427644
0.731012852803768   0.11584636411448343   0.042572624427189704
0.731012852803768   0.11584636411448343   0.042572624427189704
0.731012852803768   0.11584636411448343   0.042572624427189704
0.731012852803768   0.11584636411448343   0.042572624427189704
0.7922780789120365   0.19806951972800912   0.19806951972800912
0.7922780789120365   0.19806951972800912   0.19806951972800912
0.7922780789120365   0.19806951972800912   0.19806951972800912
0.7922780789120365   0.19806951972800912   0.19806951972800912
0.1087999416257087   0.016245811478891294   0.0120670415444419
0.1087999416257087   0.016245811478891294   0.0120670415444419
0.1087999416257087   0.016245811478891294   0.0120670415444419
0.1087999416257087   0.016245811478891294   0.0120670415444419
0.4131382553988931   0.09093457328944395   -0.03175894116590937
0.4131382553988931   0.09093457328944395   -0.03175894116590937
0.4131382553988931   0.09093457328944395   -0.03175894116590937
0.4131382553988931   0.09093457328944395   -0.03175894116590937
0.7785462756160347   0.19463656890400868   0.19463656890400868
0.7785462756160347   0.19463656890400868   0.19463656890400868
0.7785462756160347   0.19463656890400868   0.19463656890400868
0.7785462756160347   0.19463656890400868   0.19463656890400868
1.6162008822868574   0.12326245619987697   0.042523604232415524
1.6162008822868574   0.12326245619987697   0.042523604232415524
1.6162008822868574   0.12326245619987697   0.042523604232415524
1.6162008822868574   0.12326245619987697   0.042523604232415524
1.6522351356680343   0.41305878391700857   0.41305878391700857
1.6522351356680343   0.41305878391700857   0.41305878391700857
1.6522351356680343   0.41305878391700857   0.41305878391700857
1.6522351356680343   0.41305878391700857   0.41305878391700857
0.6935396510039791   -0.03931369284625348   -0.003746708177247343
0.6935396510039791   -0.03931369284625348   -0.003746708177247343
0.6935396510039791   -0.03931369284625348   -0.003746708177247343
0.6935396510039791   -0.03931369284625348   -0.003746708177247343
1.152492851790262   0.1631891979880507   0.1300168855741029
1.152492851790262   0.1631891979880507   0.1300168855741029
1.152492851790262   0.1631891979880507   0.1300168855741029
1.152492851790262   0.1631891979880507   0.1300168855741029
0.7801685902318665   0.19504214755796662   0.19504214755796662
0.7801685902318665   0.19504214755796662   0.19504214755796662
0.7801685902318665   0.19504214755796662   0.19504214755796662
0.7801685902318665   0.19504214755796662   0.19504214755796662
1.5312450988783735   0.14434184595101435   0.0768255379346991
1.5312450988783735   0.14434184595101435   0.0768255379346991
1.5312450988783735   0.14434184595101435   0.0768255379346991
1.5312450988783735   0.14434184595101435   0.0768255379346991
1.6031230653771145   0.4007807663442786   0.4007807663442786
1.6031230653771145   0.4007807663442786   0.4007807663442786
1.6031230653771145   0.4007807663442786   0.4007807663442786
1.6031230653771145   0.4007807663442786   0.4007807663442786
0.6961591968954112   -0.021570709798535363   0.005721418798423583
0.6961591968954112   -0.021570709798535363   0.005721418798423583
0.6961591968954112   -0.021570709798535363   0.005721418798423583
0.6961591968954112   -0.021570709798535363   0.005721418798423583
1.118540507390794   0.16796475862363083   0.06233155321013231
1.118540507390794   0.16796475862363083   0.06233155321013231
1.118540507390794   0.16796475862363083   0.06233155321013231
1.118540507390794   0.16796475862363083   0.06233155321013231
0.7770322834393718   0.19425807085984295   0.19425807085984295
0.7770322834393718   0.19425807085984295   0.19425807085984295
0.7770322834393718   0.19425807085984295   0.19425807085984295
0.7770322834393718   0.19425807085984295   0.19425807085984295
1.4821743413475834   0.14487634820033096   0.051941564340582835
1.4821743413475834   0.14487634820033096   0.051941564340582835
1.4821743413475834   0.14487634820033096   0.051941564340582835
1.4821743413475834   0.14487634820033096   0.051941564340582835
1.5298656940987745   0.3824664235246936   0.3824664235246936
1.5298656940987745   0.3824664235246936   0.3824664235246936
1.5298656940987745   0.3824664235246936   0.3824664235246936
1.5298656940987745   0.3824664235246936   0.3824664235246936
0.7221293951061613   0.023140800301565685   0.02225482012508498
0.7221293951061613   0.023140800301565685   0.02225482012508498
0.7221293951061613   0.023140800301565685   0.02225482012508498
0.7221293951061613   0.023140800301565685   0.02225482012508498
1.0712602130106221   0.18219518371411808   -0.016414568121828566
1.0712602130106221   0.18219518371411808   -0.016414568121828566
1.0712602130106221   0.18219518371411808   -0.016414568121828566
1.0712602130106221   0.18219518371411808   -0.016414568121828566
-1.565915660633031   -0.11216448260210049   0.017914691865963117
-1.565915660633031   -0.11216448260210049   0.017914691865963117
-1.565915660633031   -0.11216448260210049   0.017914691865963117
-1.565915660633031   -0.11216448260210049   0.017914691865963117
-0.9970111539229157   -0.023271871640608975   -0.006548225661865109
-0.9970111539229157   -0.023271871640608975   -0.006548225661865109
-0.9970111539229157   -0.023271871640608975   -0.006548225661865109
-0.9970111539229157   -0.023271871640608975   -0.006548225661865109
-1.003539473408258   0.04060907395965117   0.021139599900141193
-1.003539473408258   0.04060907395965117   0.021139599900141193
-1.003539473408258   0.04060907395965117   0.021139599900141193
-1.003539473408258   0.04060907395965117   0.021139599900141193
-1.5891151642194707   -0.10854281509975616   -0.01894355429761002
-1.5891151642194707   -0.10854281509975616   -0.01894355429761002
-1.5891151642194707   -0.10854281509975616   -0.01894355429761002
-1.5891151642194707   -0.10854281509975616   -0.01894355429761002
-1.238204737000375   -0.04237166090266854   -0.005055443680905547
-1.238204737000375   -0.04237166090266854   -0.005055443680905547
-1.238204737000375   -0.04237166090266854   -0.005055443680905547
-1.238204737000375   -0.04237166090266854   -0.005055443680905547
-1.577433697635132   -0.07684458180073866   0.0077655453250659034
-1.577433697635132   -0.07684458180073866   0.0077655453250659034
-1.577433697635132   -0.07684458180073866   0.0077655453250659034
-1.577433697635132   -0.07684458180073866   0.0077655453250659034
-1.0168745841281719   0.0072571965250624385   -0.012184076264819682
-1.0168745841281719   0.0072571965250624385   -0.012184076264819682
-1.0168745841281719   0.0072571965250624385   -0.012184076264819682
-1.0168745841281719   0.0072571965250624385   -0.012184076264819682
-1.0046046515165643   0.057931150214173895   0.024021891508315157
-1.0046046515165643   0.057931150214173895   0.024021891508315157
-1.0046046515165643   0.057931150214173895   0.024021891508315157
-1.0046046515165643   0.057931150214173895   0.024021891508315157
-1.5985643869780701   -0.09555861518864317   -0.024994343952458475
-1.5985643869780701   -0.09555861518864317   -0.024994343952458475
-1.5985643869780701   -0.09555861518864317   -0.024994343952458475
-1.5985643869780701   -0.09555861518864317   -0.024994343952458475
-1.2728120058021895   -0.028312618519499247   -0.012141648408662886
-1.2728120058021895   -0.028312618519499247   -0.012141648408662886
-1.2728120058021895   -0.028312618519499247   -0.012141648408662886
-1.2728120058021895   -0.028312618519499247   -0.012141648408662886
-1.5697206426115193   -0.0459693948067941   0.06963515749843002
-1.5697206426115193   -0.0459693948067941   0.06963515749843002
-1.5697206426115193   -0.0459693948067941   0.06963515749843002
-1.5697206426115193   -0.0459693948067941   0.06963515749843002
-1.0214675970432945   0.020322728672143756   -0.02268441458329551
-1.0214675970432945   0.020322728672143756   -0.02268441458329551
-1.0214675970432945   0.020322728672143756   -0.02268441458329551
-1.0214675970432945   0.020322728672143756   -0.02268441458329551
-0.9861842047920529   0.10100875967343591   0.04350211186511946
-0.9861842047920529   0.10100875967343591   0.04350211186511946
-0.9861842047920529   0.10100875967343591   0.04350211186511946
-0.9861842047920529   0.10100875967343591   0.04350211186511946
-1.5541109131385455   -0.07698972773084065   -0.04082174922734938
-1.5541109131385455   -0.07698972773084065   -0.04082174922734938
-1.5541109131385455   -0.07698972773084065   -0.04082174922734938
-1.5541109131385455   -0.07698972773084065   -0.04082174922734938
-1.2239304568454583   0.011537925621145292   0.027170208122487327
-1.2239304568454583   0.011537925621145292   0.027170208122487327
-1.2239304568454583   0.011537925621145292   0.027170208122487327
-1.2239304568454583   0.011537925621145292   0.027170208122487327
-1.0216984290023843   -0.1355353889076691   -0.017721083792148068
-1.0216984290023843   -0.1355353889076691   -0.017721083792148068
-1.0216984290023843   -0.1355353889076691   -0.017721083792148068
-1.0216984290023843   -0.1355353889076691   -0.017721083792148068
-0.47104552825471574   -0.010648576452750701   0.004957465540857853
-0.47104552825471574   -0.010648576452750701   0.004957465540857853
-0.47104552825471574   -0.010648576452750701   0.004957465540857853
-0.47104552825471574   -0.010648576452750701   0.004957465540857853
-0.47779676631712265   0.008990571109197942   0.007201226763569046
-0.47779676631712265   0.008990571109197942   0.007201226763569046
-0.47779676631712265   0.008990571109197942   0.007201226763569046
-0.47779676631712265   0.008990571109197942   0.007201226763569046
-1.0418662982281015   -0.09918380837053686   -0.030701641868887464
-1.0418662982281015   -0.09918380837053686   -0.030701641868887464
-1.0418662982281015   -0.09918380837053686   -0.030701641868887464
-1.0418662982281015   -0.09918380837053686   -0.030701641868887464
-0.7530940754920032   -0.06123100294261759   -0.017335916295210113
-0.7530940754920032   -0.06123100294261759   -0.017335916295210113
-0.7530940754920032   -0.06123100294261759   -0.017335916295210113
-0.7530940754920032   -0.06123100294261759   -0.017335916295210113
-1.0408584894256006   -0.10835941675883004   -0.016486989468092877
-1.0408584894256006   -0.10835941675883004   -0.016486989468092877
-1.0408584894256006   -0.10835941675883004   -0.016486989468092877
-1.0408584894256006   -0.10835941675883004   -0.016486989468092877
-0.4769507320975162   0.020020022519596625   0.0004019464511984261
-0.4769507320975162   0.020020022519596625   0.0004019464511984261
-0.4769507320975162   0.020020022519596625   0.0004019464511984261
-0.4769507320975162   0.020020022519596625   0.0004019464511984261
-0.4758804622545488   0.03318215027451614   0.009725914322328277
-0.4758804622545488   0.03318215027451614   0.009725914322328277
-0.4758804622545488   0.03318215027451614   0.009725914322328277
-0.4758804622545488   0.03318215027451614   0.009725914322328277
-1.0421618328603555   -0.07261658306683115   -0.03321628192963569
-1.0421618328603555   -0.07261658306683115   -0.03321628192963569
-1.0421618328603555   -0.07261658306683115   -0.03321628192963569
-1.0421618328603555   -0.07261658306683115   -0.03321628192963569
-0.7515167916813169   -0.034048614863279224   -0.008247064477414384
-0.7515167916813169   -0.034048614863279224   -0.008247064477414384
-0.7515167916813169   -0.034048614863279224   -0.008247064477414384
-0.7515167916813169   -0.034048614863279224   -0.008247064477414384
-1.0380641051929014   -0.08189050542454955   -0.003453721234647378
-1.0380641051929014   -0.08189050542454955   -0.003453721234647378
-1.0380641051929014   -0.08189050542454955   -0.003453721234647378
-1.0380641051929014   -0.08189050542454955   -0.003453721234647378
-0.4765341993081167   0.045900063246121246   -0.006260683917112542
-0.4765341993081167   0.045900063246121246   -0.006260683917112542
-0.4765341993081167   0.045900063246121246   -0.006260683917112542
-0.4765341993081167   0.045900063246121246   -0.006260683917112542
-0.46780059394159346   0.05747066346859461   0.019459887566834574
-0.46780059394159346   0.05747066346859461   0.019459887566834574
-0.46780059394159346   0.05747066346859461   0.019459887566834574
-0.46780059394159346   0.05747066346859461   0.019459887566834574
-1.0308726988371977   -0.04191801500888302   -0.03701358367828131
-1.0308726988371977   -0.04191801500888302   -0.03701358367828131
-1.0308726988371977   -0.04191801500888302   -0.03701358367828131
-1.0308726988371977   -0.04191801500888302   -0.03701358367828131
-0.7482511646834261   -0.008323195959936566   0.003750327807828746
-0.7482511646834261   -0.008323195959936566   0.003750327807828746
-0.7482511646834261   -0.008323195959936566   0.003750327807828746
-0.7482511646834261   -0.008323195959936566   0.003750327807828746
-0.4966619971553963   -0.11283626815781153   -0.02093718725748797
-0.4966619971553963   -0.11283626815781153   -0.02093718725748797
-0.4966619971553963   -0.11283626815781153   -0.02093718725748797
-0.4966619971553963   -0.11283626815781153   -0.02093718725748797
0.050820212097084795   0.011545030034527852   0.01934742577733563
0.050820212097084795   0.011545030034527852   0.01934742577733563
0.050820212097084795   0.011545030034527852   0.01934742577733563
0.050820212097084795   0.011545030034527852   0.01934742577733563
0.04859503348610414   0.028333857818708078   0.0015705757479300211
0.04859503348610414   0.028333857818708078   0.0015705757479300211
0.04859503348610414   0.028333857818708078   0.0015705757479300211
0.04859503348610414   0.028333857818708078   0.0015705757479300211
-0.49865078610234626   -0.07470369192936431   -0.013374609123990952
-0.49865078610234626   -0.07470369192936431   -0.013374609123990952
-0.49865078610234626   -0.07470369192936431   -0.013374609123990952
-0.49865078610234626   -0.07470369192936431   -0.013374609123990952
-0.22614260836155212   -0.037458770394161005   -0.007191822510225654
-0.22614260836155212   -0.037458770394161005   -0.007191822510225654
-0.22614260836155212   -0.037458770394161005   -0.007191822510225654
-0.22614260836155212   -0.037458770394161005   -0.007191822510225654
-0.5021039419101291   -0.08599072369048208   -0.019353356401787536
-0.5021039419101291   -0.08599072369048208   -0.019353356401787536
-0.5021039419101291   -0.08599072369048208   -0.019353356401787536
-0.5021039419101291   -0.08599072369048208   -0.019353356401787536
0.05395670519269756   0.04152940547863698   0.015183386620967857
0.05395670519269756   0.04152940547863698   0.015183386620967857
0.05395670519269756   0.04152940547863698   0.015183386620967857
0.05395670519269756   0.04152940547863698   0.015183386620967857
0.05261537557672506   0.054945687436922235   0.008981031376039627
0.05261537557672506   0.054945687436922235   0.008981031376039627
0.05261537557672506   0.054945687436922235   0.008981031376039627
0.05261537557672506   0.054945687436922235   0.008981031376039627
-0.49690487566031477   -0.045517596388924955   -0.016696406043065617
-0.49690487566031477   -0.045517596388924955   -0.016696406043065617
-0.49690487566031477   -0.045517596388924955   -0.016696406043065617
-0.49690487566031477   -0.045517596388924955   -0.016696406043065617
-0.22248268680830313   -0.009186097798807014   0.002630024937353405
-0.22248268680830313   -0.009186097798807014   0.002630024937353405
-0.22248268680830313   -0.009186097798807014   0.002630024937353405
-0.22248268680830313   -0.009186097798807014   0.002630024937353405
-0.4982488947188509   -0.05900849370194594   -0.009925604022725326
-0.4982488947188509   -0.05900849370194594   -0.009925604022725326
-0.4982488947188509   -0.05900849370194594   -0.009925604022725326
-0.4982488947188509   -0.05900849370194594   -0.009925604022725326
0.0560142477152146   0.07049143782989661   0.010429641675512923
0.0560142477152146   0.07049143782989661   0.010429641675512923
0.0560142477152146   0.07049143782989661   0.010429641675512923
0.0560142477152146   0.07049143782989661   0.010429641675512923
0.05397570973360509   0.08453837307451788   0.014760707485146496
0.05397570973360509   0.08453837307451788   0.014760707485146496
0.05397570973360509   0.08453837307451788   0.014760707485146496
0.05397570973360509   0.08453837307451788   0.014760707485146496
-0.49026242076957965   -0.014326868538229679   -0.021051714566275512
-0.49026242076957965   -0.014326868538229679   -0.021051714566275512
-0.49026242076957965   -0.014326868538229679   -0.021051714566275512
-0.49026242076957965   -0.014326868538229679   -0.021051714566275512
-0.21677838076765016   0.02038012862685879   0.013382866974533218
-0.21677838076765016   0.02038012862685879   0.013382866974533218
-0.21677838076765016   0.02038012862685879   0.013382866974533218
-0.21677838076765016   0.02038012862685879   0.013382866974533218
0.02293521242803071   -0.0827536520883172   -0.02577889044508972
0.02293521242803071   -0.0827536520883172   -0.02577889044508972
0.02293521242803071   -0.0827536520883172   -0.02577889044508972
0.02293521242803071   -0.0827536520883172   -0.02577889044508972
0.5901282529461662   0.040650552003469204   0.035552571398310265
0.5901282529461662   0.040650552003469204   0.035552571398310265
0.5901282529461662   0.040650552003469204   0.035552571398310265
0.5901282529461662   0.040650552003469204   0.035552571398310265
0.5895373540890481   0.054858838948709535   -0.005712661201240948
0.5895373540890481   0.054858838948709535   -0.005712661201240948
0.5895373540890481   0.054858838948709535   -0.005712661201240948
0.5895373540890481   0.054858838948709535   -0.005712661201240948
0.033415713654779494   -0.04962473805996208   0.003632572469976585
0.033415713654779494   -0.04962473805996208   0.003632572469976585
0.033415713654779494   -0.04962473805996208   0.003632572469976585
0.033415713654779494   -0.04962473805996208   0.003632572469976585
0.30518792137078526   -0.007149686420352512   0.0006019431298872474
0.30518792137078526   -0.007149686420352512   0.0006019431298872474
0.30518792137078526   -0.007149686420352512   0.0006019431298872474
0.30518792137078526   -0.007149686420352512   0.0006019431298872474
0.026672029509878986   -0.06042817582481134   -0.019282410489676303
0.026672029509878986   -0.06042817582481134   -0.019282410489676303
0.026672029509878986   -0.06042817582481134   -0.019282410489676303
0.026672029509878986   -0.06042817582481134   -0.019282410489676303
0.5997194399765557   0.06910067845616671   0.03095592872884051
0.5997194399765557   0.06910067845616671   0.03095592872884051
0.5997194399765557   0.06910067845616671   0.03095592872884051
0.5997194399765557   0.06910067845616671   0.03095592872884051
0.5943769104852198   0.08118799110474405   0.0059167016970410324
0.5943769104852198   0.08118799110474405   0.0059167016970410324
0.5943769104852198   0.08118799110474405   0.0059167016970410324
0.5943769104852198   0.08118799110474405   0.0059167016970410324
0.03479132359213214   -0.02353164192927493   -0.0016618991807278022
0.03479132359213214   -0.02353164192927493   -0.0016618991807278022
0.03479132359213214   -0.02353164192927493   -0.0016618991807278022
0.03479132359213214   -0.02353164192927493   -0.0016618991807278022
0.3094419224158464   0.0180119479261914   0.012674193344901032
0.3094419224158464   0.0180119479261914   0.012674193344901032
0.3094419224158464   0.0180119479261914   0.012674193344901032
0.3094419224158464   0.0180119479261914   0.012674193344901032
0.029863135235651317   -0.03572083405254919   -0.014113648839857672
0.029863135235651317   -0.03572083405254919   -0.014113648839857672
0.029863135235651317   -0.03572083405254919   -0.014113648839857672
0.029863135235651317   -0.03572083405254919   -0.014113648839857672
0.6017946307793444   0.09586671516566225   0.028326579106745867
0.6017946307793444   0.09586671516566225   0.028326579106745867
0.6017946307793444   0.09586671516566225   0.028326579106745867
0.6017946307793444   0.09586671516566225   0.028326579106745867
0.5849830995323374   0.11157136973055232   0.012511674896117375
0.5849830995323374   0.11157136973055232   0.012511674896117375
0.5849830995323374   0.11157136973055232   0.012511674896117375
0.5849830995323374   0.11157136973055232   0.012511674896117375
0.03462826461239923   0.0087564145538871   -0.006194559600252055
0.03462826461239923   0.0087564145538871   -0.006194559600252055
0.03462826461239923   0.0087564145538871   -0.006194559600252055
0.03462826461239923   0.0087564145538871   -0.006194559600252055
0.3141941980484481   0.0467722401964325   0.023857864413228208
0.3141941980484481   0.0467722401964325   0.023857864413228208
0.3141941980484481   0.0467722401964325   0.023857864413228208
0.3141941980484481   0.0467722401964325   0.023857864413228208
0.543465603375131   -0.10934278776635863   -0.04776733668703789
0.543465603375131   -0.10934278776635863   -0.04776733668703789
0.543465603375131   -0.10934278776635863   -0.04776733668703789
0.543465603375131   -0.10934278776635863   -0.04776733668703789
1.1197559519063156   0.0739701683609694   0.034769366900451154
1.1197559519063156   0.0739701683609694   0.034769366900451154
1.1197559519063156   0.0739701683609694   0.034769366900451154
1.1197559519063156   0.0739701683609694   0.034769366900451154
1.1326161787331936   0.03487686332435408   -0.07187045505342227
1.1326161787331936   0.03487686332435408   -0.07187045505342227
1.1326161787331936   0.03487686332435408   -0.07187045505342227
1.1326161787331936   0.03487686332435408   -0.07187045505342227
0.5794313037530705   -0.02222262090951718   0.020838546977093628
0.5794313037530705   -0.02222262090951718   0.020838546977093628
0.5794313037530705   -0.02222262090951718   0.020838546977093628
0.5794313037530705   -0.02222262090951718   0.020838546977093628
0.8018389616402446   -0.014158135192098097   -0.02017304183517532
0.8018389616402446   -0.014158135192098097   -0.02017304183517532
0.8018389616402446   -0.014158135192098097   -0.02017304183517532
0.8018389616402446   -0.014158135192098097   -0.02017304183517532
0.5589899761460178   -0.07182702381327655   -0.03176368815440321
0.5589899761460178   -0.07182702381327655   -0.03176368815440321
0.5589899761460178   -0.07182702381327655   -0.03176368815440321
0.5589899761460178   -0.07182702381327655   -0.03176368815440321
1.163372152686552   0.09479591257442248   0.021990365463310513
1.163372152686552   0.09479591257442248   0.021990365463310513
1.163372152686552   0.09479591257442248   0.021990365463310513
1.163372152686552   0.09479591257442248   0.021990365463310513
1.1453670610803581   0.06383634532890416   -0.016451169749325978
1.1453670610803581   0.06383634532890416   -0.016451169749325978
1.1453670610803581   0.06383634532890416   -0.016451169749325978
1.1453670610803581   0.06383634532890416   -0.016451169749325978
0.5772787668093172   -0.0091947366515727   0.010808711073844707
0.5772787668093172   -0.0091947366515727   0.010808711073844707
0.5772787668093172   -0.0091947366515727   0.010808711073844707
0.5772787668093172   -0.0091947366515727   0.010808711073844707
0.8441100284088415   0.021100905562794245   0.01389934309287888
0.8441100284088415   0.021100905562794245   0.01389934309287888
0.8441100284088415   0.021100905562794245   0.01389934309287888
0.8441100284088415   0.021100905562794245   0.01389934309287888
0.560854954390468   -0.05489738299466878   -0.025607704677300364
0.560854954390468   -0.05489738299466878   -0.025607704677300364
0.560854954390468   -0.05489738299466878   -0.025607704677300364
0.560854954390468   -0.05489738299466878   -0.025607704677300364
1.1604420445958759   0.10819016276867098   0.014569930388504404
1.1604420445958759   0.10819016276867098   0.014569930388504404
1.1604420445958759   0.10819016276867098   0.014569930388504404
1.1604420445958759   0.10819016276867098   0.014569930388504404
1.143761075094961   0.09799260475448625   -0.025117837599111015
1.143761075094961   0.09799260475448625   -0.025117837599111015
1.143761075094961   0.09799260475448625   -0.025117837599111015
1.143761075094961   0.09799260475448625   -0.025117837599111015
0.5655328180737639   0.020775636501088917   0.006056000832715111
0.5655328180737639   0.020775636501088917   0.006056000832715111
0.5655328180737639   0.020775636501088917   0.006056000832715111
0.5655328180737639   0.020775636501088917   0.006056000832715111
0.8227410152435951   0.037087083428817974   0.01039488400704272
0.8227410152435951   0.037087083428817974   0.01039488400704272
0.8227410152435951   0.037087083428817974   0.01039488400704272
0.8227410152435951   0.037087083428817974   0.01039488400704272
-1.229298968712439   -0.055702229063948144   0.06358780201095837
-1.229298968712439   -0.055702229063948144   0.06358780201095837
-1.229298968712439   -0.055702229063948144   0.06358780201095837
-1.229298968712439   -0.055702229063948144   0.06358780201095837
-0.8168698787168354   -0.031231513028920674   -0.016545611426063478
-0.8168698787168354   -0.031231513028920674   -0.016545611426063478
-0.8168698787168354   -0.031231513028920674   -0.016545611426063478
-0.8168698787168354   -0.031231513028920674   -0.016545611426063478
-0.7872450509270751   0.06628311694930208   0.05331599265528558
-0.7872450509270751   0.06628311694930208   0.05331599265528558
-0.7872450509270751   0.06628311694930208   0.05331599265528558
-0.7872450509270751   0.06628311694930208   0.05331599265528558
-1.2348995175251292   -0.08823299849045385   -0.025906816172312386
-1.2348995175251292   -0.08823299849045385   -0.025906816172312386
-1.2348995175251292   -0.08823299849045385   -0.025906816172312386
-1.2348995175251292   -0.08823299849045385   -0.025906816172312386
-0.9758115289151735   -0.01508399228506628   -0.0019372435039652358
-0.9758115289151735   -0.01508399228506628   -0.0019372435039652358
-0.9758115289151735   -0.01508399228506628   -0.0019372435039652358
-0.9758115289151735   -0.01508399228506628   -0.0019372435039652358
-1.2003852870238223   -0.012768217693625517   0.0711995555373946
-1.2003852870238223   -0.012768217693625517   0.0711995555373946
-1.2003852870238223   -0.012768217693625517   0.0711995555373946
-1.2003852870238223   -0.012768217693625517   0.0711995555373946
-0.8163263346395758   -0.003748717058719965   -0.02205859189919629
-0.8163263346395758   -0.003748717058719965   -0.02205859189919629
-0.8163263346395758   -0.003748717058719965   -0.02205859189919629
-0.8163263346395758   -0.003748717058719965   -0.02205859189919629
-0.7839602071543286   0.08224016826206591   0.049395393477349336
-0.7839602071543286   0.08224016826206591   0.049395393477349336
-0.7839602071543286   0.08224016826206591   0.049395393477349336
-0.7839602071543286   0.08224016826206591   0.049395393477349336
-1.215613617758519   -0.07376040816528953   -0.03544897978036102
-1.215613617758519   -0.07376040816528953   -0.03544897978036102
-1.215613617758519   -0.07376040816528953   -0.03544897978036102
-1.215613617758519   -0.07376040816528953   -0.03544897978036102
-0.977756214126539   0.0036620385260503555   0.011202329835835884
-0.977756214126539   0.0036620385260503555   0.011202329835835884
-0.977756214126539   0.0036620385260503555   0.011202329835835884
-0.977756214126539   0.0036620385260503555   0.011202329835835884
-1.1834820696482127   0.002288656324162669   0.0491596962817174
-1.1834820696482127   0.002288656324162669   0.0491596962817174
-1.1834820696482127   0.002288656324162669   0.0491596962817174
-1.1834820696482127   0.002288656324162669   0.0491596962817174
-0.8143021031833269   0.007980755853922487   -0.028054674259493068
-0.8143021031833269   0.007980755853922487   -0.028054674259493068
-0.8143021031833269   0.007980755853922487   -0.028054674259493068
-0.8143021031833269   0.007980755853922487   -0.028054674259493068
-0.7846517996938808   0.09290550482707696   0.039195300117573745
-0.7846517996938808   0.09290550482707696   0.039195300117573745
-0.7846517996938808   0.09290550482707696   0.039195300117573745
-0.7846517996938808   0.09290550482707696   0.039195300117573745
-1.1906232807925283   -0.058341715238509194   -0.04518579405783654
-1.1906232807925283   -0.058341715238509194   -0.04518579405783654
-1.1906232807925283   -0.058341715238509194   -0.04518579405783654
-1.1906232807925283   -0.058341715238509194   -0.04518579405783654
-0.949542762824841   0.02046847984997323   0.023427682107316244
-0.949542762824841   0.02046847984997323   0.023427682107316244
-0.949542762824841   0.02046847984997323   0.023427682107316244
-0.949542762824841   0.02046847984997323   0.023427682107316244
-0.8192167777118037   -0.07764720278192078   0.018135583352095308
-0.8192167777118037   -0.07764720278192078   0.018135583352095308
-0.8192167777118037   -0.07764720278192078   0.018135583352095308
-0.8192167777118037   -0.07764720278192078   0.018135583352095308
-0.41415101549165895   -0.01508598891305835   0.0007725504936329092
-0.41415101549165895   -0.01508598891305835   0.0007725504936329092
-0.41415101549165895   -0.01508598891305835   0.0007725504936329092
-0.41415101549165895   -0.01508598891305835   0.0007725504936329092
-0.40231661085239684   0.04065942743828661   0.028964849799529097
-0.40231661085239684   0.04065942743828661   0.028964849799529097
-0.40231661085239684   0.04065942743828661   0.028964849799529097
-0.40231661085239684   0.04065942743828661   0.028964849799529097
-0.8322161131820943   -0.07657303829764754   -0.028683163372860643
-0.8322161131820943   -0.07657303829764754   -0.028683163372860643
-0.8322161131820943   -0.07657303829764754   -0.028683163372860643
-0.8322161131820943   -0.07657303829764754   -0.028683163372860643
-0.614799299144205   -0.030171110369335764   -0.012523412446392296
-0.614799299144205   -0.030171110369335764   -0.012523412446392296
-0.614799299144205   -0.030171110369335764   -0.012523412446392296
-0.614799299144205   -0.030171110369335764   -0.012523412446392296
-0.8165528640242515   -0.044473986943541474   0.01753403106224327
-0.8165528640242515   -0.044473986943541474   0.01753403106224327
-0.8165528640242515   -0.044473986943541474   0.01753403106224327
-0.8165528640242515   -0.044473986943541474   0.01753403106224327
-0.41481092231797484   0.011729313776445344   -0.004576593866515655
-0.41481092231797484   0.011729313776445344   -0.004576593866515655
-0.41481092231797484   0.011729313776445344   -0.004576593866515655
-0.41481092231797484   0.011729313776445344   -0.004576593866515655
-0.40097457781023066   0.06727370717715438   0.02504791424016707
-0.40097457781023066   0.06727370717715438   0.02504791424016707
-0.40097457781023066   0.06727370717715438   0.02504791424016707
-0.40097457781023066   0.06727370717715438   0.02504791424016707
-0.8274109538642859   -0.0517436662316477   -0.033874505578723846
-0.8274109538642859   -0.0517436662316477   -0.033874505578723846
-0.8274109538642859   -0.0517436662316477   -0.033874505578723846
-0.8274109538642859   -0.0517436662316477   -0.033874505578723846
-0.6080135905317683   -0.003265199847183174   -8.10007733980378e-05
-0.6080135905317683   -0.003265199847183174   -8.10007733980378e-05
-0.6080135905317683   -0.003265199847183174   -8.10007733980378e-05
-0.6080135905317683   -0.003265199847183174   -8.10007733980378e-05
-0.8114293552852069   -0.017474055790724648   0.011763876875748175
-0.8114293552852069   -0.017474055790724648   0.011763876875748175
-0.8114293552852069   -0.017474055790724648   0.011763876875748175
-0.8114293552852069   -0.017474055790724648   0.011763876875748175
-0.4143762175662522   0.03558405555928949   -0.010270632922071601
-0.4143762175662522   0.03558405555928949   -0.010270632922071601
-0.4143762175662522   0.03558405555928949   -0.010270632922071601
-0.4143762175662522   0.03558405555928949   -0.010270632922071601
-0.40078964449065607   0.09525307862032564   0.018758830121220274
-0.40078964449065607   0.09525307862032564   0.018758830121220274
-0.40078964449065607   0.09525307862032564   0.018758830121220274
-0.40078964449065607   0.09525307862032564   0.018758830121220274
-0.8233482634042848   -0.02493454677742049   -0.03644696682995363
-0.8233482634042848   -0.02493454677742049   -0.03644696682995363
-0.8233482634042848   -0.02493454677742049   -0.03644696682995363
-0.8233482634042848   -0.02493454677742049   -0.03644696682995363
-0.6083279601199291   0.021431076811832324   0.009439306522278007
-0.6083279601199291   0.021431076811832324   0.009439306522278007
-0.6083279601199291   0.021431076811832324   0.009439306522278007
-0.6083279601199291   0.021431076811832324   0.009439306522278007
-0.42954042285808286   -0.08887389763523611   -0.0023865776163126406
-0.42954042285808286   -0.08887389763523611   -0.0023865776163126406
-0.42954042285808286   -0.08887389763523611   -0.0023865776163126406
-0.42954042285808286   -0.08887389763523611   -0.0023865776163126406
-0.015129536876563283   0.004249904336973361   0.018338219683958195
-0.015129536876563283   0.004249904336973361   0.018338219683958195
-0.015129536876563283   0.004249904336973361   0.018338219683958195
-0.015129536876563283   0.004249904336973361   0.018338219683958195
-0.016635681929895747   0.026128853044720356   0.008773011573978022
-0.016635681929895747   0.026128853044720356   0.008773011573978022
-0.016635681929895747   0.026128853044720356   0.008773011573978022
-0.016635681929895747   0.026128853044720356   0.008773011573978022
-0.42976236539138757   -0.05689331146119987   -0.010711183995941134
-0.42976236539138757   -0.05689331146119987   -0.010711183995941134
-0.42976236539138757   -0.05689331146119987   -0.010711183995941134
-0.42976236539138757   -0.05689331146119987   -0.010711183995941134
-0.22345382006129585   -0.02790538743468579   -0.007023819707306138
-0.22345382006129585   -0.02790538743468579   -0.007023819707306138
-0.22345382006129585   -0.02790538743468579   -0.007023819707306138
-0.22345382006129585   -0.02790538743468579   -0.007023819707306138
-0.4292989971436538   -0.05934661929710057   -0.005941034921368549
-0.4292989971436538   -0.05934661929710057   -0.005941034921368549
-0.4292989971436538   -0.05934661929710057   -0.005941034921368549
-0.4292989971436538   -0.05934661929710057   -0.005941034921368549
-0.01473785572019285   0.03094335533805823   0.013447640329154641
-0.01473785572019285   0.03094335533805823   0.013447640329154641
-0.01473785572019285   0.03094335533805823   0.013447640329154641
-0.01473785572019285   0.03094335533805823   0.013447640329154641
-0.014607784135728344   0.05511877568387136   0.00418836279632955
-0.014607784135728344   0.05511877568387136   0.00418836279632955
-0.014607784135728344   0.05511877568387136   0.00418836279632955
-0.014607784135728344   0.05511877568387136   0.00418836279632955
-0.42861166744280155   -0.03015101758230236   -0.01571280916323055
-0.42861166744280155   -0.03015101758230236   -0.01571280916323055
-0.42861166744280155   -0.03015101758230236   -0.01571280916323055
-0.42861166744280155   -0.03015101758230236   -0.01571280916323055
-0.22121799838915276   -0.0011086071472316082   0.0030328507080008144
-0.22121799838915276   -0.0011086071472316082   0.0030328507080008144
-0.22121799838915276   -0.0011086071472316082   0.0030328507080008144
-0.22121799838915276   -0.0011086071472316082   0.0030328507080008144
-0.42796855697992847   -0.03076725527539004   -0.011881019155777342
-0.42796855697992847   -0.03076725527539004   -0.011881019155777342
-0.42796855697992847   -0.03076725527539004   -0.011881019155777342
-0.42796855697992847   -0.03076725527539004   -0.011881019155777342
-0.013301732394134621   0.05768417558142715   0.008153221606742376
-0.013301732394134621   0.05768417558142715   0.008153221606742376
-0.013301732394134621   0.05768417558142715   0.008153221606742376
-0.013301732394134621   0.05768417558142715   0.008153221606742376
-0.014122295869749439   0.08497115461822954   -0.0007017236838134933
-0.014122295869749439   0.08497115461822954   -0.0007017236838134933
-0.014122295869749439   0.08497115461822954   -0.0007017236838134933
-0.014122295869749439   0.08497115461822954   -0.0007017236838134933
-0.4283377708183099   -0.002957473510316975   -0.020771249386404428
-0.4283377708183099   -0.002957473510316975   -0.020771249386404428
-0.4283377708183099   -0.002957473510316975   -0.020771249386404428
-0.4283377708183099   -0.002957473510316975   -0.020771249386404428
-0.21946614172305356   0.02571398743760219   0.012256232926226941
-0.21946614172305356   0.02571398743760219   0.012256232926226941
-0.21946614172305356   0.02571398743760219   0.012256232926226941
-0.21946614172305356   0.02571398743760219   0.012256232926226941
-0.043388856177058475   -0.09742089883095487   -0.021287573650589378
-0.043388856177058475   -0.09742089883095487   -0.021287573650589378
-0.043388856177058475   -0.09742089883095487   -0.021287573650589378
-0.043388856177058475   -0.09742089883095487   -0.021287573650589378
0.3822743786864673   0.026864676370330423   0.03487229869530909
0.3822743786864673   0.026864676370330423   0.03487229869530909
0.3822743786864673   0.026864676370330423   0.03487229869530909
0.3822743786864673   0.026864676370330423   0.03487229869530909
0.36975085507158567   0.014151220847859029   -0.013822774407727889
0.36975085507158567   0.014151220847859029   -0.013822774407727889
0.36975085507158567   0.014151220847859029   -0.013822774407727889
0.36975085507158567   0.014151220847859029   -0.013822774407727889
-0.0292225883882267   -0.035585246822656035   0.007552579149699631
-0.0292225883882267   -0.035585246822656035   0.007552579149699631
-0.0292225883882267   -0.035585246822656035   0.007552579149699631
-0.0292225883882267   -0.035585246822656035   0.007552579149699631
0.1674418366602394   -0.022640372012961898   -0.003978367490790183
0.1674418366602394   -0.022640372012961898   -0.003978367490790183
0.1674418366602394   -0.022640372012961898   -0.003978367490790183
0.1674418366602394   -0.022640372012961898   -0.003978367490790183
-0.04317012505909819   -0.07101874208516244   -0.026751608942151367
-0.04317012505909819   -0.07101874208516244   -0.026751608942151367
-0.04317012505909819   -0.07101874208516244   -0.026751608942151367
-0.04317012505909819   -0.07101874208516244   -0.026751608942151367
0.3863843558966257   0.052270680264533464   0.031225270300794736
0.3863843558966257   0.052270680264533464   0.031225270300794736
0.3863843558966257   0.052270680264533464   0.031225270300794736
0.3863843558966257   0.052270680264533464   0.031225270300794736
0.3758395352720571   0.04112744027312199   -0.019414699848668157
0.3758395352720571   0.04112744027312199   -0.019414699848668157
0.3758395352720571   0.04112744027312199   -0.019414699848668157
0.3758395352720571   0.04112744027312199   -0.019414699848668157
-0.028351561220675232   -0.01162331258831656   0.0022115656437832077
-0.028351561220675232   -0.01162331258831656   0.0022115656437832077
-0.028351561220675232   -0.01162331258831656   0.0022115656437832077
-0.028351561220675232   -0.01162331258831656   0.0022115656437832077
0.16900332069153307   0.0016161987536293916   0.006019978946289157
0.16900332069153307   0.0016161987536293916   0.006019978946289157
0.16900332069153307   0.0016161987536293916   0.006019978946289157
0.16900332069153307   0.0016161987536293916   0.006019978946289157
-0.041918297103372006   -0.0449918929198614   -0.032253533438156
-0.041918297103372006   -0.0449918929198614   -0.032253533438156
-0.041918297103372006   -0.0449918929198614   -0.032253533438156
-0.041918297103372006   -0.0449918929198614   -0.032253533438156
0.3923338328033991   0.07742358225331138   0.02676064582784861
0.3923338328033991   0.07742358225331138   0.02676064582784861
0.3923338328033991   0.07742358225331138   0.02676064582784861
0.3923338328033991   0.07742358225331138   0.02676064582784861
0.37962111906698887   0.07493500428237906   -0.020294465412381876
0.37962111906698887   0.07493500428237906   -0.020294465412381876
0.37962111906698887   0.07493500428237906   -0.020294465412381876
0.37962111906698887   0.07493500428237906   -0.020294465412381876
-0.02832768869810265   0.016359392969155707   -0.0031169261765055184
-0.02832768869810265   0.016359392969155707   -0.0031169261765055184
-0.02832768869810265   0.016359392969155707   -0.0031169261765055184
-0.02832768869810265   0.016359392969155707   -0.0031169261765055184
0.1749496411082105   0.02864322572941641   0.017884259392341752
0.1749496411082105   0.02864322572941641   0.017884259392341752
0.1749496411082105   0.02864322572941641   0.017884259392341752
0.1749496411082105   0.02864322572941641   0.017884259392341752
0.3422694026948205   -0.0967821631999483   -0.04150574169264239
0.3422694026948205   -0.0967821631999483   -0.04150574169264239
0.3422694026948205   -0.0967821631999483   -0.04150574169264239
0.3422694026948205   -0.0967821631999483   -0.04150574169264239
0.7533128307532369   0.055980747447503025   0.03887421031793439
0.7533128307532369   0.055980747447503025   0.03887421031793439
0.7533128307532369   0.055980747447503025   0.03887421031793439
0.7533128307532369   0.055980747447503025   0.03887421031793439
0.7474624493153473   -0.0038341402609039996   -0.055250195342117336
0.7474624493153473   -0.0038341402609039996   -0.055250195342117336
0.7474624493153473   -0.0038341402609039996   -0.055250195342117336
0.7474624493153473   -0.0038341402609039996   -0.055250195342117336
0.3733189992142528   -0.007949266977777704   0.026118434131244574
0.3733189992142528   -0.007949266977777704   0.026118434131244574
0.3733189992142528   -0.007949266977777704   0.026118434131244574
0.3733189992142528   -0.007949266977777704   0.026118434131244574
0.5271896928499615   -0.018951664298841986   -0.017351198469099605
0.5271896928499615   -0.018951664298841986   -0.017351198469099605
0.5271896928499615   -0.018951664298841986   -0.017351198469099605
0.5271896928499615   -0.018951664298841986   -0.017351198469099605
0.34268221586693937   -0.08395258149898474   -0.05106216808411307
0.34268221586693937   -0.08395258149898474   -0.05106216808411307
0.34268221586693937   -0.08395258149898474   -0.05106216808411307
0.34268221586693937   -0.08395258149898474   -0.05106216808411307
0.7802982157889953   0.07436815738663792   0.03072633937858027
0.7802982157889953   0.07436815738663792   0.03072633937858027
0.7802982157889953   0.07436815738663792   0.03072633937858027
0.7802982157889953   0.07436815738663792   0.03072633937858027
0.7659643019989335   0.011552657014335402   -0.07413985578623103
0.7659643019989335   0.011552657014335402   -0.07413985578623103
0.7659643019989335   0.011552657014335402   -0.07413985578623103
0.7659643019989335   0.011552657014335402   -0.07413985578623103
0.37615171859276797   0.003790875200745461   0.019482781827265594
0.37615171859276797   0.003790875200745461   0.019482781827265594
0.37615171859276797   0.003790875200745461   0.019482781827265594
0.37615171859276797   0.003790875200745461   0.019482781827265594
0.5511947149930059   -0.0023039360022397773   -0.005262478753767452
0.5511947149930059   -0.0023039360022397773   -0.005262478753767452
0.5511947149930059   -0.0023039360022397773   -0.005262478753767452
0.5511947149930059   -0.0023039360022397773   -0.005262478753767452
0.34665834067727913   -0.06859934216886372   -0.05559389038057237
0.34665834067727913   -0.06859934216886372   -0.05559389038057237
0.34665834067727913   -0.06859934216886372   -0.05559389038057237
0.34665834067727913   -0.06859934216886372   -0.05559389038057237
0.8003174448218467   0.08880263929136986   0.02037587605130875
0.8003174448218467   0.08880263929136986   0.02037587605130875
0.8003174448218467   0.08880263929136986   0.02037587605130875
0.8003174448218467   0.08880263929136986   0.02037587605130875
0.7953331557269239   0.05156929987226426   -0.06977601996456809
0.7953331557269239   0.05156929987226426   -0.06977601996456809
0.7953331557269239   0.05156929987226426   -0.06977601996456809
0.7953331557269239   0.05156929987226426   -0.06977601996456809
0.3774772043896218   0.02968030149061338   0.01424066399255354
0.3774772043896218   0.02968030149061338   0.01424066399255354
0.3774772043896218   0.02968030149061338   0.01424066399255354
0.3774772043896218   0.02968030149061338   0.01424066399255354
0.5554213565034393   0.016712528541820114   0.008133719290497138
0.5554213565034393   0.016712528541820114   0.008133719290497138
0.5554213565034393   0.016712528541820114   0.008133719290497138
0.5554213565034393   0.016712528541820114   0.008133719290497138
-0.8774197080718186   -0.028526257845225556   0.057530493847395364
-0.8774197080718186   -0.028526257845225556   0.057530493847395364
-0.8774197080718186   -0.028526257845225556   0.057530493847395364
-0.8774197080718186   -0.028526257845225556   0.057530493847395364
-0.6144721242213266   -0.041192402270254475   -0.0216937854965652
-0.6144721242213266   -0.041192402270254475   -0.0216937854965652
-0.6144721242213266   -0.041192402270254475   -0.0216937854965652
-0.6144721242213266   -0.041192402270254475   -0.0216937854965652
-0.5782701463587026   0.05808163177871188   0.049036964007089595
-0.5782701463587026   0.05808163177871188   0.049036964007089595
-0.5782701463587026   0.05808163177871188   0.049036964007089595
-0.5782701463587026   0.05808163177871188   0.049036964007089595
-0.8774814344257752   -0.07226077881650976   -0.03174025023282204
-0.8774814344257752   -0.07226077881650976   -0.03174025023282204
-0.8774814344257752   -0.07226077881650976   -0.03174025023282204
-0.8774814344257752   -0.07226077881650976   -0.03174025023282204
-0.7067527230893269   -0.011230718771727967   -0.001675456963827343
-0.7067527230893269   -0.011230718771727967   -0.001675456963827343
-0.7067527230893269   -0.011230718771727967   -0.001675456963827343
-0.7067527230893269   -0.011230718771727967   -0.001675456963827343
-0.8445474502250556   0.005960463829063796   0.054708428125202296
-0.8445474502250556   0.005960463829063796   0.054708428125202296
-0.8445474502250556   0.005960463829063796   0.054708428125202296
-0.8445474502250556   0.005960463829063796   0.054708428125202296
-0.6085219295203768   -0.017457409827815316   -0.026682910194748305
-0.6085219295203768   -0.017457409827815316   -0.026682910194748305
-0.6085219295203768   -0.017457409827815316   -0.026682910194748305
-0.6085219295203768   -0.017457409827815316   -0.026682910194748305
-0.5728188633745488   0.07017382064654931   0.041427409894862974
-0.5728188633745488   0.07017382064654931   0.041427409894862974
-0.5728188633745488   0.07017382064654931   0.041427409894862974
-0.5728188633745488   0.07017382064654931   0.041427409894862974
-0.8566412190349105   -0.058778759059443735   -0.040106953344362206
-0.8566412190349105   -0.058778759059443735   -0.040106953344362206
-0.8566412190349105   -0.058778759059443735   -0.040106953344362206
-0.8566412190349105   -0.058778759059443735   -0.040106953344362206
-0.7017608769859309   0.004711124072368775   0.0073392426959552615
-0.7017608769859309   0.004711124072368775   0.0073392426959552615
-0.7017608769859309   0.004711124072368775   0.0073392426959552615
-0.7017608769859309   0.004711124072368775   0.0073392426959552615
-0.8239991638127054   0.02043099276782432   0.043893570939394694
-0.8239991638127054   0.02043099276782432   0.043893570939394694
-0.8239991638127054   0.02043099276782432   0.043893570939394694
-0.8239991638127054   0.02043099276782432   0.043893570939394694
-0.6030386007580351   -0.006613613341998923   -0.03288384303401361
-0.6030386007580351   -0.006613613341998923   -0.03288384303401361
-0.6030386007580351   -0.006613613341998923   -0.03288384303401361
-0.6030386007580351   -0.006613613341998923   -0.03288384303401361
-0.5698028654725164   0.08198888652024719   0.035646799415933614
-0.5698028654725164   0.08198888652024719   0.035646799415933614
-0.5698028654725164   0.08198888652024719   0.035646799415933614
-0.5698028654725164   0.08198888652024719   0.035646799415933614
-0.8287491958749066   -0.040936436935498255   -0.04800848536106056
-0.8287491958749066   -0.040936436935498255   -0.04800848536106056
-0.8287491958749066   -0.040936436935498255   -0.04800848536106056
-0.8287491958749066   -0.040936436935498255   -0.04800848536106056
-0.6753906403706889   0.01966499071658505   0.019964235457543195
-0.6753906403706889   0.01966499071658505   0.019964235457543195
-0.6753906403706889   0.01966499071658505   0.019964235457543195
-0.6753906403706889   0.01966499071658505   0.019964235457543195
-0.6074764376839481   -0.04957261205519077   0.02166485697525994
-0.6074764376839481   -0.04957261205519077   0.02166485697525994
-0.6074764376839481   -0.04957261205519077   0.02166485697525994
-0.6074764376839481   -0.04957261205519077   0.02166485697525994
-0.3527779968685325   -0.026688400943173964   -0.003503514730321622
-0.3527779968685325   -0.026688400943173964   -0.003503514730321622
-0.3527779968685325   -0.026688400943173964   -0.003503514730321622
-0.3527779968685325   -0.026688400943173964   -0.003503514730321622
-0.33484033880698666   0.033926172890187914   0.02643711819121662
-0.33484033880698666   0.033926172890187914   0.02643711819121662
-0.33484033880698666   0.033926172890187914   0.02643711819121662
-0.33484033880698666   0.033926172890187914   0.02643711819121662
-0.6166392253907141   -0.05903172841488659   -0.0256950709593695
-0.6166392253907141   -0.05903172841488659   -0.0256950709593695
-0.6166392253907141   -0.05903172841488659   -0.0256950709593695
-0.6166392253907141   -0.05903172841488659   -0.0256950709593695
-0.476026924858661   -0.02317646915253293   -0.0097694746468147
-0.476026924858661   -0.02317646915253293   -0.0097694746468147
-0.476026924858661   -0.02317646915253293   -0.0097694746468147
-0.476026924858661   -0.02317646915253293   -0.0097694746468147
-0.6003367296137898   -0.020919494172784943   0.017705173683147918
-0.6003367296137898   -0.020919494172784943   0.017705173683147918
-0.6003367296137898   -0.020919494172784943   0.017705173683147918
-0.6003367296137898   -0.020919494172784943   0.017705173683147918
-0.349050862329158   -0.0020940890971599437   -0.008595237432292346
-0.349050862329158   -0.0020940890971599437   -0.008595237432292346
-0.349050862329158   -0.0020940890971599437   -0.008595237432292346
-0.349050862329158   -0.0020940890971599437   -0.008595237432292346
-0.3305835622354366   0.05873053780084116   0.02166912295487114
-0.3305835622354366   0.05873053780084116   0.02166912295487114
-0.3305835622354366   0.05873053780084116   0.02166912295487114
-0.3305835622354366   0.05873053780084116   0.02166912295487114
-0.6083229782493724   -0.03563975488143425   -0.030279588951271225
-0.6083229782493724   -0.03563975488143425   -0.030279588951271225
-0.6083229782493724   -0.03563975488143425   -0.030279588951271225
-0.6083229782493724   -0.03563975488143425   -0.030279588951271225
-0.46688233100823207   0.0011843701962027525   0.0006971620515719978
-0.46688233100823207   0.0011843701962027525   0.0006971620515719978
-0.46688233100823207   0.0011843701962027525   0.0006971620515719978
-0.46688233100823207   0.0011843701962027525   0.0006971620515719978
-0.5907870602966621   0.005590052319825872   0.016170193611020206
-0.5907870602966621   0.005590052319825872   0.016170193611020206
-0.5907870602966621   0.005590052319825872   0.016170193611020206
-0.5907870602966621   0.005590052319825872   0.016170193611020206
-0.3455216709153751   0.02009853987235287   -0.014389422516332961
-0.3455216709153751   0.02009853987235287   -0.014389422516332961
-0.3455216709153751   0.02009853987235287   -0.014389422516332961
-0.3455216709153751   0.02009853987235287   -0.014389422516332961
-0.32647012128797087   0.08517628130851916   0.017229031483430607
-0.32647012128797087   0.08517628130851916   0.017229031483430607
-0.32647012128797087   0.08517628130851916   0.017229031483430607
-0.32647012128797087   0.08517628130851916   0.017229031483430607
-0.602104487111367   -0.010415103851494831   -0.03345731840657919
-0.602104487111367   -0.010415103851494831   -0.03345731840657919
-0.602104487111367   -0.010415103851494831   -0.03345731840657919
-0.602104487111367   -0.010415103851494831   -0.03345731840657919
-0.46333168660212737   0.024128211433578014   0.010672115871257479
-0.46333168660212737   0.024128211433578014   0.010672115871257479
-0.46333168660212737   0.024128211433578014   0.010672115871257479
-0.46333168660212737   0.024128211433578014   0.010672115871257479
-0.3602028710514629   -0.06824638646035736   0.0009300998722119314
-0.3602028710514629   -0.06824638646035736   0.0009300998722119314
-0.3602028710514629   -0.06824638646035736   0.0009300998722119314
-0.3602028710514629   -0.06824638646035736   0.0009300998722119314
-0.09373434471847492   -0.008086284603613308   0.014674322930137363
-0.09373434471847492   -0.008086284603613308   0.014674322930137363
-0.09373434471847492   -0.008086284603613308   0.014674322930137363
-0.09373434471847492   -0.008086284603613308   0.014674322930137363
-0.09145764865283702   0.01391082497704198   0.005004781456717556
-0.09145764865283702   0.01391082497704198   0.005004781456717556
-0.09145764865283702   0.01391082497704198   0.005004781456717556
-0.09145764865283702   0.01391082497704198   0.005004781456717556
-0.35625427813933414   -0.039871095653738295   -0.0068353099265948125
-0.35625427813933414   -0.039871095653738295   -0.0068353099265948125
-0.35625427813933414   -0.039871095653738295   -0.0068353099265948125
-0.35625427813933414   -0.039871095653738295   -0.0068353099265948125
-0.22579918486090933   -0.024476849110644475   -0.00694979279763186
-0.22579918486090933   -0.024476849110644475   -0.00694979279763186
-0.22579918486090933   -0.024476849110644475   -0.00694979279763186
-0.22579918486090933   -0.024476849110644475   -0.00694979279763186
-0.3556696838430604   -0.04057435431011527   -0.0032090797888452705
-0.3556696838430604   -0.04057435431011527   -0.0032090797888452705
-0.3556696838430604   -0.04057435431011527   -0.0032090797888452705
-0.3556696838430604   -0.04057435431011527   -0.0032090797888452705
-0.08994489308790163   0.01671143349462872   0.009767950763807723
-0.08994489308790163   0.01671143349462872   0.009767950763807723
-0.08994489308790163   0.01671143349462872   0.009767950763807723
-0.08994489308790163   0.01671143349462872   0.009767950763807723
-0.08631602137376014   0.041707646552414525   0.0012848654413124428
-0.08631602137376014   0.041707646552414525   0.0012848654413124428
-0.08631602137376014   0.041707646552414525   0.0012848654413124428
-0.08631602137376014   0.041707646552414525   0.0012848654413124428
-0.35199222591811546   -0.014899137772525276   -0.011744519885156915
-0.35199222591811546   -0.014899137772525276   -0.011744519885156915
-0.35199222591811546   -0.014899137772525276   -0.011744519885156915
-0.35199222591811546   -0.014899137772525276   -0.011744519885156915
-0.2203066504782129   0.0004942325711358615   0.0029181601654416356
-0.2203066504782129   0.0004942325711358615   0.0029181601654416356
-0.2203066504782129   0.0004942325711358615   0.0029181601654416356
-0.2203066504782129   0.0004942325711358615   0.0029181601654416356
-0.3506811945355809   -0.012866717764344966   -0.007221782980664226
-0.3506811945355809   -0.012866717764344966   -0.007221782980664226
-0.3506811945355809   -0.012866717764344966   -0.007221782980664226
-0.3506811945355809   -0.012866717764344966   -0.007221782980664226
-0.08569047112240011   0.04161180817812883   0.004508455072398224
-0.08569047112240011   0.04161180817812883   0.004508455072398224
-0.08569047112240011   0.04161180817812883   0.004508455072398224
-0.08569047112240011   0.04161180817812883   0.004508455072398224
-0.08170113930894586   0.06990771217743298   -0.0030819524570187074
-0.08170113930894586   0.06990771217743298   -0.0030819524570187074
-0.08170113930894586   0.06990771217743298   -0.0030819524570187074
-0.08170113930894586   0.06990771217743298   -0.0030819524570187074
-0.3482558524488113   0.010360519821033656   -0.016883862833284052
-0.3482558524488113   0.010360519821033656   -0.016883862833284052
-0.3482558524488113   0.010360519821033656   -0.016883862833284052
-0.3482558524488113   0.010360519821033656   -0.016883862833284052
-0.21529241129424645   0.02558519416752566   0.012425047262523206
-0.21529241129424645   0.02558519416752566   0.012425047262523206
-0.21529241129424645   0.02558519416752566   0.012425047262523206
-0.21529241129424645   0.02558519416752566   0.012425047262523206
-0.11562731179146263   -0.08355456739333242   -0.01932222964508283
-0.11562731179146263   -0.08355456739333242   -0.01932222964508283
-0.11562731179146263   -0.08355456739333242   -0.01932222964508283
-0.11562731179146263   -0.08355456739333242   -0.01932222964508283
0.16176729429984546   0.012763141798030285   0.03181505680050314
0.16176729429984546   0.012763141798030285   0.03181505680050314
0.16176729429984546   0.012763141798030285   0.03181505680050314
0.16176729429984546   0.012763141798030285   0.03181505680050314
0.1503552586699053   -0.004746963913941084   -0.017833853364857606
0.1503552586699053   -0.004746963913941084   -0.017833853364857606
0.1503552586699053   -0.004746963913941084   -0.017833853364857606
0.1503552586699053   -0.004746963913941084   -0.017833853364857606
-0.09674763131993377   -0.019352691193577437   0.01181838429185238
-0.09674763131993377   -0.019352691193577437   0.01181838429185238
-0.09674763131993377   -0.019352691193577437   0.01181838429185238
-0.09674763131993377   -0.019352691193577437   0.01181838429185238
0.0239168813335373   -0.023063300444103936   -0.00495156799861441
0.0239168813335373   -0.023063300444103936   -0.00495156799861441
0.0239168813335373   -0.023063300444103936   -0.00495156799861441
0.0239168813335373   -0.023063300444103936   -0.00495156799861441
-0.11166882897992343   -0.05834422484272485   -0.023796070358947707
-0.11166882897992343   -0.05834422484272485   -0.023796070358947707
-0.11166882897992343   -0.05834422484272485   -0.023796070358947707
-0.11166882897992343   -0.05834422484272485   -0.023796070358947707
0.16777194177146829   0.03674005517677965   0.027762543052235744
0.16777194177146829   0.03674005517677965   0.027762543052235744
0.16777194177146829   0.03674005517677965   0.027762543052235744
0.16777194177146829   0.03674005517677965   0.027762543052235744
0.15993004757730922   0.02154869849930066   -0.020209987716115124
0.15993004757730922   0.02154869849930066   -0.020209987716115124
0.15993004757730922   0.02154869849930066   -0.020209987716115124
0.15993004757730922   0.02154869849930066   -0.020209987716115124
-0.09303804077267444   0.0029794837260226567   0.006402931273131948
-0.09303804077267444   0.0029794837260226567   0.006402931273131948
-0.09303804077267444   0.0029794837260226567   0.006402931273131948
-0.09303804077267444   0.0029794837260226567   0.006402931273131948
0.029015084553644013   -0.0004096361181803738   0.005090679305423417
0.029015084553644013   -0.0004096361181803738   0.005090679305423417
0.029015084553644013   -0.0004096361181803738   0.005090679305423417
0.029015084553644013   -0.0004096361181803738   0.005090679305423417
-0.10743796544268788   -0.03367195685971508   -0.028945251491196724
-0.10743796544268788   -0.03367195685971508   -0.028945251491196724
-0.10743796544268788   -0.03367195685971508   -0.028945251491196724
-0.10743796544268788   -0.03367195685971508   -0.028945251491196724
0.17649452421372158   0.060364691051437325   0.02379640291380926
0.17649452421372158   0.060364691051437325   0.02379640291380926
0.17649452421372158   0.060364691051437325   0.02379640291380926
0.17649452421372158   0.060364691051437325   0.02379640291380926
0.1676435665242937   0.05150479632626111   -0.023361164613382536
0.1676435665242937   0.05150479632626111   -0.023361164613382536
0.1676435665242937   0.05150479632626111   -0.023361164613382536
0.1676435665242937   0.05150479632626111   -0.023361164613382536
-0.08907428421620028   0.0287089203051078   0.0012511148790343707
-0.08907428421620028   0.0287089203051078   0.0012511148790343707
-0.08907428421620028   0.0287089203051078   0.0012511148790343707
-0.08907428421620028   0.0287089203051078   0.0012511148790343707
0.036873027337481844   0.02421270787172879   0.01548293019969127
0.036873027337481844   0.02421270787172879   0.01548293019969127
0.036873027337481844   0.02421270787172879   0.01548293019969127
0.036873027337481844   0.02421270787172879   0.01548293019969127
0.12833179034382522   -0.0844251391119009   -0.03817418206966597
0.12833179034382522   -0.0844251391119009   -0.03817418206966597
0.12833179034382522   -0.0844251391119009   -0.03817418206966597
0.12833179034382522   -0.0844251391119009   -0.03817418206966597
0.3884981606982836   0.038373091158360434   0.04127565327359409
0.3884981606982836   0.038373091158360434   0.04127565327359409
0.3884981606982836   0.038373091158360434   0.04127565327359409
0.3884981606982836   0.038373091158360434   0.04127565327359409
0.38458097329788354   -0.0209731469998206   -0.050262940062600625
0.38458097329788354   -0.0209731469998206   -0.050262940062600625
0.38458097329788354   -0.0209731469998206   -0.050262940062600625
0.38458097329788354   -0.0209731469998206   -0.050262940062600625
0.162448146645015   0.0070708530723490644   0.030812769524400804
0.162448146645015   0.0070708530723490644   0.030812769524400804
0.162448146645015   0.0070708530723490644   0.030812769524400804
0.162448146645015   0.0070708530723490644   0.030812769524400804
0.2520930234976209   -0.01753177436377618   -0.01338653593286731
0.2520930234976209   -0.01753177436377618   -0.01338653593286731
0.2520930234976209   -0.01753177436377618   -0.01338653593286731
0.2520930234976209   -0.01753177436377618   -0.01338653593286731
0.1319842216456517   -0.07027259149813345   -0.044163410901933056
0.1319842216456517   -0.07027259149813345   -0.044163410901933056
0.1319842216456517   -0.07027259149813345   -0.044163410901933056
0.1319842216456517   -0.07027259149813345   -0.044163410901933056
0.4175891574267118   0.05891455670012756   0.034890276881596446
0.4175891574267118   0.05891455670012756   0.034890276881596446
0.4175891574267118   0.05891455670012756   0.034890276881596446
0.4175891574267118   0.05891455670012756   0.034890276881596446
0.4057502246679486   -0.006247247931523904   -0.060306339909261805
0.4057502246679486   -0.006247247931523904   -0.060306339909261805
0.4057502246679486   -0.006247247931523904   -0.060306339909261805
0.4057502246679486   -0.006247247931523904   -0.060306339909261805
0.16804226240019104   0.017859323962474593   0.024040460935119287
0.16804226240019104   0.017859323962474593   0.024040460935119287
0.16804226240019104   0.017859323962474593   0.024040460935119287
0.16804226240019104   0.017859323962474593   0.024040460935119287
0.27343841541451525   -0.002672190209493705   -0.0015658742855934188
0.27343841541451525   -0.002672190209493705   -0.0015658742855934188
0.27343841541451525   -0.002672190209493705   -0.0015658742855934188
0.27343841541451525   -0.002672190209493705   -0.0015658742855934188
0.13781176655998156   -0.058020175359962886   -0.05123251894348976
0.13781176655998156   -0.058020175359962886   -0.05123251894348976
0.13781176655998156   -0.058020175359962886   -0.05123251894348976
0.13781176655998156   -0.058020175359962886   -0.05123251894348976
0.4386340749959018   0.07228560587865841   0.02558005792032768
0.4386340749959018   0.07228560587865841   0.02558005792032768
0.4386340749959018   0.07228560587865841   0.02558005792032768
0.4386340749959018   0.07228560587865841   0.02558005792032768
0.4382776974189254   0.026076819833805727   -0.06457723732078834
0.4382776974189254   0.026076819833805727   -0.06457723732078834
0.4382776974189254   0.026076819833805727   -0.06457723732078834
0.4382776974189254   0.026076819833805727   -0.06457723732078834
0.17376576003903443   0.039647406181664915   0.019107193104917347
0.17376576003903443   0.039647406181664915   0.019107193104917347
0.17376576003903443   0.039647406181664915   0.019107193104917347
0.17376576003903443   0.039647406181664915   0.019107193104917347
0.2841468094429802   0.013686582219455729   0.008623597083830849
0.2841468094429802   0.013686582219455729   0.008623597083830849
0.2841468094429802   0.013686582219455729   0.008623597083830849
0.2841468094429802   0.013686582219455729   0.008623597083830849
-0.5248817441195637   -0.008634583783588022   0.051504926835004225
-0.5248817441195637   -0.008634583783588022   0.051504926835004225
-0.5248817441195637   -0.008634583783588022   0.051504926835004225
-0.5248817441195637   -0.008634583783588022   0.051504926835004225
-0.4101305236862077   -0.05217543858052956   -0.025426487292718916
-0.4101305236862077   -0.05217543858052956   -0.025426487292718916
-0.4101305236862077   -0.05217543858052956   -0.025426487292718916
-0.4101305236862077   -0.05217543858052956   -0.025426487292718916
-0.3712115370911375   0.04414647205592384   0.04402610679470825
-0.3712115370911375   0.04414647205592384   0.04402610679470825
-0.3712115370911375   0.04414647205592384   0.04402610679470825
-0.3712115370911375   0.04414647205592384   0.04402610679470825
-0.5227000951185462   -0.05696579930758208   -0.03463050378960382
-0.5227000951185462   -0.05696579930758208   -0.03463050378960382
-0.5227000951185462   -0.05696579930758208   -0.03463050378960382
-0.5227000951185462   -0.05696579930758208   -0.03463050378960382
-0.43976487462797936   -0.012067310227656738   -0.006585247433053429
-0.43976487462797936   -0.012067310227656738   -0.006585247433053429
-0.43976487462797936   -0.012067310227656738   -0.006585247433053429
-0.43976487462797936   -0.012067310227656738   -0.006585247433053429
-0.49026742711297716   0.02136956673228836   0.04919747019837051
-0.49026742711297716   0.02136956673228836   0.04919747019837051
-0.49026742711297716   0.02136956673228836   0.04919747019837051
-0.49026742711297716   0.02136956673228836   0.04919747019837051
-0.4013844108562767   -0.03192909974351614   -0.0307626902315436
-0.4013844108562767   -0.03192909974351614   -0.0307626902315436
-0.4013844108562767   -0.03192909974351614   -0.0307626902315436
-0.4013844108562767   -0.03192909974351614   -0.0307626902315436
-0.362040172157699   0.05560815170160199   0.037226553583670316
-0.362040172157699   0.05560815170160199   0.037226553583670316
-0.362040172157699   0.05560815170160199   0.037226553583670316
-0.362040172157699   0.05560815170160199   0.037226553583670316
-0.49866953839834577   -0.0439759434553625   -0.043249198832909494
-0.49866953839834577   -0.0439759434553625   -0.043249198832909494
-0.49866953839834577   -0.0439759434553625   -0.043249198832909494
-0.49866953839834577   -0.0439759434553625   -0.043249198832909494
-0.42720174846434444   0.002927128339923382   0.0029938951459649588
-0.42720174846434444   0.002927128339923382   0.0029938951459649588
-0.42720174846434444   0.002927128339923382   0.0029938951459649588
-0.42720174846434444   0.002927128339923382   0.0029938951459649588
-0.4662218119848151   0.03527434247943343   0.0397391472999437
-0.4662218119848151   0.03527434247943343   0.0397391472999437
-0.4662218119848151   0.03527434247943343   0.0397391472999437
-0.4662218119848151   0.03527434247943343   0.0397391472999437
-0.3923512851091942   -0.021505520771158543   -0.03721533870104134
-0.3923512851091942   -0.021505520771158543   -0.03721533870104134
-0.3923512851091942   -0.021505520771158543   -0.03721533870104134
-0.3923512851091942   -0.021505520771158543   -0.03721533870104134
-0.3546230296656404   0.06991134598868763   0.03210426305060264
-0.3546230296656404   0.06991134598868763   0.03210426305060264
-0.3546230296656404   0.06991134598868763   0.03210426305060264
-0.3546230296656404   0.06991134598868763   0.03210426305060264
-0.46639053307618944   -0.023174038242408882   -0.05004374414027185
-0.46639053307618944   -0.023174038242408882   -0.05004374414027185
-0.46639053307618944   -0.023174038242408882   -0.05004374414027185
-0.46639053307618944   -0.023174038242408882   -0.05004374414027185
-0.40187341490265377   0.01772805365144876   0.01486565115227187
-0.40187341490265377   0.01772805365144876   0.01486565115227187
-0.40187341490265377   0.01772805365144876   0.01486565115227187
-0.40187341490265377   0.01772805365144876   0.01486565115227187
-0.39567598135219095   -0.029694281445397742   0.024365067242233265
-0.39567598135219095   -0.029694281445397742   0.024365067242233265
-0.39567598135219095   -0.029694281445397742   0.024365067242233265
-0.39567598135219095   -0.029694281445397742   0.024365067242233265
-0.29112260564346415   -0.039550126878723856   -0.00752403022536581
-0.29112260564346415   -0.039550126878723856   -0.00752403022536581
-0.29112260564346415   -0.039550126878723856   -0.00752403022536581
-0.29112260564346415   -0.039550126878723856   -0.00752403022536581
-0.26944995126464366   0.020046974497937062   0.022509169478678356
-0.26944995126464366   0.020046974497937062   0.022509169478678356
-0.26944995126464366   0.020046974497937062   0.022509169478678356
-0.26944995126464366   0.020046974497937062   0.022509169478678356
-0.40159010759674085   -0.04203079776555098   -0.02168947591182982
-0.40159010759674085   -0.04203079776555098   -0.02168947591182982
-0.40159010759674085   -0.04203079776555098   -0.02168947591182982
-0.40159010759674085   -0.04203079776555098   -0.02168947591182982
-0.3385377415209414   -0.020999308824772283   -0.009156119981405586
-0.3385377415209414   -0.020999308824772283   -0.009156119981405586
-0.3385377415209414   -0.020999308824772283   -0.009156119981405586
-0.3385377415209414   -0.020999308824772283   -0.009156119981405586
-0.38539892303195444   -0.0034979366016260373   0.02073358574817362
-0.38539892303195444   -0.0034979366016260373   0.02073358574817362
-0.38539892303195444   -0.0034979366016260373   0.02073358574817362
-0.38539892303195444   -0.0034979366016260373   0.02073358574817362
-0.2838187270973008   -0.016663477933858917   -0.012624257252809572
-0.2838187270973008   -0.016663477933858917   -0.012624257252809572
-0.2838187270973008   -0.016663477933858917   -0.012624257252809572
-0.2838187270973008   -0.016663477933858917   -0.012624257252809572
-0.26154557633656905   0.04337142792553349   0.017998923170764125
-0.26154557633656905   0.04337142792553349   0.017998923170764125
-0.26154557633656905   0.04337142792553349   0.017998923170764125
-0.26154557633656905   0.04337142792553349   0.017998923170764125
-0.3897258820120372   -0.019623899560348768   -0.025969944426062222
-0.3897258820120372   -0.019623899560348768   -0.025969944426062222
-0.3897258820120372   -0.019623899560348768   -0.025969944426062222
-0.3897258820120372   -0.019623899560348768   -0.025969944426062222
-0.327089391804999   0.0014720525807132324   0.0009081579607125023
-0.327089391804999   0.0014720525807132324   0.0009081579607125023
-0.327089391804999   0.0014720525807132324   0.0009081579607125023
-0.327089391804999   0.0014720525807132324   0.0009081579607125023
-0.3725836373650906   0.02132292244611601   0.018794456802198267
-0.3725836373650906   0.02132292244611601   0.018794456802198267
-0.3725836373650906   0.02132292244611601   0.018794456802198267
-0.3725836373650906   0.02132292244611601   0.018794456802198267
-0.2765840340914683   0.0045283928111147925   -0.01835033048931327
-0.2765840340914683   0.0045283928111147925   -0.01835033048931327
-0.2765840340914683   0.0045283928111147925   -0.01835033048931327
-0.2765840340914683   0.0045283928111147925   -0.01835033048931327
-0.2536656860079596   0.068704722238165   0.013703010938312568
-0.2536656860079596   0.068704722238165   0.013703010938312568
-0.2536656860079596   0.068704722238165   0.013703010938312568
-0.2536656860079596   0.068704722238165   0.013703010938312568
-0.37994505751721347   0.004865382341534767   -0.029459912560106133
-0.37994505751721347   0.004865382341534767   -0.029459912560106133
-0.37994505751721347   0.004865382341534767   -0.029459912560106133
-0.37994505751721347   0.004865382341534767   -0.029459912560106133
-0.31881626151566733   0.023520320715177068   0.010759254051153425
-0.31881626151566733   0.023520320715177068   0.010759254051153425
-0.31881626151566733   0.023520320715177068   0.010759254051153425
-0.31881626151566733   0.023520320715177068   0.010759254051153425
-0.29075433675125173   -0.049559758437335705   0.004326945794302192
-0.29075433675125173   -0.049559758437335705   0.004326945794302192
-0.29075433675125173   -0.049559758437335705   0.004326945794302192
-0.29075433675125173   -0.049559758437335705   0.004326945794302192
-0.1736733344809321   -0.02095629586665791   0.010662260307553857
-0.1736733344809321   -0.02095629586665791   0.010662260307553857
-0.1736733344809321   -0.02095629586665791   0.010662260307553857
-0.1736733344809321   -0.02095629586665791   0.010662260307553857
-0.16780386348649048   -0.0005400161649991818   0.001369672864257071
-0.16780386348649048   -0.0005400161649991818   0.001369672864257071
-0.16780386348649048   -0.0005400161649991818   0.001369672864257071
-0.16780386348649048   -0.0005400161649991818   0.001369672864257071
-0.28297372690018896   -0.022565420916787014   -0.0024973132843237877
-0.28297372690018896   -0.022565420916787014   -0.0024973132843237877
-0.28297372690018896   -0.022565420916787014   -0.0024973132843237877
-0.28297372690018896   -0.022565420916787014   -0.0024973132843237877
-0.22916659585520024   -0.02230849782360148   -0.006673649951278705
-0.22916659585520024   -0.02230849782360148   -0.006673649951278705
-0.22916659585520024   -0.02230849782360148   -0.006673649951278705
-0.22916659585520024   -0.02230849782360148   -0.006673649951278705
-0.28262892928540184   -0.023705594269223643   0.0003668481420461417
-0.28262892928540184   -0.023705594269223643   0.0003668481420461417
-0.28262892928540184   -0.023705594269223643   0.0003668481420461417
-0.28262892928540184   -0.023705594269223643   0.0003668481420461417
-0.16633583089441903   0.0024129873942954055   0.0057568322653184165
-0.16633583089441903   0.0024129873942954055   0.0057568322653184165
-0.16633583089441903   0.0024129873942954055   0.0057568322653184165
-0.16633583089441903   0.0024129873942954055   0.0057568322653184165
-0.15921268298067479   0.025541766676312125   -0.0023195405784106095
-0.15921268298067479   0.025541766676312125   -0.0023195405784106095
-0.15921268298067479   0.025541766676312125   -0.0023195405784106095
-0.15921268298067479   0.025541766676312125   -0.0023195405784106095
-0.27505423807829377   0.0011380885415907555   -0.00731104615391822
-0.27505423807829377   0.0011380885415907555   -0.00731104615391822
-0.27505423807829377   0.0011380885415907555   -0.00731104615391822
-0.27505423807829377   0.0011380885415907555   -0.00731104615391822
-0.22010161014930993   0.0011321359077183669   0.0030905683085069233
-0.22010161014930993   0.0011321359077183669   0.0030905683085069233
-0.22010161014930993   0.0011321359077183669   0.0030905683085069233
-0.22010161014930993   0.0011321359077183669   0.0030905683085069233
-0.2740931030952531   0.0022967785247111263   -0.0036640612218372948
-0.2740931030952531   0.0022967785247111263   -0.0036640612218372948
-0.2740931030952531   0.0022967785247111263   -0.0036640612218372948
-0.2740931030952531   0.0022967785247111263   -0.0036640612218372948
-0.15853406219643934   0.0260228324604673   0.0005924975586100861
-0.15853406219643934   0.0260228324604673   0.0005924975586100861
-0.15853406219643934   0.0260228324604673   0.0005924975586100861
-0.15853406219643934   0.0260228324604673   0.0005924975586100861
-0.1510972521006214   0.0518645415682855   -0.0065223544452146925
-0.1510972521006214   0.0518645415682855   -0.0065223544452146925
-0.1510972521006214   0.0518645415682855   -0.0065223544452146925
-0.1510972521006214   0.0518645415682855   -0.0065223544452146925
-0.2676347637491248   0.02502374954476698   -0.01246140507411414
-0.2676347637491248   0.02502374954476698   -0.01246140507411414
-0.2676347637491248   0.02502374954476698   -0.01246140507411414
-0.2676347637491248   0.02502374954476698   -0.01246140507411414
-0.21153055934453543   0.024657217220902396   0.01246135511319428
-0.21153055934453543   0.024657217220902396   0.01246135511319428
-0.21153055934453543   0.024657217220902396   0.01246135511319428
-0.21153055934453543   0.024657217220902396   0.01246135511319428
-0.18815916363997992   -0.06677483118408717   -0.0159483501702588
-0.18815916363997992   -0.06677483118408717   -0.0159483501702588
-0.18815916363997992   -0.06677483118408717   -0.0159483501702588
-0.18815916363997992   -0.06677483118408717   -0.0159483501702588
-0.059647304427206525   -0.0012169024494254038   0.027945773224854673
-0.059647304427206525   -0.0012169024494254038   0.027945773224854673
-0.059647304427206525   -0.0012169024494254038   0.027945773224854673
-0.059647304427206525   -0.0012169024494254038   0.027945773224854673
-0.06764760121010654   -0.020021325168959513   -0.020624815694885223
-0.06764760121010654   -0.020021325168959513   -0.020624815694885223
-0.06764760121010654   -0.020021325168959513   -0.020624815694885223
-0.06764760121010654   -0.020021325168959513   -0.020624815694885223
-0.1652737026979697   -0.0025441543296812613   0.016024614971541666
-0.1652737026979697   -0.0025441543296812613   0.016024614971541666
-0.1652737026979697   -0.0025441543296812613   0.016024614971541666
-0.1652737026979697   -0.0025441543296812613   0.016024614971541666
-0.1201463050852738   -0.021653483608473127   -0.0048178543108048436
-0.1201463050852738   -0.021653483608473127   -0.0048178543108048436
-0.1201463050852738   -0.021653483608473127   -0.0048178543108048436
-0.1201463050852738   -0.021653483608473127   -0.0048178543108048436
-0.18050871622524037   -0.042506255359923396   -0.02018835163457083
-0.18050871622524037   -0.042506255359923396   -0.02018835163457083
-0.18050871622524037   -0.042506255359923396   -0.02018835163457083
-0.18050871622524037   -0.042506255359923396   -0.02018835163457083
-0.05038217583376646   0.021971187710351826   0.023709798307503843
-0.05038217583376646   0.021971187710351826   0.023709798307503843
-0.05038217583376646   0.021971187710351826   0.023709798307503843
-0.05038217583376646   0.021971187710351826   0.023709798307503843
-0.0550569800230172   0.004650894950962771   -0.02322107335182473
-0.0550569800230172   0.004650894950962771   -0.02322107335182473
-0.0550569800230172   0.004650894950962771   -0.02322107335182473
-0.0550569800230172   0.004650894950962771   -0.02322107335182473
-0.1579706342342501   0.018737663092942017   0.010694806737081522
-0.1579706342342501   0.018737663092942017   0.010694806737081522
-0.1579706342342501   0.018737663092942017   0.010694806737081522
-0.1579706342342501   0.018737663092942017   0.010694806737081522
-0.11049113561102046   0.00018784877976653954   0.005136187390018369
-0.11049113561102046   0.00018784877976653954   0.005136187390018369
-0.11049113561102046   0.00018784877976653954   0.005136187390018369
-0.11049113561102046   0.00018784877976653954   0.005136187390018369
-0.17272161653161983   -0.019251921676462544   -0.02507051998036399
-0.17272161653161983   -0.019251921676462544   -0.02507051998036399
-0.17272161653161983   -0.019251921676462544   -0.02507051998036399
-0.17272161653161983   -0.019251921676462544   -0.02507051998036399
-0.03841562022658452   0.0445308572194326   0.020105763361868836
-0.03841562022658452   0.0445308572194326   0.020105763361868836
-0.03841562022658452   0.0445308572194326   0.020105763361868836
-0.03841562022658452   0.0445308572194326   0.020105763361868836
-0.04440925647987995   0.03218775478075239   -0.026019740479047652
-0.04440925647987995   0.03218775478075239   -0.026019740479047652
-0.04440925647987995   0.03218775478075239   -0.026019740479047652
-0.04440925647987995   0.03218775478075239   -0.026019740479047652
-0.1504939176530359   0.042802416154834086   0.005556443206164129
-0.1504939176530359   0.042802416154834086   0.005556443206164129
-0.1504939176530359   0.042802416154834086   0.005556443206164129
-0.1504939176530359   0.042802416154834086   0.005556443206164129
-0.10051039388871347   0.02293424227825243   0.015084293932488148
-0.10051039388871347   0.02293424227825243   0.015084293932488148
-0.10051039388871347   0.02293424227825243   0.015084293932488148
-0.10051039388871347   0.02293424227825243   0.015084293932488148
-0.08629028232895976   -0.07178077654039569   -0.034705242192943096
-0.08629028232895976   -0.07178077654039569   -0.034705242192943096
-0.08629028232895976   -0.07178077654039569   -0.034705242192943096
-0.08629028232895976   -0.07178077654039569   -0.034705242192943096
0.02600741587273609   0.021005316857278706   0.042683991748292405
0.02600741587273609   0.021005316857278706   0.042683991748292405
0.02600741587273609   0.021005316857278706   0.042683991748292405
0.02600741587273609   0.021005316857278706   0.042683991748292405
0.02615783826713074   -0.03554496708017993   -0.04597602286034456
0.02615783826713074   -0.03554496708017993   -0.04597602286034456
0.02615783826713074   -0.03554496708017993   -0.04597602286034456
0.02615783826713074   -0.03554496708017993   -0.04597602286034456
-0.04809299037451374   0.02218908065736748   0.03493783265675181
-0.04809299037451374   0.02218908065736748   0.03493783265675181
-0.04809299037451374   0.02218908065736748   0.03493783265675181
-0.04809299037451374   0.02218908065736748   0.03493783265675181
-0.021383516155081325   -0.015309316049237498   -0.008064501849379211
-0.021383516155081325   -0.015309316049237498   -0.008064501849379211
-0.021383516155081325   -0.015309316049237498   -0.008064501849379211
-0.021383516155081325   -0.015309316049237498   -0.008064501849379211
-0.07855407740230508   -0.05527320833913551   -0.03990531348570196
-0.07855407740230508   -0.05527320833913551   -0.03990531348570196
-0.07855407740230508   -0.05527320833913551   -0.03990531348570196
-0.07855407740230508   -0.05527320833913551   -0.03990531348570196
0.05878857421518749   0.04408697083659356   0.03754571896316569
0.05878857421518749   0.04408697083659356   0.03754571896316569
0.05878857421518749   0.04408697083659356   0.03754571896316569
0.05878857421518749   0.04408697083659356   0.03754571896316569
0.050308288670577385   -0.021422213137920063   -0.054633250837240355
0.050308288670577385   -0.021422213137920063   -0.054633250837240355
0.050308288670577385   -0.021422213137920063   -0.054633250837240355
0.050308288670577385   -0.021422213137920063   -0.054633250837240355
-0.03924954359564434   0.03243743043578702   0.028029573300215306
-0.03924954359564434   0.03243743043578702   0.028029573300215306
-0.03924954359564434   0.03243743043578702   0.028029573300215306
-0.03924954359564434   0.03243743043578702   0.028029573300215306
-0.0015701745371054416   -0.000768910614006694   0.0027116156177367768
-0.0015701745371054416   -0.000768910614006694   0.0027116156177367768
-0.0015701745371054416   -0.000768910614006694   0.0027116156177367768
-0.0015701745371054416   -0.000768910614006694   0.0027116156177367768
-0.06930678839310886   -0.04365201869456364   -0.04616720155675664
-0.06930678839310886   -0.04365201869456364   -0.04616720155675664
-0.06930678839310886   -0.04365201869456364   -0.04616720155675664
-0.06930678839310886   -0.04365201869456364   -0.04616720155675664
0.0825389574696559   0.05684065999404139   0.02825722002618689
0.0825389574696559   0.05684065999404139   0.02825722002618689
0.0825389574696559   0.05684065999404139   0.02825722002618689
0.0825389574696559   0.05684065999404139   0.02825722002618689
0.08419265606226353   0.006206538913438395   -0.058524039259444355
0.08419265606226353   0.006206538913438395   -0.058524039259444355
0.08419265606226353   0.006206538913438395   -0.058524039259444355
0.08419265606226353   0.006206538913438395   -0.058524039259444355
-0.030991263076650948   0.05047793164156727   0.022780049676282485
-0.030991263076650948   0.05047793164156727   0.022780049676282485
-0.030991263076650948   0.05047793164156727   0.022780049676282485
-0.030991263076650948   0.05047793164156727   0.022780049676282485
0.016353693504807844   0.01449057636134335   0.013260449824094802
0.016353693504807844   0.01449057636134335   0.013260449824094802
0.016353693504807844   0.01449057636134335   0.013260449824094802
0.016353693504807844   0.01449057636134335   0.013260449824094802
-0.17277472323151488   0.010136005269600592   0.04877493150323896
-0.17277472323151488   0.010136005269600592   0.04877493150323896
-0.17277472323151488   0.010136005269600592   0.04877493150323896
-0.17277472323151488   0.010136005269600592   0.04877493150323896
-0.20671903246468637   -0.06351791192310248   -0.028683605165743885
-0.20671903246468637   -0.06351791192310248   -0.028683605165743885
-0.20671903246468637   -0.06351791192310248   -0.028683605165743885
-0.20671903246468637   -0.06351791192310248   -0.028683605165743885
-0.16504072087343014   0.029476550517239984   0.03992187108939051
-0.16504072087343014   0.029476550517239984   0.03992187108939051
-0.16504072087343014   0.029476550517239984   0.03992187108939051
-0.16504072087343014   0.029476550517239984   0.03992187108939051
-0.16781446462109786   -0.04159615285836142   -0.036991349933051816
-0.16781446462109786   -0.04159615285836142   -0.036991349933051816
-0.16781446462109786   -0.04159615285836142   -0.036991349933051816
-0.16781446462109786   -0.04159615285836142   -0.036991349933051816
-0.17362750296804164   -0.013347912972923003   -0.013401929462674461
-0.17362750296804164   -0.013347912972923003   -0.013401929462674461
-0.17362750296804164   -0.013347912972923003   -0.013401929462674461
-0.17362750296804164   -0.013347912972923003   -0.013401929462674461
-0.13572434395538355   0.03644005982533573   0.0454230407118226
-0.13572434395538355   0.03644005982533573   0.0454230407118226
-0.13572434395538355   0.03644005982533573   0.0454230407118226
-0.13572434395538355   0.03644005982533573   0.0454230407118226
-0.1951106256094616   -0.046539446236774286   -0.03441165583675241
-0.1951106256094616   -0.046539446236774286   -0.03441165583675241
-0.1951106256094616   -0.046539446236774286   -0.03441165583675241
-0.1951106256094616   -0.046539446236774286   -0.03441165583675241
-0.15224829586919117   0.04067522433329757   0.03358539758123624
-0.15224829586919117   0.04067522433329757   0.03358539758123624
-0.15224829586919117   0.04067522433329757   0.03358539758123624
-0.15224829586919117   0.04067522433329757   0.03358539758123624
-0.14029566051900705   -0.028940195375722528   -0.046056546131335634
-0.14029566051900705   -0.028940195375722528   -0.046056546131335634
-0.14029566051900705   -0.028940195375722528   -0.046056546131335634
-0.14029566051900705   -0.028940195375722528   -0.046056546131335634
-0.15332845211507123   0.0009505891989246354   -0.0028460301842816657
-0.15332845211507123   0.0009505891989246354   -0.0028460301842816657
-0.15332845211507123   0.0009505891989246354   -0.0028460301842816657
-0.15332845211507123   0.0009505891989246354   -0.0028460301842816657
-0.10803007632112298   0.050056687185946386   0.03627449229641211
-0.10803007632112298   0.050056687185946386   0.03627449229641211
-0.10803007632112298   0.050056687185946386   0.03627449229641211
-0.10803007632112298   0.050056687185946386   0.03627449229641211
-0.18261160315121355   -0.03641938131251027   -0.04113653318306785
-0.18261160315121355   -0.03641938131251027   -0.04113653318306785
-0.18261160315121355   -0.03641938131251027   -0.04113653318306785
-0.18261160315121355   -0.03641938131251027   -0.04113653318306785
-0.14055431281837522   0.05780311106195746   0.029005782123745657
-0.14055431281837522   0.05780311106195746   0.029005782123745657
-0.14055431281837522   0.05780311106195746   0.029005782123745657
-0.14055431281837522   0.05780311106195746   0.029005782123745657
-0.10355848200880535   -0.004885272653529872   -0.05187684614066748
-0.10355848200880535   -0.004885272653529872   -0.05187684614066748
-0.10355848200880535   -0.004885272653529872   -0.05187684614066748
-0.10355848200880535   -0.004885272653529872   -0.05187684614066748
-0.12895124330936458   0.015905796026083142   0.008444551390840726
-0.12895124330936458   0.015905796026083142   0.008444551390840726
-0.12895124330936458   0.015905796026083142   0.008444551390840726
-0.12895124330936458   0.015905796026083142   0.008444551390840726
-0.18497250298111045   -0.011257561862811124   0.027788692191844225
-0.18497250298111045   -0.011257561862811124   0.027788692191844225
-0.18497250298111045   -0.011257561862811124   0.027788692191844225
-0.18497250298111045   -0.011257561862811124   0.027788692191844225
-0.23050112189395938   -0.05181691832179364   -0.01120478229422249
-0.23050112189395938   -0.05181691832179364   -0.01120478229422249
-0.23050112189395938   -0.05181691832179364   -0.01120478229422249
-0.23050112189395938   -0.05181691832179364   -0.01120478229422249
-0.2056160454631636   0.005207678417522146   0.01852884286994312
-0.2056160454631636   0.005207678417522146   0.01852884286994312
-0.2056160454631636   0.005207678417522146   0.01852884286994312
-0.2056160454631636   0.005207678417522146   0.01852884286994312
-0.187177226568768   -0.024343704390099197   -0.01694040247995955
-0.187177226568768   -0.024343704390099197   -0.01694040247995955
-0.187177226568768   -0.024343704390099197   -0.01694040247995955
-0.187177226568768   -0.024343704390099197   -0.01694040247995955
-0.20222506667332724   -0.01896940172867073   -0.009402023630277631
-0.20222506667332724   -0.01896940172867073   -0.009402023630277631
-0.20222506667332724   -0.01896940172867073   -0.009402023630277631
-0.20222506667332724   -0.01896940172867073   -0.009402023630277631
-0.171432358320678   0.013188911788423442   0.024251322581964045
-0.171432358320678   0.013188911788423442   0.024251322581964045
-0.171432358320678   0.013188911788423442   0.024251322581964045
-0.171432358320678   0.013188911788423442   0.024251322581964045
-0.2197775613279754   -0.030741585377718143   -0.016329472658877596
-0.2197775613279754   -0.030741585377718143   -0.016329472658877596
-0.2197775613279754   -0.030741585377718143   -0.016329472658877596
-0.2197775613279754   -0.030741585377718143   -0.016329472658877596
-0.1941987939914472   0.02750207491667206   0.014132839938467347
-0.1941987939914472   0.02750207491667206   0.014132839938467347
-0.1941987939914472   0.02750207491667206   0.014132839938467347
-0.1941987939914472   0.02750207491667206   0.014132839938467347
-0.17188155180881978   -0.002873088295283681   -0.02103256948832554
-0.17188155180881978   -0.002873088295283681   -0.02103256948832554
-0.17188155180881978   -0.002873088295283681   -0.02103256948832554
-0.17188155180881978   -0.002873088295283681   -0.02103256948832554
-0.18857336194190655   0.0018190417596041179   0.0003360403035570503
-0.18857336194190655   0.0018190417596041179   0.0003360403035570503
-0.18857336194190655   0.0018190417596041179   0.0003360403035570503
-0.18857336194190655   0.0018190417596041179   0.0003360403035570503
-0.15536955355724846   0.036810184758889836   0.021844148715357486
-0.15536955355724846   0.036810184758889836   0.021844148715357486
-0.15536955355724846   0.036810184758889836   0.021844148715357486
-0.15536955355724846   0.036810184758889836   0.021844148715357486
-0.2090227190930828   -0.010493124987566008   -0.021991585665474187
-0.2090227190930828   -0.010493124987566008   -0.021991585665474187
-0.2090227190930828   -0.010493124987566008   -0.021991585665474187
-0.2090227190930828   -0.010493124987566008   -0.021991585665474187
-0.18272462114740573   0.052192319619763325   0.009954337461228945
-0.18272462114740573   0.052192319619763325   0.009954337461228945
-0.18272462114740573   0.052192319619763325   0.009954337461228945
-0.18272462114740573   0.052192319619763325   0.009954337461228945
-0.1586968989118866   0.02097139899237229   -0.02487543627422594
-0.1586968989118866   0.02097139899237229   -0.02487543627422594
-0.1586968989118866   0.02097139899237229   -0.02487543627422594
-0.1586968989118866   0.02097139899237229   -0.02487543627422594
-0.17566506964666226   0.023303790830607143   0.010253180246690134
-0.17566506964666226   0.023303790830607143   0.010253180246690134
-0.17566506964666226   0.023303790830607143   0.010253180246690134
-0.17566506964666226   0.023303790830607143   0.010253180246690134
-0.2225918588433146   -0.03130627489433695   0.007830889531541103
-0.2225918588433146   -0.03130627489433695   0.007830889531541103
-0.2225918588433146   -0.03130627489433695   0.007830889531541103
-0.2225918588433146   -0.03130627489433695   0.007830889531541103
-0.2541629153279786   -0.03281241560025521   0.006766506364811381
-0.2541629153279786   -0.03281241560025521   0.006766506364811381
-0.2541629153279786   -0.03281241560025521   0.006766506364811381
-0.2541629153279786   -0.03281241560025521   0.006766506364811381
-0.24503057779937504   -0.014959285704503316   -0.002409786323703811
-0.24503057779937504   -0.014959285704503316   -0.002409786323703811
-0.24503057779937504   -0.014959285704503316   -0.002409786323703811
-0.24503057779937504   -0.014959285704503316   -0.002409786323703811
-0.21079995443752003   -0.0044015487047856326   0.002218525120466601
-0.21079995443752003   -0.0044015487047856326   0.002218525120466601
-0.21079995443752003   -0.0044015487047856326   0.002218525120466601
-0.21079995443752003   -0.0044015487047856326   0.002218525120466601
-0.23349626886409292   -0.019687319833008296   -0.006248598647807385
-0.23349626886409292   -0.019687319833008296   -0.006248598647807385
-0.23349626886409292   -0.019687319833008296   -0.006248598647807385
-0.23349626886409292   -0.019687319833008296   -0.006248598647807385
-0.21095900778030235   -0.00688222707966212   0.0039039367814294804
-0.21095900778030235   -0.00688222707966212   0.0039039367814294804
-0.21095900778030235   -0.00688222707966212   0.0039039367814294804
-0.21095900778030235   -0.00688222707966212   0.0039039367814294804
-0.2433774643019902   -0.010984547175024601   0.0018810426337418779
-0.2433774643019902   -0.010984547175024601   0.0018810426337418779
-0.2433774643019902   -0.010984547175024601   0.0018810426337418779
-0.2433774643019902   -0.010984547175024601   0.0018810426337418779
-0.23303187841880604   0.009783098708946175   -0.006108354976628837
-0.23303187841880604   0.009783098708946175   -0.006108354976628837
-0.23303187841880604   0.009783098708946175   -0.006108354976628837
-0.23303187841880604   0.009783098708946175   -0.006108354976628837
-0.19942104156163487   0.018027940528553957   -0.0025042635243546912
-0.19942104156163487   0.018027940528553957   -0.0025042635243546912
-0.19942104156163487   0.018027940528553957   -0.0025042635243546912
-0.19942104156163487   0.018027940528553957   -0.0025042635243546912
-0.22095799743363498   0.002422315559018248   0.0033702909949735044
-0.22095799743363498   0.002422315559018248   0.0033702909949735044
-0.22095799743363498   0.002422315559018248   0.0033702909949735044
-0.22095799743363498   0.002422315559018248   0.0033702909949735044
-0.19900865685975197   0.017772111765670923   -0.00018651125205915858
-0.19900865685975197   0.017772111765670923   -0.00018651125205915858
-0.19900865685975197   0.017772111765670923   -0.00018651125205915858
-0.19900865685975197   0.017772111765670923   -0.00018651125205915858
-0.2321402143642348   0.011342976228282677   -0.0032099122231111707
-0.2321402143642348   0.011342976228282677   -0.0032099122231111707
-0.2321402143642348   0.011342976228282677   -0.0032099122231111707
-0.2321402143642348   0.011342976228282677   -0.0032099122231111707
-0.22154226390192355   0.034678946535535445   -0.010277919967473122
-0.22154226390192355   0.034678946535535445   -0.010277919967473122
-0.22154226390192355   0.034678946535535445   -0.010277919967473122
-0.22154226390192355   0.034678946535535445   -0.010277919967473122
-0.18858312990884876   0.04054929675407627   -0.0076951834802989234
-0.18858312990884876   0.04054929675407627   -0.0076951834802989234
-0.18858312990884876   0.04054929675407627   -0.0076951834802989234
-0.18858312990884876   0.04054929675407627   -0.0076951834802989234
-0.20900388495080874   0.024573099581358733   0.012538558057622683
-0.20900388495080874   0.024573099581358733   0.012538558057622683
-0.20900388495080874   0.024573099581358733   0.012538558057622683
-0.20900388495080874   0.024573099581358733   0.012538558057622683
-0.26141759548762245   -0.049686647761010554   -0.012632662272655124
-0.26141759548762245   -0.049686647761010554   -0.012632662272655124
-0.26141759548762245   -0.049686647761010554   -0.012632662272655124
-0.26141759548762245   -0.049686647761010554   -0.012632662272655124
-0.2798938684506793   -0.014195858612970354   0.02393061567372398
-0.2798938684506793   -0.014195858612970354   0.02393061567372398
-0.2798938684506793   -0.014195858612970354   0.02393061567372398
-0.2798938684506793   -0.014195858612970354   0.02393061567372398
-0.2844610696912814   -0.034313823531528086   -0.02363636404438082
-0.2844610696912814   -0.034313823531528086   -0.02363636404438082
-0.2844610696912814   -0.034313823531528086   -0.02363636404438082
-0.2844610696912814   -0.034313823531528086   -0.02363636404438082
-0.23453872150370514   0.014863651000354746   0.02022655844978767
-0.23453872150370514   0.014863651000354746   0.02022655844978767
-0.23453872150370514   0.014863651000354746   0.02022655844978767
-0.23453872150370514   0.014863651000354746   0.02022655844978767
-0.2639673974456846   -0.01949110216250619   -0.003930966937936459
-0.2639673974456846   -0.01949110216250619   -0.003930966937936459
-0.2639673974456846   -0.01949110216250619   -0.003930966937936459
-0.2639673974456846   -0.01949110216250619   -0.003930966937936459
-0.2501055526094403   -0.026053530434992388   -0.016690415643543392
-0.2501055526094403   -0.026053530434992388   -0.016690415643543392
-0.2501055526094403   -0.026053530434992388   -0.016690415643543392
-0.2501055526094403   -0.026053530434992388   -0.016690415643543392
-0.2673278759105033   0.008169720578861527   0.01954606074911973
-0.2673278759105033   0.008169720578861527   0.01954606074911973
-0.2673278759105033   0.008169720578861527   0.01954606074911973
-0.2673278759105033   0.008169720578861527   0.01954606074911973
-0.2687089190045811   -0.010853034148211795   -0.026520394698371814
-0.2687089190045811   -0.010853034148211795   -0.026520394698371814
-0.2687089190045811   -0.010853034148211795   -0.026520394698371814
-0.2687089190045811   -0.010853034148211795   -0.026520394698371814
-0.22374412561828766   0.0350907399411833   0.015022767793723961
-0.22374412561828766   0.0350907399411833   0.015022767793723961
-0.22374412561828766   0.0350907399411833   0.015022767793723961
-0.22374412561828766   0.0350907399411833   0.015022767793723961
-0.24970203428602003   0.0018070852764399386   0.006001195996861504
-0.24970203428602003   0.0018070852764399386   0.006001195996861504
-0.24970203428602003   0.0018070852764399386   0.006001195996861504
-0.24970203428602003   0.0018070852764399386   0.006001195996861504
-0.23882770460080407   -0.003861324802767025   -0.021443062374909724
-0.23882770460080407   -0.003861324802767025   -0.021443062374909724
-0.23882770460080407   -0.003861324802767025   -0.021443062374909724
-0.23882770460080407   -0.003861324802767025   -0.021443062374909724
-0.25204241389824417   0.02968195671956161   0.01627713996554131
-0.25204241389824417   0.02968195671956161   0.01627713996554131
-0.25204241389824417   0.02968195671956161   0.01627713996554131
-0.25204241389824417   0.02968195671956161   0.01627713996554131
-0.2549285671056559   0.01498291472032063   -0.029106414513767838
-0.2549285671056559   0.01498291472032063   -0.029106414513767838
-0.2549285671056559   0.01498291472032063   -0.029106414513767838
-0.2549285671056559   0.01498291472032063   -0.029106414513767838
-0.21292010292146973   0.05762193054212135   0.00988990092820996
-0.21292010292146973   0.05762193054212135   0.00988990092820996
-0.21292010292146973   0.05762193054212135   0.00988990092820996
-0.21292010292146973   0.05762193054212135   0.00988990092820996
-0.23761180563642093   0.022924614073518982   0.015492014509072477
-0.23761180563642093   0.022924614073518982   0.015492014509072477
-0.23761180563642093   0.022924614073518982   0.015492014509072477
-0.23761180563642093   0.022924614073518982   0.015492014509072477
-0.2999937859772394   -0.05907057331398782   -0.03169425725806476
-0.2999937859772394   -0.05907057331398782   -0.03169425725806476
-0.2999937859772394   -0.05907057331398782   -0.03169425725806476
-0.2999937859772394   -0.05907057331398782   -0.03169425725806476
-0.33268194292541264   0.004349200050815117   0.0431379003284566
-0.33268194292541264   0.004349200050815117   0.0431379003284566
-0.33268194292541264   0.004349200050815117   0.0431379003284566
-0.33268194292541264   0.004349200050815117   0.0431379003284566
-0.328339911272496   -0.04929705985835231   -0.042245949023880215
-0.328339911272496   -0.04929705985835231   -0.042245949023880215
-0.328339911272496   -0.04929705985835231   -0.042245949023880215
-0.328339911272496   -0.04929705985835231   -0.042245949023880215
-0.25768468617100027   0.03726675514436648   0.03866497488112716
-0.25768468617100027   0.03726675514436648   0.03866497488112716
-0.25768468617100027   0.03726675514436648   0.03866497488112716
-0.25768468617100027   0.03726675514436648   0.03866497488112716
-0.2924469768687737   -0.012758129106395111   -0.0018747161777723093
-0.2924469768687737   -0.012758129106395111   -0.0018747161777723093
-0.2924469768687737   -0.012758129106395111   -0.0018747161777723093
-0.2924469768687737   -0.012758129106395111   -0.0018747161777723093
-0.2881311168253564   -0.040055163177838804   -0.03624526006845227
-0.2881311168253564   -0.040055163177838804   -0.03624526006845227
-0.2881311168253564   -0.040055163177838804   -0.03624526006845227
-0.2881311168253564   -0.040055163177838804   -0.03624526006845227
-0.296238140374658   0.029680198707334148   0.03928564689962327
-0.296238140374658   0.029680198707334148   0.03928564689962327
-0.296238140374658   0.029680198707334148   0.03928564689962327
-0.296238140374658   0.029680198707334148   0.03928564689962327
-0.3010782093121124   -0.03560752473903359   -0.05036653685741971
-0.3010782093121124   -0.03560752473903359   -0.05036653685741971
-0.3010782093121124   -0.03560752473903359   -0.05036653685741971
-0.3010782093121124   -0.03560752473903359   -0.05036653685741971
-0.2455212632374436   0.04690950901762096   0.03165534097148318
-0.2455212632374436   0.04690950901762096   0.03165534097148318
-0.2455212632374436   0.04690950901762096   0.03165534097148318
-0.2455212632374436   0.04690950901762096   0.03165534097148318
-0.2740546631083668   0.0015575666807052177   0.007646498169995061
-0.2740546631083668   0.0015575666807052177   0.007646498169995061
-0.2740546631083668   0.0015575666807052177   0.007646498169995061
-0.2740546631083668   0.0015575666807052177   0.007646498169995061
-0.27538133124524533   -0.0287849498034648   -0.041950540246442805
-0.27538133124524533   -0.0287849498034648   -0.041950540246442805
-0.27538133124524533   -0.0287849498034648   -0.041950540246442805
-0.27538133124524533   -0.0287849498034648   -0.041950540246442805
-0.2694825131001163   0.041822562286241524   0.030181857177289356
-0.2694825131001163   0.041822562286241524   0.030181857177289356
-0.2694825131001163   0.041822562286241524   0.030181857177289356
-0.2694825131001163   0.041822562286241524   0.030181857177289356
-0.2652542271852488   -0.011942271766801252   -0.0550580032569622
-0.2652542271852488   -0.011942271766801252   -0.0550580032569622
-0.2652542271852488   -0.011942271766801252   -0.0550580032569622
-0.2652542271852488   -0.011942271766801252   -0.0550580032569622
-0.2346370852537033   0.06126007926314869   0.02607383020316653
-0.2346370852537033   0.06126007926314869   0.02607383020316653
-0.2346370852537033   0.06126007926314869   0.02607383020316653
-0.2346370852537033   0.06126007926314869   0.02607383020316653
-0.24877296260567663   0.015845507319952677   0.01868455716593575
-0.24877296260567663   0.015845507319952677   0.01868455716593575
-0.24877296260567663   0.015845507319952677   0.01868455716593575
-0.24877296260567663   0.015845507319952677   0.01868455716593575
0.18169955059463136   0.02932152339403053   0.0470949883605728
0.18169955059463136   0.02932152339403053   0.0470949883605728
0.18169955059463136   0.02932152339403053   0.0470949883605728
0.18169955059463136   0.02932152339403053   0.0470949883605728
-0.0040330748285483655   -0.07562932771387193   -0.031055104031293235
-0.0040330748285483655   -0.07562932771387193   -0.031055104031293235
-0.0040330748285483655   -0.07562932771387193   -0.031055104031293235
-0.0040330748285483655   -0.07562932771387193   -0.031055104031293235
0.04033200698218868   0.014705675490156705   0.03637132020628296
0.04033200698218868   0.014705675490156705   0.03637132020628296
0.04033200698218868   0.014705675490156705   0.03637132020628296
0.04033200698218868   0.014705675490156705   0.03637132020628296
0.18940493394011532   -0.026312537193075095   -0.03889446788838202
0.18940493394011532   -0.026312537193075095   -0.03889446788838202
0.18940493394011532   -0.026312537193075095   -0.03889446788838202
0.18940493394011532   -0.026312537193075095   -0.03889446788838202
0.09275800148396433   -0.014624248559379037   -0.022469444607045863
0.09275800148396433   -0.014624248559379037   -0.022469444607045863
0.09275800148396433   -0.014624248559379037   -0.022469444607045863
0.09275800148396433   -0.014624248559379037   -0.022469444607045863
0.22137249303491657   0.05213805561496292   0.04249273477758618
0.22137249303491657   0.05213805561496292   0.04249273477758618
0.22137249303491657   0.05213805561496292   0.04249273477758618
0.22137249303491657   0.05213805561496292   0.04249273477758618
0.010339596329296393   -0.06176976887597236   -0.037115288692049414
0.010339596329296393   -0.06176976887597236   -0.037115288692049414
0.010339596329296393   -0.06176976887597236   -0.037115288692049414
0.010339596329296393   -0.06176976887597236   -0.037115288692049414
0.05644027254044765   0.025687065698492082   0.03034382618028271
0.05644027254044765   0.025687065698492082   0.03034382618028271
0.05644027254044765   0.025687065698492082   0.03034382618028271
0.05644027254044765   0.025687065698492082   0.03034382618028271
0.2203484417706434   -0.013909584461475877   -0.04863144344517935
0.2203484417706434   -0.013909584461475877   -0.04863144344517935
0.2203484417706434   -0.013909584461475877   -0.04863144344517935
0.2203484417706434   -0.013909584461475877   -0.04863144344517935
0.12069221223299295   -0.0009437500239384746   -0.01059123555471591
0.12069221223299295   -0.0009437500239384746   -0.01059123555471591
0.12069221223299295   -0.0009437500239384746   -0.01059123555471591
0.12069221223299295   -0.0009437500239384746   -0.01059123555471591
0.252657983376124   0.06555264887809965   0.03345403124264429
0.252657983376124   0.06555264887809965   0.03345403124264429
0.252657983376124   0.06555264887809965   0.03345403124264429
0.252657983376124   0.06555264887809965   0.03345403124264429
0.026058834507184273   -0.05184706406886687   -0.0440292342186752
0.026058834507184273   -0.05184706406886687   -0.0440292342186752
0.026058834507184273   -0.05184706406886687   -0.0440292342186752
0.026058834507184273   -0.05184706406886687   -0.0440292342186752
0.07206923793976762   0.04586702377483143   0.026256916052596727
0.07206923793976762   0.04586702377483143   0.026256916052596727
0.07206923793976762   0.04586702377483143   0.026256916052596727
0.07206923793976762   0.04586702377483143   0.026256916052596727
0.2614352136629955   0.013845250550657436   -0.05362378931113508
0.2614352136629955   0.013845250550657436   -0.05362378931113508
0.2614352136629955   0.013845250550657436   -0.05362378931113508
0.2614352136629955   0.013845250550657436   -0.05362378931113508
0.14408854443902477   0.01440248272233419   0.0006278638657340879
0.14408854443902477   0.01440248272233419   0.0006278638657340879
0.14408854443902477   0.01440248272233419   0.0006278638657340879
0.14408854443902477   0.01440248272233419   0.0006278638657340879
0.02530647008599699   0.007990179248790273   0.03202311357877134
0.02530647008599699   0.007990179248790273   0.03202311357877134
0.02530647008599699   0.007990179248790273   0.03202311357877134
0.02530647008599699   0.007990179248790273   0.03202311357877134
-0.17185092106527525   -0.06423611292191114   -0.01425143267391115
-0.17185092106527525   -0.06423611292191114   -0.01425143267391115
-0.17185092106527525   -0.06423611292191114   -0.01425143267391115
-0.17185092106527525   -0.06423611292191114   -0.01425143267391115
-0.14389503672301018   -0.00937835650426094   0.014604147103473894
-0.14389503672301018   -0.00937835650426094   0.014604147103473894
-0.14389503672301018   -0.00937835650426094   0.014604147103473894
-0.14389503672301018   -0.00937835650426094   0.014604147103473894
0.02641207265251542   -0.007235389133017119   -0.011287286818909517
0.02641207265251542   -0.007235389133017119   -0.011287286818909517
0.02641207265251542   -0.007235389133017119   -0.011287286818909517
0.02641207265251542   -0.007235389133017119   -0.011287286818909517
-0.0674318440964358   -0.01657041168145895   -0.01078690990089412
-0.0674318440964358   -0.01657041168145895   -0.01078690990089412
-0.0674318440964358   -0.01657041168145895   -0.01078690990089412
-0.0674318440964358   -0.01657041168145895   -0.01078690990089412
0.0419068364788178   0.030542847792772443   0.02840829538681281
0.0419068364788178   0.030542847792772443   0.02840829538681281
0.0419068364788178   0.030542847792772443   0.02840829538681281
0.0419068364788178   0.030542847792772443   0.02840829538681281
-0.15794926310645407   -0.045716055987192014   -0.019329285330814516
-0.15794926310645407   -0.045716055987192014   -0.019329285330814516
-0.15794926310645407   -0.045716055987192014   -0.019329285330814516
-0.15794926310645407   -0.045716055987192014   -0.019329285330814516
-0.12921212597261858   0.011930934444967864   0.010318118376730967
-0.12921212597261858   0.011930934444967864   0.010318118376730967
-0.12921212597261858   0.011930934444967864   0.010318118376730967
-0.12921212597261858   0.011930934444967864   0.010318118376730967
0.0447729708573902   0.012974202895603129   -0.015279819432115555
0.0447729708573902   0.012974202895603129   -0.015279819432115555
0.0447729708573902   0.012974202895603129   -0.015279819432115555
0.0447729708573902   0.012974202895603129   -0.015279819432115555
-0.05186616064691383   0.002218090682445816   -0.0013231053410633145
-0.05186616064691383   0.002218090682445816   -0.0013231053410633145
-0.05186616064691383   0.002218090682445816   -0.0013231053410633145
-0.05186616064691383   0.002218090682445816   -0.0013231053410633145
0.06092104898127585   0.05298408381415309   0.025450690268762705
0.06092104898127585   0.05298408381415309   0.025450690268762705
0.06092104898127585   0.05298408381415309   0.025450690268762705
0.06092104898127585   0.05298408381415309   0.025450690268762705
-0.14397282484432475   -0.02669156722140263   -0.024862874315429426
-0.14397282484432475   -0.02669156722140263   -0.024862874315429426
-0.14397282484432475   -0.02669156722140263   -0.024862874315429426
-0.14397282484432475   -0.02669156722140263   -0.024862874315429426
-0.11443952590536349   0.036044475460873616   0.006232573061757594
-0.11443952590536349   0.036044475460873616   0.006232573061757594
-0.11443952590536349   0.036044475460873616   0.006232573061757594
-0.11443952590536349   0.036044475460873616   0.006232573061757594
0.06092449246432476   0.03590575188640668   -0.01950553943619278
0.06092449246432476   0.03590575188640668   -0.01950553943619278
0.06092449246432476   0.03590575188640668   -0.01950553943619278
0.06092449246432476   0.03590575188640668   -0.01950553943619278
-0.034635934705054126   0.022977894990505086   0.008772183362843331
-0.034635934705054126   0.022977894990505086   0.008772183362843331
-0.034635934705054126   0.022977894990505086   0.008772183362843331
-0.034635934705054126   0.022977894990505086   0.008772183362843331
-0.15630220995642902   -0.012285311507692968   0.011541321456103718
-0.15630220995642902   -0.012285311507692968   0.011541321456103718
-0.15630220995642902   -0.012285311507692968   0.011541321456103718
-0.15630220995642902   -0.012285311507692968   0.011541321456103718
-0.3366165933296048   -0.04573407649794299   0.002934977791575741
-0.3366165933296048   -0.04573407649794299   0.002934977791575741
-0.3366165933296048   -0.04573407649794299   0.002934977791575741
-0.3366165933296048   -0.04573407649794299   0.002934977791575741
-0.32377847805863236   -0.02870810735974487   -0.006335744533217308
-0.32377847805863236   -0.02870810735974487   -0.006335744533217308
-0.32377847805863236   -0.02870810735974487   -0.006335744533217308
-0.32377847805863236   -0.02870810735974487   -0.006335744533217308
-0.14112332126404503   0.011952548352767652   0.0071318195412710395
-0.14112332126404503   0.011952548352767652   0.0071318195412710395
-0.14112332126404503   0.011952548352767652   0.0071318195412710395
-0.14112332126404503   0.011952548352767652   0.0071318195412710395
-0.23980436092451457   -0.017169185657595207   -0.006292102063817209
-0.23980436092451457   -0.017169185657595207   -0.006292102063817209
-0.23980436092451457   -0.017169185657595207   -0.006292102063817209
-0.23980436092451457   -0.017169185657595207   -0.006292102063817209
-0.1412976904251458   0.010581419576085714   0.007631102512449091
-0.1412976904251458   0.010581419576085714   0.007631102512449091
-0.1412976904251458   0.010581419576085714   0.007631102512449091
-0.1412976904251458   0.010581419576085714   0.007631102512449091
-0.32236605728455203   -0.0260989269700788   -0.0018828210524848704
-0.32236605728455203   -0.0260989269700788   -0.0018828210524848704
-0.32236605728455203   -0.0260989269700788   -0.0018828210524848704
-0.32236605728455203   -0.0260989269700788   -0.0018828210524848704
-0.30833486930806153   -0.00524653968995209   -0.009962836870458278
-0.30833486930806153   -0.00524653968995209   -0.009962836870458278
-0.30833486930806153   -0.00524653968995209   -0.009962836870458278
-0.30833486930806153   -0.00524653968995209   -0.009962836870458278
-0.1265866349995824   0.03274171349906966   0.002634794187811769
-0.1265866349995824   0.03274171349906966   0.002634794187811769
-0.1265866349995824   0.03274171349906966   0.002634794187811769
-0.1265866349995824   0.03274171349906966   0.002634794187811769
-0.22385600370254355   0.003432747500459764   0.0032464489155470677
-0.22385600370254355   0.003432747500459764   0.0032464489155470677
-0.22385600370254355   0.003432747500459764   0.0032464489155470677
-0.22385600370254355   0.003432747500459764   0.0032464489155470677
-0.12620087818095205   0.033861570221306765   0.0034437215587265133
-0.12620087818095205   0.033861570221306765   0.0034437215587265133
-0.12620087818095205   0.033861570221306765   0.0034437215587265133
-0.12620087818095205   0.033861570221306765   0.0034437215587265133
-0.30772940789588515   -0.005375178181382941   -0.006806891318148517
-0.30772940789588515   -0.005375178181382941   -0.006806891318148517
-0.30772940789588515   -0.005375178181382941   -0.006806891318148517
-0.30772940789588515   -0.005375178181382941   -0.006806891318148517
-0.29351357899629826   0.01828292453501058   -0.01409659548817789
-0.29351357899629826   0.01828292453501058   -0.01409659548817789
-0.29351357899629826   0.01828292453501058   -0.01409659548817789
-0.29351357899629826   0.01828292453501058   -0.01409659548817789
-0.1126863104318293   0.05359198656579498   -0.002548860675490811
-0.1126863104318293   0.05359198656579498   -0.002548860675490811
-0.1126863104318293   0.05359198656579498   -0.002548860675490811
-0.1126863104318293   0.05359198656579498   -0.002548860675490811
-0.20874378862920212   0.023979673363179764   0.012162469918210309
-0.20874378862920212   0.023979673363179764   0.012162469918210309
-0.20874378862920212   0.023979673363179764   0.012162469918210309
-0.20874378862920212   0.023979673363179764   0.012162469918210309
-0.3364079805167913   -0.03219667590783081   -0.009559358734466283
-0.3364079805167913   -0.03219667590783081   -0.009559358734466283
-0.3364079805167913   -0.03219667590783081   -0.009559358734466283
-0.3364079805167913   -0.03219667590783081   -0.009559358734466283
-0.4998081117055052   -0.02834034272233056   0.019798222472153
-0.4998081117055052   -0.02834034272233056   0.019798222472153
-0.4998081117055052   -0.02834034272233056   0.019798222472153
-0.4998081117055052   -0.02834034272233056   0.019798222472153
-0.5000775948317794   -0.047648778053331266   -0.02679671349056821
-0.5000775948317794   -0.047648778053331266   -0.02679671349056821
-0.5000775948317794   -0.047648778053331266   -0.02679671349056821
-0.5000775948317794   -0.047648778053331266   -0.02679671349056821
-0.30585152359685475   0.030296761148507437   0.024294159267415447
-0.30585152359685475   0.030296761148507437   0.024294159267415447
-0.30585152359685475   0.030296761148507437   0.024294159267415447
-0.30585152359685475   0.030296761148507437   0.024294159267415447
-0.4082354440788724   -0.017484648172779397   -0.0026584369566853283
-0.4082354440788724   -0.017484648172779397   -0.0026584369566853283
-0.4082354440788724   -0.017484648172779397   -0.0026584369566853283
-0.4082354440788724   -0.017484648172779397   -0.0026584369566853283
-0.32127758393885303   -0.009197757862866099   -0.013341623431199365
-0.32127758393885303   -0.009197757862866099   -0.013341623431199365
-0.32127758393885303   -0.009197757862866099   -0.013341623431199365
-0.32127758393885303   -0.009197757862866099   -0.013341623431199365
-0.4836249514321013   -0.007127675984271713   0.014945401438766243
-0.4836249514321013   -0.007127675984271713   0.014945401438766243
-0.4836249514321013   -0.007127675984271713   0.014945401438766243
-0.4836249514321013   -0.007127675984271713   0.014945401438766243
-0.48070639685385086   -0.025269776433054593   -0.029817542841933012
-0.48070639685385086   -0.025269776433054593   -0.029817542841933012
-0.48070639685385086   -0.025269776433054593   -0.029817542841933012
-0.48070639685385086   -0.025269776433054593   -0.029817542841933012
-0.29158297256312626   0.049213771565374806   0.019336335598891016
-0.29158297256312626   0.049213771565374806   0.019336335598891016
-0.29158297256312626   0.049213771565374806   0.019336335598891016
-0.29158297256312626   0.049213771565374806   0.019336335598891016
-0.3890821025609161   0.003285735631123811   0.00717415761151001
-0.3890821025609161   0.003285735631123811   0.00717415761151001
-0.3890821025609161   0.003285735631123811   0.00717415761151001
-0.3890821025609161   0.003285735631123811   0.00717415761151001
-0.3064965080760378   0.011943496509030257   -0.017961066909321866
-0.3064965080760378   0.011943496509030257   -0.017961066909321866
-0.3064965080760378   0.011943496509030257   -0.017961066909321866
-0.3064965080760378   0.011943496509030257   -0.017961066909321866
-0.464639084136134   0.01315427582809537   0.012094968485501512
-0.464639084136134   0.01315427582809537   0.012094968485501512
-0.464639084136134   0.01315427582809537   0.012094968485501512
-0.464639084136134   0.01315427582809537   0.012094968485501512
-0.4633800703885546   -0.0008681246585670009   -0.03210040760814688
-0.4633800703885546   -0.0008681246585670009   -0.03210040760814688
-0.4633800703885546   -0.0008681246585670009   -0.03210040760814688
-0.4633800703885546   -0.0008681246585670009   -0.03210040760814688
-0.27746369493987366   0.07009538534968765   0.014340363979267905
-0.27746369493987366   0.07009538534968765   0.014340363979267905
-0.27746369493987366   0.07009538534968765   0.014340363979267905
-0.27746369493987366   0.07009538534968765   0.014340363979267905
-0.37478073842326337   0.02264543422324199   0.015983169126113916
-0.37478073842326337   0.02264543422324199   0.015983169126113916
-0.37478073842326337   0.02264543422324199   0.015983169126113916
-0.37478073842326337   0.02264543422324199   0.015983169126113916
-0.5131644947125608   -0.0461997478578307   -0.02912428742762438
-0.5131644947125608   -0.0461997478578307   -0.02912428742762438
-0.5131644947125608   -0.0461997478578307   -0.02912428742762438
-0.5131644947125608   -0.0461997478578307   -0.02912428742762438
-0.6859463617278784   -0.012228328025693826   0.04299341615427946
-0.6859463617278784   -0.012228328025693826   0.04299341615427946
-0.6859463617278784   -0.012228328025693826   0.04299341615427946
-0.6859463617278784   -0.012228328025693826   0.04299341615427946
-0.6765479817847131   -0.06202075879720935   -0.03890929921300838
-0.6765479817847131   -0.06202075879720935   -0.03890929921300838
-0.6765479817847131   -0.06202075879720935   -0.03890929921300838
-0.6765479817847131   -0.06202075879720935   -0.03890929921300838
-0.46646470897948566   0.05123663846312186   0.042382299254447
-0.46646470897948566   0.05123663846312186   0.042382299254447
-0.46646470897948566   0.05123663846312186   0.042382299254447
-0.46646470897948566   0.05123663846312186   0.042382299254447
-0.5602772714658327   -0.009959044550759438   0.004702882933230346
-0.5602772714658327   -0.009959044550759438   0.004702882933230346
-0.5602772714658327   -0.009959044550759438   0.004702882933230346
-0.5602772714658327   -0.009959044550759438   0.004702882933230346
-0.49675155468728227   -0.024868893082836636   -0.0329463977385757
-0.49675155468728227   -0.024868893082836636   -0.0329463977385757
-0.49675155468728227   -0.024868893082836636   -0.0329463977385757
-0.49675155468728227   -0.024868893082836636   -0.0329463977385757
-0.6453272871191882   0.015018621706475901   0.040154793610919726
-0.6453272871191882   0.015018621706475901   0.040154793610919726
-0.6453272871191882   0.015018621706475901   0.040154793610919726
-0.6453272871191882   0.015018621706475901   0.040154793610919726
-0.6458404468574399   -0.04874954867536973   -0.04632076387347389
-0.6458404468574399   -0.04874954867536973   -0.04632076387347389
-0.6458404468574399   -0.04874954867536973   -0.04632076387347389
-0.6458404468574399   -0.04874954867536973   -0.04632076387347389
-0.45070682340668944   0.059963321433426454   0.034947226527388256
-0.45070682340668944   0.059963321433426454   0.034947226527388256
-0.45070682340668944   0.059963321433426454   0.034947226527388256
-0.45070682340668944   0.059963321433426454   0.034947226527388256
-0.5429474542682549   0.003976559160705315   0.012636895238945886
-0.5429474542682549   0.003976559160705315   0.012636895238945886
-0.5429474542682549   0.003976559160705315   0.012636895238945886
-0.5429474542682549   0.003976559160705315   0.012636895238945886
-0.48008994642314684   -0.013946924365096636   -0.03805814275637087
-0.48008994642314684   -0.013946924365096636   -0.03805814275637087
-0.48008994642314684   -0.013946924365096636   -0.03805814275637087
-0.48008994642314684   -0.013946924365096636   -0.03805814275637087
-0.6153172832445347   0.026300737719591218   0.031244767796088063
-0.6153172832445347   0.026300737719591218   0.031244767796088063
-0.6153172832445347   0.026300737719591218   0.031244767796088063
-0.6153172832445347   0.026300737719591218   0.031244767796088063
-0.6079698448203116   -0.02895548230792278   -0.051671218085582574
-0.6079698448203116   -0.02895548230792278   -0.051671218085582574
-0.6079698448203116   -0.02895548230792278   -0.051671218085582574
-0.6079698448203116   -0.02895548230792278   -0.051671218085582574
-0.43687251101480046   0.07045986388158815   0.029109400720466763
-0.43687251101480046   0.07045986388158815   0.029109400720466763
-0.43687251101480046   0.07045986388158815   0.029109400720466763
-0.43687251101480046   0.07045986388158815   0.029109400720466763
-0.5102828052888583   0.017016415662808322   0.023829869408858617
-0.5102828052888583   0.017016415662808322   0.023829869408858617
-0.5102828052888583   0.017016415662808322   0.023829869408858617
-0.5102828052888583   0.017016415662808322   0.023829869408858617
0.5429402055202802   0.04936600826605385   0.046948295519476366
0.5429402055202802   0.04936600826605385   0.046948295519476366
0.5429402055202802   0.04936600826605385   0.046948295519476366
0.5429402055202802   0.04936600826605385   0.046948295519476366
0.19867075383281657   -0.08995108962702894   -0.030895193179566884
0.19867075383281657   -0.08995108962702894   -0.030895193179566884
0.19867075383281657   -0.08995108962702894   -0.030895193179566884
0.19867075383281657   -0.08995108962702894   -0.030895193179566884
0.24507855441585624   -0.0006461479668521805   0.03376385776699163
0.24507855441585624   -0.0006461479668521805   0.03376385776699163
0.24507855441585624   -0.0006461479668521805   0.03376385776699163
0.24507855441585624   -0.0006461479668521805   0.03376385776699163
0.5526491210871215   -0.012252175182913425   -0.03945408398338182
0.5526491210871215   -0.012252175182913425   -0.03945408398338182
0.5526491210871215   -0.012252175182913425   -0.03945408398338182
0.5526491210871215   -0.012252175182913425   -0.03945408398338182
0.3611666214415794   -0.016207144083144054   -0.03479897615048137
0.3611666214415794   -0.016207144083144054   -0.03479897615048137
0.3611666214415794   -0.016207144083144054   -0.03479897615048137
0.3611666214415794   -0.016207144083144054   -0.03479897615048137
0.584896568436414   0.06872573233324476   0.04080524524691853
0.584896568436414   0.06872573233324476   0.04080524524691853
0.584896568436414   0.06872573233324476   0.04080524524691853
0.584896568436414   0.06872573233324476   0.04080524524691853
0.21512121607491697   -0.07933394647465716   -0.03733503542989591
0.21512121607491697   -0.07933394647465716   -0.03733503542989591
0.21512121607491697   -0.07933394647465716   -0.03733503542989591
0.21512121607491697   -0.07933394647465716   -0.03733503542989591
0.2633243908465019   0.009978144625050873   0.027831252911595935
0.2633243908465019   0.009978144625050873   0.027831252911595935
0.2633243908465019   0.009978144625050873   0.027831252911595935
0.2633243908465019   0.009978144625050873   0.027831252911595935
0.5860075777438397   -0.00018236003115001953   -0.049666794101291684
0.5860075777438397   -0.00018236003115001953   -0.049666794101291684
0.5860075777438397   -0.00018236003115001953   -0.049666794101291684
0.5860075777438397   -0.00018236003115001953   -0.049666794101291684
0.3960336544186308   -0.0031790856572958374   -0.021097761654865682
0.3960336544186308   -0.0031790856572958374   -0.021097761654865682
0.3960336544186308   -0.0031790856572958374   -0.021097761654865682
0.3960336544186308   -0.0031790856572958374   -0.021097761654865682
0.6186046577780224   0.08174599719727446   0.03139024884119333
0.6186046577780224   0.08174599719727446   0.03139024884119333
0.6186046577780224   0.08174599719727446   0.03139024884119333
0.6186046577780224   0.08174599719727446   0.03139024884119333
0.2331570974687682   -0.06952042594692465   -0.04350664340509323
0.2331570974687682   -0.06952042594692465   -0.04350664340509323
0.2331570974687682   -0.06952042594692465   -0.04350664340509323
0.2331570974687682   -0.06952042594692465   -0.04350664340509323
0.281546494215524   0.03341646524035761   0.024121003584837257
0.281546494215524   0.03341646524035761   0.024121003584837257
0.281546494215524   0.03341646524035761   0.024121003584837257
0.281546494215524   0.03341646524035761   0.024121003584837257
0.6298295832363371   0.03129130883689905   -0.05356571405801144
0.6298295832363371   0.03129130883689905   -0.05356571405801144
0.6298295832363371   0.03129130883689905   -0.05356571405801144
0.6298295832363371   0.03129130883689905   -0.05356571405801144
0.417462546850314   0.012687020914502273   -0.009265145872561498
0.417462546850314   0.012687020914502273   -0.009265145872561498
0.417462546850314   0.012687020914502273   -0.009265145872561498
0.417462546850314   0.012687020914502273   -0.009265145872561498
0.23589493774434828   0.027681893937501825   0.03759274281356084
0.23589493774434828   0.027681893937501825   0.03759274281356084
0.23589493774434828   0.027681893937501825   0.03759274281356084
0.23589493774434828   0.027681893937501825   0.03759274281356084
-0.1152737933625581   -0.08394165487864032   -0.016196729680042456
-0.1152737933625581   -0.08394165487864032   -0.016196729680042456
-0.1152737933625581   -0.08394165487864032   -0.016196729680042456
-0.1152737933625581   -0.08394165487864032   -0.016196729680042456
-0.08340282674731216   -0.024670656139987413   0.011351277546066598
-0.08340282674731216   -0.024670656139987413   0.011351277546066598
-0.08340282674731216   -0.024670656139987413   0.011351277546066598
-0.08340282674731216   -0.024670656139987413   0.011351277546066598
0.23765520059410483   0.0009241888277381465   -0.004923248136355821
0.23765520059410483   0.0009241888277381465   -0.004923248136355821
0.23765520059410483   0.0009241888277381465   -0.004923248136355821
0.23765520059410483   0.0009241888277381465   -0.004923248136355821
0.06561275896204663   -0.01767701681645577   -0.014801948145529622
0.06561275896204663   -0.01767701681645577   -0.014801948145529622
0.06561275896204663   -0.01767701681645577   -0.014801948145529622
0.06561275896204663   -0.01767701681645577   -0.014801948145529622
0.2546473470391279   0.047384548076155705   0.033577124840342115
0.2546473470391279   0.047384548076155705   0.033577124840342115
0.2546473470391279   0.047384548076155705   0.033577124840342115
0.2546473470391279   0.047384548076155705   0.033577124840342115
-0.0990093545321235   -0.06974539672819352   -0.021606620789785848
-0.0990093545321235   -0.06974539672819352   -0.021606620789785848
-0.0990093545321235   -0.06974539672819352   -0.021606620789785848
-0.0990093545321235   -0.06974539672819352   -0.021606620789785848
-0.06640948823658455   -0.004772863404842868   0.00716730815962922
-0.06640948823658455   -0.004772863404842868   0.00716730815962922
-0.06640948823658455   -0.004772863404842868   0.00716730815962922
-0.06640948823658455   -0.004772863404842868   0.00716730815962922
0.25767476482660173   0.018765669851480756   -0.009204402414331
0.25767476482660173   0.018765669851480756   -0.009204402414331
0.25767476482660173   0.018765669851480756   -0.009204402414331
0.25767476482660173   0.018765669851480756   -0.009204402414331
0.08202258409321556   -0.0019605538803868176   -0.005882576943701239
0.08202258409321556   -0.0019605538803868176   -0.005882576943701239
0.08202258409321556   -0.0019605538803868176   -0.005882576943701239
0.08202258409321556   -0.0019605538803868176   -0.005882576943701239
0.27534834157247196   0.06810922596528507   0.029819925201212343
0.27534834157247196   0.06810922596528507   0.029819925201212343
0.27534834157247196   0.06810922596528507   0.029819925201212343
0.27534834157247196   0.06810922596528507   0.029819925201212343
-0.08269535743236563   -0.052728711968558585   -0.026306189255560393
-0.08269535743236563   -0.052728711968558585   -0.026306189255560393
-0.08269535743236563   -0.052728711968558585   -0.026306189255560393
-0.08269535743236563   -0.052728711968558585   -0.026306189255560393
-0.04962584483997068   0.018297665977844307   0.003004368325290779
-0.04962584483997068   0.018297665977844307   0.003004368325290779
-0.04962584483997068   0.018297665977844307   0.003004368325290779
-0.04962584483997068   0.018297665977844307   0.003004368325290779
0.27541515915124326   0.04002644948584019   -0.013145655982045243
0.27541515915124326   0.04002644948584019   -0.013145655982045243
0.27541515915124326   0.04002644948584019   -0.013145655982045243
0.27541515915124326   0.04002644948584019   -0.013145655982045243
0.1023338773592815   0.017329255913460826   0.004535517258440751
0.1023338773592815   0.017329255913460826   0.004535517258440751
0.1023338773592815   0.017329255913460826   0.004535517258440751
0.1023338773592815   0.017329255913460826   0.004535517258440751
-0.09083784585280308   0.006035790030938999   0.016005562959153317
-0.09083784585280308   0.006035790030938999   0.016005562959153317
-0.09083784585280308   0.006035790030938999   0.016005562959153317
-0.09083784585280308   0.006035790030938999   0.016005562959153317
-0.42299416379315324   -0.0741620123360359   -0.002168492483073811
-0.42299416379315324   -0.0741620123360359   -0.002168492483073811
-0.42299416379315324   -0.0741620123360359   -0.002168492483073811
-0.42299416379315324   -0.0741620123360359   -0.002168492483073811
-0.4028634213647223   -0.043807656332070524   -0.009929103782273282
-0.4028634213647223   -0.043807656332070524   -0.009929103782273282
-0.4028634213647223   -0.043807656332070524   -0.009929103782273282
-0.4028634213647223   -0.043807656332070524   -0.009929103782273282
-0.07636611519281336   0.011242535207447283   0.010621643971124008
-0.07636611519281336   0.011242535207447283   0.010621643971124008
-0.07636611519281336   0.011242535207447283   0.010621643971124008
-0.07636611519281336   0.011242535207447283   0.010621643971124008
-0.2486995984403881   -0.0227776656096594   -0.009246766287394528
-0.2486995984403881   -0.0227776656096594   -0.009246766287394528
-0.2486995984403881   -0.0227776656096594   -0.009246766287394528
-0.2486995984403881   -0.0227776656096594   -0.009246766287394528
-0.07300032692468746   0.026574506180187918   0.012118614339014797
-0.07300032692468746   0.026574506180187918   0.012118614339014797
-0.07300032692468746   0.026574506180187918   0.012118614339014797
-0.07300032692468746   0.026574506180187918   0.012118614339014797
-0.40529786642422894   -0.05820828409619669   -0.007700701315680264
-0.40529786642422894   -0.05820828409619669   -0.007700701315680264
-0.40529786642422894   -0.05820828409619669   -0.007700701315680264
-0.40529786642422894   -0.05820828409619669   -0.007700701315680264
-0.38413045113732913   -0.021976241095673903   -0.013411162648159308
-0.38413045113732913   -0.021976241095673903   -0.013411162648159308
-0.38413045113732913   -0.021976241095673903   -0.013411162648159308
-0.38413045113732913   -0.021976241095673903   -0.013411162648159308
-0.0598282323227594   0.029268367771821752   0.006032356552090411
-0.0598282323227594   0.029268367771821752   0.006032356552090411
-0.0598282323227594   0.029268367771821752   0.006032356552090411
-0.0598282323227594   0.029268367771821752   0.006032356552090411
-0.22980246306028962   -0.004514182548807984   -0.00013822482368621575
-0.22980246306028962   -0.004514182548807984   -0.00013822482368621575
-0.22980246306028962   -0.004514182548807984   -0.00013822482368621575
-0.22980246306028962   -0.004514182548807984   -0.00013822482368621575
-0.055764284164174296   0.04791943154329705   0.007701033573540605
-0.055764284164174296   0.04791943154329705   0.007701033573540605
-0.055764284164174296   0.04791943154329705   0.007701033573540605
-0.055764284164174296   0.04791943154329705   0.007701033573540605
-0.387330552693739   -0.03976345826496881   -0.011624453260913506
-0.387330552693739   -0.03976345826496881   -0.011624453260913506
-0.387330552693739   -0.03976345826496881   -0.011624453260913506
-0.387330552693739   -0.03976345826496881   -0.011624453260913506
-0.36669051139646636   -0.000212392467116556   -0.017566554875411478
-0.36669051139646636   -0.000212392467116556   -0.017566554875411478
-0.36669051139646636   -0.000212392467116556   -0.017566554875411478
-0.36669051139646636   -0.000212392467116556   -0.017566554875411478
-0.04405096697060611   0.04767332701621064   0.0015030966337453548
-0.04405096697060611   0.04767332701621064   0.0015030966337453548
-0.04405096697060611   0.04767332701621064   0.0015030966337453548
-0.04405096697060611   0.04767332701621064   0.0015030966337453548
-0.21244808081711855   0.013681828414389495   0.008526777701500302
-0.21244808081711855   0.013681828414389495   0.008526777701500302
-0.21244808081711855   0.013681828414389495   0.008526777701500302
-0.21244808081711855   0.013681828414389495   0.008526777701500302
-0.4121793067877508   -0.016021225159690965   -0.006234994632403443
-0.4121793067877508   -0.016021225159690965   -0.006234994632403443
-0.4121793067877508   -0.016021225159690965   -0.006234994632403443
-0.4121793067877508   -0.016021225159690965   -0.006234994632403443
-0.7239074334622742   -0.06016700694762266   0.013833156886532416
-0.7239074334622742   -0.06016700694762266   0.013833156886532416
-0.7239074334622742   -0.06016700694762266   0.013833156886532416
-0.7239074334622742   -0.06016700694762266   0.013833156886532416
-0.7142227016573273   -0.06220794969981168   -0.02985821691370763
-0.7142227016573273   -0.06220794969981168   -0.02985821691370763
-0.7142227016573273   -0.06220794969981168   -0.02985821691370763
-0.7142227016573273   -0.06220794969981168   -0.02985821691370763
-0.3811695590733269   0.028086433678781882   0.026646117663855023
-0.3811695590733269   0.028086433678781882   0.026646117663855023
-0.3811695590733269   0.028086433678781882   0.026646117663855023
-0.3811695590733269   0.028086433678781882   0.026646117663855023
-0.5540109767764416   -0.024120812578656472   -0.003229596467536913
-0.5540109767764416   -0.024120812578656472   -0.003229596467536913
-0.5540109767764416   -0.024120812578656472   -0.003229596467536913
-0.5540109767764416   -0.024120812578656472   -0.003229596467536913
-0.39279051876516113   0.006146400698380183   -0.009518647814914488
-0.39279051876516113   0.006146400698380183   -0.009518647814914488
-0.39279051876516113   0.006146400698380183   -0.009518647814914488
-0.39279051876516113   0.006146400698380183   -0.009518647814914488
-0.7025367620804587   -0.04020293683437557   0.0065664681051995355
-0.7025367620804587   -0.04020293683437557   0.0065664681051995355
-0.7025367620804587   -0.04020293683437557   0.0065664681051995355
-0.7025367620804587   -0.04020293683437557   0.0065664681051995355
-0.6897239403067396   -0.04088693888644527   -0.03302624891659611
-0.6897239403067396   -0.04088693888644527   -0.03302624891659611
-0.6897239403067396   -0.04088693888644527   -0.03302624891659611
-0.6897239403067396   -0.04088693888644527   -0.03302624891659611
-0.3637390352020584   0.045264128487109145   0.02130554744541502
-0.3637390352020584   0.045264128487109145   0.02130554744541502
-0.3637390352020584   0.045264128487109145   0.02130554744541502
-0.3637390352020584   0.045264128487109145   0.02130554744541502
-0.5290673981337339   -0.0039392718906157   0.0059123911916745125
-0.5290673981337339   -0.0039392718906157   0.0059123911916745125
-0.5290673981337339   -0.0039392718906157   0.0059123911916745125
-0.5290673981337339   -0.0039392718906157   0.0059123911916745125
-0.3746485435274239   0.025948180928230372   -0.013926046622533592
-0.3746485435274239   0.025948180928230372   -0.013926046622533592
-0.3746485435274239   0.025948180928230372   -0.013926046622533592
-0.3746485435274239   0.025948180928230372   -0.013926046622533592
-0.6782196993266915   -0.02097625867288385   0.004584275770083079
-0.6782196993266915   -0.02097625867288385   0.004584275770083079
-0.6782196993266915   -0.02097625867288385   0.004584275770083079
-0.6782196993266915   -0.02097625867288385   0.004584275770083079
-0.667819757575605   -0.017789900257202625   -0.03473000141945226
-0.667819757575605   -0.017789900257202625   -0.03473000141945226
-0.667819757575605   -0.017789900257202625   -0.03473000141945226
-0.667819757575605   -0.017789900257202625   -0.03473000141945226
-0.3468573617874751   0.06413660344091475   0.017250197261516373
-0.3468573617874751   0.06413660344091475   0.017250197261516373
-0.3468573617874751   0.06413660344091475   0.017250197261516373
-0.3468573617874751   0.06413660344091475   0.017250197261516373
-0.5122517103369822   0.01330188869498846   0.013794279646574426
-0.5122517103369822   0.01330188869498846   0.013794279646574426
-0.5122517103369822   0.01330188869498846   0.013794279646574426
-0.5122517103369822   0.01330188869498846   0.013794279646574426
-0.7268812442648561   -0.034378807148959536   -0.026824096925040675
-0.7268812442648561   -0.034378807148959536   -0.026824096925040675
-0.7268812442648561   -0.034378807148959536   -0.026824096925040675
-0.7268812442648561   -0.034378807148959536   -0.026824096925040675
-1.03641211542768   -0.037434315807929816   0.04645860056953452
-1.03641211542768   -0.037434315807929816   0.04645860056953452
-1.03641211542768   -0.037434315807929816   0.04645860056953452
-1.03641211542768   -0.037434315807929816   0.04645860056953452
-1.0167553429379357   -0.07441926153747519   -0.03560656679008828
-1.0167553429379357   -0.07441926153747519   -0.03560656679008828
-1.0167553429379357   -0.07441926153747519   -0.03560656679008828
-1.0167553429379357   -0.07441926153747519   -0.03560656679008828
-0.6747920987147414   0.0578310190615335   0.04725582903786982
-0.6747920987147414   0.0578310190615335   0.04725582903786982
-0.6747920987147414   0.0578310190615335   0.04725582903786982
-0.6747920987147414   0.0578310190615335   0.04725582903786982
-0.825386396542434   -0.010197188636264752   0.009652813750428063
-0.825386396542434   -0.010197188636264752   0.009652813750428063
-0.825386396542434   -0.010197188636264752   0.009652813750428063
-0.825386396542434   -0.010197188636264752   0.009652813750428063
-0.7039135627800869   -0.010694738827788035   -0.029825733399531845
-0.7039135627800869   -0.010694738827788035   -0.029825733399531845
-0.7039135627800869   -0.010694738827788035   -0.029825733399531845
-0.7039135627800869   -0.010694738827788035   -0.029825733399531845
-0.9871393764894243   -0.0053990012649887675   0.04345300517997208
-0.9871393764894243   -0.0053990012649887675   0.04345300517997208
-0.9871393764894243   -0.0053990012649887675   0.04345300517997208
-0.9871393764894243   -0.0053990012649887675   0.04345300517997208
-0.9796145357998008   -0.061196815045811565   -0.041945743475659575
-0.9796145357998008   -0.061196815045811565   -0.041945743475659575
-0.9796145357998008   -0.061196815045811565   -0.041945743475659575
-0.9796145357998008   -0.061196815045811565   -0.041945743475659575
-0.6542522200171706   0.06598454146672586   0.03746087217807742
-0.6542522200171706   0.06598454146672586   0.03746087217807742
-0.6542522200171706   0.06598454146672586   0.03746087217807742
-0.6542522200171706   0.06598454146672586   0.03746087217807742
-0.8063465386817795   0.004240981761700902   0.01723852369184778
-0.8063465386817795   0.004240981761700902   0.01723852369184778
-0.8063465386817795   0.004240981761700902   0.01723852369184778
-0.8063465386817795   0.004240981761700902   0.01723852369184778
-0.6817383444522593   -2.455815608276915e-05   -0.03396065037455727
-0.6817383444522593   -2.455815608276915e-05   -0.03396065037455727
-0.6817383444522593   -2.455815608276915e-05   -0.03396065037455727
-0.6817383444522593   -2.455815608276915e-05   -0.03396065037455727
-0.951632558753033   0.005308137188673345   0.031459189523677045
-0.951632558753033   0.005308137188673345   0.031459189523677045
-0.951632558753033   0.005308137188673345   0.031459189523677045
-0.951632558753033   0.005308137188673345   0.031459189523677045
-0.9389812587792286   -0.04534729248577557   -0.04781763335192368
-0.9389812587792286   -0.04534729248577557   -0.04781763335192368
-0.9389812587792286   -0.04534729248577557   -0.04781763335192368
-0.9389812587792286   -0.04534729248577557   -0.04781763335192368
-0.6362193863900658   0.07358530346587702   0.03189665078516038
-0.6362193863900658   0.07358530346587702   0.03189665078516038
-0.6362193863900658   0.07358530346587702   0.03189665078516038
-0.6362193863900658   0.07358530346587702   0.03189665078516038
-0.7652970149568729   0.016228783444523005   0.028738523474407557
-0.7652970149568729   0.016228783444523005   0.028738523474407557
-0.7652970149568729   0.016228783444523005   0.028738523474407557
-0.7652970149568729   0.016228783444523005   0.028738523474407557
0.9097333153611822   0.06804489510016676   0.04802216892804598
0.9097333153611822   0.06804489510016676   0.04802216892804598
0.9097333153611822   0.06804489510016676   0.04802216892804598
0.9097333153611822   0.06804489510016676   0.04802216892804598
0.4010073004156331   -0.10681373228471056   -0.022141804000577026
0.4010073004156331   -0.10681373228471056   -0.022141804000577026
0.4010073004156331   -0.10681373228471056   -0.022141804000577026
0.4010073004156331   -0.10681373228471056   -0.022141804000577026
0.44689932117944436   -0.01891996950493071   0.032956744314178325
0.44689932117944436   -0.01891996950493071   0.032956744314178325
0.44689932117944436   -0.01891996950493071   0.032956744314178325
0.44689932117944436   -0.01891996950493071   0.032956744314178325
0.9196345722438617   -0.0013606882334550388   -0.03465355024867148
0.9196345722438617   -0.0013606882334550388   -0.03465355024867148
0.9196345722438617   -0.0013606882334550388   -0.03465355024867148
0.9196345722438617   -0.0013606882334550388   -0.03465355024867148
0.6301298257766097   -0.018973115593819423   -0.04917069661119533
0.6301298257766097   -0.018973115593819423   -0.04917069661119533
0.6301298257766097   -0.018973115593819423   -0.04917069661119533
0.6301298257766097   -0.018973115593819423   -0.04917069661119533
0.9515629609760194   0.08345579218939947   0.040171912989254155
0.9515629609760194   0.08345579218939947   0.040171912989254155
0.9515629609760194   0.08345579218939947   0.040171912989254155
0.9515629609760194   0.08345579218939947   0.040171912989254155
0.4180400309221421   -0.10066735145293093   -0.029592325024331192
0.4180400309221421   -0.10066735145293093   -0.029592325024331192
0.4180400309221421   -0.10066735145293093   -0.029592325024331192
0.4180400309221421   -0.10066735145293093   -0.029592325024331192
0.46479351404698255   -0.009165178394139037   0.026633177780620437
0.46479351404698255   -0.009165178394139037   0.026633177780620437
0.46479351404698255   -0.009165178394139037   0.026633177780620437
0.46479351404698255   -0.009165178394139037   0.026633177780620437
0.9509833313508004   0.009390305917729963   -0.04326498605804022
0.9509833313508004   0.009390305917729963   -0.04326498605804022
0.9509833313508004   0.009390305917729963   -0.04326498605804022
0.9509833313508004   0.009390305917729963   -0.04326498605804022
0.6695492053091195   -0.007494629365055197   -0.033466746204203396
0.6695492053091195   -0.007494629365055197   -0.033466746204203396
0.6695492053091195   -0.007494629365055197   -0.033466746204203396
0.6695492053091195   -0.007494629365055197   -0.033466746204203396
0.9827201834119809   0.0950461966298792   0.02976338353571334
0.9827201834119809   0.0950461966298792   0.02976338353571334
0.9827201834119809   0.0950461966298792   0.02976338353571334
0.9827201834119809   0.0950461966298792   0.02976338353571334
0.435739852474797   -0.09213787861729322   -0.03566242985715286
0.435739852474797   -0.09213787861729322   -0.03566242985715286
0.435739852474797   -0.09213787861729322   -0.03566242985715286
0.435739852474797   -0.09213787861729322   -0.03566242985715286
0.4810107071058761   0.01691073871327668   0.02335031145436825
0.4810107071058761   0.01691073871327668   0.02335031145436825
0.4810107071058761   0.01691073871327668   0.02335031145436825
0.4810107071058761   0.01691073871327668   0.02335031145436825
0.9895771322559693   0.040857988085259075   -0.045295480183109804
0.9895771322559693   0.040857988085259075   -0.045295480183109804
0.9895771322559693   0.040857988085259075   -0.045295480183109804
0.9895771322559693   0.040857988085259075   -0.045295480183109804
0.6841858047634747   0.007978708407649096   -0.022615015878600597
0.6841858047634747   0.007978708407649096   -0.022615015878600597
0.6841858047634747   0.007978708407649096   -0.022615015878600597
0.6841858047634747   0.007978708407649096   -0.022615015878600597
0.4435852651110892   0.03988030015874617   0.04405398703324267
0.4435852651110892   0.03988030015874617   0.04405398703324267
0.4435852651110892   0.03988030015874617   0.04405398703324267
0.4435852651110892   0.03988030015874617   0.04405398703324267
-0.05541365097186497   -0.1314772496271587   -0.012628219004956705
-0.05541365097186497   -0.1314772496271587   -0.012628219004956705
-0.05541365097186497   -0.1314772496271587   -0.012628219004956705
-0.05541365097186497   -0.1314772496271587   -0.012628219004956705
-0.015945987734403397   -0.04658329867336995   0.011140502686642554
-0.015945987734403397   -0.04658329867336995   0.011140502686642554
-0.015945987734403397   -0.04658329867336995   0.011140502686642554
-0.015945987734403397   -0.04658329867336995   0.011140502686642554
0.4397846313785059   -0.02376090237031994   0.002224228174875262
0.4397846313785059   -0.02376090237031994   0.002224228174875262
0.4397846313785059   -0.02376090237031994   0.002224228174875262
0.4397846313785059   -0.02376090237031994   0.002224228174875262
0.19749876395583188   -0.03650593615794245   -0.023373211661684393
0.19749876395583188   -0.03650593615794245   -0.023373211661684393
0.19749876395583188   -0.03650593615794245   -0.023373211661684393
0.19749876395583188   -0.03650593615794245   -0.023373211661684393
0.4628481038490589   0.05475296394788197   0.039027724209439923
0.4628481038490589   0.05475296394788197   0.039027724209439923
0.4628481038490589   0.05475296394788197   0.039027724209439923
0.4628481038490589   0.05475296394788197   0.039027724209439923
-0.037386192457464204   -0.12347389724407941   -0.019169922357952018
-0.037386192457464204   -0.12347389724407941   -0.019169922357952018
-0.037386192457464204   -0.12347389724407941   -0.019169922357952018
-0.037386192457464204   -0.12347389724407941   -0.019169922357952018
0.0022980769198263284   -0.029112498205999537   0.006781445205042915
0.0022980769198263284   -0.029112498205999537   0.006781445205042915
0.0022980769198263284   -0.029112498205999537   0.006781445205042915
0.0022980769198263284   -0.029112498205999537   0.006781445205042915
0.4584853722505516   -0.010585769273008565   -0.0034869403226648193
0.4584853722505516   -0.010585769273008565   -0.0034869403226648193
0.4584853722505516   -0.010585769273008565   -0.0034869403226648193
0.4584853722505516   -0.010585769273008565   -0.0034869403226648193
0.21332474651642505   -0.025774255252476154   -0.015139797022986304
0.21332474651642505   -0.025774255252476154   -0.015139797022986304
0.21332474651642505   -0.025774255252476154   -0.015139797022986304
0.21332474651642505   -0.025774255252476154   -0.015139797022986304
0.48278813231619877   0.07259786831565426   0.03484322241690868
0.48278813231619877   0.07259786831565426   0.03484322241690868
0.48278813231619877   0.07259786831565426   0.03484322241690868
0.48278813231619877   0.07259786831565426   0.03484322241690868
-0.021033918587824944   -0.11132537123666125   -0.027665659302551732
-0.021033918587824944   -0.11132537123666125   -0.027665659302551732
-0.021033918587824944   -0.11132537123666125   -0.027665659302551732
-0.021033918587824944   -0.11132537123666125   -0.027665659302551732
0.016622535761815736   -0.008627414208582032   0.002377648935271189
0.016622535761815736   -0.008627414208582032   0.002377648935271189
0.016622535761815736   -0.008627414208582032   0.002377648935271189
0.016622535761815736   -0.008627414208582032   0.002377648935271189
0.4724773077636449   0.00623451377700595   -0.00864046032052386
0.4724773077636449   0.00623451377700595   -0.00864046032052386
0.4724773077636449   0.00623451377700595   -0.00864046032052386
0.4724773077636449   0.00623451377700595   -0.00864046032052386
0.23277112966773186   -0.009712601213378124   -0.006290813380515813
0.23277112966773186   -0.009712601213378124   -0.006290813380515813
0.23277112966773186   -0.009712601213378124   -0.006290813380515813
0.23277112966773186   -0.009712601213378124   -0.006290813380515813
-0.019959263915101833   0.011259966222102536   0.02190650042959775
-0.019959263915101833   0.011259966222102536   0.02190650042959775
-0.019959263915101833   0.011259966222102536   0.02190650042959775
-0.019959263915101833   0.011259966222102536   0.02190650042959775
-0.5082856733199417   -0.16486908700127836   -0.010118787103147037
-0.5082856733199417   -0.16486908700127836   -0.010118787103147037
-0.5082856733199417   -0.16486908700127836   -0.010118787103147037
-0.5082856733199417   -0.16486908700127836   -0.010118787103147037
-0.4684328653813546   -0.07143740592831994   -0.010711311519170888
-0.4684328653813546   -0.07143740592831994   -0.010711311519170888
-0.4684328653813546   -0.07143740592831994   -0.010711311519170888
-0.4684328653813546   -0.07143740592831994   -0.010711311519170888
-0.018090218710101757   -0.05607989019837241   0.009915939333153205
-0.018090218710101757   -0.05607989019837241   0.009915939333153205
-0.018090218710101757   -0.05607989019837241   0.009915939333153205
-0.018090218710101757   -0.05607989019837241   0.009915939333153205
-0.25483399582622873   -0.06651209663469397   -0.02086265899296351
-0.25483399582622873   -0.06651209663469397   -0.02086265899296351
-0.25483399582622873   -0.06651209663469397   -0.02086265899296351
-0.25483399582622873   -0.06651209663469397   -0.02086265899296351
0.000307234657175289   0.028014616314544515   0.01780869965662152
0.000307234657175289   0.028014616314544515   0.01780869965662152
0.000307234657175289   0.028014616314544515   0.01780869965662152
0.000307234657175289   0.028014616314544515   0.01780869965662152
-0.4856557880437662   -0.15435738173637142   -0.01390594902317746
-0.4856557880437662   -0.15435738173637142   -0.01390594902317746
-0.4856557880437662   -0.15435738173637142   -0.01390594902317746
-0.4856557880437662   -0.15435738173637142   -0.01390594902317746
-0.44579885679212167   -0.052045913485902734   -0.01456842526720041
-0.44579885679212167   -0.052045913485902734   -0.01456842526720041
-0.44579885679212167   -0.052045913485902734   -0.01456842526720041
-0.44579885679212167   -0.052045913485902734   -0.01456842526720041
-0.0010986664381604679   -0.04341427673801268   0.004099506947122076
-0.0010986664381604679   -0.04341427673801268   0.004099506947122076
-0.0010986664381604679   -0.04341427673801268   0.004099506947122076
-0.0010986664381604679   -0.04341427673801268   0.004099506947122076
-0.23286176890630675   -0.052562391638656225   -0.011564117341013778
-0.23286176890630675   -0.052562391638656225   -0.011564117341013778
-0.23286176890630675   -0.052562391638656225   -0.011564117341013778
-0.23286176890630675   -0.052562391638656225   -0.011564117341013778
0.018850921564071317   0.046570301069024676   0.01386286915124365
0.018850921564071317   0.046570301069024676   0.01386286915124365
0.018850921564071317   0.046570301069024676   0.01386286915124365
0.018850921564071317   0.046570301069024676   0.01386286915124365
-0.465742591061779   -0.14202463756036565   -0.024308372541024262
-0.465742591061779   -0.14202463756036565   -0.024308372541024262
-0.465742591061779   -0.14202463756036565   -0.024308372541024262
-0.465742591061779   -0.14202463756036565   -0.024308372541024262
-0.42980119643101966   -0.03355262111842719   -0.01887641457906092
-0.42980119643101966   -0.03355262111842719   -0.01887641457906092
-0.42980119643101966   -0.03355262111842719   -0.01887641457906092
-0.42980119643101966   -0.03355262111842719   -0.01887641457906092
0.010050663669667444   -0.03327121427527607   -0.0058379114587762205
0.010050663669667444   -0.03327121427527607   -0.0058379114587762205
0.010050663669667444   -0.03327121427527607   -0.0058379114587762205
0.010050663669667444   -0.03327121427527607   -0.0058379114587762205
-0.21674917722292797   -0.03954049395776897   -0.005726682749526597
-0.21674917722292797   -0.03954049395776897   -0.005726682749526597
-0.21674917722292797   -0.03954049395776897   -0.005726682749526597
-0.21674917722292797   -0.03954049395776897   -0.005726682749526597
-0.47612272302387065   -0.013509433968385432   -0.0006636886556849048
-0.47612272302387065   -0.013509433968385432   -0.0006636886556849048
-0.47612272302387065   -0.013509433968385432   -0.0006636886556849048
-0.47612272302387065   -0.013509433968385432   -0.0006636886556849048
-0.9633762037217208   -0.17725393216632662   -0.008101379185235819
-0.9633762037217208   -0.17725393216632662   -0.008101379185235819
-0.9633762037217208   -0.17725393216632662   -0.008101379185235819
-0.9633762037217208   -0.17725393216632662   -0.008101379185235819
-0.9206514491370374   -0.09149543420678173   -0.03178133170025241
-0.9206514491370374   -0.09149543420678173   -0.03178133170025241
-0.9206514491370374   -0.09149543420678173   -0.03178133170025241
-0.9206514491370374   -0.09149543420678173   -0.03178133170025241
-0.4594676208583273   -0.058284279684821236   0.020961784852466886
-0.4594676208583273   -0.058284279684821236   0.020961784852466886
-0.4594676208583273   -0.058284279684821236   0.020961784852466886
-0.4594676208583273   -0.058284279684821236   0.020961784852466886
-0.6987499304590151   -0.08003108812392187   -0.014695435178196575
-0.6987499304590151   -0.08003108812392187   -0.014695435178196575
-0.6987499304590151   -0.08003108812392187   -0.014695435178196575
-0.6987499304590151   -0.08003108812392187   -0.014695435178196575
-0.4511168991162062   0.008044970760904366   -0.003613856882653213
-0.4511168991162062   0.008044970760904366   -0.003613856882653213
-0.4511168991162062   0.008044970760904366   -0.003613856882653213
-0.4511168991162062   0.008044970760904366   -0.003613856882653213
-0.9293517942749817   -0.15817430804832916   -0.008604183548418382
-0.9293517942749817   -0.15817430804832916   -0.008604183548418382
-0.9293517942749817   -0.15817430804832916   -0.008604183548418382
-0.9293517942749817   -0.15817430804832916   -0.008604183548418382
-0.8882763061056443   -0.07126313109301011   -0.036793479551564534
-0.8882763061056443   -0.07126313109301011   -0.036793479551564534
-0.8882763061056443   -0.07126313109301011   -0.036793479551564534
-0.8882763061056443   -0.07126313109301011   -0.036793479551564534
-0.4375021888825038   -0.04310603863446618   0.01797503942945608
-0.4375021888825038   -0.04310603863446618   0.01797503942945608
-0.4375021888825038   -0.04310603863446618   0.01797503942945608
-0.4375021888825038   -0.04310603863446618   0.01797503942945608
-0.6654447744230395   -0.06061840485272822   -0.004781189429242577
-0.6654447744230395   -0.06061840485272822   -0.004781189429242577
-0.6654447744230395   -0.06061840485272822   -0.004781189429242577
-0.6654447744230395   -0.06061840485272822   -0.004781189429242577
-0.4284329947768728   0.026756017789737782   -0.006541046466596645
-0.4284329947768728   0.026756017789737782   -0.006541046466596645
-0.4284329947768728   0.026756017789737782   -0.006541046466596645
-0.4284329947768728   0.026756017789737782   -0.006541046466596645
-0.8988870311001808   -0.1426667184061188   -0.01844351721113016
-0.8988870311001808   -0.1426667184061188   -0.01844351721113016
-0.8988870311001808   -0.1426667184061188   -0.01844351721113016
-0.8988870311001808   -0.1426667184061188   -0.01844351721113016
-0.8620452770085469   -0.049945975689526266   -0.037974783169616916
-0.8620452770085469   -0.049945975689526266   -0.037974783169616916
-0.8620452770085469   -0.049945975689526266   -0.037974783169616916
-0.8620452770085469   -0.049945975689526266   -0.037974783169616916
-0.42489154762133136   -0.03345629609015113   0.005575504441108561
-0.42489154762133136   -0.03345629609015113   0.005575504441108561
-0.42489154762133136   -0.03345629609015113   0.005575504441108561
-0.42489154762133136   -0.03345629609015113   0.005575504441108561
-0.6471666514434877   -0.048790978098192744   -0.0015348350824540558
-0.6471666514434877   -0.048790978098192744   -0.0015348350824540558
-0.6471666514434877   -0.048790978098192744   -0.0015348350824540558
-0.6471666514434877   -0.048790978098192744   -0.0015348350824540558
-0.9372267037981705   -0.031508763285575794   -0.02309904844823557
-0.9372267037981705   -0.031508763285575794   -0.02309904844823557
-0.9372267037981705   -0.031508763285575794   -0.02309904844823557
-0.9372267037981705   -0.031508763285575794   -0.02309904844823557
-1.4133041008360614   -0.12017512601976166   0.053072573249483834
-1.4133041008360614   -0.12017512601976166   0.053072573249483834
-1.4133041008360614   -0.12017512601976166   0.053072573249483834
-1.4133041008360614   -0.12017512601976166   0.053072573249483834
-1.3652196180011065   -0.09590506037502738   -0.030997048858569576
-1.3652196180011065   -0.09590506037502738   -0.030997048858569576
-1.3652196180011065   -0.09590506037502738   -0.030997048858569576
-1.3652196180011065   -0.09590506037502738   -0.030997048858569576
-0.8811400773328533   0.025402883823397428   0.048877209290482115
-0.8811400773328533   0.025402883823397428   0.048877209290482115
-0.8811400773328533   0.025402883823397428   0.048877209290482115
-0.8811400773328533   0.025402883823397428   0.048877209290482115
-1.0977682115989658   -0.03761485816205794   0.005456150221483491
-1.0977682115989658   -0.03761485816205794   0.005456150221483491
-1.0977682115989658   -0.03761485816205794   0.005456150221483491
-1.0977682115989658   -0.03761485816205794   0.005456150221483491
-0.9015365841492915   -0.002091276688842174   -0.025611164279458476
-0.9015365841492915   -0.002091276688842174   -0.025611164279458476
-0.9015365841492915   -0.002091276688842174   -0.025611164279458476
-0.9015365841492915   -0.002091276688842174   -0.025611164279458476
-1.341535008241557   -0.06512279691967637   0.056643736483816765
-1.341535008241557   -0.06512279691967637   0.056643736483816765
-1.341535008241557   -0.06512279691967637   0.056643736483816765
-1.341535008241557   -0.06512279691967637   0.056643736483816765
-1.3136122493639777   -0.08076249236107598   -0.03691426761415534
-1.3136122493639777   -0.08076249236107598   -0.03691426761415534
-1.3136122493639777   -0.08076249236107598   -0.03691426761415534
-1.3136122493639777   -0.08076249236107598   -0.03691426761415534
-0.849138648737635   0.0404653075222964   0.047166368673176085
-0.849138648737635   0.0404653075222964   0.047166368673176085
-0.849138648737635   0.0404653075222964   0.047166368673176085
-0.849138648737635   0.0404653075222964   0.047166368673176085
-1.0674831907845261   -0.015170569257962285   0.021920597462790015
-1.0674831907845261   -0.015170569257962285   0.021920597462790015
-1.0674831907845261   -0.015170569257962285   0.021920597462790015
-1.0674831907845261   -0.015170569257962285   0.021920597462790015
-0.8702482381951053   0.009758257647624204   -0.02767452873949619
-0.8702482381951053   0.009758257647624204   -0.02767452873949619
-0.8702482381951053   0.009758257647624204   -0.02767452873949619
-0.8702482381951053   0.009758257647624204   -0.02767452873949619
-1.2918254761500243   -0.04937825872992292   0.040635364824468834
-1.2918254761500243   -0.04937825872992292   0.040635364824468834
-1.2918254761500243   -0.04937825872992292   0.040635364824468834
-1.2918254761500243   -0.04937825872992292   0.040635364824468834
-1.2602207929098215   -0.06651908848353044   -0.044623902442121444
-1.2602207929098215   -0.06651908848353044   -0.044623902442121444
-1.2602207929098215   -0.06651908848353044   -0.044623902442121444
-1.2602207929098215   -0.06651908848353044   -0.044623902442121444
-0.8254927302569696   0.058394406883342465   0.03644756801540472
-0.8254927302569696   0.058394406883342465   0.03644756801540472
-0.8254927302569696   0.058394406883342465   0.03644756801540472
-0.8254927302569696   0.058394406883342465   0.03644756801540472
-1.0099746247977741   0.003993621545938575   0.0384740795825986
-1.0099746247977741   0.003993621545938575   0.0384740795825986
-1.0099746247977741   0.003993621545938575   0.0384740795825986
-1.0099746247977741   0.003993621545938575   0.0384740795825986
1.2409255225519138   0.0745558629527012   0.044787950050170194
1.2409255225519138   0.0745558629527012   0.044787950050170194
1.2409255225519138   0.0745558629527012   0.044787950050170194
1.2409255225519138   0.0745558629527012   0.044787950050170194
0.5911751330002988   -0.1104855230827501   0.009819868642105073
0.5911751330002988   -0.1104855230827501   0.009819868642105073
0.5911751330002988   -0.1104855230827501   0.009819868642105073
0.5911751330002988   -0.1104855230827501   0.009819868642105073
0.6236199789585416   -0.04675437625812025   0.03439260291332272
0.6236199789585416   -0.04675437625812025   0.03439260291332272
0.6236199789585416   -0.04675437625812025   0.03439260291332272
0.6236199789585416   -0.04675437625812025   0.03439260291332272
1.2473575864089392   0.010987431187386737   -0.01013593916638933
1.2473575864089392   0.010987431187386737   -0.01013593916638933
1.2473575864089392   0.010987431187386737   -0.01013593916638933
1.2473575864089392   0.010987431187386737   -0.01013593916638933
0.8722258965970473   -0.023620214472790446   -0.05782640854469093
0.8722258965970473   -0.023620214472790446   -0.05782640854469093
0.8722258965970473   -0.023620214472790446   -0.05782640854469093
0.8722258965970473   -0.023620214472790446   -0.05782640854469093
1.2708479294096442   0.08289444554528363   0.035408761479239326
1.2708479294096442   0.08289444554528363   0.035408761479239326
1.2708479294096442   0.08289444554528363   0.035408761479239326
1.2708479294096442   0.08289444554528363   0.035408761479239326
0.6057526720344726   -0.11303835453938094   0.011340046574238871
0.6057526720344726   -0.11303835453938094   0.011340046574238871
0.6057526720344726   -0.11303835453938094   0.011340046574238871
0.6057526720344726   -0.11303835453938094   0.011340046574238871
0.6358665491406408   -0.03974871201114891   0.02615670650772496
0.6358665491406408   -0.03974871201114891   0.02615670650772496
0.6358665491406408   -0.03974871201114891   0.02615670650772496
0.6358665491406408   -0.03974871201114891   0.02615670650772496
1.2690738033527529   0.018878351677513158   -0.0032566616224897205
1.2690738033527529   0.018878351677513158   -0.0032566616224897205
1.2690738033527529   0.018878351677513158   -0.0032566616224897205
1.2690738033527529   0.018878351677513158   -0.0032566616224897205
0.9080637356966792   -0.018650335302689613   -0.03954339995279918
0.9080637356966792   -0.018650335302689613   -0.03954339995279918
0.9080637356966792   -0.018650335302689613   -0.03954339995279918
0.9080637356966792   -0.018650335302689613   -0.03954339995279918
1.288961664993004   0.09054264125752888   0.024518356998750657
1.288961664993004   0.09054264125752888   0.024518356998750657
1.288961664993004   0.09054264125752888   0.024518356998750657
1.288961664993004   0.09054264125752888   0.024518356998750657
0.6198898263422883   -0.10750186274926583   0.01402624325407971
0.6198898263422883   -0.10750186274926583   0.01402624325407971
0.6198898263422883   -0.10750186274926583   0.01402624325407971
0.6198898263422883   -0.10750186274926583   0.01402624325407971
0.6539102520658479   -0.01243379870754182   0.023912466043007202
0.6539102520658479   -0.01243379870754182   0.023912466043007202
0.6539102520658479   -0.01243379870754182   0.023912466043007202
0.6539102520658479   -0.01243379870754182   0.023912466043007202
1.2916909144022286   0.03703177405429277   -0.0007050762587244574
1.2916909144022286   0.03703177405429277   -0.0007050762587244574
1.2916909144022286   0.03703177405429277   -0.0007050762587244574
1.2916909144022286   0.03703177405429277   -0.0007050762587244574
0.9123867884150907   -0.008517762098248963   -0.029612224852810953
0.9123867884150907   -0.008517762098248963   -0.029612224852810953
0.9123867884150907   -0.008517762098248963   -0.029612224852810953
0.9123867884150907   -0.008517762098248963   -0.029612224852810953
0.6239954617486543   0.016347845481802417   0.0470881438193298
0.6239954617486543   0.016347845481802417   0.0470881438193298
0.6239954617486543   0.016347845481802417   0.0470881438193298
0.6239954617486543   0.016347845481802417   0.0470881438193298
0.03187929122180752   -0.21950272190012504   0.02234354472520446
0.03187929122180752   -0.21950272190012504   0.02234354472520446
0.03187929122180752   -0.21950272190012504   0.02234354472520446
0.03187929122180752   -0.21950272190012504   0.02234354472520446
0.07408249105020791   -0.0931592543812257   0.02093460844864448
0.07408249105020791   -0.0931592543812257   0.02093460844864448
0.07408249105020791   -0.0931592543812257   0.02093460844864448
0.07408249105020791   -0.0931592543812257   0.02093460844864448
0.608040730713088   -0.10462342281107129   0.01436540823899829
0.608040730713088   -0.10462342281107129   0.01436540823899829
0.608040730713088   -0.10462342281107129   0.01436540823899829
0.608040730713088   -0.10462342281107129   0.01436540823899829
0.3236561320169936   -0.098101283211588   -0.03683171218472753
0.3236561320169936   -0.098101283211588   -0.03683171218472753
0.3236561320169936   -0.098101283211588   -0.03683171218472753
0.3236561320169936   -0.098101283211588   -0.03683171218472753
0.6386499442530097   0.023437437662595265   0.03935061546494757
0.6386499442530097   0.023437437662595265   0.03935061546494757
0.6386499442530097   0.023437437662595265   0.03935061546494757
0.6386499442530097   0.023437437662595265   0.03935061546494757
0.05155637620055002   -0.21313701616462724   0.028281795983756547
0.05155637620055002   -0.21313701616462724   0.028281795983756547
0.05155637620055002   -0.21313701616462724   0.028281795983756547
0.05155637620055002   -0.21313701616462724   0.028281795983756547
0.09102255828427411   -0.08035377349363415   0.015135852540484693
0.09102255828427411   -0.08035377349363415   0.015135852540484693
0.09102255828427411   -0.08035377349363415   0.015135852540484693
0.09102255828427411   -0.08035377349363415   0.015135852540484693
0.6225527090418161   -0.09789077573427603   0.01772956973672893
0.6225527090418161   -0.09789077573427603   0.01772956973672893
0.6225527090418161   -0.09789077573427603   0.01772956973672893
0.6225527090418161   -0.09789077573427603   0.01772956973672893
0.3380457999684199   -0.09317901406690521   -0.01841974712302813
0.3380457999684199   -0.09317901406690521   -0.01841974712302813
0.3380457999684199   -0.09317901406690521   -0.01841974712302813
0.3380457999684199   -0.09317901406690521   -0.01841974712302813
0.6523254224105729   0.03551675082731341   0.03318561001892366
0.6523254224105729   0.03551675082731341   0.03318561001892366
0.6523254224105729   0.03551675082731341   0.03318561001892366
0.6523254224105729   0.03551675082731341   0.03318561001892366
0.0690238502382588   -0.20598729473248173   0.030775833549257718
0.0690238502382588   -0.20598729473248173   0.030775833549257718
0.0690238502382588   -0.20598729473248173   0.030775833549257718
0.0690238502382588   -0.20598729473248173   0.030775833549257718
0.1170420681312781   -0.06112658294546083   0.00998929569950896
0.1170420681312781   -0.06112658294546083   0.00998929569950896
0.1170420681312781   -0.06112658294546083   0.00998929569950896
0.1170420681312781   -0.06112658294546083   0.00998929569950896
0.6384206361595444   -0.08766849163619521   0.021699079440144667
0.6384206361595444   -0.08766849163619521   0.021699079440144667
0.6384206361595444   -0.08766849163619521   0.021699079440144667
0.6384206361595444   -0.08766849163619521   0.021699079440144667
0.3633835632120469   -0.08128941072158648   0.003018935775696563
0.3633835632120469   -0.08128941072158648   0.003018935775696563
0.3633835632120469   -0.08128941072158648   0.003018935775696563
0.3633835632120469   -0.08128941072158648   0.003018935775696563
0.06911285356259833   -0.04130324774861188   0.030311882277645325
0.06911285356259833   -0.04130324774861188   0.030311882277645325
0.06911285356259833   -0.04130324774861188   0.030311882277645325
0.06911285356259833   -0.04130324774861188   0.030311882277645325
-0.531870218572031   -0.3766070905701877   0.03251402283251473
-0.531870218572031   -0.3766070905701877   0.03251402283251473
-0.531870218572031   -0.3766070905701877   0.03251402283251473
-0.531870218572031   -0.3766070905701877   0.03251402283251473
-0.4652265006602023   -0.14708016821792907   0.0020508311854703087
-0.4652265006602023   -0.14708016821792907   0.0020508311854703087
-0.4652265006602023   -0.14708016821792907   0.0020508311854703087
-0.4652265006602023   -0.14708016821792907   0.0020508311854703087
0.0364483726883706   -0.27296095261692516   0.012565714875157424
0.0364483726883706   -0.27296095261692516   0.012565714875157424
0.0364483726883706   -0.27296095261692516   0.012565714875157424
0.0364483726883706   -0.27296095261692516   0.012565714875157424
-0.2297744354772008   -0.2109795467562223   -0.04418745822428515
-0.2297744354772008   -0.2109795467562223   -0.04418745822428515
-0.2297744354772008   -0.2109795467562223   -0.04418745822428515
-0.2297744354772008   -0.2109795467562223   -0.04418745822428515
0.08685187283507519   -0.03229183929801386   0.023914102289768965
0.08685187283507519   -0.03229183929801386   0.023914102289768965
0.08685187283507519   -0.03229183929801386   0.023914102289768965
0.08685187283507519   -0.03229183929801386   0.023914102289768965
-0.5039083684279995   -0.37602764915793235   0.03758897328649166
-0.5039083684279995   -0.37602764915793235   0.03758897328649166
-0.5039083684279995   -0.37602764915793235   0.03758897328649166
-0.5039083684279995   -0.37602764915793235   0.03758897328649166
-0.43951551904079095   -0.13195711710731767   -0.00019784229677241583
-0.43951551904079095   -0.13195711710731767   -0.00019784229677241583
-0.43951551904079095   -0.13195711710731767   -0.00019784229677241583
-0.43951551904079095   -0.13195711710731767   -0.00019784229677241583
0.05431465284860934   -0.26684858556480434   0.018091137433332995
0.05431465284860934   -0.26684858556480434   0.018091137433332995
0.05431465284860934   -0.26684858556480434   0.018091137433332995
0.05431465284860934   -0.26684858556480434   0.018091137433332995
-0.20371297153275325   -0.20367210244271677   -0.01641473829066023
-0.20371297153275325   -0.20367210244271677   -0.01641473829066023
-0.20371297153275325   -0.20367210244271677   -0.01641473829066023
-0.20371297153275325   -0.20367210244271677   -0.01641473829066023
0.10307120103393191   -0.02032928839499191   0.015354581190133509
0.10307120103393191   -0.02032928839499191   0.015354581190133509
0.10307120103393191   -0.02032928839499191   0.015354581190133509
0.10307120103393191   -0.02032928839499191   0.015354581190133509
-0.4777137662008808   -0.36791811325189616   0.04477191804736377
-0.4777137662008808   -0.36791811325189616   0.04477191804736377
-0.4777137662008808   -0.36791811325189616   0.04477191804736377
-0.4777137662008808   -0.36791811325189616   0.04477191804736377
-0.39708208151898317   -0.11454630171389103   -0.005080603463169797
-0.39708208151898317   -0.11454630171389103   -0.005080603463169797
-0.39708208151898317   -0.11454630171389103   -0.005080603463169797
-0.39708208151898317   -0.11454630171389103   -0.005080603463169797
0.08219779073265152   -0.24997229569476484   0.024613621455680024
0.08219779073265152   -0.24997229569476484   0.024613621455680024
0.08219779073265152   -0.24997229569476484   0.024613621455680024
0.08219779073265152   -0.24997229569476484   0.024613621455680024
-0.16991506754104585   -0.18746932390034865   0.012590340061575986
-0.16991506754104585   -0.18746932390034865   0.012590340061575986
-0.16991506754104585   -0.18746932390034865   0.012590340061575986
-0.16991506754104585   -0.18746932390034865   0.012590340061575986
-0.4751812974227278   -0.07510363955642778   0.014455177565265459
-0.4751812974227278   -0.07510363955642778   0.014455177565265459
-0.4751812974227278   -0.07510363955642778   0.014455177565265459
-0.4751812974227278   -0.07510363955642778   0.014455177565265459
-1.181313666268862   -0.5856174175858309   -0.027118495615536586
-1.181313666268862   -0.5856174175858309   -0.027118495615536586
-1.181313666268862   -0.5856174175858309   -0.027118495615536586
-1.181313666268862   -0.5856174175858309   -0.027118495615536586
-1.0714163775791683   -0.1913730349001822   -0.03253323450349721
-1.0714163775791683   -0.1913730349001822   -0.03253323450349721
-1.0714163775791683   -0.1913730349001822   -0.03253323450349721
-1.0714163775791683   -0.1913730349001822   -0.03253323450349721
-0.5319895471872165   -0.48888012074253673   0.01003555107500706
-0.5319895471872165   -0.48888012074253673   0.01003555107500706
-0.5319895471872165   -0.48888012074253673   0.01003555107500706
-0.5319895471872165   -0.48888012074253673   0.01003555107500706
-0.8140724598570301   -0.34642807252985164   -0.04646493431317958
-0.8140724598570301   -0.34642807252985164   -0.04646493431317958
-0.8140724598570301   -0.34642807252985164   -0.04646493431317958
-0.8140724598570301   -0.34642807252985164   -0.04646493431317958
-0.4448247112682338   -0.05679344395984929   0.013773053887233058
-0.4448247112682338   -0.05679344395984929   0.013773053887233058
-0.4448247112682338   -0.05679344395984929   0.013773053887233058
-0.4448247112682338   -0.05679344395984929   0.013773053887233058
-1.155806098081405   -0.6206845962661175   -0.02517027564873847
-1.155806098081405   -0.6206845962661175   -0.02517027564873847
-1.155806098081405   -0.6206845962661175   -0.02517027564873847
-1.155806098081405   -0.6206845962661175   -0.02517027564873847
-1.0371322541336279   -0.17326264828404017   -0.03317794356728984
-1.0371322541336279   -0.17326264828404017   -0.03317794356728984
-1.0371322541336279   -0.17326264828404017   -0.03317794356728984
-1.0371322541336279   -0.17326264828404017   -0.03317794356728984
-0.5070233273357468   -0.48488792684616067   0.01519392596729574
-0.5070233273357468   -0.48488792684616067   0.01519392596729574
-0.5070233273357468   -0.48488792684616067   0.01519392596729574
-0.5070233273357468   -0.48488792684616067   0.01519392596729574
-0.7780067896981945   -0.3368808188188279   -0.032347141789065476
-0.7780067896981945   -0.3368808188188279   -0.032347141789065476
-0.7780067896981945   -0.3368808188188279   -0.032347141789065476
-0.7780067896981945   -0.3368808188188279   -0.032347141789065476
-0.4206371233889853   -0.042400524708887596   0.004637543563830476
-0.4206371233889853   -0.042400524708887596   0.004637543563830476
-0.4206371233889853   -0.042400524708887596   0.004637543563830476
-0.4206371233889853   -0.042400524708887596   0.004637543563830476
-1.1233772936130566   -0.6156088859539739   -0.022056903294491503
-1.1233772936130566   -0.6156088859539739   -0.022056903294491503
-1.1233772936130566   -0.6156088859539739   -0.022056903294491503
-1.1233772936130566   -0.6156088859539739   -0.022056903294491503
-0.9835975252509548   -0.1538365072669894   -0.037619573813459456
-0.9835975252509548   -0.1538365072669894   -0.037619573813459456
-0.9835975252509548   -0.1538365072669894   -0.037619573813459456
-0.9835975252509548   -0.1538365072669894   -0.037619573813459456
-0.45300058881265426   -0.43543134818399687   0.03621190653858855
-0.45300058881265426   -0.43543134818399687   0.03621190653858855
-0.45300058881265426   -0.43543134818399687   0.03621190653858855
-0.45300058881265426   -0.43543134818399687   0.03621190653858855
-0.7378505943329781   -0.3050281061671441   -0.01769126414448613
-0.7378505943329781   -0.3050281061671441   -0.01769126414448613
-0.7378505943329781   -0.3050281061671441   -0.01769126414448613
-0.7378505943329781   -0.3050281061671441   -0.01769126414448613
-1.0731028075067834   -0.06423808823499305   -0.0074435311559816475
-1.0731028075067834   -0.06423808823499305   -0.0074435311559816475
-1.0731028075067834   -0.06423808823499305   -0.0074435311559816475
-1.0731028075067834   -0.06423808823499305   -0.0074435311559816475
-1.8913962908833044   -0.3744126576990609   0.019333002387999842
-1.8913962908833044   -0.3744126576990609   0.019333002387999842
-1.8913962908833044   -0.3744126576990609   0.019333002387999842
-1.8913962908833044   -0.3744126576990609   0.019333002387999842
-1.8172694970894756   -0.17951618556819432   -0.03958871791088475
-1.8172694970894756   -0.17951618556819432   -0.03958871791088475
-1.8172694970894756   -0.17951618556819432   -0.03958871791088475
-1.8172694970894756   -0.17951618556819432   -0.03958871791088475
-1.050075770455091   -0.19454650070639734   0.07734326692310428
-1.050075770455091   -0.19454650070639734   0.07734326692310428
-1.050075770455091   -0.19454650070639734   0.07734326692310428
-1.050075770455091   -0.19454650070639734   0.07734326692310428
-1.398954896748537   -0.21697475357984686   0.019720904352935276
-1.398954896748537   -0.21697475357984686   0.019720904352935276
-1.398954896748537   -0.21697475357984686   0.019720904352935276
-1.398954896748537   -0.21697475357984686   0.019720904352935276
-1.0293844445682252   -0.013975626959632871   0.00022902261067214713
-1.0293844445682252   -0.013975626959632871   0.00022902261067214713
-1.0293844445682252   -0.013975626959632871   0.00022902261067214713
-1.0293844445682252   -0.013975626959632871   0.00022902261067214713
-1.8449503089996675   -0.36707654533828715   0.009567582308231681
-1.8449503089996675   -0.36707654533828715   0.009567582308231681
-1.8449503089996675   -0.36707654533828715   0.009567582308231681
-1.8449503089996675   -0.36707654533828715   0.009567582308231681
-1.7766496582969729   -0.16452197390924236   -0.05025902892517964
-1.7766496582969729   -0.16452197390924236   -0.05025902892517964
-1.7766496582969729   -0.16452197390924236   -0.05025902892517964
-1.7766496582969729   -0.16452197390924236   -0.05025902892517964
-1.0147912999535245   -0.18492118681738817   0.09018536586658354
-1.0147912999535245   -0.18492118681738817   0.09018536586658354
-1.0147912999535245   -0.18492118681738817   0.09018536586658354
-1.0147912999535245   -0.18492118681738817   0.09018536586658354
-1.3776925464982264   -0.17876916449761637   0.019033417377451234
-1.3776925464982264   -0.17876916449761637   0.019033417377451234
-1.3776925464982264   -0.17876916449761637   0.019033417377451234
-1.3776925464982264   -0.17876916449761637   0.019033417377451234
-0.99795820745226   -0.0007049580368003114   -0.009865400407682329
-0.99795820745226   -0.0007049580368003114   -0.009865400407682329
-0.99795820745226   -0.0007049580368003114   -0.009865400407682329
-0.99795820745226   -0.0007049580368003114   -0.009865400407682329
-1.7959865154350259   -0.3512419673266214   0.03977667880191904
-1.7959865154350259   -0.3512419673266214   0.03977667880191904
-1.7959865154350259   -0.3512419673266214   0.03977667880191904
-1.7959865154350259   -0.3512419673266214   0.03977667880191904
-1.6922777465181147   -0.13350833070062557   -0.0562811036432902
-1.6922777465181147   -0.13350833070062557   -0.0562811036432902
-1.6922777465181147   -0.13350833070062557   -0.0562811036432902
-1.6922777465181147   -0.13350833070062557   -0.0562811036432902
-0.9598569176445965   -0.17210166011554182   0.09934861706688736
-0.9598569176445965   -0.17210166011554182   0.09934861706688736
-0.9598569176445965   -0.17210166011554182   0.09934861706688736
-0.9598569176445965   -0.17210166011554182   0.09934861706688736
-1.295760530046775   -0.13671980859991228   0.039322915501057265
-1.295760530046775   -0.13671980859991228   0.039322915501057265
-1.295760530046775   -0.13671980859991228   0.039322915501057265
-1.295760530046775   -0.13671980859991228   0.039322915501057265
1.3592406539114439   0.0449710885316508   0.019037405802964424
1.3592406539114439   0.0449710885316508   0.019037405802964424
1.3592406539114439   0.0449710885316508   0.019037405802964424
1.3592406539114439   0.0449710885316508   0.019037405802964424
0.6933796047607933   -0.036788606735482336   0.0138347908786918
0.6933796047607933   -0.036788606735482336   0.0138347908786918
0.6933796047607933   -0.036788606735482336   0.0138347908786918
0.6933796047607933   -0.036788606735482336   0.0138347908786918
0.6664905061670315   -0.09766957025970478   0.0274461338400607
0.6664905061670315   -0.09766957025970478   0.0274461338400607
0.6664905061670315   -0.09766957025970478   0.0274461338400607
0.6664905061670315   -0.09766957025970478   0.0274461338400607
1.3493997719246378   0.07599879170929041   0.009948867814849549
1.3493997719246378   0.07599879170929041   0.009948867814849549
1.3493997719246378   0.07599879170929041   0.009948867814849549
1.3493997719246378   0.07599879170929041   0.009948867814849549
0.9629228879199669   -0.013562674480332548   -0.03559548342833593
0.9629228879199669   -0.013562674480332548   -0.03559548342833593
0.9629228879199669   -0.013562674480332548   -0.03559548342833593
0.9629228879199669   -0.013562674480332548   -0.03559548342833593
1.3420936025526593   0.034870987318548305   0.014545825345698593
1.3420936025526593   0.034870987318548305   0.014545825345698593
1.3420936025526593   0.034870987318548305   0.014545825345698593
1.3420936025526593   0.034870987318548305   0.014545825345698593
0.6716078516021503   -0.058730589805822506   0.014093880561772326
0.6716078516021503   -0.058730589805822506   0.014093880561772326
0.6716078516021503   -0.058730589805822506   0.014093880561772326
0.6716078516021503   -0.058730589805822506   0.014093880561772326
0.6493103112449468   -0.09988663057782093   0.022681919208645707
0.6493103112449468   -0.09988663057782093   0.022681919208645707
0.6493103112449468   -0.09988663057782093   0.022681919208645707
0.6493103112449468   -0.09988663057782093   0.022681919208645707
1.3337263064236713   0.07275333273820182   0.017330679653907832
1.3337263064236713   0.07275333273820182   0.017330679653907832
1.3337263064236713   0.07275333273820182   0.017330679653907832
1.3337263064236713   0.07275333273820182   0.017330679653907832
0.9602005384643328   -0.018701380275691418   -0.04110757756488223
0.9602005384643328   -0.018701380275691418   -0.04110757756488223
0.9602005384643328   -0.018701380275691418   -0.04110757756488223
0.9602005384643328   -0.018701380275691418   -0.04110757756488223
1.3228064792117866   0.031144328700289006   0.004340547632386393
1.3228064792117866   0.031144328700289006   0.004340547632386393
1.3228064792117866   0.031144328700289006   0.004340547632386393
1.3228064792117866   0.031144328700289006   0.004340547632386393
0.6562847333912094   -0.06222303160553706   0.01989043096767512
0.6562847333912094   -0.06222303160553706   0.01989043096767512
0.6562847333912094   -0.06222303160553706   0.01989043096767512
0.6562847333912094   -0.06222303160553706   0.01989043096767512
0.6312043751572143   -0.09100688898914759   0.019588147769088154
0.6312043751572143   -0.09100688898914759   0.019588147769088154
0.6312043751572143   -0.09100688898914759   0.019588147769088154
0.6312043751572143   -0.09100688898914759   0.019588147769088154
1.3095957250618908   0.073706424051123   0.025013967980474672
1.3095957250618908   0.073706424051123   0.025013967980474672
1.3095957250618908   0.073706424051123   0.025013967980474672
1.3095957250618908   0.073706424051123   0.025013967980474672
0.9242646829806344   -0.018793390044855793   -0.05541487973357534
0.9242646829806344   -0.018793390044855793   -0.05541487973357534
0.9242646829806344   -0.018793390044855793   -0.05541487973357534
0.9242646829806344   -0.018793390044855793   -0.05541487973357534
0.6875600359160203   -0.08603801160204529   0.03398635152139036
0.6875600359160203   -0.08603801160204529   0.03398635152139036
0.6875600359160203   -0.08603801160204529   0.03398635152139036
0.6875600359160203   -0.08603801160204529   0.03398635152139036
0.1319974641686201   -0.08184749595385345   0.007087076238708995
0.1319974641686201   -0.08184749595385345   0.007087076238708995
0.1319974641686201   -0.08184749595385345   0.007087076238708995
0.1319974641686201   -0.08184749595385345   0.007087076238708995
0.08561074999144298   -0.204775442116009   0.036035292435954755
0.08561074999144298   -0.204775442116009   0.036035292435954755
0.08561074999144298   -0.204775442116009   0.036035292435954755
0.08561074999144298   -0.204775442116009   0.036035292435954755
0.6912168210527145   0.027206818770498166   0.026201319238272153
0.6912168210527145   0.027206818770498166   0.026201319238272153
0.6912168210527145   0.027206818770498166   0.026201319238272153
0.6912168210527145   0.027206818770498166   0.026201319238272153
0.3929548538906497   -0.08671313560012806   -0.0015404693661861951
0.3929548538906497   -0.08671313560012806   -0.0015404693661861951
0.3929548538906497   -0.08671313560012806   -0.0015404693661861951
0.3929548538906497   -0.08671313560012806   -0.0015404693661861951
0.6682870295215475   -0.08974617385549268   0.02850535420843188
0.6682870295215475   -0.08974617385549268   0.02850535420843188
0.6682870295215475   -0.08974617385549268   0.02850535420843188
0.6682870295215475   -0.08974617385549268   0.02850535420843188
0.10274578467006629   -0.09361720634256662   0.010552230055627068
0.10274578467006629   -0.09361720634256662   0.010552230055627068
0.10274578467006629   -0.09361720634256662   0.010552230055627068
0.10274578467006629   -0.09361720634256662   0.010552230055627068
0.06480796743348782   -0.20653514011524332   0.0322524894402209
0.06480796743348782   -0.20653514011524332   0.0322524894402209
0.06480796743348782   -0.20653514011524332   0.0322524894402209
0.06480796743348782   -0.20653514011524332   0.0322524894402209
0.6753762812619781   0.02210954521756585   0.03101559349841554
0.6753762812619781   0.02210954521756585   0.03101559349841554
0.6753762812619781   0.02210954521756585   0.03101559349841554
0.6753762812619781   0.02210954521756585   0.03101559349841554
0.36467743566098737   -0.09239582987827619   -0.018763054202323243
0.36467743566098737   -0.09239582987827619   -0.018763054202323243
0.36467743566098737   -0.09239582987827619   -0.018763054202323243
0.36467743566098737   -0.09239582987827619   -0.018763054202323243
0.6512795647557282   -0.09096917275157844   0.02361072893630478
0.6512795647557282   -0.09096917275157844   0.02361072893630478
0.6512795647557282   -0.09096917275157844   0.02361072893630478
0.6512795647557282   -0.09096917275157844   0.02361072893630478
0.08260408795159446   -0.09975701813424319   0.014454970049754025
0.08260408795159446   -0.09975701813424319   0.014454970049754025
0.08260408795159446   -0.09975701813424319   0.014454970049754025
0.08260408795159446   -0.09975701813424319   0.014454970049754025
0.04153706449565766   -0.20634357790370284   0.025207219766493275
0.04153706449565766   -0.20634357790370284   0.025207219766493275
0.04153706449565766   -0.20634357790370284   0.025207219766493275
0.04153706449565766   -0.20634357790370284   0.025207219766493275
0.6573985641198282   0.02249533346542214   0.03705687012759033
0.6573985641198282   0.02249533346542214   0.03705687012759033
0.6573985641198282   0.02249533346542214   0.03705687012759033
0.6573985641198282   0.02249533346542214   0.03705687012759033
0.347454702138442   -0.0916104950205334   -0.03339160671394422
0.347454702138442   -0.0916104950205334   -0.03339160671394422
0.347454702138442   -0.0916104950205334   -0.03339160671394422
0.347454702138442   -0.0916104950205334   -0.03339160671394422
0.1030362699681054   -0.25003489631017245   0.03046850559245455
0.1030362699681054   -0.25003489631017245   0.03046850559245455
0.1030362699681054   -0.25003489631017245   0.03046850559245455
0.1030362699681054   -0.25003489631017245   0.03046850559245455
-0.40779650761870145   -0.1267811281930929   0.0002924059777038579
-0.40779650761870145   -0.1267811281930929   0.0002924059777038579
-0.40779650761870145   -0.1267811281930929   0.0002924059777038579
-0.40779650761870145   -0.1267811281930929   0.0002924059777038579
-0.4917152423727343   -0.3728474285071826   0.041296950484975115
-0.4917152423727343   -0.3728474285071826   0.041296950484975115
-0.4917152423727343   -0.3728474285071826   0.041296950484975115
-0.4917152423727343   -0.3728474285071826   0.041296950484975115
0.11852921088465053   -0.020758974988920455   0.016611129774902065
0.11852921088465053   -0.020758974988920455   0.016611129774902065
0.11852921088465053   -0.020758974988920455   0.016611129774902065
0.11852921088465053   -0.020758974988920455   0.016611129774902065
-0.1672492447783593   -0.1898877373138924   0.007175220499770013
-0.1672492447783593   -0.1898877373138924   0.007175220499770013
-0.1672492447783593   -0.1898877373138924   0.007175220499770013
-0.1672492447783593   -0.1898877373138924   0.007175220499770013
0.07090813154354349   -0.26419399350402706   0.021940751584475282
0.07090813154354349   -0.26419399350402706   0.021940751584475282
0.07090813154354349   -0.26419399350402706   0.021940751584475282
0.07090813154354349   -0.26419399350402706   0.021940751584475282
-0.4522178002470983   -0.13753604720755253   0.0034727798135212873
-0.4522178002470983   -0.13753604720755253   0.0034727798135212873
-0.4522178002470983   -0.13753604720755253   0.0034727798135212873
-0.4522178002470983   -0.13753604720755253   0.0034727798135212873
-0.5206664429131798   -0.3787233901662712   0.03369821018778782
-0.5206664429131798   -0.3787233901662712   0.03369821018778782
-0.5206664429131798   -0.3787233901662712   0.03369821018778782
-0.5206664429131798   -0.3787233901662712   0.03369821018778782
0.09903170516353246   -0.02641401453969434   0.023250052514895137
0.09903170516353246   -0.02641401453969434   0.023250052514895137
0.09903170516353246   -0.02641401453969434   0.023250052514895137
0.09903170516353246   -0.02641401453969434   0.023250052514895137
-0.20343954720001423   -0.201367949193334   -0.016981429348294455
-0.20343954720001423   -0.201367949193334   -0.016981429348294455
-0.20343954720001423   -0.201367949193334   -0.016981429348294455
-0.20343954720001423   -0.201367949193334   -0.016981429348294455
0.04874910252802145   -0.2687460984633825   0.014169123261030099
0.04874910252802145   -0.2687460984633825   0.014169123261030099
0.04874910252802145   -0.2687460984633825   0.014169123261030099
0.04874910252802145   -0.2687460984633825   0.014169123261030099
-0.48006808252760963   -0.14607554849252447   0.004042170441886539
-0.48006808252760963   -0.14607554849252447   0.004042170441886539
-0.48006808252760963   -0.14607554849252447   0.004042170441886539
-0.48006808252760963   -0.14607554849252447   0.004042170441886539
-0.5520710511947043   -0.37609580378289204   0.028264922942399906
-0.5520710511947043   -0.37609580378289204   0.028264922942399906
-0.5520710511947043   -0.37609580378289204   0.028264922942399906
-0.5520710511947043   -0.37609580378289204   0.028264922942399906
0.07734492682799048   -0.029542989939523055   0.02744594346397764
0.07734492682799048   -0.029542989939523055   0.02744594346397764
0.07734492682799048   -0.029542989939523055   0.02744594346397764
0.07734492682799048   -0.029542989939523055   0.02744594346397764
-0.2328242601776572   -0.20570424097521806   -0.041157266350094035
-0.2328242601776572   -0.20570424097521806   -0.041157266350094035
-0.2328242601776572   -0.20570424097521806   -0.041157266350094035
-0.2328242601776572   -0.20570424097521806   -0.041157266350094035
-0.4610323759029135   -0.4288925609306861   0.03622449729423857
-0.4610323759029135   -0.4288925609306861   0.03622449729423857
-0.4610323759029135   -0.4288925609306861   0.03622449729423857
-0.4610323759029135   -0.4288925609306861   0.03622449729423857
-1.0207216333301747   -0.1577739290909832   -0.023527276484938187
-1.0207216333301747   -0.1577739290909832   -0.023527276484938187
-1.0207216333301747   -0.1577739290909832   -0.023527276484938187
-1.0207216333301747   -0.1577739290909832   -0.023527276484938187
-1.16743847890598   -0.6243968877358788   -0.03209935217296983
-1.16743847890598   -0.6243968877358788   -0.03209935217296983
-1.16743847890598   -0.6243968877358788   -0.03209935217296983
-1.16743847890598   -0.6243968877358788   -0.03209935217296983
-0.429491618898926   -0.034784975011206254   0.01435261435803628
-0.429491618898926   -0.034784975011206254   0.01435261435803628
-0.429491618898926   -0.034784975011206254   0.01435261435803628
-0.429491618898926   -0.034784975011206254   0.01435261435803628
-0.7622576286042021   -0.29923735862062706   -0.025454298914422246
-0.7622576286042021   -0.29923735862062706   -0.025454298914422246
-0.7622576286042021   -0.29923735862062706   -0.025454298914422246
-0.7622576286042021   -0.29923735862062706   -0.025454298914422246
-0.5201482588304405   -0.4860517377902762   0.012336177479533916
-0.5201482588304405   -0.4860517377902762   0.012336177479533916
-0.5201482588304405   -0.4860517377902762   0.012336177479533916
-0.5201482588304405   -0.4860517377902762   0.012336177479533916
-1.0745210410050015   -0.17086932698735147   -0.021039723416614364
-1.0745210410050015   -0.17086932698735147   -0.021039723416614364
-1.0745210410050015   -0.17086932698735147   -0.021039723416614364
-1.0745210410050015   -0.17086932698735147   -0.021039723416614364
-1.2019028055191665   -0.6343261950551157   -0.037117936894090375
-1.2019028055191665   -0.6343261950551157   -0.037117936894090375
-1.2019028055191665   -0.6343261950551157   -0.037117936894090375
-1.2019028055191665   -0.6343261950551157   -0.037117936894090375
-0.4562088065225814   -0.044098988354526705   0.021361990329029815
-0.4562088065225814   -0.044098988354526705   0.021361990329029815
-0.4562088065225814   -0.044098988354526705   0.021361990329029815
-0.4562088065225814   -0.044098988354526705   0.021361990329029815
-0.8044067887055324   -0.33167670431752627   -0.03630256372903415
-0.8044067887055324   -0.33167670431752627   -0.03630256372903415
-0.8044067887055324   -0.33167670431752627   -0.03630256372903415
-0.8044067887055324   -0.33167670431752627   -0.03630256372903415
-0.5497970500845777   -0.49551424979706793   0.004836033961589659
-0.5497970500845777   -0.49551424979706793   0.004836033961589659
-0.5497970500845777   -0.49551424979706793   0.004836033961589659
-0.5497970500845777   -0.49551424979706793   0.004836033961589659
-1.1085620742565145   -0.18315844591192515   -0.021582029724029228
-1.1085620742565145   -0.18315844591192515   -0.021582029724029228
-1.1085620742565145   -0.18315844591192515   -0.021582029724029228
-1.1085620742565145   -0.18315844591192515   -0.021582029724029228
-1.2312633280966025   -0.6066966082797765   -0.041851654656361204
-1.2312633280966025   -0.6066966082797765   -0.041851654656361204
-1.2312633280966025   -0.6066966082797765   -0.041851654656361204
-1.2312633280966025   -0.6066966082797765   -0.041851654656361204
-0.4899945943744051   -0.05726714542502383   0.019818548686027948
-0.4899945943744051   -0.05726714542502383   0.019818548686027948
-0.4899945943744051   -0.05726714542502383   0.019818548686027948
-0.4899945943744051   -0.05726714542502383   0.019818548686027948
-0.843297004361488   -0.3426875140573657   -0.04672829094701253
-0.843297004361488   -0.3426875140573657   -0.04672829094701253
-0.843297004361488   -0.3426875140573657   -0.04672829094701253
-0.843297004361488   -0.3426875140573657   -0.04672829094701253
-1.0032160688068181   -0.1828315752943293   0.0890581923351717
-1.0032160688068181   -0.1828315752943293   0.0890581923351717
-1.0032160688068181   -0.1828315752943293   0.0890581923351717
-1.0032160688068181   -0.1828315752943293   0.0890581923351717
-1.7635866432489036   -0.13161904482508358   -0.030996461162684452
-1.7635866432489036   -0.13161904482508358   -0.030996461162684452
-1.7635866432489036   -0.13161904482508358   -0.030996461162684452
-1.7635866432489036   -0.13161904482508358   -0.030996461162684452
-1.8710963374543157   -0.3693376693418137   0.02440799074524702
-1.8710963374543157   -0.3693376693418137   0.02440799074524702
-1.8710963374543157   -0.3693376693418137   0.02440799074524702
-1.8710963374543157   -0.3693376693418137   0.02440799074524702
-1.0313167153069713   0.015170070956905458   0.008942507129279437
-1.0313167153069713   0.015170070956905458   0.008942507129279437
-1.0313167153069713   0.015170070956905458   0.008942507129279437
-1.0313167153069713   0.015170070956905458   0.008942507129279437
-1.3498140202350601   -0.12971693721694996   0.027058246633587968
-1.3498140202350601   -0.12971693721694996   0.027058246633587968
-1.3498140202350601   -0.12971693721694996   0.027058246633587968
-1.3498140202350601   -0.12971693721694996   0.027058246633587968
-1.0595636279100182   -0.19611426880651178   0.07899228387745932
-1.0595636279100182   -0.19611426880651178   0.07899228387745932
-1.0595636279100182   -0.19611426880651178   0.07899228387745932
-1.0595636279100182   -0.19611426880651178   0.07899228387745932
-1.8382027777132528   -0.1534066824403787   -0.027055197450859936
-1.8382027777132528   -0.1534066824403787   -0.027055197450859936
-1.8382027777132528   -0.1534066824403787   -0.027055197450859936
-1.8382027777132528   -0.1534066824403787   -0.027055197450859936
-1.9165236786664124   -0.38496988775497337   -0.008325760108454539
-1.9165236786664124   -0.38496988775497337   -0.008325760108454539
-1.9165236786664124   -0.38496988775497337   -0.008325760108454539
-1.9165236786664124   -0.38496988775497337   -0.008325760108454539
-1.0634184746008362   0.004685722817290988   0.016291799825147196
-1.0634184746008362   0.004685722817290988   0.016291799825147196
-1.0634184746008362   0.004685722817290988   0.016291799825147196
-1.0634184746008362   0.004685722817290988   0.016291799825147196
-1.430115315459119   -0.17114759346078462   0.01107582118844197
-1.430115315459119   -0.17114759346078462   0.01107582118844197
-1.430115315459119   -0.17114759346078462   0.01107582118844197
-1.430115315459119   -0.17114759346078462   0.01107582118844197
-1.0957543288606613   -0.2060760129195581   0.06537426426287074
-1.0957543288606613   -0.2060760129195581   0.06537426426287074
-1.0957543288606613   -0.2060760129195581   0.06537426426287074
-1.0957543288606613   -0.2060760129195581   0.06537426426287074
-1.8747937895617028   -0.16481411717323713   -0.01983208516662671
-1.8747937895617028   -0.16481411717323713   -0.01983208516662671
-1.8747937895617028   -0.16481411717323713   -0.01983208516662671
-1.8747937895617028   -0.16481411717323713   -0.01983208516662671
-1.9558541998491052   -0.39120888843014123   -0.00019024230160080702
-1.9558541998491052   -0.39120888843014123   -0.00019024230160080702
-1.9558541998491052   -0.39120888843014123   -0.00019024230160080702
-1.9558541998491052   -0.39120888843014123   -0.00019024230160080702
-1.10853627798364   -0.04163985923688554   0.006726846865554026
-1.10853627798364   -0.04163985923688554   0.006726846865554026
-1.10853627798364   -0.04163985923688554   0.006726846865554026
-1.10853627798364   -0.04163985923688554   0.006726846865554026
-1.4472177597857943   -0.20667140863515218   0.01745983200903173
-1.4472177597857943   -0.20667140863515218   0.01745983200903173
-1.4472177597857943   -0.20667140863515218   0.01745983200903173
-1.4472177597857943   -0.20667140863515218   0.01745983200903173
1.192196589188791   0.05507242349952424   -0.02567704237427304
1.192196589188791   0.05507242349952424   -0.02567704237427304
1.192196589188791   0.05507242349952424   -0.02567704237427304
1.192196589188791   0.05507242349952424   -0.02567704237427304
0.5995954980931527   -0.012381060155604702   0.01254533104370148
0.5995954980931527   -0.012381060155604702   0.01254533104370148
0.5995954980931527   -0.012381060155604702   0.01254533104370148
0.5995954980931527   -0.012381060155604702   0.01254533104370148
0.5616905624097935   -0.0880852947974278   -0.022762355203897244
0.5616905624097935   -0.0880852947974278   -0.022762355203897244
0.5616905624097935   -0.0880852947974278   -0.022762355203897244
0.5616905624097935   -0.0880852947974278   -0.022762355203897244
1.178458830829477   0.08594012875387079   0.014677838579018831
1.178458830829477   0.08594012875387079   0.014677838579018831
1.178458830829477   0.08594012875387079   0.014677838579018831
1.178458830829477   0.08594012875387079   0.014677838579018831
0.8367022294040956   0.0020585312103792164   -0.032312475253004486
0.8367022294040956   0.0020585312103792164   -0.032312475253004486
0.8367022294040956   0.0020585312103792164   -0.032312475253004486
0.8367022294040956   0.0020585312103792164   -0.032312475253004486
1.1593068791762542   0.030801734508334025   -0.025943525441548765
1.1593068791762542   0.030801734508334025   -0.025943525441548765
1.1593068791762542   0.030801734508334025   -0.025943525441548765
1.1593068791762542   0.030801734508334025   -0.025943525441548765
0.5797858945010186   -0.0340035201138882   0.01363253056868241
0.5797858945010186   -0.0340035201138882   0.01363253056868241
0.5797858945010186   -0.0340035201138882   0.01363253056868241
0.5797858945010186   -0.0340035201138882   0.01363253056868241
0.5412709235127575   -0.09296808041016351   -0.018821003176974438
0.5412709235127575   -0.09296808041016351   -0.018821003176974438
0.5412709235127575   -0.09296808041016351   -0.018821003176974438
0.5412709235127575   -0.09296808041016351   -0.018821003176974438
1.1501135784344707   0.07900508875790008   0.021510955123842018
1.1501135784344707   0.07900508875790008   0.021510955123842018
1.1501135784344707   0.07900508875790008   0.021510955123842018
1.1501135784344707   0.07900508875790008   0.021510955123842018
0.8256642089817723   -0.00829592079534805   -0.03849288495020886
0.8256642089817723   -0.00829592079534805   -0.03849288495020886
0.8256642089817723   -0.00829592079534805   -0.03849288495020886
0.8256642089817723   -0.00829592079534805   -0.03849288495020886
1.1308158200869576   0.02459212497409398   -0.020564872829917757
1.1308158200869576   0.02459212497409398   -0.020564872829917757
1.1308158200869576   0.02459212497409398   -0.020564872829917757
1.1308158200869576   0.02459212497409398   -0.020564872829917757
0.5590944754232288   -0.04002932306339424   0.01735799902861246
0.5590944754232288   -0.04002932306339424   0.01735799902861246
0.5590944754232288   -0.04002932306339424   0.01735799902861246
0.5590944754232288   -0.04002932306339424   0.01735799902861246
0.5215100314271477   -0.0914973842632504   -0.012919379956679883
0.5215100314271477   -0.0914973842632504   -0.012919379956679883
0.5215100314271477   -0.0914973842632504   -0.012919379956679883
0.5215100314271477   -0.0914973842632504   -0.012919379956679883
1.11503172009908   0.07438716151079472   0.028040664634309098
1.11503172009908   0.07438716151079472   0.028040664634309098
1.11503172009908   0.07438716151079472   0.028040664634309098
1.11503172009908   0.07438716151079472   0.028040664634309098
0.785014431028677   -0.014453696630871718   -0.050507967294611794
0.785014431028677   -0.014453696630871718   -0.050507967294611794
0.785014431028677   -0.014453696630871718   -0.050507967294611794
0.785014431028677   -0.014453696630871718   -0.050507967294611794
0.6030841008056788   0.012061560846634962   0.005545723604092362
0.6030841008056788   0.012061560846634962   0.005545723604092362
0.6030841008056788   0.012061560846634962   0.005545723604092362
0.6030841008056788   0.012061560846634962   0.005545723604092362
0.057144584851427774   -0.03629612588368844   -0.0014674259913497138
0.057144584851427774   -0.03629612588368844   -0.0014674259913497138
0.057144584851427774   -0.03629612588368844   -0.0014674259913497138
0.057144584851427774   -0.03629612588368844   -0.0014674259913497138
0.021423903775767864   -0.11637880818996216   -0.02193389828708281
0.021423903775767864   -0.11637880818996216   -0.02193389828708281
0.021423903775767864   -0.11637880818996216   -0.02193389828708281
0.021423903775767864   -0.11637880818996216   -0.02193389828708281
0.6037579041671854   0.06969586207999992   0.029793196705628966
0.6037579041671854   0.06969586207999992   0.029793196705628966
0.6037579041671854   0.06969586207999992   0.029793196705628966
0.6037579041671854   0.06969586207999992   0.029793196705628966
0.31545709263144484   -0.01621496417684537   -0.012438315645742964
0.31545709263144484   -0.01621496417684537   -0.012438315645742964
0.31545709263144484   -0.01621496417684537   -0.012438315645742964
0.31545709263144484   -0.01621496417684537   -0.012438315645742964
0.5863005523764011   0.0028531342949359023   0.009349165536774173
0.5863005523764011   0.0028531342949359023   0.009349165536774173
0.5863005523764011   0.0028531342949359023   0.009349165536774173
0.5863005523764011   0.0028531342949359023   0.009349165536774173
0.03954933943325217   -0.048867996538197664   0.0011824683485742683
0.03954933943325217   -0.048867996538197664   0.0011824683485742683
0.03954933943325217   -0.048867996538197664   0.0011824683485742683
0.03954933943325217   -0.048867996538197664   0.0011824683485742683
0.0017346814354696413   -0.12188250344996729   -0.0153030500127724
0.0017346814354696413   -0.12188250344996729   -0.0153030500127724
0.0017346814354696413   -0.12188250344996729   -0.0153030500127724
0.0017346814354696413   -0.12188250344996729   -0.0153030500127724
0.5821462109086589   0.059735046266150435   0.03285230712621823
0.5821462109086589   0.059735046266150435   0.03285230712621823
0.5821462109086589   0.059735046266150435   0.03285230712621823
0.5821462109086589   0.059735046266150435   0.03285230712621823
0.2927689104450441   -0.025396441335272277   -0.01760969655464739
0.2927689104450441   -0.025396441335272277   -0.01760969655464739
0.2927689104450441   -0.025396441335272277   -0.01760969655464739
0.2927689104450441   -0.025396441335272277   -0.01760969655464739
0.5656733949435473   -0.003324580027028387   0.013547853593844444
0.5656733949435473   -0.003324580027028387   0.013547853593844444
0.5656733949435473   -0.003324580027028387   0.013547853593844444
0.5656733949435473   -0.003324580027028387   0.013547853593844444
0.018117525954370158   -0.05891284860299864   0.0036415177347615332
0.018117525954370158   -0.05891284860299864   0.0036415177347615332
0.018117525954370158   -0.05891284860299864   0.0036415177347615332
0.018117525954370158   -0.05891284860299864   0.0036415177347615332
-0.0193930296230977   -0.12236767632953585   -0.010466585104242938
-0.0193930296230977   -0.12236767632953585   -0.010466585104242938
-0.0193930296230977   -0.12236767632953585   -0.010466585104242938
-0.0193930296230977   -0.12236767632953585   -0.010466585104242938
0.5603402779911603   0.053434537037713684   0.03629993156242031
0.5603402779911603   0.053434537037713684   0.03629993156242031
0.5603402779911603   0.053434537037713684   0.03629993156242031
0.5603402779911603   0.053434537037713684   0.03629993156242031
0.2750710401066481   -0.02901111312109013   -0.02203415358266815
0.2750710401066481   -0.02901111312109013   -0.02203415358266815
0.2750710401066481   -0.02901111312109013   -0.02203415358266815
0.2750710401066481   -0.02901111312109013   -0.02203415358266815
0.05849054323239178   -0.03315745934371043   0.0021236993734923193
0.05849054323239178   -0.03315745934371043   0.0021236993734923193
0.05849054323239178   -0.03315745934371043   0.0021236993734923193
0.05849054323239178   -0.03315745934371043   0.0021236993734923193
-0.46729725132998506   -0.05394846359737288   -0.014686383886148402
-0.46729725132998506   -0.05394846359737288   -0.014686383886148402
-0.46729725132998506   -0.05394846359737288   -0.014686383886148402
-0.46729725132998506   -0.05394846359737288   -0.014686383886148402
-0.507010051554803   -0.15419569673539293   -0.025033216517976076
-0.507010051554803   -0.15419569673539293   -0.025033216517976076
-0.507010051554803   -0.15419569673539293   -0.025033216517976076
-0.507010051554803   -0.15419569673539293   -0.025033216517976076
0.06274097315564425   0.05113463631342172   0.017138004108915226
0.06274097315564425   0.05113463631342172   0.017138004108915226
0.06274097315564425   0.05113463631342172   0.017138004108915226
0.06274097315564425   0.05113463631342172   0.017138004108915226
-0.21388891676578228   -0.04526811091093405   -0.012325289766493074
-0.21388891676578228   -0.04526811091093405   -0.012325289766493074
-0.21388891676578228   -0.04526811091093405   -0.012325289766493074
-0.21388891676578228   -0.04526811091093405   -0.012325289766493074
0.04369034765388818   -0.037037559172790134   0.010057072086346739
0.04369034765388818   -0.037037559172790134   0.010057072086346739
0.04369034765388818   -0.037037559172790134   0.010057072086346739
0.04369034765388818   -0.037037559172790134   0.010057072086346739
-0.4864959527963359   -0.06456002799246997   -0.012098391468563174
-0.4864959527963359   -0.06456002799246997   -0.012098391468563174
-0.4864959527963359   -0.06456002799246997   -0.012098391468563174
-0.4864959527963359   -0.06456002799246997   -0.012098391468563174
-0.5300928318492446   -0.16021659985240444   -0.01663833703587836
-0.5300928318492446   -0.16021659985240444   -0.01663833703587836
-0.5300928318492446   -0.16021659985240444   -0.01663833703587836
-0.5300928318492446   -0.16021659985240444   -0.01663833703587836
0.04114082181390368   0.04047565358090501   0.019369494848525487
0.04114082181390368   0.04047565358090501   0.019369494848525487
0.04114082181390368   0.04047565358090501   0.019369494848525487
0.04114082181390368   0.04047565358090501   0.019369494848525487
-0.2329920098255759   -0.05159731819476862   -0.014777497973138536
-0.2329920098255759   -0.05159731819476862   -0.014777497973138536
-0.2329920098255759   -0.05159731819476862   -0.014777497973138536
-0.2329920098255759   -0.05159731819476862   -0.014777497973138536
0.02325065514527062   -0.043451143357560576   0.013845458443825778
0.02325065514527062   -0.043451143357560576   0.013845458443825778
0.02325065514527062   -0.043451143357560576   0.013845458443825778
0.02325065514527062   -0.043451143357560576   0.013845458443825778
-0.5118916916367966   -0.075978829370124   -0.009870406455919259
-0.5118916916367966   -0.075978829370124   -0.009870406455919259
-0.5118916916367966   -0.075978829370124   -0.009870406455919259
-0.5118916916367966   -0.075978829370124   -0.009870406455919259
-0.5556972807041729   -0.16459826253930776   -0.014788212002782408
-0.5556972807041729   -0.16459826253930776   -0.014788212002782408
-0.5556972807041729   -0.16459826253930776   -0.014788212002782408
-0.5556972807041729   -0.16459826253930776   -0.014788212002782408
0.01777591298046372   0.031378905602872334   0.021631545981154056
0.01777591298046372   0.031378905602872334   0.021631545981154056
0.01777591298046372   0.031378905602872334   0.021631545981154056
0.01777591298046372   0.031378905602872334   0.021631545981154056
-0.2578013116064298   -0.059174012478582325   -0.020694944807205316
-0.2578013116064298   -0.059174012478582325   -0.020694944807205316
-0.2578013116064298   -0.059174012478582325   -0.020694944807205316
-0.2578013116064298   -0.059174012478582325   -0.020694944807205316
-0.4599992614780594   -0.03946081589029417   0.007315917666391641
-0.4599992614780594   -0.03946081589029417   0.007315917666391641
-0.4599992614780594   -0.03946081589029417   0.007315917666391641
-0.4599992614780594   -0.03946081589029417   0.007315917666391641
-0.9794419607670787   -0.06315359582694187   -0.02582293816645187
-0.9794419607670787   -0.06315359582694187   -0.02582293816645187
-0.9794419607670787   -0.06315359582694187   -0.02582293816645187
-0.9794419607670787   -0.06315359582694187   -0.02582293816645187
-1.024559817004668   -0.161684544775302   -0.02507703635670061
-1.024559817004668   -0.161684544775302   -0.02507703635670061
-1.024559817004668   -0.161684544775302   -0.02507703635670061
-1.024559817004668   -0.161684544775302   -0.02507703635670061
-0.4623548923616942   0.03912925173765452   0.0049176309745152524
-0.4623548923616942   0.03912925173765452   0.0049176309745152524
-0.4623548923616942   0.03912925173765452   0.0049176309745152524
-0.4623548923616942   0.03912925173765452   0.0049176309745152524
-0.7255751364779203   -0.053687371821338224   -0.010313716011643215
-0.7255751364779203   -0.053687371821338224   -0.010313716011643215
-0.7255751364779203   -0.053687371821338224   -0.010313716011643215
-0.7255751364779203   -0.053687371821338224   -0.010313716011643215
-0.47638630567085943   -0.04354706000327527   0.0174368761696245
-0.47638630567085943   -0.04354706000327527   0.0174368761696245
-0.47638630567085943   -0.04354706000327527   0.0174368761696245
-0.47638630567085943   -0.04354706000327527   0.0174368761696245
-1.007669130729925   -0.07614896006879995   -0.026159189689495627
-1.007669130729925   -0.07614896006879995   -0.026159189689495627
-1.007669130729925   -0.07614896006879995   -0.026159189689495627
-1.007669130729925   -0.07614896006879995   -0.026159189689495627
-1.0564745509258169   -0.17195400760587626   -0.01764736152448243
-1.0564745509258169   -0.17195400760587626   -0.01764736152448243
-1.0564745509258169   -0.17195400760587626   -0.01764736152448243
-1.0564745509258169   -0.17195400760587626   -0.01764736152448243
-0.4880322994150554   0.02745115039706332   0.00599657488559957
-0.4880322994150554   0.02745115039706332   0.00599657488559957
-0.4880322994150554   0.02745115039706332   0.00599657488559957
-0.4880322994150554   0.02745115039706332   0.00599657488559957
-0.7457031036529521   -0.05934244052821451   -0.010323631849982362
-0.7457031036529521   -0.05934244052821451   -0.010323631849982362
-0.7457031036529521   -0.05934244052821451   -0.010323631849982362
-0.7457031036529521   -0.05934244052821451   -0.010323631849982362
-0.501873918432293   -0.053880402302483386   0.01812003249895805
-0.501873918432293   -0.053880402302483386   0.01812003249895805
-0.501873918432293   -0.053880402302483386   0.01812003249895805
-0.501873918432293   -0.053880402302483386   0.01812003249895805
-1.0407146843672495   -0.08870420736500131   -0.02209782897252957
-1.0407146843672495   -0.08870420736500131   -0.02209782897252957
-1.0407146843672495   -0.08870420736500131   -0.02209782897252957
-1.0407146843672495   -0.08870420736500131   -0.02209782897252957
-1.0925718792073487   -0.18551747128663965   -0.018855795789138485
-1.0925718792073487   -0.18551747128663965   -0.018855795789138485
-1.0925718792073487   -0.18551747128663965   -0.018855795789138485
-1.0925718792073487   -0.18551747128663965   -0.018855795789138485
-0.5157860042482902   0.013019509034592282   0.007150398702725658
-0.5157860042482902   0.013019509034592282   0.007150398702725658
-0.5157860042482902   0.013019509034592282   0.007150398702725658
-0.5157860042482902   0.013019509034592282   0.007150398702725658
-0.7815888763624096   -0.07328764335626606   -0.0168369813830945
-0.7815888763624096   -0.07328764335626606   -0.0168369813830945
-0.7815888763624096   -0.07328764335626606   -0.0168369813830945
-0.7815888763624096   -0.07328764335626606   -0.0168369813830945
-0.9464214455047407   0.04436541284995935   0.031760629468336715
-0.9464214455047407   0.04436541284995935   0.031760629468336715
-0.9464214455047407   0.04436541284995935   0.031760629468336715
-0.9464214455047407   0.04436541284995935   0.031760629468336715
-1.4671852702747723   -0.07307551660712283   -0.019543207235731996
-1.4671852702747723   -0.07307551660712283   -0.019543207235731996
-1.4671852702747723   -0.07307551660712283   -0.019543207235731996
-1.4671852702747723   -0.07307551660712283   -0.019543207235731996
-1.5029559137977686   -0.07443288690478962   0.03256691631160136
-1.5029559137977686   -0.07443288690478962   0.03256691631160136
-1.5029559137977686   -0.07443288690478962   0.03256691631160136
-1.5029559137977686   -0.07443288690478962   0.03256691631160136
-0.9826236248906738   0.030623276053118584   -0.007703896615158801
-0.9826236248906738   0.030623276053118584   -0.007703896615158801
-0.9826236248906738   0.030623276053118584   -0.007703896615158801
-0.9826236248906738   0.030623276053118584   -0.007703896615158801
-1.1676984369273546   0.0008082750795932875   0.0296774525555063
-1.1676984369273546   0.0008082750795932875   0.0296774525555063
-1.1676984369273546   0.0008082750795932875   0.0296774525555063
-1.1676984369273546   0.0008082750795932875   0.0296774525555063
-0.9725407612052102   0.03316958327037983   0.040164114594890166
-0.9725407612052102   0.03316958327037983   0.040164114594890166
-0.9725407612052102   0.03316958327037983   0.040164114594890166
-0.9725407612052102   0.03316958327037983   0.040164114594890166
-1.5123659728089807   -0.07630638944780556   -0.012609876201442105
-1.5123659728089807   -0.07630638944780556   -0.012609876201442105
-1.5123659728089807   -0.07630638944780556   -0.012609876201442105
-1.5123659728089807   -0.07630638944780556   -0.012609876201442105
-1.5480758999583577   -0.08663939510583743   0.04432363556702662
-1.5480758999583577   -0.08663939510583743   0.04432363556702662
-1.5480758999583577   -0.08663939510583743   0.04432363556702662
-1.5480758999583577   -0.08663939510583743   0.04432363556702662
-1.0157036775930448   0.0223244204848772   -0.00807142295138416
-1.0157036775930448   0.0223244204848772   -0.00807142295138416
-1.0157036775930448   0.0223244204848772   -0.00807142295138416
-1.0157036775930448   0.0223244204848772   -0.00807142295138416
-1.2260687508036436   -0.013460051884677374   0.016360772801047363
-1.2260687508036436   -0.013460051884677374   0.016360772801047363
-1.2260687508036436   -0.013460051884677374   0.016360772801047363
-1.2260687508036436   -0.013460051884677374   0.016360772801047363
-1.0064844378658013   0.020736674527675275   0.03961252164203391
-1.0064844378658013   0.020736674527675275   0.03961252164203391
-1.0064844378658013   0.020736674527675275   0.03961252164203391
-1.0064844378658013   0.020736674527675275   0.03961252164203391
-1.5590317073804292   -0.08678821684346158   -0.010306579805693605
-1.5590317073804292   -0.08678821684346158   -0.010306579805693605
-1.5590317073804292   -0.08678821684346158   -0.010306579805693605
-1.5590317073804292   -0.08678821684346158   -0.010306579805693605
-1.6122619115143926   -0.13604472139651094   0.03842816959817974
-1.6122619115143926   -0.13604472139651094   0.03842816959817974
-1.6122619115143926   -0.13604472139651094   0.03842816959817974
-1.6122619115143926   -0.13604472139651094   0.03842816959817974
-1.0538457171136155   -0.0031327187985955574   -0.007609737808521644
-1.0538457171136155   -0.0031327187985955574   -0.007609737808521644
-1.0538457171136155   -0.0031327187985955574   -0.007609737808521644
-1.0538457171136155   -0.0031327187985955574   -0.007609737808521644
-1.2506642527757872   -0.031471056983772686   0.004713649536113418
-1.2506642527757872   -0.031471056983772686   0.004713649536113418
-1.2506642527757872   -0.031471056983772686   0.004713649536113418
-1.2506642527757872   -0.031471056983772686   0.004713649536113418
0.9679250180952372   0.05192957051286583   -0.0342310356160305
0.9679250180952372   0.05192957051286583   -0.0342310356160305
0.9679250180952372   0.05192957051286583   -0.0342310356160305
0.9679250180952372   0.05192957051286583   -0.0342310356160305
0.4794204933660237   -0.0007879532616684656   0.012325716253276525
0.4794204933660237   -0.0007879532616684656   0.012325716253276525
0.4794204933660237   -0.0007879532616684656   0.012325716253276525
0.4794204933660237   -0.0007879532616684656   0.012325716253276525
0.4384691488532499   -0.07128554240812897   -0.031460835254783534
0.4384691488532499   -0.07128554240812897   -0.031460835254783534
0.4384691488532499   -0.07128554240812897   -0.031460835254783534
0.4384691488532499   -0.07128554240812897   -0.031460835254783534
0.9498432846024011   0.07812809356568023   0.015468001418573712
0.9498432846024011   0.07812809356568023   0.015468001418573712
0.9498432846024011   0.07812809356568023   0.015468001418573712
0.9498432846024011   0.07812809356568023   0.015468001418573712
0.672264335300795   0.0059243266665361186   -0.02213237678383606
0.672264335300795   0.0059243266665361186   -0.02213237678383606
0.672264335300795   0.0059243266665361186   -0.02213237678383606
0.672264335300795   0.0059243266665361186   -0.02213237678383606
0.9298600774943707   0.026684018549889818   -0.03300395910577969
0.9298600774943707   0.026684018549889818   -0.03300395910577969
0.9298600774943707   0.026684018549889818   -0.03300395910577969
0.9298600774943707   0.026684018549889818   -0.03300395910577969
0.4576016525026539   -0.020692170850970054   0.013608311435069465
0.4576016525026539   -0.020692170850970054   0.013608311435069465
0.4576016525026539   -0.020692170850970054   0.013608311435069465
0.4576016525026539   -0.020692170850970054   0.013608311435069465
0.4179900057767267   -0.07719479732197584   -0.02736490261779348
0.4179900057767267   -0.07719479732197584   -0.02736490261779348
0.4179900057767267   -0.07719479732197584   -0.02736490261779348
0.4179900057767267   -0.07719479732197584   -0.02736490261779348
0.9192206902399568   0.06999146796450498   0.021191734172493037
0.9192206902399568   0.06999146796450498   0.021191734172493037
0.9192206902399568   0.06999146796450498   0.021191734172493037
0.9192206902399568   0.06999146796450498   0.021191734172493037
0.6563516227738246   -0.004757965993631874   -0.02898264404678813
0.6563516227738246   -0.004757965993631874   -0.02898264404678813
0.6563516227738246   -0.004757965993631874   -0.02898264404678813
0.6563516227738246   -0.004757965993631874   -0.02898264404678813
0.8996592415579984   0.019406018419406416   -0.026030059692184526
0.8996592415579984   0.019406018419406416   -0.026030059692184526
0.8996592415579984   0.019406018419406416   -0.026030059692184526
0.8996592415579984   0.019406018419406416   -0.026030059692184526
0.4367830618198002   -0.027377740415755226   0.016783320691348552
0.4367830618198002   -0.027377740415755226   0.016783320691348552
0.4367830618198002   -0.027377740415755226   0.016783320691348552
0.4367830618198002   -0.027377740415755226   0.016783320691348552
0.3993044139180938   -0.07883881498355365   -0.022361911656446437
0.3993044139180938   -0.07883881498355365   -0.022361911656446437
0.3993044139180938   -0.07883881498355365   -0.022361911656446437
0.3993044139180938   -0.07883881498355365   -0.022361911656446437
0.8846989683276901   0.06294039687737804   0.026413144359448776
0.8846989683276901   0.06294039687737804   0.026413144359448776
0.8846989683276901   0.06294039687737804   0.026413144359448776
0.8846989683276901   0.06294039687737804   0.026413144359448776
0.6189038342884542   -0.012079347689566554   -0.03931958483304071
0.6189038342884542   -0.012079347689566554   -0.03931958483304071
0.6189038342884542   -0.012079347689566554   -0.03931958483304071
0.6189038342884542   -0.012079347689566554   -0.03931958483304071
0.48781184690869334   0.05069143155585495   0.002803099149101554
0.48781184690869334   0.05069143155585495   0.002803099149101554
0.48781184690869334   0.05069143155585495   0.002803099149101554
0.48781184690869334   0.05069143155585495   0.002803099149101554
0.016063631060400957   -0.016196655521177727   -0.0020696962442463
0.016063631060400957   -0.016196655521177727   -0.0020696962442463
0.016063631060400957   -0.016196655521177727   -0.0020696962442463
0.016063631060400957   -0.016196655521177727   -0.0020696962442463
-0.014807512349399114   -0.06426623397437325   -0.02145186704965244
-0.014807512349399114   -0.06426623397437325   -0.02145186704965244
-0.014807512349399114   -0.06426623397437325   -0.02145186704965244
-0.014807512349399114   -0.06426623397437325   -0.02145186704965244
0.4784714882535868   0.07080984454636788   0.026455474792396433
0.4784714882535868   0.07080984454636788   0.026455474792396433
0.4784714882535868   0.07080984454636788   0.026455474792396433
0.4784714882535868   0.07080984454636788   0.026455474792396433
0.23811325747111017   0.010090760113849271   -0.0026923682046457037
0.23811325747111017   0.010090760113849271   -0.0026923682046457037
0.23811325747111017   0.010090760113849271   -0.0026923682046457037
0.23811325747111017   0.010090760113849271   -0.0026923682046457037
0.4676487208722297   0.0376214021385661   0.005530080293415521
0.4676487208722297   0.0376214021385661   0.005530080293415521
0.4676487208722297   0.0376214021385661   0.005530080293415521
0.4676487208722297   0.0376214021385661   0.005530080293415521
-0.0037904437377701008   -0.0308834903362991   0.0002507323704184694
-0.0037904437377701008   -0.0308834903362991   0.0002507323704184694
-0.0037904437377701008   -0.0308834903362991   0.0002507323704184694
-0.0037904437377701008   -0.0308834903362991   0.0002507323704184694
-0.03420613308611539   -0.07381759304956242   -0.018558545457571813
-0.03420613308611539   -0.07381759304956242   -0.018558545457571813
-0.03420613308611539   -0.07381759304956242   -0.018558545457571813
-0.03420613308611539   -0.07381759304956242   -0.018558545457571813
0.456494591383246   0.05869824559286721   0.029264982499955336
0.456494591383246   0.05869824559286721   0.029264982499955336
0.456494591383246   0.05869824559286721   0.029264982499955336
0.456494591383246   0.05869824559286721   0.029264982499955336
0.21438972372290663   -0.0018561841562472845   -0.009476721593815539
0.21438972372290663   -0.0018561841562472845   -0.009476721593815539
0.21438972372290663   -0.0018561841562472845   -0.009476721593815539
0.21438972372290663   -0.0018561841562472845   -0.009476721593815539
0.4460800261873731   0.02760785693278515   0.008282545180677572
0.4460800261873731   0.02760785693278515   0.008282545180677572
0.4460800261873731   0.02760785693278515   0.008282545180677572
0.4460800261873731   0.02760785693278515   0.008282545180677572
-0.023773642778077274   -0.042709279277309255   0.00249559231036558
-0.023773642778077274   -0.042709279277309255   0.00249559231036558
-0.023773642778077274   -0.042709279277309255   0.00249559231036558
-0.023773642778077274   -0.042709279277309255   0.00249559231036558
-0.05340384476743813   -0.07953157412947527   -0.014786501514895451
-0.05340384476743813   -0.07953157412947527   -0.014786501514895451
-0.05340384476743813   -0.07953157412947527   -0.014786501514895451
-0.05340384476743813   -0.07953157412947527   -0.014786501514895451
0.4355914108215859   0.04851143275216501   0.03172282512528975
0.4355914108215859   0.04851143275216501   0.03172282512528975
0.4355914108215859   0.04851143275216501   0.03172282512528975
0.4355914108215859   0.04851143275216501   0.03172282512528975
0.19689367267931565   -0.009459186157034834   -0.014464267000795339
0.19689367267931565   -0.009459186157034834   -0.014464267000795339
0.19689367267931565   -0.009459186157034834   -0.014464267000795339
0.19689367267931565   -0.009459186157034834   -0.014464267000795339
0.03213298647636038   0.05107578817000074   0.01100463714437426
0.03213298647636038   0.05107578817000074   0.01100463714437426
0.03213298647636038   0.05107578817000074   0.01100463714437426
0.03213298647636038   0.05107578817000074   0.01100463714437426
-0.4330042804357307   -0.02817936778675183   -0.014877780371551422
-0.4330042804357307   -0.02817936778675183   -0.014877780371551422
-0.4330042804357307   -0.02817936778675183   -0.014877780371551422
-0.4330042804357307   -0.02817936778675183   -0.014877780371551422
-0.45708766383181326   -0.058989215249229905   -0.013652616716885446
-0.45708766383181326   -0.058989215249229905   -0.013652616716885446
-0.45708766383181326   -0.058989215249229905   -0.013652616716885446
-0.45708766383181326   -0.058989215249229905   -0.013652616716885446
0.016507312432259728   0.057998043124922925   0.012857979759345585
0.016507312432259728   0.057998043124922925   0.012857979759345585
0.016507312432259728   0.057998043124922925   0.012857979759345585
0.016507312432259728   0.057998043124922925   0.012857979759345585
-0.21009719885970127   0.006442486872022273   0.0008191001384625293
-0.21009719885970127   0.006442486872022273   0.0008191001384625293
-0.21009719885970127   0.006442486872022273   0.0008191001384625293
-0.21009719885970127   0.006442486872022273   0.0008191001384625293
0.013208186681027025   0.04056046418528019   0.01379992994282481
0.013208186681027025   0.04056046418528019   0.01379992994282481
0.013208186681027025   0.04056046418528019   0.01379992994282481
0.013208186681027025   0.04056046418528019   0.01379992994282481
-0.45325806391312035   -0.04102116214212699   -0.012472670230523869
-0.45325806391312035   -0.04102116214212699   -0.012472670230523869
-0.45325806391312035   -0.04102116214212699   -0.012472670230523869
-0.45325806391312035   -0.04102116214212699   -0.012472670230523869
-0.47790299446875845   -0.06947975779817006   -0.011363745764187722
-0.47790299446875845   -0.06947975779817006   -0.011363745764187722
-0.47790299446875845   -0.06947975779817006   -0.011363745764187722
-0.47790299446875845   -0.06947975779817006   -0.011363745764187722
-0.0035041304111515666   0.045540984803904   0.015592890063782797
-0.0035041304111515666   0.045540984803904   0.015592890063782797
-0.0035041304111515666   0.045540984803904   0.015592890063782797
-0.0035041304111515666   0.045540984803904   0.015592890063782797
-0.23004232044260617   -0.003840440325036434   -0.004271656116101835
-0.23004232044260617   -0.003840440325036434   -0.004271656116101835
-0.23004232044260617   -0.003840440325036434   -0.004271656116101835
-0.23004232044260617   -0.003840440325036434   -0.004271656116101835
-0.006319291396068821   0.03043445496485428   0.01662361497824432
-0.006319291396068821   0.03043445496485428   0.01662361497824432
-0.006319291396068821   0.03043445496485428   0.01662361497824432
-0.006319291396068821   0.03043445496485428   0.01662361497824432
-0.4746342855015139   -0.053919679976793325   -0.010580278749341476
-0.4746342855015139   -0.053919679976793325   -0.010580278749341476
-0.4746342855015139   -0.053919679976793325   -0.010580278749341476
-0.4746342855015139   -0.053919679976793325   -0.010580278749341476
-0.49857363224466966   -0.07772866497820072   -0.007556761699108461
-0.49857363224466966   -0.07772866497820072   -0.007556761699108461
-0.49857363224466966   -0.07772866497820072   -0.007556761699108461
-0.49857363224466966   -0.07772866497820072   -0.007556761699108461
-0.024237828560724303   0.03380616198325034   0.017705843405948093
-0.024237828560724303   0.03380616198325034   0.017705843405948093
-0.024237828560724303   0.03380616198325034   0.017705843405948093
-0.024237828560724303   0.03380616198325034   0.017705843405948093
-0.251504462443456   -0.014297104310773003   -0.009839030945230469
-0.251504462443456   -0.014297104310773003   -0.009839030945230469
-0.251504462443456   -0.014297104310773003   -0.009839030945230469
-0.251504462443456   -0.014297104310773003   -0.009839030945230469
-0.408363683376998   0.06021317892620364   0.019932658209164317
-0.408363683376998   0.06021317892620364   0.019932658209164317
-0.408363683376998   0.06021317892620364   0.019932658209164317
-0.408363683376998   0.06021317892620364   0.019932658209164317
-0.8674437568636901   -0.03870573688993745   -0.024345916441247367
-0.8674437568636901   -0.03870573688993745   -0.024345916441247367
-0.8674437568636901   -0.03870573688993745   -0.024345916441247367
-0.8674437568636901   -0.03870573688993745   -0.024345916441247367
-0.8862123998525362   -0.04743233054068134   -0.004032772926291284
-0.8862123998525362   -0.04743233054068134   -0.004032772926291284
-0.8862123998525362   -0.04743233054068134   -0.004032772926291284
-0.8862123998525362   -0.04743233054068134   -0.004032772926291284
-0.4339034780619939   0.0439173693520319   -0.0006382724690469493
-0.4339034780619939   0.0439173693520319   -0.0006382724690469493
-0.4339034780619939   0.0439173693520319   -0.0006382724690469493
-0.4339034780619939   0.0439173693520319   -0.0006382724690469493
-0.6442899151504803   0.006466991653131728   0.004711294877783406
-0.6442899151504803   0.006466991653131728   0.004711294877783406
-0.6442899151504803   0.006466991653131728   0.004711294877783406
-0.6442899151504803   0.006466991653131728   0.004711294877783406
-0.4281965780694671   0.04945008980859547   0.022363507037023667
-0.4281965780694671   0.04945008980859547   0.022363507037023667
-0.4281965780694671   0.04945008980859547   0.022363507037023667
-0.4281965780694671   0.04945008980859547   0.022363507037023667
-0.8912047227185834   -0.05225047387076523   -0.024176243926443186
-0.8912047227185834   -0.05225047387076523   -0.024176243926443186
-0.8912047227185834   -0.05225047387076523   -0.024176243926443186
-0.8912047227185834   -0.05225047387076523   -0.024176243926443186
-0.911842417500195   -0.059232290836502485   -0.0036105131970897986
-0.911842417500195   -0.059232290836502485   -0.0036105131970897986
-0.911842417500195   -0.059232290836502485   -0.0036105131970897986
-0.911842417500195   -0.059232290836502485   -0.0036105131970897986
-0.4549691873662675   0.03203016203569004   0.0017953699144108576
-0.4549691873662675   0.03203016203569004   0.0017953699144108576
-0.4549691873662675   0.03203016203569004   0.0017953699144108576
-0.4549691873662675   0.03203016203569004   0.0017953699144108576
-0.6621975482719407   -0.0029178183484563427   0.0005390450808371305
-0.6621975482719407   -0.0029178183484563427   0.0005390450808371305
-0.6621975482719407   -0.0029178183484563427   0.0005390450808371305
-0.6621975482719407   -0.0029178183484563427   0.0005390450808371305
-0.4487153283268698   0.039278495889165405   0.02581633125792436
-0.4487153283268698   0.039278495889165405   0.02581633125792436
-0.4487153283268698   0.039278495889165405   0.02581633125792436
-0.4487153283268698   0.039278495889165405   0.02581633125792436
-0.9166365351146695   -0.06502088326505451   -0.02179250884090994
-0.9166365351146695   -0.06502088326505451   -0.02179250884090994
-0.9166365351146695   -0.06502088326505451   -0.02179250884090994
-0.9166365351146695   -0.06502088326505451   -0.02179250884090994
-0.9354325907205858   -0.07187500182755982   0.0023244308642914324
-0.9354325907205858   -0.07187500182755982   0.0023244308642914324
-0.9354325907205858   -0.07187500182755982   0.0023244308642914324
-0.9354325907205858   -0.07187500182755982   0.0023244308642914324
-0.47729404108591056   0.017867352489457405   0.003245176627028959
-0.47729404108591056   0.017867352489457405   0.003245176627028959
-0.47729404108591056   0.017867352489457405   0.003245176627028959
-0.47729404108591056   0.017867352489457405   0.003245176627028959
-0.6902506072496458   -0.016138785186319983   -0.005088225517414419
-0.6902506072496458   -0.016138785186319983   -0.005088225517414419
-0.6902506072496458   -0.016138785186319983   -0.005088225517414419
-0.6902506072496458   -0.016138785186319983   -0.005088225517414419
-0.8367687090951316   0.0624842951485592   0.027839290363037367
-0.8367687090951316   0.0624842951485592   0.027839290363037367
-0.8367687090951316   0.0624842951485592   0.027839290363037367
-0.8367687090951316   0.0624842951485592   0.027839290363037367
-1.2807253602387871   -0.05927895248036617   -0.022342909637955877
-1.2807253602387871   -0.05927895248036617   -0.022342909637955877
-1.2807253602387871   -0.05927895248036617   -0.022342909637955877
-1.2807253602387871   -0.05927895248036617   -0.022342909637955877
-1.2981264231043654   -0.0262080949610827   0.023642046527557026
-1.2981264231043654   -0.0262080949610827   0.023642046527557026
-1.2981264231043654   -0.0262080949610827   0.023642046527557026
-1.2981264231043654   -0.0262080949610827   0.023642046527557026
-0.8731213924743166   0.02644185800792581   -0.012451924583799984
-0.8731213924743166   0.02644185800792581   -0.012451924583799984
-0.8731213924743166   0.02644185800792581   -0.012451924583799984
-0.8731213924743166   0.02644185800792581   -0.012451924583799984
-1.0247752188446082   0.012929784565025526   0.0236160668104132
-1.0247752188446082   0.012929784565025526   0.0236160668104132
-1.0247752188446082   0.012929784565025526   0.0236160668104132
-1.0247752188446082   0.012929784565025526   0.0236160668104132
-0.8567734188366731   0.06373338075784735   0.0319964208544842
-0.8567734188366731   0.06373338075784735   0.0319964208544842
-0.8567734188366731   0.06373338075784735   0.0319964208544842
-0.8567734188366731   0.06373338075784735   0.0319964208544842
-1.3135103046772443   -0.06253552564624032   -0.016949930651672274
-1.3135103046772443   -0.06253552564624032   -0.016949930651672274
-1.3135103046772443   -0.06253552564624032   -0.016949930651672274
-1.3135103046772443   -0.06253552564624032   -0.016949930651672274
-1.3299658580476712   -0.03238275634134914   0.03265487337211065
-1.3299658580476712   -0.03238275634134914   0.03265487337211065
-1.3299658580476712   -0.03238275634134914   0.03265487337211065
-1.3299658580476712   -0.03238275634134914   0.03265487337211065
-0.897566746973676   0.019611752168592678   -0.011076203569589715
-0.897566746973676   0.019611752168592678   -0.011076203569589715
-0.897566746973676   0.019611752168592678   -0.011076203569589715
-0.897566746973676   0.019611752168592678   -0.011076203569589715
-1.0687205422244455   0.00639334371629513   0.01525507968127382
-1.0687205422244455   0.00639334371629513   0.01525507968127382
-1.0687205422244455   0.00639334371629513   0.01525507968127382
-1.0687205422244455   0.00639334371629513   0.01525507968127382
-0.8795083435572841   0.05911940418208217   0.03970816149888018
-0.8795083435572841   0.05911940418208217   0.03970816149888018
-0.8795083435572841   0.05911940418208217   0.03970816149888018
-0.8795083435572841   0.05911940418208217   0.03970816149888018
-1.347089510344448   -0.0709556572352216   -0.014390487217889103
-1.347089510344448   -0.0709556572352216   -0.014390487217889103
-1.347089510344448   -0.0709556572352216   -0.014390487217889103
-1.347089510344448   -0.0709556572352216   -0.014390487217889103
-1.3731564264397231   -0.058987176199886596   0.03242868451116143
-1.3731564264397231   -0.058987176199886596   0.03242868451116143
-1.3731564264397231   -0.058987176199886596   0.03242868451116143
-1.3731564264397231   -0.058987176199886596   0.03242868451116143
-0.9237983401621124   -0.000965520811263304   -0.010413797359640292
-0.9237983401621124   -0.000965520811263304   -0.010413797359640292
-0.9237983401621124   -0.000965520811263304   -0.010413797359640292
-0.9237983401621124   -0.000965520811263304   -0.010413797359640292
-1.0813232940212505   -0.0030579157394023254   0.012526829446084797
-1.0813232940212505   -0.0030579157394023254   0.012526829446084797
-1.0813232940212505   -0.0030579157394023254   0.012526829446084797
-1.0813232940212505   -0.0030579157394023254   0.012526829446084797
0.7354330272331657   0.04098070469523208   -0.034843527829362786
0.7354330272331657   0.04098070469523208   -0.034843527829362786
0.7354330272331657   0.04098070469523208   -0.034843527829362786
0.7354330272331657   0.04098070469523208   -0.034843527829362786
0.3494552143452158   0.006759845883599774   0.013225344443539969
0.3494552143452158   0.006759845883599774   0.013225344443539969
0.3494552143452158   0.006759845883599774   0.013225344443539969
0.3494552143452158   0.006759845883599774   0.013225344443539969
0.31077327809281174   -0.059404932551832094   -0.03312712265939859
0.31077327809281174   -0.059404932551832094   -0.03312712265939859
0.31077327809281174   -0.059404932551832094   -0.03312712265939859
0.31077327809281174   -0.059404932551832094   -0.03312712265939859
0.7196543992543343   0.06746285114748446   0.016362749236309176
0.7196543992543343   0.06746285114748446   0.016362749236309176
0.7196543992543343   0.06746285114748446   0.016362749236309176
0.7196543992543343   0.06746285114748446   0.016362749236309176
0.5015171674042117   0.006772331698278025   -0.014836907852995532
0.5015171674042117   0.006772331698278025   -0.014836907852995532
0.5015171674042117   0.006772331698278025   -0.014836907852995532
0.5015171674042117   0.006772331698278025   -0.014836907852995532
0.6999922932231623   0.018472757543087998   -0.03295768731514867
0.6999922932231623   0.018472757543087998   -0.03295768731514867
0.6999922932231623   0.018472757543087998   -0.03295768731514867
0.6999922932231623   0.018472757543087998   -0.03295768731514867
0.3300499184526733   -0.010800304618745508   0.014651451206820272
0.3300499184526733   -0.010800304618745508   0.014651451206820272
0.3300499184526733   -0.010800304618745508   0.014651451206820272
0.3300499184526733   -0.010800304618745508   0.014651451206820272
0.29271410535415854   -0.06520244647087535   -0.02827125311861048
0.29271410535415854   -0.06520244647087535   -0.02827125311861048
0.29271410535415854   -0.06520244647087535   -0.02827125311861048
0.29271410535415854   -0.06520244647087535   -0.02827125311861048
0.6915709907030114   0.05916802595222542   0.021554915068495356
0.6915709907030114   0.05916802595222542   0.021554915068495356
0.6915709907030114   0.05916802595222542   0.021554915068495356
0.6915709907030114   0.05916802595222542   0.021554915068495356
0.48543456892537107   -0.003302727345011927   -0.020762277565778905
0.48543456892537107   -0.003302727345011927   -0.020762277565778905
0.48543456892537107   -0.003302727345011927   -0.020762277565778905
0.48543456892537107   -0.003302727345011927   -0.020762277565778905
0.6723610734433099   0.011096557262600469   -0.026423202540382607
0.6723610734433099   0.011096557262600469   -0.026423202540382607
0.6723610734433099   0.011096557262600469   -0.026423202540382607
0.6723610734433099   0.011096557262600469   -0.026423202540382607
0.31143235277500236   -0.017622647620107786   0.01774018513483845
0.31143235277500236   -0.017622647620107786   0.01774018513483845
0.31143235277500236   -0.017622647620107786   0.01774018513483845
0.31143235277500236   -0.017622647620107786   0.01774018513483845
0.2764498189739788   -0.06870168523352158   -0.023548116841368608
0.2764498189739788   -0.06870168523352158   -0.023548116841368608
0.2764498189739788   -0.06870168523352158   -0.023548116841368608
0.2764498189739788   -0.06870168523352158   -0.023548116841368608
0.6598917723024295   0.050239725787560446   0.02563524878124407
0.6598917723024295   0.050239725787560446   0.02563524878124407
0.6598917723024295   0.050239725787560446   0.02563524878124407
0.6598917723024295   0.050239725787560446   0.02563524878124407
0.4533886726109419   -0.010890636623009063   -0.02957404439420737
0.4533886726109419   -0.010890636623009063   -0.02957404439420737
0.4533886726109419   -0.010890636623009063   -0.02957404439420737
0.4533886726109419   -0.010890636623009063   -0.02957404439420737
0.3553990196853177   0.05168767071515488   -0.0019834536875000114
0.3553990196853177   0.05168767071515488   -0.0019834536875000114
0.3553990196853177   0.05168767071515488   -0.0019834536875000114
0.3553990196853177   0.05168767071515488   -0.0019834536875000114
-0.023486767670254944   -0.005220868073192239   -0.0002527987846221219
-0.023486767670254944   -0.005220868073192239   -0.0002527987846221219
-0.023486767670254944   -0.005220868073192239   -0.0002527987846221219
-0.023486767670254944   -0.005220868073192239   -0.0002527987846221219
-0.05073823178829411   -0.0445430645442057   -0.021099350618590522
-0.05073823178829411   -0.0445430645442057   -0.021099350618590522
-0.05073823178829411   -0.0445430645442057   -0.021099350618590522
-0.05073823178829411   -0.0445430645442057   -0.021099350618590522
0.3462516774357148   0.06135606134863528   0.023503880154646856
0.3462516774357148   0.06135606134863528   0.023503880154646856
0.3462516774357148   0.06135606134863528   0.023503880154646856
0.3462516774357148   0.06135606134863528   0.023503880154646856
0.15443559672262577   0.015107361944133112   0.0011199719108148098
0.15443559672262577   0.015107361944133112   0.0011199719108148098
0.15443559672262577   0.015107361944133112   0.0011199719108148098
0.15443559672262577   0.015107361944133112   0.0011199719108148098
0.33699156210614795   0.03744553110790974   0.001113833747544618
0.33699156210614795   0.03744553110790974   0.001113833747544618
0.33699156210614795   0.03744553110790974   0.001113833747544618
0.33699156210614795   0.03744553110790974   0.001113833747544618
-0.04132089539244891   -0.02047531323720073   0.0019195800536304757
-0.04132089539244891   -0.02047531323720073   0.0019195800536304757
-0.04132089539244891   -0.02047531323720073   0.0019195800536304757
-0.04132089539244891   -0.02047531323720073   0.0019195800536304757
-0.06774601580198278   -0.05549542618666292   -0.01746276921249721
-0.06774601580198278   -0.05549542618666292   -0.01746276921249721
-0.06774601580198278   -0.05549542618666292   -0.01746276921249721
-0.06774601580198278   -0.05549542618666292   -0.01746276921249721
0.3261971504143031   0.048250472656949026   0.02569105305428513
0.3261971504143031   0.048250472656949026   0.02569105305428513
0.3261971504143031   0.048250472656949026   0.02569105305428513
0.3261971504143031   0.048250472656949026   0.02569105305428513
0.13345038034490786   0.0021398135101184587   -0.0053875831322279175
0.13345038034490786   0.0021398135101184587   -0.0053875831322279175
0.13345038034490786   0.0021398135101184587   -0.0053875831322279175
0.13345038034490786   0.0021398135101184587   -0.0053875831322279175
0.31724554675416555   0.025693451374313333   0.003490056036235728
0.31724554675416555   0.025693451374313333   0.003490056036235728
0.31724554675416555   0.025693451374313333   0.003490056036235728
0.31724554675416555   0.025693451374313333   0.003490056036235728
-0.058927388003904346   -0.03307138076608591   0.004206324357317881
-0.058927388003904346   -0.03307138076608591   0.004206324357317881
-0.058927388003904346   -0.03307138076608591   0.004206324357317881
-0.058927388003904346   -0.03307138076608591   0.004206324357317881
-0.08452785367632099   -0.06466631664087351   -0.014046657341996012
-0.08452785367632099   -0.06466631664087351   -0.014046657341996012
-0.08452785367632099   -0.06466631664087351   -0.014046657341996012
-0.08452785367632099   -0.06466631664087351   -0.014046657341996012
0.30768075033647174   0.03615871713868303   0.027746137598890483
0.30768075033647174   0.03615871713868303   0.027746137598890483
0.30768075033647174   0.03615871713868303   0.027746137598890483
0.30768075033647174   0.03615871713868303   0.027746137598890483
0.1173928342219494   -0.007655054301139882   -0.010797422470777036
0.1173928342219494   -0.007655054301139882   -0.010797422470777036
0.1173928342219494   -0.007655054301139882   -0.010797422470777036
0.1173928342219494   -0.007655054301139882   -0.010797422470777036
-0.008392828936709625   0.061431403291120935   0.008564623518791316
-0.008392828936709625   0.061431403291120935   0.008564623518791316
-0.008392828936709625   0.061431403291120935   0.008564623518791316
-0.008392828936709625   0.061431403291120935   0.008564623518791316
-0.38850425600911265   -0.017029867311566124   -0.012883924909176073
-0.38850425600911265   -0.017029867311566124   -0.012883924909176073
-0.38850425600911265   -0.017029867311566124   -0.012883924909176073
-0.38850425600911265   -0.017029867311566124   -0.012883924909176073
-0.40606434324457663   -0.031102778997403577   -0.010074475175450584
-0.40606434324457663   -0.031102778997403577   -0.010074475175450584
-0.40606434324457663   -0.031102778997403577   -0.010074475175450584
-0.40606434324457663   -0.031102778997403577   -0.010074475175450584
-0.025646703208695318   0.04954653334405789   0.010268694391139829
-0.025646703208695318   0.04954653334405789   0.010268694391139829
-0.025646703208695318   0.04954653334405789   0.010268694391139829
-0.025646703208695318   0.04954653334405789   0.010268694391139829
-0.2066599510115239   0.01580813025757794   0.004050155393875342
-0.2066599510115239   0.01580813025757794   0.004050155393875342
-0.2066599510115239   0.01580813025757794   0.004050155393875342
-0.2066599510115239   0.01580813025757794   0.004050155393875342
-0.025313469764195913   0.04946547477108469   0.012015920186610065
-0.025313469764195913   0.04946547477108469   0.012015920186610065
-0.025313469764195913   0.04946547477108469   0.012015920186610065
-0.025313469764195913   0.04946547477108469   0.012015920186610065
-0.4060707358773591   -0.03069487961271341   -0.010514337724052941
-0.4060707358773591   -0.03069487961271341   -0.010514337724052941
-0.4060707358773591   -0.03069487961271341   -0.010514337724052941
-0.4060707358773591   -0.03069487961271341   -0.010514337724052941
-0.4234863554400083   -0.04295505982929075   -0.006905108073334207
-0.4234863554400083   -0.04295505982929075   -0.006905108073334207
-0.4234863554400083   -0.04295505982929075   -0.006905108073334207
-0.4234863554400083   -0.04295505982929075   -0.006905108073334207
-0.043381204123146416   0.036052735033408764   0.012813127961612873
-0.043381204123146416   0.036052735033408764   0.012813127961612873
-0.043381204123146416   0.036052735033408764   0.012813127961612873
-0.043381204123146416   0.036052735033408764   0.012813127961612873
-0.2242614516598046   0.004100311899105175   -0.001223394946385098
-0.2242614516598046   0.004100311899105175   -0.001223394946385098
-0.2242614516598046   0.004100311899105175   -0.001223394946385098
-0.2242614516598046   0.004100311899105175   -0.001223394946385098
-0.04269502702605065   0.03753631430355643   0.014760434176944044
-0.04269502702605065   0.03753631430355643   0.014760434176944044
-0.04269502702605065   0.03753631430355643   0.014760434176944044
-0.04269502702605065   0.03753631430355643   0.014760434176944044
-0.42407937148325847   -0.044345478045592565   -0.008479770073281642
-0.42407937148325847   -0.044345478045592565   -0.008479770073281642
-0.42407937148325847   -0.044345478045592565   -0.008479770073281642
-0.42407937148325847   -0.044345478045592565   -0.008479770073281642
-0.44069875779019413   -0.053780249985601075   -0.003765287208839077
-0.44069875779019413   -0.053780249985601075   -0.003765287208839077
-0.44069875779019413   -0.053780249985601075   -0.003765287208839077
-0.44069875779019413   -0.053780249985601075   -0.003765287208839077
-0.06119118827663744   0.02300209379963469   0.014968259215915379
-0.06119118827663744   0.02300209379963469   0.014968259215915379
-0.06119118827663744   0.02300209379963469   0.014968259215915379
-0.06119118827663744   0.02300209379963469   0.014968259215915379
-0.24267258755426768   -0.0077041725044743135   -0.0070988291090710795
-0.24267258755426768   -0.0077041725044743135   -0.0070988291090710795
-0.24267258755426768   -0.0077041725044743135   -0.0070988291090710795
-0.24267258755426768   -0.0077041725044743135   -0.0070988291090710795
-0.36474301200440506   0.0704017341089395   0.01849069369385234
-0.36474301200440506   0.0704017341089395   0.01849069369385234
-0.36474301200440506   0.0704017341089395   0.01849069369385234
-0.36474301200440506   0.0704017341089395   0.01849069369385234
-0.7453749557975364   -0.02910730664257572   -0.023186262294003362
-0.7453749557975364   -0.02910730664257572   -0.023186262294003362
-0.7453749557975364   -0.02910730664257572   -0.023186262294003362
-0.7453749557975364   -0.02910730664257572   -0.023186262294003362
-0.7549627303165061   -0.01977972849565182   0.0019354905470465589
-0.7549627303165061   -0.01977972849565182   0.0019354905470465589
-0.7549627303165061   -0.01977972849565182   0.0019354905470465589
-0.7549627303165061   -0.01977972849565182   0.0019354905470465589
-0.39128934353543754   0.035610594437475995   -0.002912850064632627
-0.39128934353543754   0.035610594437475995   -0.002912850064632627
-0.39128934353543754   0.035610594437475995   -0.002912850064632627
-0.39128934353543754   0.035610594437475995   -0.002912850064632627
-0.5604182291616505   0.01498362821380557   0.006859729900523526
-0.5604182291616505   0.01498362821380557   0.006859729900523526
-0.5604182291616505   0.01498362821380557   0.006859729900523526
-0.5604182291616505   0.01498362821380557   0.006859729900523526
-0.38169629866701427   0.058849211223195724   0.021813757491761884
-0.38169629866701427   0.058849211223195724   0.021813757491761884
-0.38169629866701427   0.058849211223195724   0.021813757491761884
-0.38169629866701427   0.058849211223195724   0.021813757491761884
-0.7644721062772191   -0.042934676373657804   -0.022456441378520015
-0.7644721062772191   -0.042934676373657804   -0.022456441378520015
-0.7644721062772191   -0.042934676373657804   -0.022456441378520015
-0.7644721062772191   -0.042934676373657804   -0.022456441378520015
-0.7752531564759786   -0.03176340932280017   0.0031114822316707924
-0.7752531564759786   -0.03176340932280017   0.0031114822316707924
-0.7752531564759786   -0.03176340932280017   0.0031114822316707924
-0.7752531564759786   -0.03176340932280017   0.0031114822316707924
-0.40895808323306315   0.02311168700396135   -0.0003304938718588085
-0.40895808323306315   0.02311168700396135   -0.0003304938718588085
-0.40895808323306315   0.02311168700396135   -0.0003304938718588085
-0.40895808323306315   0.02311168700396135   -0.0003304938718588085
-0.5752677064674718   0.0045597494209014475   0.0019556627146503636
-0.5752677064674718   0.0045597494209014475   0.0019556627146503636
-0.5752677064674718   0.0045597494209014475   0.0019556627146503636
-0.5752677064674718   0.0045597494209014475   0.0019556627146503636
-0.39896162432376486   0.0478544151641893   0.024909072514404468
-0.39896162432376486   0.0478544151641893   0.024909072514404468
-0.39896162432376486   0.0478544151641893   0.024909072514404468
-0.39896162432376486   0.0478544151641893   0.024909072514404468
-0.7847372818785893   -0.05599380397634121   -0.020078750127845546
-0.7847372818785893   -0.05599380397634121   -0.020078750127845546
-0.7847372818785893   -0.05599380397634121   -0.020078750127845546
-0.7847372818785893   -0.05599380397634121   -0.020078750127845546
-0.7936473879784032   -0.044677554965183414   0.0068739862463175205
-0.7936473879784032   -0.044677554965183414   0.0068739862463175205
-0.7936473879784032   -0.044677554965183414   0.0068739862463175205
-0.7936473879784032   -0.044677554965183414   0.0068739862463175205
-0.427123460594866   0.008792034223908968   0.001538914558297147
-0.427123460594866   0.008792034223908968   0.001538914558297147
-0.427123460594866   0.008792034223908968   0.001538914558297147
-0.427123460594866   0.008792034223908968   0.001538914558297147
-0.5979791556432149   -0.008555745625308864   -0.004287525817704307
-0.5979791556432149   -0.008555745625308864   -0.004287525817704307
-0.5979791556432149   -0.008555745625308864   -0.004287525817704307
-0.5979791556432149   -0.008555745625308864   -0.004287525817704307
-0.717068412287895   0.06314070729977411   0.0260984413118536
-0.717068412287895   0.06314070729977411   0.0260984413118536
-0.717068412287895   0.06314070729977411   0.0260984413118536
-0.717068412287895   0.06314070729977411   0.0260984413118536
-1.0851655055078158   -0.050123721307258604   -0.02543390991454142
-1.0851655055078158   -0.050123721307258604   -0.02543390991454142
-1.0851655055078158   -0.050123721307258604   -0.02543390991454142
-1.0851655055078158   -0.050123721307258604   -0.02543390991454142
-1.0970980419305674   -0.011057727148560723   0.02402679909004879
-1.0970980419305674   -0.011057727148560723   0.02402679909004879
-1.0970980419305674   -0.011057727148560723   0.02402679909004879
-1.0970980419305674   -0.011057727148560723   0.02402679909004879
-0.7507360607605493   0.018105109824391223   -0.014815999993212564
-0.7507360607605493   0.018105109824391223   -0.014815999993212564
-0.7507360607605493   0.018105109824391223   -0.014815999993212564
-0.7507360607605493   0.018105109824391223   -0.014815999993212564
-0.8721216825347228   0.014114456116288775   0.021418405195642948
-0.8721216825347228   0.014114456116288775   0.021418405195642948
-0.8721216825347228   0.014114456116288775   0.021418405195642948
-0.8721216825347228   0.014114456116288775   0.021418405195642948
-0.7326400594711552   0.06315194398411558   0.030617172294018252
-0.7326400594711552   0.06315194398411558   0.030617172294018252
-0.7326400594711552   0.06315194398411558   0.030617172294018252
-0.7326400594711552   0.06315194398411558   0.030617172294018252
-1.1148938269040085   -0.055804344992333006   -0.020205507933374417
-1.1148938269040085   -0.055804344992333006   -0.020205507933374417
-1.1148938269040085   -0.055804344992333006   -0.020205507933374417
-1.1148938269040085   -0.055804344992333006   -0.020205507933374417
-1.1236727561804105   -0.017384658461924857   0.030047752484557155
-1.1236727561804105   -0.017384658461924857   0.030047752484557155
-1.1236727561804105   -0.017384658461924857   0.030047752484557155
-1.1236727561804105   -0.017384658461924857   0.030047752484557155
-0.7698092520377622   0.011253775296541167   -0.012686180196588459
-0.7698092520377622   0.011253775296541167   -0.012686180196588459
-0.7698092520377622   0.011253775296541167   -0.012686180196588459
-0.7698092520377622   0.011253775296541167   -0.012686180196588459
-0.9093739368216114   0.007063722441241808   0.013098196971969345
-0.9093739368216114   0.007063722441241808   0.013098196971969345
-0.9093739368216114   0.007063722441241808   0.013098196971969345
-0.9093739368216114   0.007063722441241808   0.013098196971969345
-0.7506143797552027   0.05843821469062929   0.036103741822120144
-0.7506143797552027   0.05843821469062929   0.036103741822120144
-0.7506143797552027   0.05843821469062929   0.036103741822120144
-0.7506143797552027   0.05843821469062929   0.036103741822120144
-1.1423664022569777   -0.06406787165001877   -0.016737264710172783
-1.1423664022569777   -0.06406787165001877   -0.016737264710172783
-1.1423664022569777   -0.06406787165001877   -0.016737264710172783
-1.1423664022569777   -0.06406787165001877   -0.016737264710172783
-1.1587500038209173   -0.03997852600451049   0.02947284033295927
-1.1587500038209173   -0.03997852600451049   0.02947284033295927
-1.1587500038209173   -0.03997852600451049   0.02947284033295927
-1.1587500038209173   -0.03997852600451049   0.02947284033295927
-0.7899622690139272   -0.0078774892807007   -0.011500484615784817
-0.7899622690139272   -0.0078774892807007   -0.011500484615784817
-0.7899622690139272   -0.0078774892807007   -0.011500484615784817
-0.7899622690139272   -0.0078774892807007   -0.011500484615784817
-0.9188087752588067   -0.0017391542013727654   0.010352861126797869
-0.9188087752588067   -0.0017391542013727654   0.010352861126797869
-0.9188087752588067   -0.0017391542013727654   0.010352861126797869
-0.9188087752588067   -0.0017391542013727654   0.010352861126797869
0.5068033667192217   0.028796252051719783   -0.03394077708986587
0.5068033667192217   0.028796252051719783   -0.03394077708986587
0.5068033667192217   0.028796252051719783   -0.03394077708986587
0.5068033667192217   0.028796252051719783   -0.03394077708986587
0.21646215769148697   0.013576690030738652   0.01451366146883211
0.21646215769148697   0.013576690030738652   0.01451366146883211
0.21646215769148697   0.013576690030738652   0.01451366146883211
0.21646215769148697   0.013576690030738652   0.01451366146883211
0.1815193140350229   -0.04977028823196182   -0.03166786244161093
0.1815193140350229   -0.04977028823196182   -0.03166786244161093
0.1815193140350229   -0.04977028823196182   -0.03166786244161093
0.1815193140350229   -0.04977028823196182   -0.03166786244161093
0.4950572257646522   0.05740000484536273   0.017640201225902624
0.4950572257646522   0.05740000484536273   0.017640201225902624
0.4950572257646522   0.05740000484536273   0.017640201225902624
0.4950572257646522   0.05740000484536273   0.017640201225902624
0.33143285607315576   0.007335069769488948   -0.009050603677550076
0.33143285607315576   0.007335069769488948   -0.009050603677550076
0.33143285607315576   0.007335069769488948   -0.009050603677550076
0.33143285607315576   0.007335069769488948   -0.009050603677550076
0.4755175753856677   0.009026106134797526   -0.03168415195845897
0.4755175753856677   0.009026106134797526   -0.03168415195845897
0.4755175753856677   0.009026106134797526   -0.03168415195845897
0.4755175753856677   0.009026106134797526   -0.03168415195845897
0.20069142832968584   -0.0017639256057183708   0.01618634640546357
0.20069142832968584   -0.0017639256057183708   0.01618634640546357
0.20069142832968584   -0.0017639256057183708   0.01618634640546357
0.20069142832968584   -0.0017639256057183708   0.01618634640546357
0.16664984518415304   -0.05552175694778357   -0.02697285391269119
0.16664984518415304   -0.05552175694778357   -0.02697285391269119
0.16664984518415304   -0.05552175694778357   -0.02697285391269119
0.16664984518415304   -0.05552175694778357   -0.02697285391269119
0.47058366491725934   0.04923610959837355   0.02276551710437047
0.47058366491725934   0.04923610959837355   0.02276551710437047
0.47058366491725934   0.04923610959837355   0.02276551710437047
0.47058366491725934   0.04923610959837355   0.02276551710437047
0.3161250518207846   -0.0021679147348598223   -0.01467432638067323
0.3161250518207846   -0.0021679147348598223   -0.01467432638067323
0.3161250518207846   -0.0021679147348598223   -0.01467432638067323
0.3161250518207846   -0.0021679147348598223   -0.01467432638067323
0.4513569867411152   0.0016565744254593215   -0.02578833860343885
0.4513569867411152   0.0016565744254593215   -0.02578833860343885
0.4513569867411152   0.0016565744254593215   -0.02578833860343885
0.4513569867411152   0.0016565744254593215   -0.02578833860343885
0.1853309480147619   -0.008487797120404855   0.019398700412975853
0.1853309480147619   -0.008487797120404855   0.019398700412975853
0.1853309480147619   -0.008487797120404855   0.019398700412975853
0.1853309480147619   -0.008487797120404855   0.019398700412975853
0.15336754192100205   -0.06068939536183528   -0.02248612658430712
0.15336754192100205   -0.06068939536183528   -0.02248612658430712
0.15336754192100205   -0.06068939536183528   -0.02248612658430712
0.15336754192100205   -0.06068939536183528   -0.02248612658430712
0.4419974139563931   0.03854245578207194   0.02600813251890796
0.4419974139563931   0.03854245578207194   0.02600813251890796
0.4419974139563931   0.03854245578207194   0.02600813251890796
0.4419974139563931   0.03854245578207194   0.02600813251890796
0.29003745424731764   -0.009942818608770623   -0.022428862292112745
0.29003745424731764   -0.009942818608770623   -0.022428862292112745
0.29003745424731764   -0.009942818608770623   -0.022428862292112745
0.29003745424731764   -0.009942818608770623   -0.022428862292112745
0.21802381310607064   0.041926277961245303   -0.006027649388759965
0.21802381310607064   0.041926277961245303   -0.006027649388759965
0.21802381310607064   0.041926277961245303   -0.006027649388759965
0.21802381310607064   0.041926277961245303   -0.006027649388759965
-0.06662637790004314   0.003462267170803341   0.0019138583986640784
-0.06662637790004314   0.003462267170803341   0.0019138583986640784
-0.06662637790004314   0.003462267170803341   0.0019138583986640784
-0.06662637790004314   0.003462267170803341   0.0019138583986640784
-0.09051588971920443   -0.034605331280450624   -0.019535515835863507
-0.09051588971920443   -0.034605331280450624   -0.019535515835863507
-0.09051588971920443   -0.034605331280450624   -0.019535515835863507
-0.09051588971920443   -0.034605331280450624   -0.019535515835863507
0.21208088116631876   0.05037301402104929   0.0209966709618606
0.21208088116631876   0.05037301402104929   0.0209966709618606
0.21208088116631876   0.05037301402104929   0.0209966709618606
0.21208088116631876   0.05037301402104929   0.0209966709618606
0.06674669533470047   0.014543306827771234   0.002567739439386348
0.06674669533470047   0.014543306827771234   0.002567739439386348
0.06674669533470047   0.014543306827771234   0.002567739439386348
0.06674669533470047   0.014543306827771234   0.002567739439386348
0.2026206263748741   0.02728563109222884   -0.003217220066544693
0.2026206263748741   0.02728563109222884   -0.003217220066544693
0.2026206263748741   0.02728563109222884   -0.003217220066544693
0.2026206263748741   0.02728563109222884   -0.003217220066544693
-0.08119833651842043   -0.01166064994229123   0.004107568829897174
-0.08119833651842043   -0.01166064994229123   0.004107568829897174
-0.08119833651842043   -0.01166064994229123   0.004107568829897174
-0.08119833651842043   -0.01166064994229123   0.004107568829897174
-0.10434247130714107   -0.04615999666101082   -0.01582167181406997
-0.10434247130714107   -0.04615999666101082   -0.01582167181406997
-0.10434247130714107   -0.04615999666101082   -0.01582167181406997
-0.10434247130714107   -0.04615999666101082   -0.01582167181406997
0.19511836694287643   0.037019565569915217   0.02282843236322841
0.19511836694287643   0.037019565569915217   0.02282843236322841
0.19511836694287643   0.037019565569915217   0.02282843236322841
0.19511836694287643   0.037019565569915217   0.02282843236322841
0.049676074757711644   0.0014486135361976632   -0.0037221861975163598
0.049676074757711644   0.0014486135361976632   -0.0037221861975163598
0.049676074757711644   0.0014486135361976632   -0.0037221861975163598
0.049676074757711644   0.0014486135361976632   -0.0037221861975163598
0.18595726263669005   0.014893983142509271   -0.0008515067403006144
0.18595726263669005   0.014893983142509271   -0.0008515067403006144
0.18595726263669005   0.014893983142509271   -0.0008515067403006144
0.18595726263669005   0.014893983142509271   -0.0008515067403006144
-0.09553909032729194   -0.024392137559942635   0.006427373984107518
-0.09553909032729194   -0.024392137559942635   0.006427373984107518
-0.09553909032729194   -0.024392137559942635   0.006427373984107518
-0.09553909032729194   -0.024392137559942635   0.006427373984107518
-0.1179826212557849   -0.0570013270078277   -0.012390711541406592
-0.1179826212557849   -0.0570013270078277   -0.012390711541406592
-0.1179826212557849   -0.0570013270078277   -0.012390711541406592
-0.1179826212557849   -0.0570013270078277   -0.012390711541406592
0.1798114211286906   0.024209599693718078   0.02483427439858618
0.1798114211286906   0.024209599693718078   0.02483427439858618
0.1798114211286906   0.024209599693718078   0.02483427439858618
0.1798114211286906   0.024209599693718078   0.02483427439858618
0.03600066851170126   -0.009391909200458667   -0.009269273981457864
0.03600066851170126   -0.009391909200458667   -0.009269273981457864
0.03600066851170126   -0.009391909200458667   -0.009269273981457864
0.03600066851170126   -0.009391909200458667   -0.009269273981457864
-0.056130531894329865   0.05299394467736033   0.004861410920673407
-0.056130531894329865   0.05299394467736033   0.004861410920673407
-0.056130531894329865   0.05299394467736033   0.004861410920673407
-0.056130531894329865   0.05299394467736033   0.004861410920673407
-0.3454863266247618   -0.008887089157227222   -0.010522549501257375
-0.3454863266247618   -0.008887089157227222   -0.010522549501257375
-0.3454863266247618   -0.008887089157227222   -0.010522549501257375
-0.3454863266247618   -0.008887089157227222   -0.010522549501257375
-0.35914001054143196   -0.02075717444935702   -0.007756537243198108
-0.35914001054143196   -0.02075717444935702   -0.007756537243198108
-0.35914001054143196   -0.02075717444935702   -0.007756537243198108
-0.35914001054143196   -0.02075717444935702   -0.007756537243198108
-0.07037722996146074   0.03840101426681878   0.008151437405583646
-0.07037722996146074   0.03840101426681878   0.008151437405583646
-0.07037722996146074   0.03840101426681878   0.008151437405583646
-0.07037722996146074   0.03840101426681878   0.008151437405583646
-0.20727486591382743   0.015190093117064119   0.004112680263269421
-0.20727486591382743   0.015190093117064119   0.004112680263269421
-0.20727486591382743   0.015190093117064119   0.004112680263269421
-0.20727486591382743   0.015190093117064119   0.004112680263269421
-0.06995831230461969   0.040299900531644256   0.008347139424965316
-0.06995831230461969   0.040299900531644256   0.008347139424965316
-0.06995831230461969   0.040299900531644256   0.008347139424965316
-0.06995831230461969   0.040299900531644256   0.008347139424965316
-0.3596013700324837   -0.022698502548387157   -0.008122006599423082
-0.3596013700324837   -0.022698502548387157   -0.008122006599423082
-0.3596013700324837   -0.022698502548387157   -0.008122006599423082
-0.3596013700324837   -0.022698502548387157   -0.008122006599423082
-0.3731115615987197   -0.033346528586651   -0.004452832663112596
-0.3731115615987197   -0.033346528586651   -0.004452832663112596
-0.3731115615987197   -0.033346528586651   -0.004452832663112596
-0.3731115615987197   -0.033346528586651   -0.004452832663112596
-0.08488755865603197   0.02465920032469153   0.010633694455771222
-0.08488755865603197   0.02465920032469153   0.010633694455771222
-0.08488755865603197   0.02465920032469153   0.010633694455771222
-0.08488755865603197   0.02465920032469153   0.010633694455771222
-0.22163823875679436   0.0029231174828889157   -0.0012897847337391063
-0.22163823875679436   0.0029231174828889157   -0.0012897847337391063
-0.22163823875679436   0.0029231174828889157   -0.0012897847337391063
-0.22163823875679436   0.0029231174828889157   -0.0012897847337391063
-0.08417003390874117   0.02759037265612581   0.011290145860792857
-0.08417003390874117   0.02759037265612581   0.011290145860792857
-0.08417003390874117   0.02759037265612581   0.011290145860792857
-0.08417003390874117   0.02759037265612581   0.011290145860792857
-0.3740572469595   -0.03650586153157824   -0.006021926522078891
-0.3740572469595   -0.03650586153157824   -0.006021926522078891
-0.3740572469595   -0.03650586153157824   -0.006021926522078891
-0.3740572469595   -0.03650586153157824   -0.006021926522078891
-0.3868434215755881   -0.04536948083318558   -0.0012373806492659845
-0.3868434215755881   -0.04536948083318558   -0.0012373806492659845
-0.3868434215755881   -0.04536948083318558   -0.0012373806492659845
-0.3868434215755881   -0.04536948083318558   -0.0012373806492659845
-0.09927875698264858   0.011307845542852045   0.012819437273595316
-0.09927875698264858   0.011307845542852045   0.012819437273595316
-0.09927875698264858   0.011307845542852045   0.012819437273595316
-0.09927875698264858   0.011307845542852045   0.012819437273595316
-0.23659709490970038   -0.00935596203796379   -0.007148060972765137
-0.23659709490970038   -0.00935596203796379   -0.007148060972765137
-0.23659709490970038   -0.00935596203796379   -0.007148060972765137
-0.23659709490970038   -0.00935596203796379   -0.007148060972765137
-0.32599715523376893   0.06251062465689539   0.015525593639584605
-0.32599715523376893   0.06251062465689539   0.015525593639584605
-0.32599715523376893   0.06251062465689539   0.015525593639584605
-0.32599715523376893   0.06251062465689539   0.015525593639584605
-0.6195728720583051   -0.02119177057672043   -0.021365696820884503
-0.6195728720583051   -0.02119177057672043   -0.021365696820884503
-0.6195728720583051   -0.02119177057672043   -0.021365696820884503
-0.6195728720583051   -0.02119177057672043   -0.021365696820884503
-0.6246920398650347   -0.009513560803452593   0.004869070060321612
-0.6246920398650347   -0.009513560803452593   0.004869070060321612
-0.6246920398650347   -0.009513560803452593   0.004869070060321612
-0.6246920398650347   -0.009513560803452593   0.004869070060321612
-0.34932998038260044   0.025041917935818347   -0.004505478834215981
-0.34932998038260044   0.025041917935818347   -0.004505478834215981
-0.34932998038260044   0.025041917935818347   -0.004505478834215981
-0.34932998038260044   0.025041917935818347   -0.004505478834215981
-0.4770367179061395   0.014345946190521604   0.0059609836744788924
-0.4770367179061395   0.014345946190521604   0.0059609836744788924
-0.4770367179061395   0.014345946190521604   0.0059609836744788924
-0.4770367179061395   0.014345946190521604   0.0059609836744788924
-0.33957201507784474   0.05033490272249316   0.018991362902891218
-0.33957201507784474   0.05033490272249316   0.018991362902891218
-0.33957201507784474   0.05033490272249316   0.018991362902891218
-0.33957201507784474   0.05033490272249316   0.018991362902891218
-0.6348818053600034   -0.03523834578035148   -0.02035497243763143
-0.6348818053600034   -0.03523834578035148   -0.02035497243763143
-0.6348818053600034   -0.03523834578035148   -0.02035497243763143
-0.6348818053600034   -0.03523834578035148   -0.02035497243763143
-0.6411681152469959   -0.02198537729583553   0.006394216643089451
-0.6411681152469959   -0.02198537729583553   0.006394216643089451
-0.6411681152469959   -0.02198537729583553   0.006394216643089451
-0.6411681152469959   -0.02198537729583553   0.006394216643089451
-0.3634523589698258   0.012374296476600297   -0.0018776445818941973
-0.3634523589698258   0.012374296476600297   -0.0018776445818941973
-0.3634523589698258   0.012374296476600297   -0.0018776445818941973
-0.3634523589698258   0.012374296476600297   -0.0018776445818941973
-0.4891030626494293   0.003237260760978737   0.0005487372975333665
-0.4891030626494293   0.003237260760978737   0.0005487372975333665
-0.4891030626494293   0.003237260760978737   0.0005487372975333665
-0.4891030626494293   0.003237260760978737   0.0005487372975333665
-0.3533422653160111   0.03875864449541748   0.022288475668369834
-0.3533422653160111   0.03875864449541748   0.022288475668369834
-0.3533422653160111   0.03875864449541748   0.022288475668369834
-0.3533422653160111   0.03875864449541748   0.022288475668369834
-0.6513187888799138   -0.04841030529375081   -0.017934223523592446
-0.6513187888799138   -0.04841030529375081   -0.017934223523592446
-0.6513187888799138   -0.04841030529375081   -0.017934223523592446
-0.6513187888799138   -0.04841030529375081   -0.017934223523592446
-0.655827724102862   -0.035287725984210566   0.009844377025726214
-0.655827724102862   -0.035287725984210566   0.009844377025726214
-0.655827724102862   -0.035287725984210566   0.009844377025726214
-0.655827724102862   -0.035287725984210566   0.009844377025726214
-0.37782369932665383   -0.0016951712904947139   0.00018692105270684545
-0.37782369932665383   -0.0016951712904947139   0.00018692105270684545
-0.37782369932665383   -0.0016951712904947139   0.00018692105270684545
-0.37782369932665383   -0.0016951712904947139   0.00018692105270684545
-0.5072872944617981   -0.009691295607683843   -0.005746864301061819
-0.5072872944617981   -0.009691295607683843   -0.005746864301061819
-0.5072872944617981   -0.009691295607683843   -0.005746864301061819
-0.5072872944617981   -0.009691295607683843   -0.005746864301061819
-0.5945942117621975   0.05795373853446161   0.0243820955484719
-0.5945942117621975   0.05795373853446161   0.0243820955484719
-0.5945942117621975   0.05795373853446161   0.0243820955484719
-0.5945942117621975   0.05795373853446161   0.0243820955484719
-0.8778027110841741   -0.04048524542091668   -0.02762938402964532
-0.8778027110841741   -0.04048524542091668   -0.02762938402964532
-0.8778027110841741   -0.04048524542091668   -0.02762938402964532
-0.8778027110841741   -0.04048524542091668   -0.02762938402964532
-0.8861786743214142   -0.0011901799711469957   0.02415016458996122
-0.8861786743214142   -0.0011901799711469957   0.02415016458996122
-0.8861786743214142   -0.0011901799711469957   0.02415016458996122
-0.8861786743214142   -0.0011901799711469957   0.02415016458996122
-0.6253357795305815   0.008680612607599274   -0.01654380167847605
-0.6253357795305815   0.008680612607599274   -0.01654380167847605
-0.6253357795305815   0.008680612607599274   -0.01654380167847605
-0.6253357795305815   0.008680612607599274   -0.01654380167847605
-0.7131264021579854   0.013360513580208719   0.01810921919970479
-0.7131264021579854   0.013360513580208719   0.01810921919970479
-0.7131264021579854   0.013360513580208719   0.01810921919970479
-0.7131264021579854   0.013360513580208719   0.01810921919970479
-0.6068922582607865   0.0555899614821729   0.02876445579593301
-0.6068922582607865   0.0555899614821729   0.02876445579593301
-0.6068922582607865   0.0555899614821729   0.02876445579593301
-0.6068922582607865   0.0555899614821729   0.02876445579593301
-0.9049926322529743   -0.048469965507487014   -0.02263983953151466
-0.9049926322529743   -0.048469965507487014   -0.02263983953151466
-0.9049926322529743   -0.048469965507487014   -0.02263983953151466
-0.9049926322529743   -0.048469965507487014   -0.02263983953151466
-0.9094743067036595   -0.008056402683633487   0.03042798456843565
-0.9094743067036595   -0.008056402683633487   0.03042798456843565
-0.9094743067036595   -0.008056402683633487   0.03042798456843565
-0.9094743067036595   -0.008056402683633487   0.03042798456843565
-0.6405204071563504   0.001735336201083168   -0.014087956400613916
-0.6405204071563504   0.001735336201083168   -0.014087956400613916
-0.6405204071563504   0.001735336201083168   -0.014087956400613916
-0.6405204071563504   0.001735336201083168   -0.014087956400613916
-0.74464687821129   0.005478183945007653   0.009561872070823374
-0.74464687821129   0.005478183945007653   0.009561872070823374
-0.74464687821129   0.005478183945007653   0.009561872070823374
-0.74464687821129   0.005478183945007653   0.009561872070823374
-0.6212164454664524   0.050285841916761276   0.03388134633320233
-0.6212164454664524   0.050285841916761276   0.03388134633320233
-0.6212164454664524   0.050285841916761276   0.03388134633320233
-0.6212164454664524   0.050285841916761276   0.03388134633320233
-0.9290450299302697   -0.05687366993603008   -0.018608364312230258
-0.9290450299302697   -0.05687366993603008   -0.018608364312230258
-0.9290450299302697   -0.05687366993603008   -0.018608364312230258
-0.9290450299302697   -0.05687366993603008   -0.018608364312230258
-0.9406383702825677   -0.02961273896700957   0.030499368221311246
-0.9406383702825677   -0.02961273896700957   0.030499368221311246
-0.9406383702825677   -0.02961273896700957   0.030499368221311246
-0.9406383702825677   -0.02961273896700957   0.030499368221311246
-0.6564176098341349   -0.01593404246598125   -0.01245873514888296
-0.6564176098341349   -0.01593404246598125   -0.01245873514888296
-0.6564176098341349   -0.01593404246598125   -0.01245873514888296
-0.6564176098341349   -0.01593404246598125   -0.01245873514888296
-0.7534221462514877   -0.0035419448915999935   0.005522621929380661
-0.7534221462514877   -0.0035419448915999935   0.005522621929380661
-0.7534221462514877   -0.0035419448915999935   0.005522621929380661
-0.7534221462514877   -0.0035419448915999935   0.005522621929380661
0.2808323571916605   0.016886503068180507   -0.03330747284413217
0.2808323571916605   0.016886503068180507   -0.03330747284413217
0.2808323571916605   0.016886503068180507   -0.03330747284413217
0.2808323571916605   0.016886503068180507   -0.03330747284413217
0.08226451214331305   0.019918930916905067   0.01588220514665309
0.08226451214331305   0.019918930916905067   0.01588220514665309
0.08226451214331305   0.019918930916905067   0.01588220514665309
0.08226451214331305   0.019918930916905067   0.01588220514665309
0.05128983349776541   -0.04075910638375745   -0.029387962652811427
0.05128983349776541   -0.04075910638375745   -0.029387962652811427
0.05128983349776541   -0.04075910638375745   -0.029387962652811427
0.05128983349776541   -0.04075910638375745   -0.029387962652811427
0.2732307204680844   0.047517224388955975   0.0191070075643762
0.2732307204680844   0.047517224388955975   0.0191070075643762
0.2732307204680844   0.047517224388955975   0.0191070075643762
0.2732307204680844   0.047517224388955975   0.0191070075643762
0.16188953970520406   0.00793747078683344   -0.003725902809546079
0.16188953970520406   0.00793747078683344   -0.003725902809546079
0.16188953970520406   0.00793747078683344   -0.003725902809546079
0.16188953970520406   0.00793747078683344   -0.003725902809546079
0.2536904383217135   -0.0005140238700919175   -0.030563154908431867
0.2536904383217135   -0.0005140238700919175   -0.030563154908431867
0.2536904383217135   -0.0005140238700919175   -0.030563154908431867
0.2536904383217135   -0.0005140238700919175   -0.030563154908431867
0.07022065732064008   0.006662683551794045   0.017844366526010857
0.07022065732064008   0.006662683551794045   0.017844366526010857
0.07022065732064008   0.006662683551794045   0.017844366526010857
0.07022065732064008   0.006662683551794045   0.017844366526010857
0.039603651884921494   -0.046509042897324104   -0.02498023234181064
0.039603651884921494   -0.046509042897324104   -0.02498023234181064
0.039603651884921494   -0.046509042897324104   -0.02498023234181064
0.039603651884921494   -0.046509042897324104   -0.02498023234181064
0.25222284474052387   0.03958565478593375   0.024574590118061457
0.25222284474052387   0.03958565478593375   0.024574590118061457
0.25222284474052387   0.03958565478593375   0.024574590118061457
0.25222284474052387   0.03958565478593375   0.024574590118061457
0.1472822527949727   -0.0010559167271969143   -0.009543062676691957
0.1472822527949727   -0.0010559167271969143   -0.009543062676691957
0.1472822527949727   -0.0010559167271969143   -0.009543062676691957
0.1472822527949727   -0.0010559167271969143   -0.009543062676691957
0.23278600411226782   -0.007901098025797047   -0.025122860211490995
0.23278600411226782   -0.007901098025797047   -0.025122860211490995
0.23278600411226782   -0.007901098025797047   -0.025122860211490995
0.23278600411226782   -0.007901098025797047   -0.025122860211490995
0.058221921097137426   0.00015913849836111634   0.02144293232358474
0.058221921097137426   0.00015913849836111634   0.02144293232358474
0.058221921097137426   0.00015913849836111634   0.02144293232358474
0.058221921097137426   0.00015913849836111634   0.02144293232358474
0.029160598407045005   -0.0533896831754964   -0.02081574671958565
0.029160598407045005   -0.0533896831754964   -0.02081574671958565
0.029160598407045005   -0.0533896831754964   -0.02081574671958565
0.029160598407045005   -0.0533896831754964   -0.02081574671958565
0.2261928882412199   0.026934562028269375   0.027307603680214815
0.2261928882412199   0.026934562028269375   0.027307603680214815
0.2261928882412199   0.026934562028269375   0.027307603680214815
0.2261928882412199   0.026934562028269375   0.027307603680214815
0.12694548252009646   -0.00904159902937047   -0.016680981740971962
0.12694548252009646   -0.00904159902937047   -0.016680981740971962
0.12694548252009646   -0.00904159902937047   -0.016680981740971962
0.12694548252009646   -0.00904159902937047   -0.016680981740971962
0.07925772297718672   0.030341461427584752   -0.009574271194658722
0.07925772297718672   0.030341461427584752   -0.009574271194658722
0.07925772297718672   0.030341461427584752   -0.009574271194658722
0.07925772297718672   0.030341461427584752   -0.009574271194658722
-0.11249160787587813   0.00961683093117963   0.003815756144322207
-0.11249160787587813   0.00961683093117963   0.003815756144322207
-0.11249160787587813   0.00961683093117963   0.003815756144322207
-0.11249160787587813   0.00961683093117963   0.003815756144322207
-0.13245069565477027   -0.026168049221690526   -0.017177068430780127
-0.13245069565477027   -0.026168049221690526   -0.017177068430780127
-0.13245069565477027   -0.026168049221690526   -0.017177068430780127
-0.13245069565477027   -0.026168049221690526   -0.017177068430780127
0.07650098258015706   0.03763580277062409   0.018272873604765694
0.07650098258015706   0.03763580277062409   0.018272873604765694
0.07650098258015706   0.03763580277062409   0.018272873604765694
0.07650098258015706   0.03763580277062409   0.018272873604765694
-0.022972177951754543   0.012310713173618584   0.0031627875349504947
-0.022972177951754543   0.012310713173618584   0.0031627875349504947
-0.022972177951754543   0.012310713173618584   0.0031627875349504947
-0.022972177951754543   0.012310713173618584   0.0031627875349504947
0.06706537185455556   0.015763918763167427   -0.00703329601578552
0.06706537185455556   0.015763918763167427   -0.00703329601578552
0.06706537185455556   0.015763918763167427   -0.00703329601578552
0.06706537185455556   0.015763918763167427   -0.00703329601578552
-0.12353746714021299   -0.004818547425283599   0.006039572345597322
-0.12353746714021299   -0.004818547425283599   0.006039572345597322
-0.12353746714021299   -0.004818547425283599   0.006039572345597322
-0.12353746714021299   -0.004818547425283599   0.006039572345597322
-0.14290251460847683   -0.0378442964301378   -0.013469996085683417
-0.14290251460847683   -0.0378442964301378   -0.013469996085683417
-0.14290251460847683   -0.0378442964301378   -0.013469996085683417
-0.14290251460847683   -0.0378442964301378   -0.013469996085683417
0.06278848860725475   0.024507926916297912   0.019926981456234567
0.06278848860725475   0.024507926916297912   0.019926981456234567
0.06278848860725475   0.024507926916297912   0.019926981456234567
0.06278848860725475   0.024507926916297912   0.019926981456234567
-0.035898756816688936   -0.00030761002444513173   -0.002886480857526471
-0.035898756816688936   -0.00030761002444513173   -0.002886480857526471
-0.035898756816688936   -0.00030761002444513173   -0.002886480857526471
-0.035898756816688936   -0.00030761002444513173   -0.002886480857526471
0.05362952879827569   0.0032367777782305223   -0.0045966684505943205
0.05362952879827569   0.0032367777782305223   -0.0045966684505943205
0.05362952879827569   0.0032367777782305223   -0.0045966684505943205
0.05362952879827569   0.0032367777782305223   -0.0045966684505943205
-0.1344200887522171   -0.017249681244787013   0.008347518010266446
-0.1344200887522171   -0.017249681244787013   0.008347518010266446
-0.1344200887522171   -0.017249681244787013   0.008347518010266446
-0.1344200887522171   -0.017249681244787013   0.008347518010266446
-0.15327291620374223   -0.04939824519617775   -0.010120612718429373
-0.15327291620374223   -0.04939824519617775   -0.010120612718429373
-0.15327291620374223   -0.04939824519617775   -0.010120612718429373
-0.15327291620374223   -0.04939824519617775   -0.010120612718429373
0.05078183575086529   0.011648057724468123   0.022252699099551715
0.05078183575086529   0.011648057724468123   0.022252699099551715
0.05078183575086529   0.011648057724468123   0.022252699099551715
0.05078183575086529   0.011648057724468123   0.022252699099551715
-0.04706172746902174   -0.011572902518406073   -0.008589894601681185
-0.04706172746902174   -0.011572902518406073   -0.008589894601681185
-0.04706172746902174   -0.011572902518406073   -0.008589894601681185
-0.04706172746902174   -0.011572902518406073   -0.008589894601681185
-0.10662531515317372   0.041285360979288886   0.001478689709735071
-0.10662531515317372   0.041285360979288886   0.001478689709735071
-0.10662531515317372   0.041285360979288886   0.001478689709735071
-0.10662531515317372   0.041285360979288886   0.001478689709735071
-0.30458756158688327   -0.0037856668055515803   -0.008409347331525513
-0.30458756158688327   -0.0037856668055515803   -0.008409347331525513
-0.30458756158688327   -0.0037856668055515803   -0.008409347331525513
-0.30458756158688327   -0.0037856668055515803   -0.008409347331525513
-0.3140119771996352   -0.012964869811343923   -0.005043235747055397
-0.3140119771996352   -0.012964869811343923   -0.005043235747055397
-0.3140119771996352   -0.012964869811343923   -0.005043235747055397
-0.3140119771996352   -0.012964869811343923   -0.005043235747055397
-0.1176614170160488   0.024785706175902106   0.0058155693652325625
-0.1176614170160488   0.024785706175902106   0.0058155693652325625
-0.1176614170160488   0.024785706175902106   0.0058155693652325625
-0.1176614170160488   0.024785706175902106   0.0058155693652325625
-0.21021761105698697   0.012062573436681115   0.003267379702674239
-0.21021761105698697   0.012062573436681115   0.003267379702674239
-0.21021761105698697   0.012062573436681115   0.003267379702674239
-0.21021761105698697   0.012062573436681115   0.003267379702674239
-0.11711143044363037   0.028411773641594598   0.004939434761632354
-0.11711143044363037   0.028411773641594598   0.004939434761632354
-0.11711143044363037   0.028411773641594598   0.004939434761632354
-0.11711143044363037   0.028411773641594598   0.004939434761632354
-0.3150204861648653   -0.01704945966984803   -0.006001190714701635
-0.3150204861648653   -0.01704945966984803   -0.006001190714701635
-0.3150204861648653   -0.01704945966984803   -0.006001190714701635
-0.3150204861648653   -0.01704945966984803   -0.006001190714701635
-0.324420477918158   -0.02571182078360834   -0.001688491823602159
-0.324420477918158   -0.02571182078360834   -0.001688491823602159
-0.324420477918158   -0.02571182078360834   -0.001688491823602159
-0.324420477918158   -0.02571182078360834   -0.001688491823602159
-0.12869206694863078   0.011471319928697155   0.00826662585470992
-0.12869206694863078   0.011471319928697155   0.00826662585470992
-0.12869206694863078   0.011471319928697155   0.00826662585470992
-0.12869206694863078   0.011471319928697155   0.00826662585470992
-0.221074674546318   -5.021162001154003e-05   -0.0021519303135914547
-0.221074674546318   -5.021162001154003e-05   -0.0021519303135914547
-0.221074674546318   -5.021162001154003e-05   -0.0021519303135914547
-0.221074674546318   -5.021162001154003e-05   -0.0021519303135914547
-0.12795417547082213   0.015503848920886614   0.007923554251567516
-0.12795417547082213   0.015503848920886614   0.007923554251567516
-0.12795417547082213   0.015503848920886614   0.007923554251567516
-0.12795417547082213   0.015503848920886614   0.007923554251567516
-0.3258097646643139   -0.03039574504414958   -0.003951001293840656
-0.3258097646643139   -0.03039574504414958   -0.003951001293840656
-0.3258097646643139   -0.03039574504414958   -0.003951001293840656
-0.3258097646643139   -0.03039574504414958   -0.003951001293840656
-0.334625403639265   -0.03801275870159107   0.0015630627079655374
-0.334625403639265   -0.03801275870159107   0.0015630627079655374
-0.334625403639265   -0.03801275870159107   0.0015630627079655374
-0.334625403639265   -0.03801275870159107   0.0015630627079655374
-0.13953850338076157   -0.001350470944350434   0.010503677144644771
-0.13953850338076157   -0.001350470944350434   0.010503677144644771
-0.13953850338076157   -0.001350470944350434   0.010503677144644771
-0.13953850338076157   -0.001350470944350434   0.010503677144644771
-0.2325014033922909   -0.012189813378344455   -0.0080377079174732
-0.2325014033922909   -0.012189813378344455   -0.0080377079174732
-0.2325014033922909   -0.012189813378344455   -0.0080377079174732
-0.2325014033922909   -0.012189813378344455   -0.0080377079174732
-0.2892350439398926   0.051718707692261834   0.012848866405614286
-0.2892350439398926   0.051718707692261834   0.012848866405614286
-0.2892350439398926   0.051718707692261834   0.012848866405614286
-0.2892350439398926   0.051718707692261834   0.012848866405614286
-0.4926327924080642   -0.014832218687079925   -0.019129039461908512
-0.4926327924080642   -0.014832218687079925   -0.019129039461908512
-0.4926327924080642   -0.014832218687079925   -0.019129039461908512
-0.4926327924080642   -0.014832218687079925   -0.019129039461908512
-0.49356008752332836   -0.0013416300887427318   0.007806888183706562
-0.49356008752332836   -0.0013416300887427318   0.007806888183706562
-0.49356008752332836   -0.0013416300887427318   0.007806888183706562
-0.49356008752332836   -0.0013416300887427318   0.007806888183706562
-0.3090565057764278   0.012762711971631879   -0.005993460413997731
-0.3090565057764278   0.012762711971631879   -0.005993460413997731
-0.3090565057764278   0.012762711971631879   -0.005993460413997731
-0.3090565057764278   0.012762711971631879   -0.005993460413997731
-0.3940842438510481   0.012046280709853988   0.00428064723080912
-0.3940842438510481   0.012046280709853988   0.00428064723080912
-0.3940842438510481   0.012046280709853988   0.00428064723080912
-0.3940842438510481   0.012046280709853988   0.00428064723080912
-0.29930401295997167   0.03921212526263804   0.016319590377284365
-0.29930401295997167   0.03921212526263804   0.016319590377284365
-0.29930401295997167   0.03921212526263804   0.016319590377284365
-0.29930401295997167   0.03921212526263804   0.016319590377284365
-0.5041910127376154   -0.028669475777581045   -0.01801989219889011
-0.5041910127376154   -0.028669475777581045   -0.01801989219889011
-0.5041910127376154   -0.028669475777581045   -0.01801989219889011
-0.5041910127376154   -0.028669475777581045   -0.01801989219889011
-0.506378212071575   -0.01391318974181209   0.00961077742776234
-0.506378212071575   -0.01391318974181209   0.00961077742776234
-0.506378212071575   -0.01391318974181209   0.00961077742776234
-0.506378212071575   -0.01391318974181209   0.00961077742776234
-0.3195197069877589   0.0004955708250765391   -0.0033920287802954446
-0.3195197069877589   0.0004955708250765391   -0.0033920287802954446
-0.3195197069877589   0.0004955708250765391   -0.0033920287802954446
-0.3195197069877589   0.0004955708250765391   -0.0033920287802954446
-0.40329287443587886   0.0007679908744576205   -0.0013979151693271769
-0.40329287443587886   0.0007679908744576205   -0.0013979151693271769
-0.40329287443587886   0.0007679908744576205   -0.0013979151693271769
-0.40329287443587886   0.0007679908744576205   -0.0013979151693271769
-0.3095085192288285   0.027475407924221644   0.019684072915215192
-0.3095085192288285   0.027475407924221644   0.019684072915215192
-0.3095085192288285   0.027475407924221644   0.019684072915215192
-0.3095085192288285   0.027475407924221644   0.019684072915215192
-0.5169376561464452   -0.041441283156901466   -0.015658349531499208
-0.5169376561464452   -0.041441283156901466   -0.015658349531499208
-0.5169376561464452   -0.041441283156901466   -0.015658349531499208
-0.5169376561464452   -0.041441283156901466   -0.015658349531499208
-0.5174412670070538   -0.0270327090158086   0.013116800106568169
-0.5174412670070538   -0.0270327090158086   0.013116800106568169
-0.5174412670070538   -0.0270327090158086   0.013116800106568169
-0.5174412670070538   -0.0270327090158086   0.013116800106568169
-0.33011615490389   -0.012641934986523468   -0.001261517330230763
-0.33011615490389   -0.012641934986523468   -0.001261517330230763
-0.33011615490389   -0.012641934986523468   -0.001261517330230763
-0.33011615490389   -0.012641934986523468   -0.001261517330230763
-0.4170429688354222   -0.011551431348422285   -0.007598679862498778
-0.4170429688354222   -0.011551431348422285   -0.007598679862498778
-0.4170429688354222   -0.011551431348422285   -0.007598679862498778
-0.4170429688354222   -0.011551431348422285   -0.007598679862498778
-0.4711038216125279   0.05093094037090072   0.022752655457795548
-0.4711038216125279   0.05093094037090072   0.022752655457795548
-0.4711038216125279   0.05093094037090072   0.022752655457795548
-0.4711038216125279   0.05093094037090072   0.022752655457795548
-0.6638718339739761   -0.030643299867913733   -0.028907422940372518
-0.6638718339739761   -0.030643299867913733   -0.028907422940372518
-0.6638718339739761   -0.030643299867913733   -0.028907422940372518
-0.6638718339739761   -0.030643299867913733   -0.028907422940372518
-0.6686832972465843   0.00810226975469279   0.023912001772994296
-0.6686832972465843   0.00810226975469279   0.023912001772994296
-0.6686832972465843   0.00810226975469279   0.023912001772994296
-0.6686832972465843   0.00810226975469279   0.023912001772994296
-0.49864846516299116   -0.0013424165232331746   -0.017634213580124555
-0.49864846516299116   -0.0013424165232331746   -0.017634213580124555
-0.49864846516299116   -0.0013424165232331746   -0.017634213580124555
-0.49864846516299116   -0.0013424165232331746   -0.017634213580124555
-0.5508062158923586   0.012120700056308206   0.013409377601538472
-0.5508062158923586   0.012120700056308206   0.013409377601538472
-0.5508062158923586   0.012120700056308206   0.013409377601538472
-0.5508062158923586   0.012120700056308206   0.013409377601538472
-0.4801908249803966   0.04640056501271199   0.026911005796902615
-0.4801908249803966   0.04640056501271199   0.026911005796902615
-0.4801908249803966   0.04640056501271199   0.026911005796902615
-0.4801908249803966   0.04640056501271199   0.026911005796902615
-0.6880774710814247   -0.04057724543349965   -0.024379352213007938
-0.6880774710814247   -0.04057724543349965   -0.024379352213007938
-0.6880774710814247   -0.04057724543349965   -0.024379352213007938
-0.6880774710814247   -0.04057724543349965   -0.024379352213007938
-0.6886645952937672   0.0010292104646679873   0.0305256030547576
-0.6886645952937672   0.0010292104646679873   0.0305256030547576
-0.6886645952937672   0.0010292104646679873   0.0305256030547576
-0.6886645952937672   0.0010292104646679873   0.0305256030547576
-0.5101793518409786   -0.008187038580857411   -0.01512107258021822
-0.5101793518409786   -0.008187038580857411   -0.01512107258021822
-0.5101793518409786   -0.008187038580857411   -0.01512107258021822
-0.5101793518409786   -0.008187038580857411   -0.01512107258021822
-0.5764196355128509   0.003766527801478424   0.004930098652435655
-0.5764196355128509   0.003766527801478424   0.004930098652435655
-0.5764196355128509   0.003766527801478424   0.004930098652435655
-0.5764196355128509   0.003766527801478424   0.004930098652435655
-0.4909450872809564   0.04086719482007773   0.03199601681896491
-0.4909450872809564   0.04086719482007773   0.03199601681896491
-0.4909450872809564   0.04086719482007773   0.03199601681896491
-0.4909450872809564   0.04086719482007773   0.03199601681896491
-0.708782007854245   -0.04890817093671533   -0.02012407834624136
-0.708782007854245   -0.04890817093671533   -0.02012407834624136
-0.708782007854245   -0.04890817093671533   -0.02012407834624136
-0.708782007854245   -0.04890817093671533   -0.02012407834624136
-0.7162812824609543   -0.019115839716452816   0.03149595122554805
-0.7162812824609543   -0.019115839716452816   0.03149595122554805
-0.7162812824609543   -0.019115839716452816   0.03149595122554805
-0.7162812824609543   -0.019115839716452816   0.03149595122554805
-0.522083522408256   -0.02393993313565113   -0.01318725277961151
-0.522083522408256   -0.02393993313565113   -0.01318725277961151
-0.522083522408256   -0.02393993313565113   -0.01318725277961151
-0.522083522408256   -0.02393993313565113   -0.01318725277961151
-0.5846581456041485   -0.005141959957656435   -8.89673184686357e-05
-0.5846581456041485   -0.005141959957656435   -8.89673184686357e-05
-0.5846581456041485   -0.005141959957656435   -8.89673184686357e-05
-0.5846581456041485   -0.005141959957656435   -8.89673184686357e-05
0.05408976911038945   0.004440224754165544   -0.03333658263412092
0.05408976911038945   0.004440224754165544   -0.03333658263412092
0.05408976911038945   0.004440224754165544   -0.03333658263412092
0.05408976911038945   0.004440224754165544   -0.03333658263412092
-0.052228660840734825   0.02491148662342462   0.016997586918517445
-0.052228660840734825   0.02491148662342462   0.016997586918517445
-0.052228660840734825   0.02491148662342462   0.016997586918517445
-0.052228660840734825   0.02491148662342462   0.016997586918517445
-0.07940173294699182   -0.03220586856030129   -0.026876003766849253
-0.07940173294699182   -0.03220586856030129   -0.026876003766849253
-0.07940173294699182   -0.03220586856030129   -0.026876003766849253
-0.07940173294699182   -0.03220586856030129   -0.026876003766849253
0.04997329800217956   0.035632242570930464   0.020841752868357925
0.04997329800217956   0.035632242570930464   0.020841752868357925
0.04997329800217956   0.035632242570930464   0.020841752868357925
0.04997329800217956   0.035632242570930464   0.020841752868357925
-0.008175763147918944   0.007825144249324088   0.0028761014703507343
-0.008175763147918944   0.007825144249324088   0.0028761014703507343
-0.008175763147918944   0.007825144249324088   0.0028761014703507343
-0.008175763147918944   0.007825144249324088   0.0028761014703507343
0.030549045736812337   -0.0108083043730668   -0.029838961514480955
0.030549045736812337   -0.0108083043730668   -0.029838961514480955
0.030549045736812337   -0.0108083043730668   -0.029838961514480955
0.030549045736812337   -0.0108083043730668   -0.029838961514480955
-0.061118035230616756   0.013094123834703819   0.019242492420021007
-0.061118035230616756   0.013094123834703819   0.019242492420021007
-0.061118035230616756   0.013094123834703819   0.019242492420021007
-0.061118035230616756   0.013094123834703819   0.019242492420021007
-0.08837291168568884   -0.0380101992917155   -0.02280892384395674
-0.08837291168568884   -0.0380101992917155   -0.02280892384395674
-0.08837291168568884   -0.0380101992917155   -0.02280892384395674
-0.08837291168568884   -0.0380101992917155   -0.02280892384395674
0.031546659234427454   0.027760732450190326   0.028618229661055573
0.031546659234427454   0.027760732450190326   0.028618229661055573
0.031546659234427454   0.027760732450190326   0.028618229661055573
0.031546659234427454   0.027760732450190326   0.028618229661055573
-0.02265597045204088   -0.0008754588231995998   -0.0038130587931642654
-0.02265597045204088   -0.0008754588231995998   -0.0038130587931642654
-0.02265597045204088   -0.0008754588231995998   -0.0038130587931642654
-0.02265597045204088   -0.0008754588231995998   -0.0038130587931642654
0.011664374635901002   -0.01837287452906955   -0.024659586352316805
0.011664374635901002   -0.01837287452906955   -0.024659586352316805
0.011664374635901002   -0.01837287452906955   -0.024659586352316805
0.011664374635901002   -0.01837287452906955   -0.024659586352316805
-0.07007685857354566   0.006537176201160927   0.024123966223881695
-0.07007685857354566   0.006537176201160927   0.024123966223881695
-0.07007685857354566   0.006537176201160927   0.024123966223881695
-0.07007685857354566   0.006537176201160927   0.024123966223881695
-0.09658764330901375   -0.046867944447173904   -0.018924397146752595
-0.09658764330901375   -0.046867944447173904   -0.018924397146752595
-0.09658764330901375   -0.046867944447173904   -0.018924397146752595
-0.09658764330901375   -0.046867944447173904   -0.018924397146752595
0.005954277766594612   0.011303907687090465   0.032658553794269615
0.005954277766594612   0.011303907687090465   0.032658553794269615
0.005954277766594612   0.011303907687090465   0.032658553794269615
0.005954277766594612   0.011303907687090465   0.032658553794269615
-0.038344346780591836   -0.00960849398187803   -0.01155255776610043
-0.038344346780591836   -0.00960849398187803   -0.01155255776610043
-0.038344346780591836   -0.00960849398187803   -0.01155255776610043
-0.038344346780591836   -0.00960849398187803   -0.01155255776610043
-0.059901217884552695   0.016734179470961577   -0.013187891148108852
-0.059901217884552695   0.016734179470961577   -0.013187891148108852
-0.059901217884552695   0.016734179470961577   -0.013187891148108852
-0.059901217884552695   0.016734179470961577   -0.013187891148108852
-0.159166864445687   0.006709054648246424   0.004406380924652904
-0.159166864445687   0.006709054648246424   0.004406380924652904
-0.159166864445687   0.006709054648246424   0.004406380924652904
-0.159166864445687   0.006709054648246424   0.004406380924652904
-0.17321992311672105   -0.01876417469554285   -0.014006108029190879
-0.17321992311672105   -0.01876417469554285   -0.014006108029190879
-0.17321992311672105   -0.01876417469554285   -0.014006108029190879
-0.17321992311672105   -0.01876417469554285   -0.014006108029190879
-0.06164302842887054   0.016316028489375436   0.013395621774080466
-0.06164302842887054   0.016316028489375436   0.013395621774080466
-0.06164302842887054   0.016316028489375436   0.013395621774080466
-0.06164302842887054   0.016316028489375436   0.013395621774080466
-0.11326387552644798   0.00491591797317831   0.0026427551994200986
-0.11326387552644798   0.00491591797317831   0.0026427551994200986
-0.11326387552644798   0.00491591797317831   0.0026427551994200986
-0.11326387552644798   0.00491591797317831   0.0026427551994200986
-0.06922019556696735   0.002668462779033541   -0.010842648206062632
-0.06922019556696735   0.002668462779033541   -0.010842648206062632
-0.06922019556696735   0.002668462779033541   -0.010842648206062632
-0.06922019556696735   0.002668462779033541   -0.010842648206062632
-0.1665844685891825   -0.0060583215957590465   0.006465311508720019
-0.1665844685891825   -0.0060583215957590465   0.006465311508720019
-0.1665844685891825   -0.0060583215957590465   0.006465311508720019
-0.1665844685891825   -0.0060583215957590465   0.006465311508720019
-0.18021226018585243   -0.030149952592981394   -0.010361667297070123
-0.18021226018585243   -0.030149952592981394   -0.010361667297070123
-0.18021226018585243   -0.030149952592981394   -0.010361667297070123
-0.18021226018585243   -0.030149952592981394   -0.010361667297070123
-0.0724419776829576   0.0037305564294756906   0.01510499044850721
-0.0724419776829576   0.0037305564294756906   0.01510499044850721
-0.0724419776829576   0.0037305564294756906   0.01510499044850721
-0.0724419776829576   0.0037305564294756906   0.01510499044850721
-0.12209516942237153   -0.006530466910240635   -0.003107863255452939
-0.12209516942237153   -0.006530466910240635   -0.003107863255452939
-0.12209516942237153   -0.006530466910240635   -0.003107863255452939
-0.12209516942237153   -0.006530466910240635   -0.003107863255452939
-0.07975133192392464   -0.009606398622126887   -0.008104825704725371
-0.07975133192392464   -0.009606398622126887   -0.008104825704725371
-0.07975133192392464   -0.009606398622126887   -0.008104825704725371
-0.07975133192392464   -0.009606398622126887   -0.008104825704725371
-0.17391495335100765   -0.017825044947501055   0.008799959231673517
-0.17391495335100765   -0.017825044947501055   0.008799959231673517
-0.17391495335100765   -0.017825044947501055   0.008799959231673517
-0.17391495335100765   -0.017825044947501055   0.008799959231673517
-0.1872506462671822   -0.04183615619563076   -0.007135888482895231
-0.1872506462671822   -0.04183615619563076   -0.007135888482895231
-0.1872506462671822   -0.04183615619563076   -0.007135888482895231
-0.1872506462671822   -0.04183615619563076   -0.007135888482895231
-0.08147829187853285   -0.008984857303478432   0.018739272861956386
-0.08147829187853285   -0.008984857303478432   0.018739272861956386
-0.08147829187853285   -0.008984857303478432   0.018739272861956386
-0.08147829187853285   -0.008984857303478432   0.018739272861956386
-0.13089503649163461   -0.01781460994826933   -0.008946350607931395
-0.13089503649163461   -0.01781460994826933   -0.008946350607931395
-0.13089503649163461   -0.01781460994826933   -0.008946350607931395
-0.13089503649163461   -0.01781460994826933   -0.008946350607931395
-0.15620982770268763   0.02729322774597658   -0.0013926084580803064
-0.15620982770268763   0.02729322774597658   -0.0013926084580803064
-0.15620982770268763   0.02729322774597658   -0.0013926084580803064
-0.15620982770268763   0.02729322774597658   -0.0013926084580803064
-0.26500226793147713   -0.009155158214798922   -0.007534926982878755
-0.26500226793147713   -0.009155158214798922   -0.007534926982878755
-0.26500226793147713   -0.009155158214798922   -0.007534926982878755
-0.26500226793147713   -0.009155158214798922   -0.007534926982878755
-0.26781652510193454   -0.0067375319260485865   -0.0016455130586351743
-0.26781652510193454   -0.0067375319260485865   -0.0016455130586351743
-0.26781652510193454   -0.0067375319260485865   -0.0016455130586351743
-0.26781652510193454   -0.0067375319260485865   -0.0016455130586351743
-0.16589691411017882   0.0017718352048950413   0.0020729271030842655
-0.16589691411017882   0.0017718352048950413   0.0020729271030842655
-0.16589691411017882   0.0017718352048950413   0.0020729271030842655
-0.16589691411017882   0.0017718352048950413   0.0020729271030842655
-0.21327960464123352   0.0030767657449144777   0.0009423114270081315
-0.21327960464123352   0.0030767657449144777   0.0009423114270081315
-0.21327960464123352   0.0030767657449144777   0.0009423114270081315
-0.21327960464123352   0.0030767657449144777   0.0009423114270081315
-0.16327717092287136   0.014906780975328689   0.002036697269188016
-0.16327717092287136   0.014906780975328689   0.002036697269188016
-0.16327717092287136   0.014906780975328689   0.002036697269188016
-0.16327717092287136   0.014906780975328689   0.002036697269188016
-0.2713440288210342   -0.0207802382282744   -0.0052403253519075765
-0.2713440288210342   -0.0207802382282744   -0.0052403253519075765
-0.2713440288210342   -0.0207802382282744   -0.0052403253519075765
-0.2713440288210342   -0.0207802382282744   -0.0052403253519075765
-0.27437728240006437   -0.01897039576883946   0.0017432628184604476
-0.27437728240006437   -0.01897039576883946   0.0017432628184604476
-0.27437728240006437   -0.01897039576883946   0.0017432628184604476
-0.27437728240006437   -0.01897039576883946   0.0017432628184604476
-0.1733053704309599   -0.010258305479254177   0.004281134363665423
-0.1733053704309599   -0.010258305479254177   0.004281134363665423
-0.1733053704309599   -0.010258305479254177   0.004281134363665423
-0.1733053704309599   -0.010258305479254177   0.004281134363665423
-0.22038550493967843   -0.00804902307523187   -0.004337995353935968
-0.22038550493967843   -0.00804902307523187   -0.004337995353935968
-0.22038550493967843   -0.00804902307523187   -0.004337995353935968
-0.22038550493967843   -0.00804902307523187   -0.004337995353935968
-0.17061162907617217   0.0024436578865973738   0.005047877771752404
-0.17061162907617217   0.0024436578865973738   0.005047877771752404
-0.17061162907617217   0.0024436578865973738   0.005047877771752404
-0.17061162907617217   0.0024436578865973738   0.005047877771752404
-0.2781660343369603   -0.032767369716799236   -0.003403522918059426
-0.2781660343369603   -0.032767369716799236   -0.003403522918059426
-0.2781660343369603   -0.032767369716799236   -0.003403522918059426
-0.2781660343369603   -0.032767369716799236   -0.003403522918059426
-0.28076494796650875   -0.03069695112449551   0.004997720829651178
-0.28076494796650875   -0.03069695112449551   0.004997720829651178
-0.28076494796650875   -0.03069695112449551   0.004997720829651178
-0.28076494796650875   -0.03069695112449551   0.004997720829651178
-0.1804271498653423   -0.02159757632302778   0.0067430136537011826
-0.1804271498653423   -0.02159757632302778   0.0067430136537011826
-0.1804271498653423   -0.02159757632302778   0.0067430136537011826
-0.1804271498653423   -0.02159757632302778   0.0067430136537011826
-0.22803186578813633   -0.019239713395046334   -0.010076424635385245
-0.22803186578813633   -0.019239713395046334   -0.010076424635385245
-0.22803186578813633   -0.019239713395046334   -0.010076424635385245
-0.22803186578813633   -0.019239713395046334   -0.010076424635385245
-0.2516309882038576   0.03935601061185848   0.01081030282856163
-0.2516309882038576   0.03935601061185848   0.01081030282856163
-0.2516309882038576   0.03935601061185848   0.01081030282856163
-0.2516309882038576   0.03935601061185848   0.01081030282856163
-0.36679796802131537   -0.015299771916029176   -0.016873399220038138
-0.36679796802131537   -0.015299771916029176   -0.016873399220038138
-0.36679796802131537   -0.015299771916029176   -0.016873399220038138
-0.36679796802131537   -0.015299771916029176   -0.016873399220038138
-0.36194498161296285   0.005602814764617745   0.011095529387451286
-0.36194498161296285   0.005602814764617745   0.011095529387451286
-0.36194498161296285   0.005602814764617745   0.011095529387451286
-0.36194498161296285   0.005602814764617745   0.011095529387451286
-0.2686680054779074   -0.005169503346119517   -0.007470943518428835
-0.2686680054779074   -0.005169503346119517   -0.007470943518428835
-0.2686680054779074   -0.005169503346119517   -0.007470943518428835
-0.2686680054779074   -0.005169503346119517   -0.007470943518428835
-0.31115767872024425   0.006157733691798763   0.0015470310756207778
-0.31115767872024425   0.006157733691798763   0.0015470310756207778
-0.31115767872024425   0.006157733691798763   0.0015470310756207778
-0.31115767872024425   0.006157733691798763   0.0015470310756207778
-0.2578817113216749   0.027045473107256617   0.014245550809357743
-0.2578817113216749   0.027045473107256617   0.014245550809357743
-0.2578817113216749   0.027045473107256617   0.014245550809357743
-0.2578817113216749   0.027045473107256617   0.014245550809357743
-0.3740575234712388   -0.027938409390800514   -0.015925955748517864
-0.3740575234712388   -0.027938409390800514   -0.015925955748517864
-0.3740575234712388   -0.027938409390800514   -0.015925955748517864
-0.3740575234712388   -0.027938409390800514   -0.015925955748517864
-0.37072960646829256   -0.006444527575912511   0.013117378695308352
-0.37072960646829256   -0.006444527575912511   0.013117378695308352
-0.37072960646829256   -0.006444527575912511   0.013117378695308352
-0.37072960646829256   -0.006444527575912511   0.013117378695308352
-0.2751712273310459   -0.01612261683085941   -0.005074240774426919
-0.2751712273310459   -0.01612261683085941   -0.005074240774426919
-0.2751712273310459   -0.01612261683085941   -0.005074240774426919
-0.2751712273310459   -0.01612261683085941   -0.005074240774426919
-0.31711947583324546   -0.004560387239460988   -0.004176198396914299
-0.31711947583324546   -0.004560387239460988   -0.004176198396914299
-0.31711947583324546   -0.004560387239460988   -0.004176198396914299
-0.31711947583324546   -0.004560387239460988   -0.004176198396914299
-0.264266501281505   0.015741643542389105   0.017585129100028865
-0.264266501281505   0.015741643542389105   0.017585129100028865
-0.264266501281505   0.015741643542389105   0.017585129100028865
-0.264266501281505   0.015741643542389105   0.017585129100028865
-0.38268164717011605   -0.03935610260144244   -0.013731249788287159
-0.38268164717011605   -0.03935610260144244   -0.013731249788287159
-0.38268164717011605   -0.03935610260144244   -0.013731249788287159
-0.38268164717011605   -0.03935610260144244   -0.013731249788287159
-0.3778681912669352   -0.01859508206034343   0.01672478366371459
-0.3778681912669352   -0.01859508206034343   0.01672478366371459
-0.3778681912669352   -0.01859508206034343   0.01672478366371459
-0.3778681912669352   -0.01859508206034343   0.01672478366371459
-0.2817011123151391   -0.027352489556384196   -0.003027562481612192
-0.2817011123151391   -0.027352489556384196   -0.003027562481612192
-0.2817011123151391   -0.027352489556384196   -0.003027562481612192
-0.2817011123151391   -0.027352489556384196   -0.003027562481612192
-0.32611298801780164   -0.015516861660026308   -0.010051362092051708
-0.32611298801780164   -0.015516861660026308   -0.010051362092051708
-0.32611298801780164   -0.015516861660026308   -0.010051362092051708
-0.32611298801780164   -0.015516861660026308   -0.010051362092051708
-0.34754911691787066   0.04268078750634169   0.0213902968748145
-0.34754911691787066   0.04268078750634169   0.0213902968748145
-0.34754911691787066   0.04268078750634169   0.0213902968748145
-0.34754911691787066   0.04268078750634169   0.0213902968748145
-0.4485280791933438   -0.022530227978509895   -0.028102532516307913
-0.4485280791933438   -0.022530227978509895   -0.028102532516307913
-0.4485280791933438   -0.022530227978509895   -0.028102532516307913
-0.4485280791933438   -0.022530227978509895   -0.028102532516307913
-0.44891900034559395   0.016846541570883722   0.02358111207306282
-0.44891900034559395   0.016846541570883722   0.02358111207306282
-0.44891900034559395   0.016846541570883722   0.02358111207306282
-0.44891900034559395   0.016846541570883722   0.02358111207306282
-0.37121205827031295   -0.01245064687338103   -0.017186392261308206
-0.37121205827031295   -0.01245064687338103   -0.017186392261308206
-0.37121205827031295   -0.01245064687338103   -0.017186392261308206
-0.37121205827031295   -0.01245064687338103   -0.017186392261308206
-0.38766419651758804   0.01003230915286335   0.007590456163451123
-0.38766419651758804   0.01003230915286335   0.007590456163451123
-0.38766419651758804   0.01003230915286335   0.007590456163451123
-0.38766419651758804   0.01003230915286335   0.007590456163451123
-0.352964521401102   0.036367786656200246   0.02523285855516881
-0.352964521401102   0.036367786656200246   0.02523285855516881
-0.352964521401102   0.036367786656200246   0.02523285855516881
-0.352964521401102   0.036367786656200246   0.02523285855516881
-0.4685477084322545   -0.033353063176149146   -0.024362823613207157
-0.4685477084322545   -0.033353063176149146   -0.024362823613207157
-0.4685477084322545   -0.033353063176149146   -0.024362823613207157
-0.4685477084322545   -0.033353063176149146   -0.024362823613207157
-0.4648928914848528   0.009967781838554797   0.030366569160716977
-0.4648928914848528   0.009967781838554797   0.030366569160716977
-0.4648928914848528   0.009967781838554797   0.030366569160716977
-0.4648928914848528   0.009967781838554797   0.030366569160716977
-0.37882245611014453   -0.01875011390977404   -0.01504128318009372
-0.37882245611014453   -0.01875011390977404   -0.01504128318009372
-0.37882245611014453   -0.01875011390977404   -0.01504128318009372
-0.37882245611014453   -0.01875011390977404   -0.01504128318009372
-0.4067186549240147   0.0016798852965828823   -0.0003770284804967272
-0.4067186549240147   0.0016798852965828823   -0.0003770284804967272
-0.4067186549240147   0.0016798852965828823   -0.0003770284804967272
-0.4067186549240147   0.0016798852965828823   -0.0003770284804967272
-0.3598239505933691   0.030957068569594244   0.030244061924415144
-0.3598239505933691   0.030957068569594244   0.030244061924415144
-0.3598239505933691   0.030957068569594244   0.030244061924415144
-0.3598239505933691   0.030957068569594244   0.030244061924415144
-0.48529428635490535   -0.041142289994086687   -0.020530333356896177
-0.48529428635490535   -0.041142289994086687   -0.020530333356896177
-0.48529428635490535   -0.041142289994086687   -0.020530333356896177
-0.48529428635490535   -0.041142289994086687   -0.020530333356896177
-0.4884535518298087   -0.008158165682126642   0.03209161390956364
-0.4884535518298087   -0.008158165682126642   0.03209161390956364
-0.4884535518298087   -0.008158165682126642   0.03209161390956364
-0.4884535518298087   -0.008158165682126642   0.03209161390956364
-0.38646690729642935   -0.031872331042368404   -0.01299154750173509
-0.38646690729642935   -0.031872331042368404   -0.01299154750173509
-0.38646690729642935   -0.031872331042368404   -0.01299154750173509
-0.38646690729642935   -0.031872331042368404   -0.01299154750173509
-0.4139726923691169   -0.006614758228925391   -0.00601196551051604
-0.4139726923691169   -0.006614758228925391   -0.00601196551051604
-0.4139726923691169   -0.006614758228925391   -0.00601196551051604
-0.4139726923691169   -0.006614758228925391   -0.00601196551051604
-0.18411531678287388   -0.011964422572160882   -0.035495303117271025
-0.18411531678287388   -0.011964422572160882   -0.035495303117271025
-0.18411531678287388   -0.011964422572160882   -0.035495303117271025
-0.18411531678287388   -0.011964422572160882   -0.035495303117271025
-0.18448940534155484   0.027034627207318286   0.01593137030728701
-0.18448940534155484   0.027034627207318286   0.01593137030728701
-0.18448940534155484   0.027034627207318286   0.01593137030728701
-0.18448940534155484   0.027034627207318286   0.01593137030728701
-0.20796911079053773   -0.024949114417198114   -0.02412262327956768
-0.20796911079053773   -0.024949114417198114   -0.02412262327956768
-0.20796911079053773   -0.024949114417198114   -0.02412262327956768
-0.20796911079053773   -0.024949114417198114   -0.02412262327956768
-0.18808523999357812   0.014533041189606535   0.023839279357653974
-0.18808523999357812   0.014533041189606535   0.023839279357653974
-0.18808523999357812   0.014533041189606535   0.023839279357653974
-0.18808523999357812   0.014533041189606535   0.023839279357653974
-0.1815576714643578   0.004651251173146929   0.01625584861776032
-0.1815576714643578   0.004651251173146929   0.01625584861776032
-0.1815576714643578   0.004651251173146929   0.01625584861776032
-0.1815576714643578   0.004651251173146929   0.01625584861776032
-0.20689245352532426   -0.025868339775446295   -0.02979540733602206
-0.20689245352532426   -0.025868339775446295   -0.02979540733602206
-0.20689245352532426   -0.025868339775446295   -0.02979540733602206
-0.20689245352532426   -0.025868339775446295   -0.02979540733602206
-0.19147365722997634   0.01314050657667027   0.020265023529370874
-0.19147365722997634   0.01314050657667027   0.020265023529370874
-0.19147365722997634   0.01314050657667027   0.020265023529370874
-0.19147365722997634   0.01314050657667027   0.020265023529370874
-0.21510008208830442   -0.0313820938440194   -0.02044916048726117
-0.21510008208830442   -0.0313820938440194   -0.02044916048726117
-0.21510008208830442   -0.0313820938440194   -0.02044916048726117
-0.21510008208830442   -0.0313820938440194   -0.02044916048726117
-0.2062957829350405   0.0058003945639927106   0.04442731082348181
-0.2062957829350405   0.0058003945639927106   0.04442731082348181
-0.2062957829350405   0.0058003945639927106   0.04442731082348181
-0.2062957829350405   0.0058003945639927106   0.04442731082348181
-0.1982774181982354   -0.006390523580267159   0.006542376372170228
-0.1982774181982354   -0.006390523580267159   0.006542376372170228
-0.1982774181982354   -0.006390523580267159   0.006542376372170228
-0.1982774181982354   -0.006390523580267159   0.006542376372170228
-0.22789739574319912   -0.03450649684017451   -0.023273861813142067
-0.22789739574319912   -0.03450649684017451   -0.023273861813142067
-0.22789739574319912   -0.03450649684017451   -0.023273861813142067
-0.22789739574319912   -0.03450649684017451   -0.023273861813142067
-0.19900536151547962   0.0034179053248143652   0.02522444320802919
-0.19900536151547962   0.0034179053248143652   0.02522444320802919
-0.19900536151547962   0.0034179053248143652   0.02522444320802919
-0.19900536151547962   0.0034179053248143652   0.02522444320802919
-0.22095164247469398   -0.043834033624309585   -0.016125232521442046
-0.22095164247469398   -0.043834033624309585   -0.016125232521442046
-0.22095164247469398   -0.043834033624309585   -0.016125232521442046
-0.22095164247469398   -0.043834033624309585   -0.016125232521442046
-0.23457086903348248   -0.0230598388722665   0.04155860489613577
-0.23457086903348248   -0.0230598388722665   0.04155860489613577
-0.23457086903348248   -0.0230598388722665   0.04155860489613577
-0.23457086903348248   -0.0230598388722665   0.04155860489613577
-0.21290585874384815   -0.01943039112095276   -0.00890369126868959
-0.21290585874384815   -0.01943039112095276   -0.00890369126868959
-0.21290585874384815   -0.01943039112095276   -0.00890369126868959
-0.21290585874384815   -0.01943039112095276   -0.00890369126868959
-0.1978356239620752   -0.005549160464634279   -0.018215935123362417
-0.1978356239620752   -0.005549160464634279   -0.018215935123362417
-0.1978356239620752   -0.005549160464634279   -0.018215935123362417
-0.1978356239620752   -0.005549160464634279   -0.018215935123362417
-0.2022070917988897   -0.024912357190080964   -0.0010705548404314758
-0.2022070917988897   -0.024912357190080964   -0.0010705548404314758
-0.2022070917988897   -0.024912357190080964   -0.0010705548404314758
-0.2022070917988897   -0.024912357190080964   -0.0010705548404314758
-0.20379968435515575   -0.016632110258412217   -0.009188416038572567
-0.20379968435515575   -0.016632110258412217   -0.009188416038572567
-0.20379968435515575   -0.016632110258412217   -0.009188416038572567
-0.20379968435515575   -0.016632110258412217   -0.009188416038572567
-0.20491947927858745   -0.03355167517952596   -0.00027190495748835586
-0.20491947927858745   -0.03355167517952596   -0.00027190495748835586
-0.20491947927858745   -0.03355167517952596   -0.00027190495748835586
-0.20491947927858745   -0.03355167517952596   -0.00027190495748835586
-0.2004776067183793   -0.021040268337369945   -0.0006125297036716285
-0.2004776067183793   -0.021040268337369945   -0.0006125297036716285
-0.2004776067183793   -0.021040268337369945   -0.0006125297036716285
-0.2004776067183793   -0.021040268337369945   -0.0006125297036716285
-0.20494618569033468   -0.01817929146407209   -0.01577782073167766
-0.20494618569033468   -0.01817929146407209   -0.01577782073167766
-0.20494618569033468   -0.01817929146407209   -0.01577782073167766
-0.20494618569033468   -0.01817929146407209   -0.01577782073167766
-0.20507171863552598   -0.03330323466598595   0.0011225369671502283
-0.20507171863552598   -0.03330323466598595   0.0011225369671502283
-0.20507171863552598   -0.03330323466598595   0.0011225369671502283
-0.20507171863552598   -0.03330323466598595   0.0011225369671502283
-0.20732222717058493   -0.027458965349409337   -0.005962368958290623
-0.20732222717058493   -0.027458965349409337   -0.005962368958290623
-0.20732222717058493   -0.027458965349409337   -0.005962368958290623
-0.20732222717058493   -0.027458965349409337   -0.005962368958290623
-0.2125097345237259   -0.04359101938639572   0.004711502878007763
-0.2125097345237259   -0.04359101938639572   0.004711502878007763
-0.2125097345237259   -0.04359101938639572   0.004711502878007763
-0.2125097345237259   -0.04359101938639572   0.004711502878007763
-0.20521768949514443   -0.029805233222873404   -0.005651272481934991
-0.20521768949514443   -0.029805233222873404   -0.005651272481934991
-0.20521768949514443   -0.029805233222873404   -0.005651272481934991
-0.20521768949514443   -0.029805233222873404   -0.005651272481934991
-0.21302929675374135   -0.029752809171729608   -0.011724518486735544
-0.21302929675374135   -0.029752809171729608   -0.011724518486735544
-0.21302929675374135   -0.029752809171729608   -0.011724518486735544
-0.21302929675374135   -0.029752809171729608   -0.011724518486735544
-0.20846204333831636   -0.04295655396182266   0.0038361388154635676
-0.20846204333831636   -0.04295655396182266   0.0038361388154635676
-0.20846204333831636   -0.04295655396182266   0.0038361388154635676
-0.20846204333831636   -0.04295655396182266   0.0038361388154635676
-0.21049930067667927   -0.03909093112946673   -0.0027700874698540004
-0.21049930067667927   -0.03909093112946673   -0.0027700874698540004
-0.21049930067667927   -0.03909093112946673   -0.0027700874698540004
-0.21049930067667927   -0.03909093112946673   -0.0027700874698540004
-0.2183337480359366   -0.056287482325785496   0.00941768837381781
-0.2183337480359366   -0.056287482325785496   0.00941768837381781
-0.2183337480359366   -0.056287482325785496   0.00941768837381781
-0.2183337480359366   -0.056287482325785496   0.00941768837381781
-0.21167998197083132   -0.04034298337646455   -0.012038162123735659
-0.21167998197083132   -0.04034298337646455   -0.012038162123735659
-0.21167998197083132   -0.04034298337646455   -0.012038162123735659
-0.21167998197083132   -0.04034298337646455   -0.012038162123735659
-0.19660883719970473   0.005360154601011817   -0.0033517936355974623
-0.19660883719970473   0.005360154601011817   -0.0033517936355974623
-0.19660883719970473   0.005360154601011817   -0.0033517936355974623
-0.19660883719970473   0.005360154601011817   -0.0033517936355974623
-0.22386590205701862   -0.0425186239858347   -0.01076764592906547
-0.22386590205701862   -0.0425186239858347   -0.01076764592906547
-0.22386590205701862   -0.0425186239858347   -0.01076764592906547
-0.22386590205701862   -0.0425186239858347   -0.01076764592906547
-0.21483560081808323   -0.007879791604948654   0.002753479761770178
-0.21483560081808323   -0.007879791604948654   0.002753479761770178
-0.21483560081808323   -0.007879791604948654   0.002753479761770178
-0.21483560081808323   -0.007879791604948654   0.002753479761770178
-0.2090890363044685   -0.04566901145001468   -0.00659827459353389
-0.2090890363044685   -0.04566901145001468   -0.00659827459353389
-0.2090890363044685   -0.04566901145001468   -0.00659827459353389
-0.2090890363044685   -0.04566901145001468   -0.00659827459353389
-0.21095135363994927   -0.023399212821874966   -0.004713629053480148
-0.21095135363994927   -0.023399212821874966   -0.004713629053480148
-0.21095135363994927   -0.023399212821874966   -0.004713629053480148
-0.21095135363994927   -0.023399212821874966   -0.004713629053480148
-0.19972550395305919   -0.0054153275346652124   -3.4296751836651596e-05
-0.19972550395305919   -0.0054153275346652124   -3.4296751836651596e-05
-0.19972550395305919   -0.0054153275346652124   -3.4296751836651596e-05
-0.19972550395305919   -0.0054153275346652124   -3.4296751836651596e-05
-0.2253806022437107   -0.04931494459451626   -0.008536374376799626
-0.2253806022437107   -0.04931494459451626   -0.008536374376799626
-0.2253806022437107   -0.04931494459451626   -0.008536374376799626
-0.2253806022437107   -0.04931494459451626   -0.008536374376799626
-0.21739679789330663   -0.018741441821456296   0.005956880115001555
-0.21739679789330663   -0.018741441821456296   0.005956880115001555
-0.21739679789330663   -0.018741441821456296   0.005956880115001555
-0.21739679789330663   -0.018741441821456296   0.005956880115001555
-0.2123870098113829   -0.05422114431405638   -0.004524103197635243
-0.2123870098113829   -0.05422114431405638   -0.004524103197635243
-0.2123870098113829   -0.05422114431405638   -0.004524103197635243
-0.2123870098113829   -0.05422114431405638   -0.004524103197635243
-0.21366073692567078   -0.03166403336829011   -0.009035114153500091
-0.21366073692567078   -0.03166403336829011   -0.009035114153500091
-0.21366073692567078   -0.03166403336829011   -0.009035114153500091
-0.21366073692567078   -0.03166403336829011   -0.009035114153500091
-0.203293705725167   -0.016473287355795174   0.0031945602751829102
-0.203293705725167   -0.016473287355795174   0.0031945602751829102
-0.203293705725167   -0.016473287355795174   0.0031945602751829102
-0.203293705725167   -0.016473287355795174   0.0031945602751829102
-0.22781002638226308   -0.05780922318246065   -0.007041480968776409
-0.22781002638226308   -0.05780922318246065   -0.007041480968776409
-0.22781002638226308   -0.05780922318246065   -0.007041480968776409
-0.22781002638226308   -0.05780922318246065   -0.007041480968776409
-0.21950019832987053   -0.02894183864721869   0.009094750497274824
-0.21950019832987053   -0.02894183864721869   0.009094750497274824
-0.21950019832987053   -0.02894183864721869   0.009094750497274824
-0.21950019832987053   -0.02894183864721869   0.009094750497274824
-0.2148743200703364   -0.062400924857525464   -0.0013351907100810079
-0.2148743200703364   -0.062400924857525464   -0.0013351907100810079
-0.2148743200703364   -0.062400924857525464   -0.0013351907100810079
-0.2148743200703364   -0.062400924857525464   -0.0013351907100810079
-0.2168759039570069   -0.040302920329244596   -0.013781788876889876
-0.2168759039570069   -0.040302920329244596   -0.013781788876889876
-0.2168759039570069   -0.040302920329244596   -0.013781788876889876
-0.2168759039570069   -0.040302920329244596   -0.013781788876889876
-0.20669542569931562   0.022173865639251136   0.010392246234363661
-0.20669542569931562   0.022173865639251136   0.010392246234363661
-0.20669542569931562   0.022173865639251136   0.010392246234363661
-0.20669542569931562   0.022173865639251136   0.010392246234363661
-0.24554410445260355   -0.03188757066785483   -0.015060636433751245
-0.24554410445260355   -0.03188757066785483   -0.015060636433751245
-0.24554410445260355   -0.03188757066785483   -0.015060636433751245
-0.24554410445260355   -0.03188757066785483   -0.015060636433751245
-0.23247206852580582   0.006431478917128714   0.014338030845695349
-0.23247206852580582   0.006431478917128714   0.014338030845695349
-0.23247206852580582   0.006431478917128714   0.014338030845695349
-0.23247206852580582   0.006431478917128714   0.014338030845695349
-0.22268149334122322   -0.03527394589178239   -0.009081828567096079
-0.22268149334122322   -0.03527394589178239   -0.009081828567096079
-0.22268149334122322   -0.03527394589178239   -0.009081828567096079
-0.22268149334122322   -0.03527394589178239   -0.009081828567096079
-0.2268082977371384   -0.009406338887632058   -0.0028135697961436945
-0.2268082977371384   -0.009406338887632058   -0.0028135697961436945
-0.2268082977371384   -0.009406338887632058   -0.0028135697961436945
-0.2268082977371384   -0.009406338887632058   -0.0028135697961436945
-0.20888848313519118   0.01100203761697155   0.013607238954310208
-0.20888848313519118   0.01100203761697155   0.013607238954310208
-0.20888848313519118   0.01100203761697155   0.013607238954310208
-0.20888848313519118   0.01100203761697155   0.013607238954310208
-0.24783700257625743   -0.04141642843604733   -0.014638732053386554
-0.24783700257625743   -0.04141642843604733   -0.014638732053386554
-0.24783700257625743   -0.04141642843604733   -0.014638732053386554
-0.24783700257625743   -0.04141642843604733   -0.014638732053386554
-0.23684416354987886   -0.004189037809327823   0.016266590552048737
-0.23684416354987886   -0.004189037809327823   0.016266590552048737
-0.23684416354987886   -0.004189037809327823   0.016266590552048737
-0.23684416354987886   -0.004189037809327823   0.016266590552048737
-0.22492321819608874   -0.04319562880999435   -0.007221034410370843
-0.22492321819608874   -0.04319562880999435   -0.007221034410370843
-0.22492321819608874   -0.04319562880999435   -0.007221034410370843
-0.22492321819608874   -0.04319562880999435   -0.007221034410370843
-0.22905065502949135   -0.018373732903576627   -0.007884982977756735
-0.22905065502949135   -0.018373732903576627   -0.007884982977756735
-0.22905065502949135   -0.018373732903576627   -0.007884982977756735
-0.22905065502949135   -0.018373732903576627   -0.007884982977756735
-0.21129164097920333   0.0010136609726748985   0.016727561891386793
-0.21129164097920333   0.0010136609726748985   0.016727561891386793
-0.21129164097920333   0.0010136609726748985   0.016727561891386793
-0.21129164097920333   0.0010136609726748985   0.016727561891386793
-0.25183724946274955   -0.049759836287982355   -0.013128040533650007
-0.25183724946274955   -0.049759836287982355   -0.013128040533650007
-0.25183724946274955   -0.049759836287982355   -0.013128040533650007
-0.25183724946274955   -0.049759836287982355   -0.013128040533650007
-0.23976141683976426   -0.014389827713929597   0.01984605125528588
-0.23976141683976426   -0.014389827713929597   0.01984605125528588
-0.23976141683976426   -0.014389827713929597   0.01984605125528588
-0.23976141683976426   -0.014389827713929597   0.01984605125528588
-0.2268668274795326   -0.051157697788766575   -0.005522536109491591
-0.2268668274795326   -0.051157697788766575   -0.005522536109491591
-0.2268668274795326   -0.051157697788766575   -0.005522536109491591
-0.2268668274795326   -0.051157697788766575   -0.005522536109491591
-0.23293137545013606   -0.026845744607464646   -0.012806245055436712
-0.23293137545013606   -0.026845744607464646   -0.012806245055436712
-0.23293137545013606   -0.026845744607464646   -0.012806245055436712
-0.23293137545013606   -0.026845744607464646   -0.012806245055436712
-0.2256321691661884   0.03182646199689729   0.020785007333572553
-0.2256321691661884   0.03182646199689729   0.020785007333572553
-0.2256321691661884   0.03182646199689729   0.020785007333572553
-0.2256321691661884   0.03182646199689729   0.020785007333572553
-0.2426538253184978   -0.01939663477514944   -0.02177651383893206
-0.2426538253184978   -0.01939663477514944   -0.02177651383893206
-0.2426538253184978   -0.01939663477514944   -0.02177651383893206
-0.2426538253184978   -0.01939663477514944   -0.02177651383893206
-0.23738317368645057   0.022373861803966267   0.02310726654156596
-0.23738317368645057   0.022373861803966267   0.02310726654156596
-0.23738317368645057   0.022373861803966267   0.02310726654156596
-0.23738317368645057   0.022373861803966267   0.02310726654156596
-0.24419037804323324   -0.02450805067167239   -0.013313987152640698
-0.24419037804323324   -0.02450805067167239   -0.013313987152640698
-0.24419037804323324   -0.02450805067167239   -0.013313987152640698
-0.24419037804323324   -0.02450805067167239   -0.013313987152640698
-0.22934074116580652   0.0056002196751091405   0.0010090345253329566
-0.22934074116580652   0.0056002196751091405   0.0010090345253329566
-0.22934074116580652   0.0056002196751091405   0.0010090345253329566
-0.22934074116580652   0.0056002196751091405   0.0010090345253329566
-0.2268893355157351   0.02465650924369247   0.024026665569481465
-0.2268893355157351   0.02465650924369247   0.024026665569481465
-0.2268893355157351   0.02465650924369247   0.024026665569481465
-0.2268893355157351   0.02465650924369247   0.024026665569481465
-0.2559721259681174   -0.028078607865566617   -0.01938502519722763
-0.2559721259681174   -0.028078607865566617   -0.01938502519722763
-0.2559721259681174   -0.028078607865566617   -0.01938502519722763
-0.2559721259681174   -0.028078607865566617   -0.01938502519722763
-0.24783365939171834   0.016402106079120734   0.029731020045953974
-0.24783365939171834   0.016402106079120734   0.029731020045953974
-0.24783365939171834   0.016402106079120734   0.029731020045953974
-0.24783365939171834   0.016402106079120734   0.029731020045953974
-0.24752149955472127   -0.029180651266354357   -0.012128476015140735
-0.24752149955472127   -0.029180651266354357   -0.012128476015140735
-0.24752149955472127   -0.029180651266354357   -0.012128476015140735
-0.24752149955472127   -0.029180651266354357   -0.012128476015140735
-0.24061475220609915   -0.0016247600814316976   -0.005009001191535849
-0.24061475220609915   -0.0016247600814316976   -0.005009001191535849
-0.24061475220609915   -0.0016247600814316976   -0.005009001191535849
-0.24061475220609915   -0.0016247600814316976   -0.005009001191535849
-0.22953882285538635   0.019863100516860223   0.02874115569831942
-0.22953882285538635   0.019863100516860223   0.02874115569831942
-0.22953882285538635   0.019863100516860223   0.02874115569831942
-0.22953882285538635   0.019863100516860223   0.02874115569831942
-0.2674857195012842   -0.03431102911432354   -0.017816145308423702
-0.2674857195012842   -0.03431102911432354   -0.017816145308423702
-0.2674857195012842   -0.03431102911432354   -0.017816145308423702
-0.2674857195012842   -0.03431102911432354   -0.017816145308423702
-0.2661418750190371   0.0011424023909124802   0.0317570873872771
-0.2661418750190371   0.0011424023909124802   0.0317570873872771
-0.2661418750190371   0.0011424023909124802   0.0317570873872771
-0.2661418750190371   0.0011424023909124802   0.0317570873872771
-0.25057136317873224   -0.03805884344519795   -0.010534664708289766
-0.25057136317873224   -0.03805884344519795   -0.010534664708289766
-0.25057136317873224   -0.03805884344519795   -0.010534664708289766
-0.25057136317873224   -0.03805884344519795   -0.010534664708289766
-0.2459526230506032   -0.00829248263528901   -0.010415010009620952
-0.2459526230506032   -0.00829248263528901   -0.010415010009620952
-0.2459526230506032   -0.00829248263528901   -0.010415010009620952
-0.2459526230506032   -0.00829248263528901   -0.010415010009620952
-0.47637526246650275   -0.04361863016051997   -0.045449059406956316
-0.47637526246650275   -0.04361863016051997   -0.045449059406956316
-0.47637526246650275   -0.04361863016051997   -0.045449059406956316
-0.47637526246650275   -0.04361863016051997   -0.045449059406956316
-0.30327813004184856   0.025480844859436913   0.010680221952436161
-0.30327813004184856   0.025480844859436913   0.010680221952436161
-0.30327813004184856   0.025480844859436913   0.010680221952436161
-0.30327813004184856   0.025480844859436913   0.010680221952436161
-0.31858307925755003   -0.020409625539785176   -0.020376215025332677
-0.31858307925755003   -0.020409625539785176   -0.020376215025332677
-0.31858307925755003   -0.020409625539785176   -0.020376215025332677
-0.31858307925755003   -0.020409625539785176   -0.020376215025332677
-0.5070221198929659   -0.05768901917332392   0.050691141705069026
-0.5070221198929659   -0.05768901917332392   0.050691141705069026
-0.5070221198929659   -0.05768901917332392   0.050691141705069026
-0.5070221198929659   -0.05768901917332392   0.050691141705069026
-0.368800629813423   -0.014230489198174101   0.049286114118827024
-0.368800629813423   -0.014230489198174101   0.049286114118827024
-0.368800629813423   -0.014230489198174101   0.049286114118827024
-0.368800629813423   -0.014230489198174101   0.049286114118827024
-0.5251615432729946   -0.0643242285095719   -0.033370765858821816
-0.5251615432729946   -0.0643242285095719   -0.033370765858821816
-0.5251615432729946   -0.0643242285095719   -0.033370765858821816
-0.5251615432729946   -0.0643242285095719   -0.033370765858821816
-0.3132165693919395   -0.02654732971795509   0.01259403848088679
-0.3132165693919395   -0.02654732971795509   0.01259403848088679
-0.3132165693919395   -0.02654732971795509   0.01259403848088679
-0.3132165693919395   -0.02654732971795509   0.01259403848088679
-0.32366274660498995   -0.02949858277800699   -0.014700612216567238
-0.32366274660498995   -0.02949858277800699   -0.014700612216567238
-0.32366274660498995   -0.02949858277800699   -0.014700612216567238
-0.32366274660498995   -0.02949858277800699   -0.014700612216567238
-0.523435588781941   -0.08053294820360517   0.0011015576230783142
-0.523435588781941   -0.08053294820360517   0.0011015576230783142
-0.523435588781941   -0.08053294820360517   0.0011015576230783142
-0.523435588781941   -0.08053294820360517   0.0011015576230783142
-0.4087118223234256   -0.048587904258651504   0.011441148278778845
-0.4087118223234256   -0.048587904258651504   0.011441148278778845
-0.4087118223234256   -0.048587904258651504   0.011441148278778845
-0.4087118223234256   -0.048587904258651504   0.011441148278778845
-0.5274828908888212   -0.07271339117870365   -0.026954509936219367
-0.5274828908888212   -0.07271339117870365   -0.026954509936219367
-0.5274828908888212   -0.07271339117870365   -0.026954509936219367
-0.5274828908888212   -0.07271339117870365   -0.026954509936219367
-0.32346584437967296   -0.04116853968447125   -0.002046144183520046
-0.32346584437967296   -0.04116853968447125   -0.002046144183520046
-0.32346584437967296   -0.04116853968447125   -0.002046144183520046
-0.32346584437967296   -0.04116853968447125   -0.002046144183520046
-0.3240567733733394   -0.05141940079704807   -0.010753300387915193
-0.3240567733733394   -0.05141940079704807   -0.010753300387915193
-0.3240567733733394   -0.05141940079704807   -0.010753300387915193
-0.3240567733733394   -0.05141940079704807   -0.010753300387915193
-0.5362995433719412   -0.1228612456122859   0.007845135774885326
-0.5362995433719412   -0.1228612456122859   0.007845135774885326
-0.5362995433719412   -0.1228612456122859   0.007845135774885326
-0.5362995433719412   -0.1228612456122859   0.007845135774885326
-0.40848688098283586   -0.0667453877847492   0.0009239200548645798
-0.40848688098283586   -0.0667453877847492   0.0009239200548645798
-0.40848688098283586   -0.0667453877847492   0.0009239200548645798
-0.40848688098283586   -0.0667453877847492   0.0009239200548645798
-0.32746552098471593   -0.05558759136637674   -0.029188296536084117
-0.32746552098471593   -0.05558759136637674   -0.029188296536084117
-0.32746552098471593   -0.05558759136637674   -0.029188296536084117
-0.32746552098471593   -0.05558759136637674   -0.029188296536084117
-0.22587093282255222   -0.14698414778770508   -0.027508809811641693
-0.22587093282255222   -0.14698414778770508   -0.027508809811641693
-0.22587093282255222   -0.14698414778770508   -0.027508809811641693
-0.22587093282255222   -0.14698414778770508   -0.027508809811641693
-0.1983380069209081   -0.03254568021026687   -0.0018234024688721928
-0.1983380069209081   -0.03254568021026687   -0.0018234024688721928
-0.1983380069209081   -0.03254568021026687   -0.0018234024688721928
-0.1983380069209081   -0.03254568021026687   -0.0018234024688721928
-0.3484675637041579   -0.15562869087187273   -0.03457957192628763
-0.3484675637041579   -0.15562869087187273   -0.03457957192628763
-0.3484675637041579   -0.15562869087187273   -0.03457957192628763
-0.3484675637041579   -0.15562869087187273   -0.03457957192628763
-0.27186601687332596   -0.10362042027122068   -0.007951275681225167
-0.27186601687332596   -0.10362042027122068   -0.007951275681225167
-0.27186601687332596   -0.10362042027122068   -0.007951275681225167
-0.27186601687332596   -0.10362042027122068   -0.007951275681225167
-0.3273014970139953   -0.06237440300381588   -0.02200352634353004
-0.3273014970139953   -0.06237440300381588   -0.02200352634353004
-0.3273014970139953   -0.06237440300381588   -0.02200352634353004
-0.3273014970139953   -0.06237440300381588   -0.02200352634353004
-0.220826257749097   -0.1271221522163498   -0.01968818460373377
-0.220826257749097   -0.1271221522163498   -0.01968818460373377
-0.220826257749097   -0.1271221522163498   -0.01968818460373377
-0.220826257749097   -0.1271221522163498   -0.01968818460373377
-0.2007495797498136   -0.04213725694970503   0.00022016028754893308
-0.2007495797498136   -0.04213725694970503   0.00022016028754893308
-0.2007495797498136   -0.04213725694970503   0.00022016028754893308
-0.2007495797498136   -0.04213725694970503   0.00022016028754893308
-0.34986180230539793   -0.15480744278200184   -0.020387030714614257
-0.34986180230539793   -0.15480744278200184   -0.020387030714614257
-0.34986180230539793   -0.15480744278200184   -0.020387030714614257
-0.34986180230539793   -0.15480744278200184   -0.020387030714614257
-0.2689527041766263   -0.09712538788822962   -0.008449538113733834
-0.2689527041766263   -0.09712538788822962   -0.008449538113733834
-0.2689527041766263   -0.09712538788822962   -0.008449538113733834
-0.2689527041766263   -0.09712538788822962   -0.008449538113733834
-0.3324947413987195   -0.07183512927470032   -0.01652403968852162
-0.3324947413987195   -0.07183512927470032   -0.01652403968852162
-0.3324947413987195   -0.07183512927470032   -0.01652403968852162
-0.3324947413987195   -0.07183512927470032   -0.01652403968852162
-0.22087009948559566   -0.12786302928610985   -0.014656666054956538
-0.22087009948559566   -0.12786302928610985   -0.014656666054956538
-0.22087009948559566   -0.12786302928610985   -0.014656666054956538
-0.22087009948559566   -0.12786302928610985   -0.014656666054956538
-0.20084930234838078   -0.054045970106119626   0.003140803784591327
-0.20084930234838078   -0.054045970106119626   0.003140803784591327
-0.20084930234838078   -0.054045970106119626   0.003140803784591327
-0.20084930234838078   -0.054045970106119626   0.003140803784591327
-0.34915256677375   -0.15725157288464953   -0.030400095302371102
-0.34915256677375   -0.15725157288464953   -0.030400095302371102
-0.34915256677375   -0.15725157288464953   -0.030400095302371102
-0.34915256677375   -0.15725157288464953   -0.030400095302371102
-0.273180347139338   -0.10443599040234366   -0.015713413101484705
-0.273180347139338   -0.10443599040234366   -0.015713413101484705
-0.273180347139338   -0.10443599040234366   -0.015713413101484705
-0.273180347139338   -0.10443599040234366   -0.015713413101484705
-0.1986466512894407   -0.0358296288610532   -0.002541921072735924
-0.1986466512894407   -0.0358296288610532   -0.002541921072735924
-0.1986466512894407   -0.0358296288610532   -0.002541921072735924
-0.1986466512894407   -0.0358296288610532   -0.002541921072735924
-0.16749250178728262   -0.11264006855035748   -0.01944255909114395
-0.16749250178728262   -0.11264006855035748   -0.01944255909114395
-0.16749250178728262   -0.11264006855035748   -0.01944255909114395
-0.16749250178728262   -0.11264006855035748   -0.01944255909114395
-0.14438315490983047   -0.029876723534242193   0.007657283590690504
-0.14438315490983047   -0.029876723534242193   0.007657283590690504
-0.14438315490983047   -0.029876723534242193   0.007657283590690504
-0.14438315490983047   -0.029876723534242193   0.007657283590690504
-0.2201951612158723   -0.12223169018432925   -0.021423163969630662
-0.2201951612158723   -0.12223169018432925   -0.021423163969630662
-0.2201951612158723   -0.12223169018432925   -0.021423163969630662
-0.2201951612158723   -0.12223169018432925   -0.021423163969630662
-0.18188621803544805   -0.07616426548525194   -0.00895444573258583
-0.18188621803544805   -0.07616426548525194   -0.00895444573258583
-0.18188621803544805   -0.07616426548525194   -0.00895444573258583
-0.18188621803544805   -0.07616426548525194   -0.00895444573258583
-0.199886328662023   -0.04244246106646791   0.00033176968175442634
-0.199886328662023   -0.04244246106646791   0.00033176968175442634
-0.199886328662023   -0.04244246106646791   0.00033176968175442634
-0.199886328662023   -0.04244246106646791   0.00033176968175442634
-0.16587019900056127   -0.11084416418898503   -0.018810496208220562
-0.16587019900056127   -0.11084416418898503   -0.018810496208220562
-0.16587019900056127   -0.11084416418898503   -0.018810496208220562
-0.16587019900056127   -0.11084416418898503   -0.018810496208220562
-0.14457220014812094   -0.037766357030867316   0.009935023555048113
-0.14457220014812094   -0.037766357030867316   0.009935023555048113
-0.14457220014812094   -0.037766357030867316   0.009935023555048113
-0.14457220014812094   -0.037766357030867316   0.009935023555048113
-0.22102692205739957   -0.12416660098163464   -0.019137207218451302
-0.22102692205739957   -0.12416660098163464   -0.019137207218451302
-0.22102692205739957   -0.12416660098163464   -0.019137207218451302
-0.22102692205739957   -0.12416660098163464   -0.019137207218451302
-0.18167908135173635   -0.0791128007400649   -0.011623506213192816
-0.18167908135173635   -0.0791128007400649   -0.011623506213192816
-0.18167908135173635   -0.0791128007400649   -0.011623506213192816
-0.18167908135173635   -0.0791128007400649   -0.011623506213192816
-0.20171769586285815   -0.05044499694191552   0.0036873197145366465
-0.20171769586285815   -0.05044499694191552   0.0036873197145366465
-0.20171769586285815   -0.05044499694191552   0.0036873197145366465
-0.20171769586285815   -0.05044499694191552   0.0036873197145366465
-0.16453150303647568   -0.11213803776439847   -0.01548981015319436
-0.16453150303647568   -0.11213803776439847   -0.01548981015319436
-0.16453150303647568   -0.11213803776439847   -0.01548981015319436
-0.16453150303647568   -0.11213803776439847   -0.01548981015319436
-0.1430258836096016   -0.04527995935303567   0.012421200351640786
-0.1430258836096016   -0.04527995935303567   0.012421200351640786
-0.1430258836096016   -0.04527995935303567   0.012421200351640786
-0.1430258836096016   -0.04527995935303567   0.012421200351640786
-0.21856092970228894   -0.12570089737499646   -0.01376240571607256
-0.21856092970228894   -0.12570089737499646   -0.01376240571607256
-0.21856092970228894   -0.12570089737499646   -0.01376240571607256
-0.21856092970228894   -0.12570089737499646   -0.01376240571607256
-0.1812893268924593   -0.08302118030543407   -0.013497369283275974
-0.1812893268924593   -0.08302118030543407   -0.013497369283275974
-0.1812893268924593   -0.08302118030543407   -0.013497369283275974
-0.1812893268924593   -0.08302118030543407   -0.013497369283275974
-0.1393225745130578   -0.004898113039392395   0.013665121769015152
-0.1393225745130578   -0.004898113039392395   0.013665121769015152
-0.1393225745130578   -0.004898113039392395   0.013665121769015152
-0.1393225745130578   -0.004898113039392395   0.013665121769015152
-0.13260586290934168   -0.05980219277539511   -0.011718839791912166
-0.13260586290934168   -0.05980219277539511   -0.011718839791912166
-0.13260586290934168   -0.05980219277539511   -0.011718839791912166
-0.13260586290934168   -0.05980219277539511   -0.011718839791912166
-0.11447449611919136   -0.008656271729850364   0.015799545020532192
-0.11447449611919136   -0.008656271729850364   0.015799545020532192
-0.11447449611919136   -0.008656271729850364   0.015799545020532192
-0.11447449611919136   -0.008656271729850364   0.015799545020532192
-0.15537040860254764   -0.06888798471917655   -0.008267723687960853
-0.15537040860254764   -0.06888798471917655   -0.008267723687960853
-0.15537040860254764   -0.06888798471917655   -0.008267723687960853
-0.15537040860254764   -0.06888798471917655   -0.008267723687960853
-0.13588841516131445   -0.03521828308403009   -0.00486639883417922
-0.13588841516131445   -0.03521828308403009   -0.00486639883417922
-0.13588841516131445   -0.03521828308403009   -0.00486639883417922
-0.13588841516131445   -0.03521828308403009   -0.00486639883417922
-0.13952100394548705   -0.013672682769652368   0.015763997647817884
-0.13952100394548705   -0.013672682769652368   0.015763997647817884
-0.13952100394548705   -0.013672682769652368   0.015763997647817884
-0.13952100394548705   -0.013672682769652368   0.015763997647817884
-0.1315865886492736   -0.06513426155239622   -0.013282927807333252
-0.1315865886492736   -0.06513426155239622   -0.013282927807333252
-0.1315865886492736   -0.06513426155239622   -0.013282927807333252
-0.1315865886492736   -0.06513426155239622   -0.013282927807333252
-0.11477139087700364   -0.01632241798892543   0.016993192375888675
-0.11477139087700364   -0.01632241798892543   0.016993192375888675
-0.11477139087700364   -0.01632241798892543   0.016993192375888675
-0.11477139087700364   -0.01632241798892543   0.016993192375888675
-0.15546111792506936   -0.07309672933769673   -0.009179193022864546
-0.15546111792506936   -0.07309672933769673   -0.009179193022864546
-0.15546111792506936   -0.07309672933769673   -0.009179193022864546
-0.15546111792506936   -0.07309672933769673   -0.009179193022864546
-0.13541534505171007   -0.04136150667726342   -0.008273267702344062
-0.13541534505171007   -0.04136150667726342   -0.008273267702344062
-0.13541534505171007   -0.04136150667726342   -0.008273267702344062
-0.13541534505171007   -0.04136150667726342   -0.008273267702344062
-0.13964115087676737   -0.021108521573221812   0.017932434454170504
-0.13964115087676737   -0.021108521573221812   0.017932434454170504
-0.13964115087676737   -0.021108521573221812   0.017932434454170504
-0.13964115087676737   -0.021108521573221812   0.017932434454170504
-0.1313566634012786   -0.06907593122937337   -0.013179657005038418
-0.1313566634012786   -0.06907593122937337   -0.013179657005038418
-0.1313566634012786   -0.06907593122937337   -0.013179657005038418
-0.1313566634012786   -0.06907593122937337   -0.013179657005038418
-0.11393260986972645   -0.02352643345457841   0.019699567951635397
-0.11393260986972645   -0.02352643345457841   0.019699567951635397
-0.11393260986972645   -0.02352643345457841   0.019699567951635397
-0.11393260986972645   -0.02352643345457841   0.019699567951635397
-0.15316231639185862   -0.07729379803440718   -0.006247124878272753
-0.15316231639185862   -0.07729379803440718   -0.006247124878272753
-0.15316231639185862   -0.07729379803440718   -0.006247124878272753
-0.15316231639185862   -0.07729379803440718   -0.006247124878272753
-0.13515877064499343   -0.046670813112847556   -0.010661363964869008
-0.13515877064499343   -0.046670813112847556   -0.010661363964869008
-0.13515877064499343   -0.046670813112847556   -0.010661363964869008
-0.13515877064499343   -0.046670813112847556   -0.010661363964869008
-0.11091430387134595   0.015578270672166748   0.021358491950504693
-0.11091430387134595   0.015578270672166748   0.021358491950504693
-0.11091430387134595   0.015578270672166748   0.021358491950504693
-0.11091430387134595   0.015578270672166748   0.021358491950504693
-0.07488394958527109   -0.019797850632226093   -0.007266028925685907
-0.07488394958527109   -0.019797850632226093   -0.007266028925685907
-0.07488394958527109   -0.019797850632226093   -0.007266028925685907
-0.07488394958527109   -0.019797850632226093   -0.007266028925685907
-0.06569150184440596   0.01807664329250623   0.021110606469417446
-0.06569150184440596   0.01807664329250623   0.021110606469417446
-0.06569150184440596   0.01807664329250623   0.021110606469417446
-0.06569150184440596   0.01807664329250623   0.021110606469417446
-0.12266245763292385   -0.030022345080359263   -0.003774189197621427
-0.12266245763292385   -0.030022345080359263   -0.003774189197621427
-0.12266245763292385   -0.030022345080359263   -0.003774189197621427
-0.12266245763292385   -0.030022345080359263   -0.003774189197621427
-0.09220529662131048   -0.001959906351354801   -0.003790011429179785
-0.09220529662131048   -0.001959906351354801   -0.003790011429179785
-0.09220529662131048   -0.001959906351354801   -0.003790011429179785
-0.09220529662131048   -0.001959906351354801   -0.003790011429179785
-0.10927995183131498   0.00980002578937677   0.02331596894068684
-0.10927995183131498   0.00980002578937677   0.02331596894068684
-0.10927995183131498   0.00980002578937677   0.02331596894068684
-0.10927995183131498   0.00980002578937677   0.02331596894068684
-0.07921340985145292   -0.021885129782670473   -0.006537160490648376
-0.07921340985145292   -0.021885129782670473   -0.006537160490648376
-0.07921340985145292   -0.021885129782670473   -0.006537160490648376
-0.07921340985145292   -0.021885129782670473   -0.006537160490648376
-0.06870478526992817   0.014317937184099554   0.026547751952343362
-0.06870478526992817   0.014317937184099554   0.026547751952343362
-0.06870478526992817   0.014317937184099554   0.026547751952343362
-0.06870478526992817   0.014317937184099554   0.026547751952343362
-0.12225934680687965   -0.031981981778367974   -0.004787023484048952
-0.12225934680687965   -0.031981981778367974   -0.004787023484048952
-0.12225934680687965   -0.031981981778367974   -0.004787023484048952
-0.12225934680687965   -0.031981981778367974   -0.004787023484048952
-0.09510945943874845   -0.006060424743844833   -0.005441871640956355
-0.09510945943874845   -0.006060424743844833   -0.005441871640956355
-0.09510945943874845   -0.006060424743844833   -0.005441871640956355
-0.09510945943874845   -0.006060424743844833   -0.005441871640956355
-0.10824485070929782   0.006467557292379491   0.026835917933112702
-0.10824485070929782   0.006467557292379491   0.026835917933112702
-0.10824485070929782   0.006467557292379491   0.026835917933112702
-0.10824485070929782   0.006467557292379491   0.026835917933112702
-0.08367893475133109   -0.02509125527046902   -0.008913803000102707
-0.08367893475133109   -0.02509125527046902   -0.008913803000102707
-0.08367893475133109   -0.02509125527046902   -0.008913803000102707
-0.08367893475133109   -0.02509125527046902   -0.008913803000102707
-0.0785536561690116   0.003977214098524183   0.027627916000600276
-0.0785536561690116   0.003977214098524183   0.027627916000600276
-0.0785536561690116   0.003977214098524183   0.027627916000600276
-0.0785536561690116   0.003977214098524183   0.027627916000600276
-0.12072477760652173   -0.033791342155589175   -0.003996362031330251
-0.12072477760652173   -0.033791342155589175   -0.003996362031330251
-0.12072477760652173   -0.033791342155589175   -0.003996362031330251
-0.12072477760652173   -0.033791342155589175   -0.003996362031330251
-0.09656826605840575   -0.009057149275645965   -0.0080603539621261
-0.09656826605840575   -0.009057149275645965   -0.0080603539621261
-0.09656826605840575   -0.009057149275645965   -0.0080603539621261
-0.09656826605840575   -0.009057149275645965   -0.0080603539621261
-1.1304373274599862   -0.1610186023014698   -0.09465781643396362
-1.1304373274599862   -0.1610186023014698   -0.09465781643396362
-1.1304373274599862   -0.1610186023014698   -0.09465781643396362
-1.1304373274599862   -0.1610186023014698   -0.09465781643396362
-0.3934559594965997   -0.6280923668063202   -0.07391554119626309
-0.3934559594965997   -0.6280923668063202   -0.07391554119626309
-0.3934559594965997   -0.6280923668063202   -0.07391554119626309
-0.3934559594965997   -0.6280923668063202   -0.07391554119626309
-0.3028120744269057   -0.026926860000435638   0.00029189210345027805
-0.3028120744269057   -0.026926860000435638   0.00029189210345027805
-0.3028120744269057   -0.026926860000435638   0.00029189210345027805
-0.3028120744269057   -0.026926860000435638   0.00029189210345027805
-1.2094607949671559   -0.7363455281419079   -0.3891612646218128
-1.2094607949671559   -0.7363455281419079   -0.3891612646218128
-1.2094607949671559   -0.7363455281419079   -0.3891612646218128
-1.2094607949671559   -0.7363455281419079   -0.3891612646218128
-0.7400226251494593   -0.3660454761487646   -0.05337328371859698
-0.7400226251494593   -0.3660454761487646   -0.05337328371859698
-0.7400226251494593   -0.3660454761487646   -0.05337328371859698
-0.7400226251494593   -0.3660454761487646   -0.05337328371859698
-1.0505459178258878   -0.20226540709366675   -0.12866699996372316
-1.0505459178258878   -0.20226540709366675   -0.12866699996372316
-1.0505459178258878   -0.20226540709366675   -0.12866699996372316
-1.0505459178258878   -0.20226540709366675   -0.12866699996372316
-0.42526408835364254   -0.5245441178341468   -0.11435091969652028
-0.42526408835364254   -0.5245441178341468   -0.11435091969652028
-0.42526408835364254   -0.5245441178341468   -0.11435091969652028
-0.42526408835364254   -0.5245441178341468   -0.11435091969652028
-0.3092483292276275   -0.035600393047801375   0.011577073847779992
-0.3092483292276275   -0.035600393047801375   0.011577073847779992
-0.3092483292276275   -0.035600393047801375   0.011577073847779992
-0.3092483292276275   -0.035600393047801375   0.011577073847779992
-1.1319986089006033   -0.6579048645459697   -0.3579806946893146
-1.1319986089006033   -0.6579048645459697   -0.3579806946893146
-1.1319986089006033   -0.6579048645459697   -0.3579806946893146
-1.1319986089006033   -0.6579048645459697   -0.3579806946893146
-0.6971905427797667   -0.3304217000447087   0.027951041762306006
-0.6971905427797667   -0.3304217000447087   0.027951041762306006
-0.6971905427797667   -0.3304217000447087   0.027951041762306006
-0.6971905427797667   -0.3304217000447087   0.027951041762306006
-0.986576343503967   -0.19261354760253935   -0.09616068464957037
-0.986576343503967   -0.19261354760253935   -0.09616068464957037
-0.986576343503967   -0.19261354760253935   -0.09616068464957037
-0.986576343503967   -0.19261354760253935   -0.09616068464957037
-0.4141194305491737   -0.4603405459161425   -0.08803827989160819
-0.4141194305491737   -0.4603405459161425   -0.08803827989160819
-0.4141194305491737   -0.4603405459161425   -0.08803827989160819
-0.4141194305491737   -0.4603405459161425   -0.08803827989160819
-0.3561441226101629   -0.09215500728484667   -0.018779093349692896
-0.3561441226101629   -0.09215500728484667   -0.018779093349692896
-0.3561441226101629   -0.09215500728484667   -0.018779093349692896
-0.3561441226101629   -0.09215500728484667   -0.018779093349692896
-1.0318653580803232   -0.554323086920131   -0.3172376890000908
-1.0318653580803232   -0.554323086920131   -0.3172376890000908
-1.0318653580803232   -0.554323086920131   -0.3172376890000908
-1.0318653580803232   -0.554323086920131   -0.3172376890000908
-0.6460140662598656   -0.28672603350813797   0.11991756570876042
-0.6460140662598656   -0.28672603350813797   0.11991756570876042
-0.6460140662598656   -0.28672603350813797   0.11991756570876042
-0.6460140662598656   -0.28672603350813797   0.11991756570876042
-0.28952389773785514   -0.15890208220850816   -0.02344551700035412
-0.28952389773785514   -0.15890208220850816   -0.02344551700035412
-0.28952389773785514   -0.15890208220850816   -0.02344551700035412
-0.28952389773785514   -0.15890208220850816   -0.02344551700035412
-0.13490332678796205   -0.20138031115720814   -0.03338156670414797
-0.13490332678796205   -0.20138031115720814   -0.03338156670414797
-0.13490332678796205   -0.20138031115720814   -0.03338156670414797
-0.13490332678796205   -0.20138031115720814   -0.03338156670414797
-0.11834689878069048   -0.10209383144902855   0.0029740602644658665
-0.11834689878069048   -0.10209383144902855   0.0029740602644658665
-0.11834689878069048   -0.10209383144902855   0.0029740602644658665
-0.11834689878069048   -0.10209383144902855   0.0029740602644658665
-0.3558571454014249   -0.2925691814613454   0.0007088586917668172
-0.3558571454014249   -0.2925691814613454   0.0007088586917668172
-0.3558571454014249   -0.2925691814613454   0.0007088586917668172
-0.3558571454014249   -0.2925691814613454   0.0007088586917668172
-0.19067158619482882   -0.1416120014318169   0.06146013385348344
-0.19067158619482882   -0.1416120014318169   0.06146013385348344
-0.19067158619482882   -0.1416120014318169   0.06146013385348344
-0.19067158619482882   -0.1416120014318169   0.06146013385348344
-0.33011465800915324   -0.14805981042438254   -0.015088075383841382
-0.33011465800915324   -0.14805981042438254   -0.015088075383841382
-0.33011465800915324   -0.14805981042438254   -0.015088075383841382
-0.33011465800915324   -0.14805981042438254   -0.015088075383841382
-0.15424804205433099   -0.2567618583673608   -0.021863629185404312
-0.15424804205433099   -0.2567618583673608   -0.021863629185404312
-0.15424804205433099   -0.2567618583673608   -0.021863629185404312
-0.15424804205433099   -0.2567618583673608   -0.021863629185404312
-0.12812832923190864   -0.1057585163706116   0.0031241282688516253
-0.12812832923190864   -0.1057585163706116   0.0031241282688516253
-0.12812832923190864   -0.1057585163706116   0.0031241282688516253
-0.12812832923190864   -0.1057585163706116   0.0031241282688516253
-0.37367765653537127   -0.28920428831058476   -0.05696566742815362
-0.37367765653537127   -0.28920428831058476   -0.05696566742815362
-0.37367765653537127   -0.28920428831058476   -0.05696566742815362
-0.37367765653537127   -0.28920428831058476   -0.05696566742815362
-0.2279433578954118   -0.18131017303281804   0.027780564606701308
-0.2279433578954118   -0.18131017303281804   0.027780564606701308
-0.2279433578954118   -0.18131017303281804   0.027780564606701308
-0.2279433578954118   -0.18131017303281804   0.027780564606701308
-0.3410143347497734   -0.1546093437417542   -0.02824400306899666
-0.3410143347497734   -0.1546093437417542   -0.02824400306899666
-0.3410143347497734   -0.1546093437417542   -0.02824400306899666
-0.3410143347497734   -0.1546093437417542   -0.02824400306899666
-0.15985967611494598   -0.23942148603688196   -0.021869636480064653
-0.15985967611494598   -0.23942148603688196   -0.021869636480064653
-0.15985967611494598   -0.23942148603688196   -0.021869636480064653
-0.15985967611494598   -0.23942148603688196   -0.021869636480064653
-0.14330842972471547   -0.10908028298279177   0.004612217157883229
-0.14330842972471547   -0.10908028298279177   0.004612217157883229
-0.14330842972471547   -0.10908028298279177   0.004612217157883229
-0.14330842972471547   -0.10908028298279177   0.004612217157883229
-0.4000989818366165   -0.28128526316745   -0.04942313359935825
-0.4000989818366165   -0.28128526316745   -0.04942313359935825
-0.4000989818366165   -0.28128526316745   -0.04942313359935825
-0.4000989818366165   -0.28128526316745   -0.04942313359935825
-0.23890820124755588   -0.17095053202358015   0.02933707896272844
-0.23890820124755588   -0.17095053202358015   0.02933707896272844
-0.23890820124755588   -0.17095053202358015   0.02933707896272844
-0.23890820124755588   -0.17095053202358015   0.02933707896272844
-0.10555407081306271   -0.09497249177888048   0.006956893792021128
-0.10555407081306271   -0.09497249177888048   0.006956893792021128
-0.10555407081306271   -0.09497249177888048   0.006956893792021128
-0.10555407081306271   -0.09497249177888048   0.006956893792021128
-0.06533272704677892   -0.06432691786820208   -0.016372921648565693
-0.06533272704677892   -0.06432691786820208   -0.016372921648565693
-0.06533272704677892   -0.06432691786820208   -0.016372921648565693
-0.06533272704677892   -0.06432691786820208   -0.016372921648565693
-0.06306375966786239   -0.08513180882524878   0.006944841277761828
-0.06306375966786239   -0.08513180882524878   0.006944841277761828
-0.06306375966786239   -0.08513180882524878   0.006944841277761828
-0.06306375966786239   -0.08513180882524878   0.006944841277761828
-0.11740498286748034   -0.0873369632749184   -0.007073228343593585
-0.11740498286748034   -0.0873369632749184   -0.007073228343593585
-0.11740498286748034   -0.0873369632749184   -0.007073228343593585
-0.11740498286748034   -0.0873369632749184   -0.007073228343593585
-0.0740805445624379   -0.06988433656916553   0.03088686954136345
-0.0740805445624379   -0.06988433656916553   0.03088686954136345
-0.0740805445624379   -0.06988433656916553   0.03088686954136345
-0.0740805445624379   -0.06988433656916553   0.03088686954136345
-0.1161384183147176   -0.09562598548426018   0.007548616629560037
-0.1161384183147176   -0.09562598548426018   0.007548616629560037
-0.1161384183147176   -0.09562598548426018   0.007548616629560037
-0.1161384183147176   -0.09562598548426018   0.007548616629560037
-0.06540883987180679   -0.07792130226708889   -0.011991066300119996
-0.06540883987180679   -0.07792130226708889   -0.011991066300119996
-0.06540883987180679   -0.07792130226708889   -0.011991066300119996
-0.06540883987180679   -0.07792130226708889   -0.011991066300119996
-0.06395497071775147   -0.08768384667998652   0.006204612950141172
-0.06395497071775147   -0.08768384667998652   0.006204612950141172
-0.06395497071775147   -0.08768384667998652   0.006204612950141172
-0.06395497071775147   -0.08768384667998652   0.006204612950141172
-0.12494746439120069   -0.10173243493242845   0.015002371034208269
-0.12494746439120069   -0.10173243493242845   0.015002371034208269
-0.12494746439120069   -0.10173243493242845   0.015002371034208269
-0.12494746439120069   -0.10173243493242845   0.015002371034208269
-0.08086021653705486   -0.07793071185445843   0.02598033191725379
-0.08086021653705486   -0.07793071185445843   0.02598033191725379
-0.08086021653705486   -0.07793071185445843   0.02598033191725379
-0.08086021653705486   -0.07793071185445843   0.02598033191725379
-0.12540267274258513   -0.0991796090050083   0.010173503349865998
-0.12540267274258513   -0.0991796090050083   0.010173503349865998
-0.12540267274258513   -0.0991796090050083   0.010173503349865998
-0.12540267274258513   -0.0991796090050083   0.010173503349865998
-0.06897652414655661   -0.09571343438759626   -0.010873566486274803
-0.06897652414655661   -0.09571343438759626   -0.010873566486274803
-0.06897652414655661   -0.09571343438759626   -0.010873566486274803
-0.06897652414655661   -0.09571343438759626   -0.010873566486274803
-0.06500842019452108   -0.0904889911839712   0.008744615731282067
-0.06500842019452108   -0.0904889911839712   0.008744615731282067
-0.06500842019452108   -0.0904889911839712   0.008744615731282067
-0.06500842019452108   -0.0904889911839712   0.008744615731282067
-0.14662122811963943   -0.12474534010491789   0.0037132823053895245
-0.14662122811963943   -0.12474534010491789   0.0037132823053895245
-0.14662122811963943   -0.12474534010491789   0.0037132823053895245
-0.14662122811963943   -0.12474534010491789   0.0037132823053895245
-0.09061456901997163   -0.08869600613935208   0.012018231359350547
-0.09061456901997163   -0.08869600613935208   0.012018231359350547
-0.09061456901997163   -0.08869600613935208   0.012018231359350547
-0.09061456901997163   -0.08869600613935208   0.012018231359350547
-0.053090092731239366   -0.03787717030767186   0.01839050236860182
-0.053090092731239366   -0.03787717030767186   0.01839050236860182
-0.053090092731239366   -0.03787717030767186   0.01839050236860182
-0.053090092731239366   -0.03787717030767186   0.01839050236860182
-0.037830177658005316   -0.0013386122759530337   -0.0037146864870166336
-0.037830177658005316   -0.0013386122759530337   -0.0037146864870166336
-0.037830177658005316   -0.0013386122759530337   -0.0037146864870166336
-0.037830177658005316   -0.0013386122759530337   -0.0037146864870166336
-0.03585825781139737   -0.04105602694458664   0.011379914393838442
-0.03585825781139737   -0.04105602694458664   0.011379914393838442
-0.03585825781139737   -0.04105602694458664   0.011379914393838442
-0.03585825781139737   -0.04105602694458664   0.011379914393838442
-0.0495717466442207   -0.008642967029054004   -0.002083935400224458
-0.0495717466442207   -0.008642967029054004   -0.002083935400224458
-0.0495717466442207   -0.008642967029054004   -0.002083935400224458
-0.0495717466442207   -0.008642967029054004   -0.002083935400224458
-0.040734383709630624   -0.02124631872039362   0.009118971879785179
-0.040734383709630624   -0.02124631872039362   0.009118971879785179
-0.040734383709630624   -0.02124631872039362   0.009118971879785179
-0.040734383709630624   -0.02124631872039362   0.009118971879785179
-0.05259262401801281   -0.04320428410360435   0.01737299480536534
-0.05259262401801281   -0.04320428410360435   0.01737299480536534
-0.05259262401801281   -0.04320428410360435   0.01737299480536534
-0.05259262401801281   -0.04320428410360435   0.01737299480536534
-0.03194176706097733   -0.005599096493408363   -0.004494562305239624
-0.03194176706097733   -0.005599096493408363   -0.004494562305239624
-0.03194176706097733   -0.005599096493408363   -0.004494562305239624
-0.03194176706097733   -0.005599096493408363   -0.004494562305239624
-0.033024430391678516   -0.0446690437453257   0.010522547405599776
-0.033024430391678516   -0.0446690437453257   0.010522547405599776
-0.033024430391678516   -0.0446690437453257   0.010522547405599776
-0.033024430391678516   -0.0446690437453257   0.010522547405599776
-0.05014591438090004   -0.015899776080889466   0.0034658240353012577
-0.05014591438090004   -0.015899776080889466   0.0034658240353012577
-0.05014591438090004   -0.015899776080889466   0.0034658240353012577
-0.05014591438090004   -0.015899776080889466   0.0034658240353012577
-0.03757789315288897   -0.024398433390922413   0.01073195113495799
-0.03757789315288897   -0.024398433390922413   0.01073195113495799
-0.03757789315288897   -0.024398433390922413   0.01073195113495799
-0.03757789315288897   -0.024398433390922413   0.01073195113495799
-0.053044740285627515   -0.04680269293256714   0.019874611363341593
-0.053044740285627515   -0.04680269293256714   0.019874611363341593
-0.053044740285627515   -0.04680269293256714   0.019874611363341593
-0.053044740285627515   -0.04680269293256714   0.019874611363341593
-0.030453963687279657   -0.014094486093976639   -0.007199676723754989
-0.030453963687279657   -0.014094486093976639   -0.007199676723754989
-0.030453963687279657   -0.014094486093976639   -0.007199676723754989
-0.030453963687279657   -0.014094486093976639   -0.007199676723754989
-0.027901518096445713   -0.04867385597844817   0.011591787106113197
-0.027901518096445713   -0.04867385597844817   0.011591787106113197
-0.027901518096445713   -0.04867385597844817   0.011591787106113197
-0.027901518096445713   -0.04867385597844817   0.011591787106113197
-0.054425983895847574   -0.03334285200058988   0.004510658041268257
-0.054425983895847574   -0.03334285200058988   0.004510658041268257
-0.054425983895847574   -0.03334285200058988   0.004510658041268257
-0.054425983895847574   -0.03334285200058988   0.004510658041268257
-0.03640372633741656   -0.03070916944197679   0.00911359072725013
-0.03640372633741656   -0.03070916944197679   0.00911359072725013
-0.03640372633741656   -0.03070916944197679   0.00911359072725013
-0.03640372633741656   -0.03070916944197679   0.00911359072725013
-0.03441198755740118   -0.006535601744586638   0.018573253484637633
-0.03441198755740118   -0.006535601744586638   0.018573253484637633
-0.03441198755740118   -0.006535601744586638   0.018573253484637633
-0.03441198755740118   -0.006535601744586638   0.018573253484637633
-0.0064735221621150035   0.0037794601928879744   -0.0003754440971548412
-0.0064735221621150035   0.0037794601928879744   -0.0003754440971548412
-0.0064735221621150035   0.0037794601928879744   -0.0003754440971548412
-0.0064735221621150035   0.0037794601928879744   -0.0003754440971548412
0.0014893669913498156   -0.0021286473049620296   0.011542475055091086
0.0014893669913498156   -0.0021286473049620296   0.011542475055091086
0.0014893669913498156   -0.0021286473049620296   0.011542475055091086
0.0014893669913498156   -0.0021286473049620296   0.011542475055091086
-0.029642563994332665   0.002676498194722369   -0.0012741416601470225
-0.029642563994332665   0.002676498194722369   -0.0012741416601470225
-0.029642563994332665   0.002676498194722369   -0.0012741416601470225
-0.029642563994332665   0.002676498194722369   -0.0012741416601470225
-0.017526189718143837   -0.001365886577211195   -0.0013920166548089322
-0.017526189718143837   -0.001365886577211195   -0.0013920166548089322
-0.017526189718143837   -0.001365886577211195   -0.0013920166548089322
-0.017526189718143837   -0.001365886577211195   -0.0013920166548089322
-0.027323865190622344   -0.006333848868124404   0.019329699421251366
-0.027323865190622344   -0.006333848868124404   0.019329699421251366
-0.027323865190622344   -0.006333848868124404   0.019329699421251366
-0.027323865190622344   -0.006333848868124404   0.019329699421251366
0.00018787103429699975   0.007898902604540974   -0.004992554639683667
0.00018787103429699975   0.007898902604540974   -0.004992554639683667
0.00018787103429699975   0.007898902604540974   -0.004992554639683667
0.00018787103429699975   0.007898902604540974   -0.004992554639683667
0.005407182693952499   -0.0026442441524983295   0.014235135144467136
0.005407182693952499   -0.0026442441524983295   0.014235135144467136
0.005407182693952499   -0.0026442441524983295   0.014235135144467136
0.005407182693952499   -0.0026442441524983295   0.014235135144467136
-0.026199511441836326   0.00183699191017899   -0.0018588935006939524
-0.026199511441836326   0.00183699191017899   -0.0018588935006939524
-0.026199511441836326   0.00183699191017899   -0.0018588935006939524
-0.026199511441836326   0.00183699191017899   -0.0018588935006939524
-0.011736075260806177   -0.00042224252909026506   0.0017857001702632075
-0.011736075260806177   -0.00042224252909026506   0.0017857001702632075
-0.011736075260806177   -0.00042224252909026506   0.0017857001702632075
-0.011736075260806177   -0.00042224252909026506   0.0017857001702632075
-0.023457325081673225   -0.007105305578713994   0.02079433578901453
-0.023457325081673225   -0.007105305578713994   0.02079433578901453
-0.023457325081673225   -0.007105305578713994   0.02079433578901453
-0.023457325081673225   -0.007105305578713994   0.02079433578901453
0.003561429083497311   0.007194486086102569   -0.0048323631464097004
0.003561429083497311   0.007194486086102569   -0.0048323631464097004
0.003561429083497311   0.007194486086102569   -0.0048323631464097004
0.003561429083497311   0.007194486086102569   -0.0048323631464097004
0.009313031799390126   -0.0042124370784517575   0.013860353948444992
0.009313031799390126   -0.0042124370784517575   0.013860353948444992
0.009313031799390126   -0.0042124370784517575   0.013860353948444992
0.009313031799390126   -0.0042124370784517575   0.013860353948444992
-0.020584848201193048   0.0015901975097255359   -0.002088916905797184
-0.020584848201193048   0.0015901975097255359   -0.002088916905797184
-0.020584848201193048   0.0015901975097255359   -0.002088916905797184
-0.020584848201193048   0.0015901975097255359   -0.002088916905797184
-0.006602319902237295   9.83799381344757e-05   0.004530154684896149
-0.006602319902237295   9.83799381344757e-05   0.004530154684896149
-0.006602319902237295   9.83799381344757e-05   0.004530154684896149
-0.006602319902237295   9.83799381344757e-05   0.004530154684896149
              </DataArray>   
             <DataArray type="Float64" NumberOfComponents="3" Name="Displacements" format="ascii">   
0.0   0.0   0.0
-0.0031540164059562616   -0.002074344014332621   -0.0010568747920602964
0.0   0.0   0.0
0.0   0.0   0.0
-0.0031540164059562616   -0.002074344014332621   -0.0010568747920602964
-0.0020065307114823226   -0.0018650482074584372   -0.0007765500593145106
0.0   0.0   0.0
-0.00196655557761779   -0.0019583454163240614   -0.0006506809899447445
0.0   0.0   0.0
0.0   0.0   0.0
-0.00196655557761779   -0.0019583454163240614   -0.0006506809899447445
0.0   0.0   0.0
0.0   0.0   0.0
-0.00196655557761779   -0.0019583454163240614   -0.0006506809899447445
-0.0033004657924074602   -0.002209676563314812   -0.0008486705985897488
-0.0031540164059562616   -0.002074344014332621   -0.0010568747920602964
0.0   0.0   0.0
-0.00196655557761779   -0.0019583454163240614   -0.0006506809899447445
-0.0031540164059562616   -0.002074344014332621   -0.0010568747920602964
0.0   0.0   0.0
0.0   0.0   0.0
-0.0033004657924074602   -0.002209676563314812   -0.0008486705985897488
0.0   0.0   0.0
0.0   0.0   0.0
-0.0033004657924074602   -0.002209676563314812   -0.0008486705985897488
-0.00196655557761779   -0.0019583454163240614   -0.0006506809899447445
0.0   0.0   0.0
-0.001971785378098635   -0.002006193713075089   -0.0005250292869006964
0.0   0.0   0.0
0.0   0.0   0.0
-0.001971785378098635   -0.002006193713075089   -0.0005250292869006964
0.0   0.0   0.0
0.0   0.0   0.0
-0.001971785378098635   -0.002006193713075089   -0.0005250292869006964
-0.003403170584704472   -0.0022755022313250793   -0.0006492470407497955
-0.0033004657924074602   -0.002209676563314812   -0.0008486705985897488
0.0   0.0   0.0
-0.001971785378098635   -0.002006193713075089   -0.0005250292869006964
-0.0033004657924074602   -0.002209676563314812   -0.0008486705985897488
0.0   0.0   0.0
0.0   0.0   0.0
-0.003403170584704472   -0.0022755022313250793   -0.0006492470407497955
0.0   0.0   0.0
0.0   0.0   0.0
-0.003403170584704472   -0.0022755022313250793   -0.0006492470407497955
-0.001971785378098635   -0.002006193713075089   -0.0005250292869006964
0.0   0.0   0.0
-0.001970392479841776   -0.002018538683844861   -0.0003951487210062069
0.0   0.0   0.0
0.0   0.0   0.0
-0.001970392479841776   -0.002018538683844861   -0.0003951487210062069
0.0   0.0   0.0
0.0   0.0   0.0
-0.001970392479841776   -0.002018538683844861   -0.0003951487210062069
-0.003624738829665361   -0.0023254770353559806   -0.0004179318670265368
-0.003403170584704472   -0.0022755022313250793   -0.0006492470407497955
0.0   0.0   0.0
-0.001970392479841776   -0.002018538683844861   -0.0003951487210062069
-0.003403170584704472   -0.0022755022313250793   -0.0006492470407497955
0.0   0.0   0.0
0.0   0.0   0.0
-0.0020065307114823226   -0.0018650482074584372   -0.0007765500593145106
0.0   0.0   0.0
0.0   0.0   0.0
-0.0020065307114823226   -0.0018650482074584372   -0.0007765500593145106
-0.0009141506383383029   -0.001788353670018963   -0.0005907956209697053
0.0   0.0   0.0
-0.0008789089372207258   -0.0018490418696598472   -0.0005313359826863403
0.0   0.0   0.0
0.0   0.0   0.0
-0.0008789089372207258   -0.0018490418696598472   -0.0005313359826863403
0.0   0.0   0.0
0.0   0.0   0.0
-0.0008789089372207258   -0.0018490418696598472   -0.0005313359826863403
-0.00196655557761779   -0.0019583454163240614   -0.0006506809899447445
-0.0020065307114823226   -0.0018650482074584372   -0.0007765500593145106
0.0   0.0   0.0
-0.0008789089372207258   -0.0018490418696598472   -0.0005313359826863403
-0.0020065307114823226   -0.0018650482074584372   -0.0007765500593145106
0.0   0.0   0.0
0.0   0.0   0.0
-0.00196655557761779   -0.0019583454163240614   -0.0006506809899447445
0.0   0.0   0.0
0.0   0.0   0.0
-0.00196655557761779   -0.0019583454163240614   -0.0006506809899447445
-0.0008789089372207258   -0.0018490418696598472   -0.0005313359826863403
0.0   0.0   0.0
-0.0008589868441895948   -0.0018721869358373218   -0.0004734646183056955
0.0   0.0   0.0
0.0   0.0   0.0
-0.0008589868441895948   -0.0018721869358373218   -0.0004734646183056955
0.0   0.0   0.0
0.0   0.0   0.0
-0.0008589868441895948   -0.0018721869358373218   -0.0004734646183056955
-0.001971785378098635   -0.002006193713075089   -0.0005250292869006964
-0.00196655557761779   -0.0019583454163240614   -0.0006506809899447445
0.0   0.0   0.0
-0.0008589868441895948   -0.0018721869358373218   -0.0004734646183056955
-0.00196655557761779   -0.0019583454163240614   -0.0006506809899447445
0.0   0.0   0.0
0.0   0.0   0.0
-0.001971785378098635   -0.002006193713075089   -0.0005250292869006964
0.0   0.0   0.0
0.0   0.0   0.0
-0.001971785378098635   -0.002006193713075089   -0.0005250292869006964
-0.0008589868441895948   -0.0018721869358373218   -0.0004734646183056955
0.0   0.0   0.0
-0.0008407939779049389   -0.0018625611523145995   -0.0004136731732754044
0.0   0.0   0.0
0.0   0.0   0.0
-0.0008407939779049389   -0.0018625611523145995   -0.0004136731732754044
0.0   0.0   0.0
0.0   0.0   0.0
-0.0008407939779049389   -0.0018625611523145995   -0.0004136731732754044
-0.001970392479841776   -0.002018538683844861   -0.0003951487210062069
-0.001971785378098635   -0.002006193713075089   -0.0005250292869006964
0.0   0.0   0.0
-0.0008407939779049389   -0.0018625611523145995   -0.0004136731732754044
-0.001971785378098635   -0.002006193713075089   -0.0005250292869006964
0.0   0.0   0.0
0.0   0.0   0.0
-0.0009141506383383029   -0.001788353670018963   -0.0005907956209697053
0.0   0.0   0.0
0.0   0.0   0.0
-0.0009141506383383029   -0.001788353670018963   -0.0005907956209697053
0.00011767305670608253   -0.0017982297455757489   -0.0004725255797902101
0.0   0.0   0.0
0.0001403143686685542   -0.0018296417961914007   -0.00048066174145866265
0.0   0.0   0.0
0.0   0.0   0.0
0.0001403143686685542   -0.0018296417961914007   -0.00048066174145866265
0.0   0.0   0.0
0.0   0.0   0.0
0.0001403143686685542   -0.0018296417961914007   -0.00048066174145866265
-0.0008789089372207258   -0.0018490418696598472   -0.0005313359826863403
-0.0009141506383383029   -0.001788353670018963   -0.0005907956209697053
0.0   0.0   0.0
0.0001403143686685542   -0.0018296417961914007   -0.00048066174145866265
-0.0009141506383383029   -0.001788353670018963   -0.0005907956209697053
0.0   0.0   0.0
0.0   0.0   0.0
-0.0008789089372207258   -0.0018490418696598472   -0.0005313359826863403
0.0   0.0   0.0
0.0   0.0   0.0
-0.0008789089372207258   -0.0018490418696598472   -0.0005313359826863403
0.0001403143686685542   -0.0018296417961914007   -0.00048066174145866265
0.0   0.0   0.0
0.00015822612531367382   -0.0018269999329613119   -0.0004880417068454058
0.0   0.0   0.0
0.0   0.0   0.0
0.00015822612531367382   -0.0018269999329613119   -0.0004880417068454058
0.0   0.0   0.0
0.0   0.0   0.0
0.00015822612531367382   -0.0018269999329613119   -0.0004880417068454058
-0.0008589868441895948   -0.0018721869358373218   -0.0004734646183056955
-0.0008789089372207258   -0.0018490418696598472   -0.0005313359826863403
0.0   0.0   0.0
0.00015822612531367382   -0.0018269999329613119   -0.0004880417068454058
-0.0008789089372207258   -0.0018490418696598472   -0.0005313359826863403
0.0   0.0   0.0
0.0   0.0   0.0
-0.0008589868441895948   -0.0018721869358373218   -0.0004734646183056955
0.0   0.0   0.0
0.0   0.0   0.0
-0.0008589868441895948   -0.0018721869358373218   -0.0004734646183056955
0.00015822612531367382   -0.0018269999329613119   -0.0004880417068454058
0.0   0.0   0.0
0.00018222150357074542   -0.001787517594402125   -0.0004956636792108228
0.0   0.0   0.0
0.0   0.0   0.0
0.00018222150357074542   -0.001787517594402125   -0.0004956636792108228
0.0   0.0   0.0
0.0   0.0   0.0
0.00018222150357074542   -0.001787517594402125   -0.0004956636792108228
-0.0008407939779049389   -0.0018625611523145995   -0.0004136731732754044
-0.0008589868441895948   -0.0018721869358373218   -0.0004734646183056955
0.0   0.0   0.0
0.00018222150357074542   -0.001787517594402125   -0.0004956636792108228
-0.0008589868441895948   -0.0018721869358373218   -0.0004734646183056955
0.0   0.0   0.0
0.0   0.0   0.0
0.00011767305670608253   -0.0017982297455757489   -0.0004725255797902101
0.0   0.0   0.0
0.0   0.0   0.0
0.00011767305670608253   -0.0017982297455757489   -0.0004725255797902101
0.0012379711096368025   -0.001885351565171055   -0.00041416633371286614
0.0   0.0   0.0
0.0012405507618527905   -0.0018952666367873566   -0.0004934312923752882
0.0   0.0   0.0
0.0   0.0   0.0
0.0012405507618527905   -0.0018952666367873566   -0.0004934312923752882
0.0   0.0   0.0
0.0   0.0   0.0
0.0012405507618527905   -0.0018952666367873566   -0.0004934312923752882
0.0001403143686685542   -0.0018296417961914007   -0.00048066174145866265
0.00011767305670608253   -0.0017982297455757489   -0.0004725255797902101
0.0   0.0   0.0
0.0012405507618527905   -0.0018952666367873566   -0.0004934312923752882
0.00011767305670608253   -0.0017982297455757489   -0.0004725255797902101
0.0   0.0   0.0
0.0   0.0   0.0
0.0001403143686685542   -0.0018296417961914007   -0.00048066174145866265
0.0   0.0   0.0
0.0   0.0   0.0
0.0001403143686685542   -0.0018296417961914007   -0.00048066174145866265
0.0012405507618527905   -0.0018952666367873566   -0.0004934312923752882
0.0   0.0   0.0
0.0012355637015820382   -0.001868205655221073   -0.0005695186178293233
0.0   0.0   0.0
0.0   0.0   0.0
0.0012355637015820382   -0.001868205655221073   -0.0005695186178293233
0.0   0.0   0.0
0.0   0.0   0.0
0.0012355637015820382   -0.001868205655221073   -0.0005695186178293233
0.00015822612531367382   -0.0018269999329613119   -0.0004880417068454058
0.0001403143686685542   -0.0018296417961914007   -0.00048066174145866265
0.0   0.0   0.0
0.0012355637015820382   -0.001868205655221073   -0.0005695186178293233
0.0001403143686685542   -0.0018296417961914007   -0.00048066174145866265
0.0   0.0   0.0
0.0   0.0   0.0
0.00015822612531367382   -0.0018269999329613119   -0.0004880417068454058
0.0   0.0   0.0
0.0   0.0   0.0
0.00015822612531367382   -0.0018269999329613119   -0.0004880417068454058
0.0012355637015820382   -0.001868205655221073   -0.0005695186178293233
0.0   0.0   0.0
0.0012598061325456392   -0.0017959213949199399   -0.0006441942473678748
0.0   0.0   0.0
0.0   0.0   0.0
0.0012598061325456392   -0.0017959213949199399   -0.0006441942473678748
0.0   0.0   0.0
0.0   0.0   0.0
0.0012598061325456392   -0.0017959213949199399   -0.0006441942473678748
0.00018222150357074542   -0.001787517594402125   -0.0004956636792108228
0.00015822612531367382   -0.0018269999329613119   -0.0004880417068454058
0.0   0.0   0.0
0.0012598061325456392   -0.0017959213949199399   -0.0006441942473678748
0.00015822612531367382   -0.0018269999329613119   -0.0004880417068454058
0.0   0.0   0.0
0.0   0.0   0.0
0.0012379711096368025   -0.001885351565171055   -0.00041416633371286614
0.0   0.0   0.0
0.0   0.0   0.0
0.0012379711096368025   -0.001885351565171055   -0.00041416633371286614
0.00279689694381696   -0.002106357686482692   -0.0003911215665150962
0.0   0.0   0.0
0.002627229014313125   -0.0020831877831600774   -0.0005709620043625235
0.0   0.0   0.0
0.0   0.0   0.0
0.002627229014313125   -0.0020831877831600774   -0.0005709620043625235
0.0   0.0   0.0
0.0   0.0   0.0
0.002627229014313125   -0.0020831877831600774   -0.0005709620043625235
0.0012405507618527905   -0.0018952666367873566   -0.0004934312923752882
0.0012379711096368025   -0.001885351565171055   -0.00041416633371286614
0.0   0.0   0.0
0.002627229014313125   -0.0020831877831600774   -0.0005709620043625235
0.0012379711096368025   -0.001885351565171055   -0.00041416633371286614
0.0   0.0   0.0
0.0   0.0   0.0
0.0012405507618527905   -0.0018952666367873566   -0.0004934312923752882
0.0   0.0   0.0
0.0   0.0   0.0
0.0012405507618527905   -0.0018952666367873566   -0.0004934312923752882
0.002627229014313125   -0.0020831877831600774   -0.0005709620043625235
0.0   0.0   0.0
0.00254913561632403   -0.002039880743140475   -0.0007230773465481408
0.0   0.0   0.0
0.0   0.0   0.0
0.00254913561632403   -0.002039880743140475   -0.0007230773465481408
0.0   0.0   0.0
0.0   0.0   0.0
0.00254913561632403   -0.002039880743140475   -0.0007230773465481408
0.0012355637015820382   -0.001868205655221073   -0.0005695186178293233
0.0012405507618527905   -0.0018952666367873566   -0.0004934312923752882
0.0   0.0   0.0
0.00254913561632403   -0.002039880743140475   -0.0007230773465481408
0.0012405507618527905   -0.0018952666367873566   -0.0004934312923752882
0.0   0.0   0.0
0.0   0.0   0.0
0.0012355637015820382   -0.001868205655221073   -0.0005695186178293233
0.0   0.0   0.0
0.0   0.0   0.0
0.0012355637015820382   -0.001868205655221073   -0.0005695186178293233
0.00254913561632403   -0.002039880743140475   -0.0007230773465481408
0.0   0.0   0.0
0.0024326486301923943   -0.001929210486168721   -0.0008841306878726404
0.0   0.0   0.0
0.0   0.0   0.0
0.0024326486301923943   -0.001929210486168721   -0.0008841306878726404
0.0   0.0   0.0
0.0   0.0   0.0
0.0024326486301923943   -0.001929210486168721   -0.0008841306878726404
0.0012598061325456392   -0.0017959213949199399   -0.0006441942473678748
0.0012355637015820382   -0.001868205655221073   -0.0005695186178293233
0.0   0.0   0.0
0.0024326486301923943   -0.001929210486168721   -0.0008841306878726404
0.0012355637015820382   -0.001868205655221073   -0.0005695186178293233
0.0   0.0   0.0
-0.0031540164059562616   -0.002074344014332621   -0.0010568747920602964
-0.005887348035789842   -0.005783136718863534   -0.0014240677240509383
-0.0020065307114823226   -0.0018650482074584372   -0.0007765500593145106
-0.0033004657924074602   -0.002209676563314812   -0.0008486705985897488
-0.005887348035789842   -0.005783136718863534   -0.0014240677240509383
-0.0037574973801438472   -0.0055950377744009745   -0.0011725530196705378
-0.0020065307114823226   -0.0018650482074584372   -0.0007765500593145106
-0.003761412835886728   -0.005690421522987922   -0.0010562347749998426
-0.0033004657924074602   -0.002209676563314812   -0.0008486705985897488
-0.00196655557761779   -0.0019583454163240614   -0.0006506809899447445
-0.003761412835886728   -0.005690421522987922   -0.0010562347749998426
-0.0020065307114823226   -0.0018650482074584372   -0.0007765500593145106
-0.0033004657924074602   -0.002209676563314812   -0.0008486705985897488
-0.003761412835886728   -0.005690421522987922   -0.0010562347749998426
-0.006063041570393327   -0.005916289645182615   -0.0012352644015737675
-0.005887348035789842   -0.005783136718863534   -0.0014240677240509383
-0.0033004657924074602   -0.002209676563314812   -0.0008486705985897488
-0.003761412835886728   -0.005690421522987922   -0.0010562347749998426
-0.005887348035789842   -0.005783136718863534   -0.0014240677240509383
-0.0020065307114823226   -0.0018650482074584372   -0.0007765500593145106
-0.0033004657924074602   -0.002209676563314812   -0.0008486705985897488
-0.006063041570393327   -0.005916289645182615   -0.0012352644015737675
-0.00196655557761779   -0.0019583454163240614   -0.0006506809899447445
-0.003403170584704472   -0.0022755022313250793   -0.0006492470407497955
-0.006063041570393327   -0.005916289645182615   -0.0012352644015737675
-0.003761412835886728   -0.005690421522987922   -0.0010562347749998426
-0.00196655557761779   -0.0019583454163240614   -0.0006506809899447445
-0.003775663929089915   -0.005748616540064897   -0.0009444919002908898
-0.003403170584704472   -0.0022755022313250793   -0.0006492470407497955
-0.001971785378098635   -0.002006193713075089   -0.0005250292869006964
-0.003775663929089915   -0.005748616540064897   -0.0009444919002908898
-0.00196655557761779   -0.0019583454163240614   -0.0006506809899447445
-0.003403170584704472   -0.0022755022313250793   -0.0006492470407497955
-0.003775663929089915   -0.005748616540064897   -0.0009444919002908898
-0.006184891070834949   -0.005991535053489768   -0.0010504409289701843
-0.006063041570393327   -0.005916289645182615   -0.0012352644015737675
-0.003403170584704472   -0.0022755022313250793   -0.0006492470407497955
-0.003775663929089915   -0.005748616540064897   -0.0009444919002908898
-0.006063041570393327   -0.005916289645182615   -0.0012352644015737675
-0.00196655557761779   -0.0019583454163240614   -0.0006506809899447445
-0.003403170584704472   -0.0022755022313250793   -0.0006492470407497955
-0.006184891070834949   -0.005991535053489768   -0.0010504409289701843
-0.001971785378098635   -0.002006193713075089   -0.0005250292869006964
-0.003624738829665361   -0.0023254770353559806   -0.0004179318670265368
-0.006184891070834949   -0.005991535053489768   -0.0010504409289701843
-0.003775663929089915   -0.005748616540064897   -0.0009444919002908898
-0.001971785378098635   -0.002006193713075089   -0.0005250292869006964
-0.0037638313121735184   -0.005778896166514676   -0.0008399309114269707
-0.003624738829665361   -0.0023254770353559806   -0.0004179318670265368
-0.001970392479841776   -0.002018538683844861   -0.0003951487210062069
-0.0037638313121735184   -0.005778896166514676   -0.0008399309114269707
-0.001971785378098635   -0.002006193713075089   -0.0005250292869006964
-0.003624738829665361   -0.0023254770353559806   -0.0004179318670265368
-0.0037638313121735184   -0.005778896166514676   -0.0008399309114269707
-0.006328888330984986   -0.00603542988178924   -0.0008823617894257039
-0.006184891070834949   -0.005991535053489768   -0.0010504409289701843
-0.003624738829665361   -0.0023254770353559806   -0.0004179318670265368
-0.0037638313121735184   -0.005778896166514676   -0.0008399309114269707
-0.006184891070834949   -0.005991535053489768   -0.0010504409289701843
-0.001971785378098635   -0.002006193713075089   -0.0005250292869006964
-0.0020065307114823226   -0.0018650482074584372   -0.0007765500593145106
-0.0037574973801438472   -0.0055950377744009745   -0.0011725530196705378
-0.0009141506383383029   -0.001788353670018963   -0.0005907956209697053
-0.00196655557761779   -0.0019583454163240614   -0.0006506809899447445
-0.0037574973801438472   -0.0055950377744009745   -0.0011725530196705378
-0.0017443755607275914   -0.005507508760877984   -0.0010009115185982817
-0.0009141506383383029   -0.001788353670018963   -0.0005907956209697053
-0.0017287943186547828   -0.005568163806045667   -0.0009412552839208074
-0.00196655557761779   -0.0019583454163240614   -0.0006506809899447445
-0.0008789089372207258   -0.0018490418696598472   -0.0005313359826863403
-0.0017287943186547828   -0.005568163806045667   -0.0009412552839208074
-0.0009141506383383029   -0.001788353670018963   -0.0005907956209697053
-0.00196655557761779   -0.0019583454163240614   -0.0006506809899447445
-0.0017287943186547828   -0.005568163806045667   -0.0009412552839208074
-0.003761412835886728   -0.005690421522987922   -0.0010562347749998426
-0.0037574973801438472   -0.0055950377744009745   -0.0011725530196705378
-0.00196655557761779   -0.0019583454163240614   -0.0006506809899447445
-0.0017287943186547828   -0.005568163806045667   -0.0009412552839208074
-0.0037574973801438472   -0.0055950377744009745   -0.0011725530196705378
-0.0009141506383383029   -0.001788353670018963   -0.0005907956209697053
-0.00196655557761779   -0.0019583454163240614   -0.0006506809899447445
-0.003761412835886728   -0.005690421522987922   -0.0010562347749998426
-0.0008789089372207258   -0.0018490418696598472   -0.0005313359826863403
-0.001971785378098635   -0.002006193713075089   -0.0005250292869006964
-0.003761412835886728   -0.005690421522987922   -0.0010562347749998426
-0.0017287943186547828   -0.005568163806045667   -0.0009412552839208074
-0.0008789089372207258   -0.0018490418696598472   -0.0005313359826863403
-0.0017149269063343258   -0.005597599890003589   -0.0008871986947766482
-0.001971785378098635   -0.002006193713075089   -0.0005250292869006964
-0.0008589868441895948   -0.0018721869358373218   -0.0004734646183056955
-0.0017149269063343258   -0.005597599890003589   -0.0008871986947766482
-0.0008789089372207258   -0.0018490418696598472   -0.0005313359826863403
-0.001971785378098635   -0.002006193713075089   -0.0005250292869006964
-0.0017149269063343258   -0.005597599890003589   -0.0008871986947766482
-0.003775663929089915   -0.005748616540064897   -0.0009444919002908898
-0.003761412835886728   -0.005690421522987922   -0.0010562347749998426
-0.001971785378098635   -0.002006193713075089   -0.0005250292869006964
-0.0017149269063343258   -0.005597599890003589   -0.0008871986947766482
-0.003761412835886728   -0.005690421522987922   -0.0010562347749998426
-0.0008789089372207258   -0.0018490418696598472   -0.0005313359826863403
-0.001971785378098635   -0.002006193713075089   -0.0005250292869006964
-0.003775663929089915   -0.005748616540064897   -0.0009444919002908898
-0.0008589868441895948   -0.0018721869358373218   -0.0004734646183056955
-0.001970392479841776   -0.002018538683844861   -0.0003951487210062069
-0.003775663929089915   -0.005748616540064897   -0.0009444919002908898
-0.0017149269063343258   -0.005597599890003589   -0.0008871986947766482
-0.0008589868441895948   -0.0018721869358373218   -0.0004734646183056955
-0.0016944807343513696   -0.005596925239135651   -0.0008401632746969743
-0.001970392479841776   -0.002018538683844861   -0.0003951487210062069
-0.0008407939779049389   -0.0018625611523145995   -0.0004136731732754044
-0.0016944807343513696   -0.005596925239135651   -0.0008401632746969743
-0.0008589868441895948   -0.0018721869358373218   -0.0004734646183056955
-0.001970392479841776   -0.002018538683844861   -0.0003951487210062069
-0.0016944807343513696   -0.005596925239135651   -0.0008401632746969743
-0.0037638313121735184   -0.005778896166514676   -0.0008399309114269707
-0.003775663929089915   -0.005748616540064897   -0.0009444919002908898
-0.001970392479841776   -0.002018538683844861   -0.0003951487210062069
-0.0016944807343513696   -0.005596925239135651   -0.0008401632746969743
-0.003775663929089915   -0.005748616540064897   -0.0009444919002908898
-0.0008589868441895948   -0.0018721869358373218   -0.0004734646183056955
-0.0009141506383383029   -0.001788353670018963   -0.0005907956209697053
-0.0017443755607275914   -0.005507508760877984   -0.0010009115185982817
0.00011767305670608253   -0.0017982297455757489   -0.0004725255797902101
-0.0008789089372207258   -0.0018490418696598472   -0.0005313359826863403
-0.0017443755607275914   -0.005507508760877984   -0.0010009115185982817
0.0001965453551773055   -0.005510146744136313   -0.0008925236544943662
0.00011767305670608253   -0.0017982297455757489   -0.0004725255797902101
0.00021560438063459062   -0.005538798378007606   -0.0008884751401533691
-0.0008789089372207258   -0.0018490418696598472   -0.0005313359826863403
0.0001403143686685542   -0.0018296417961914007   -0.00048066174145866265
0.00021560438063459062   -0.005538798378007606   -0.0008884751401533691
0.00011767305670608253   -0.0017982297455757489   -0.0004725255797902101
-0.0008789089372207258   -0.0018490418696598472   -0.0005313359826863403
0.00021560438063459062   -0.005538798378007606   -0.0008884751401533691
-0.0017287943186547828   -0.005568163806045667   -0.0009412552839208074
-0.0017443755607275914   -0.005507508760877984   -0.0010009115185982817
-0.0008789089372207258   -0.0018490418696598472   -0.0005313359826863403
0.00021560438063459062   -0.005538798378007606   -0.0008884751401533691
-0.0017443755607275914   -0.005507508760877984   -0.0010009115185982817
0.00011767305670608253   -0.0017982297455757489   -0.0004725255797902101
-0.0008789089372207258   -0.0018490418696598472   -0.0005313359826863403
-0.0017287943186547828   -0.005568163806045667   -0.0009412552839208074
0.0001403143686685542   -0.0018296417961914007   -0.00048066174145866265
-0.0008589868441895948   -0.0018721869358373218   -0.0004734646183056955
-0.0017287943186547828   -0.005568163806045667   -0.0009412552839208074
0.00021560438063459062   -0.005538798378007606   -0.0008884751401533691
0.0001403143686685542   -0.0018296417961914007   -0.00048066174145866265
0.0002285972062573713   -0.005536961027863923   -0.0008907801080646171
-0.0008589868441895948   -0.0018721869358373218   -0.0004734646183056955
0.00015822612531367382   -0.0018269999329613119   -0.0004880417068454058
0.0002285972062573713   -0.005536961027863923   -0.0008907801080646171
0.0001403143686685542   -0.0018296417961914007   -0.00048066174145866265
-0.0008589868441895948   -0.0018721869358373218   -0.0004734646183056955
0.0002285972062573713   -0.005536961027863923   -0.0008907801080646171
-0.0017149269063343258   -0.005597599890003589   -0.0008871986947766482
-0.0017287943186547828   -0.005568163806045667   -0.0009412552839208074
-0.0008589868441895948   -0.0018721869358373218   -0.0004734646183056955
0.0002285972062573713   -0.005536961027863923   -0.0008907801080646171
-0.0017287943186547828   -0.005568163806045667   -0.0009412552839208074
0.0001403143686685542   -0.0018296417961914007   -0.00048066174145866265
-0.0008589868441895948   -0.0018721869358373218   -0.0004734646183056955
-0.0017149269063343258   -0.005597599890003589   -0.0008871986947766482
0.00015822612531367382   -0.0018269999329613119   -0.0004880417068454058
-0.0008407939779049389   -0.0018625611523145995   -0.0004136731732754044
-0.0017149269063343258   -0.005597599890003589   -0.0008871986947766482
0.0002285972062573713   -0.005536961027863923   -0.0008907801080646171
0.00015822612531367382   -0.0018269999329613119   -0.0004880417068454058
0.00024249693399772826   -0.0055037069085396   -0.000899538350369393
-0.0008407939779049389   -0.0018625611523145995   -0.0004136731732754044
0.00018222150357074542   -0.001787517594402125   -0.0004956636792108228
0.00024249693399772826   -0.0055037069085396   -0.000899538350369393
0.00015822612531367382   -0.0018269999329613119   -0.0004880417068454058
-0.0008407939779049389   -0.0018625611523145995   -0.0004136731732754044
0.00024249693399772826   -0.0055037069085396   -0.000899538350369393
-0.0016944807343513696   -0.005596925239135651   -0.0008401632746969743
-0.0017149269063343258   -0.005597599890003589   -0.0008871986947766482
-0.0008407939779049389   -0.0018625611523145995   -0.0004136731732754044
0.00024249693399772826   -0.0055037069085396   -0.000899538350369393
-0.0017149269063343258   -0.005597599890003589   -0.0008871986947766482
0.00015822612531367382   -0.0018269999329613119   -0.0004880417068454058
0.00011767305670608253   -0.0017982297455757489   -0.0004725255797902101
0.0001965453551773055   -0.005510146744136313   -0.0008925236544943662
0.0012379711096368025   -0.001885351565171055   -0.00041416633371286614
0.0001403143686685542   -0.0018296417961914007   -0.00048066174145866265
0.0001965453551773055   -0.005510146744136313   -0.0008925236544943662
0.002253673633074632   -0.005599707464488355   -0.0008421697179669343
0.0012379711096368025   -0.001885351565171055   -0.00041416633371286614
0.002264770052558719   -0.0055992588677089275   -0.0008955284868665909
0.0001403143686685542   -0.0018296417961914007   -0.00048066174145866265
0.0012405507618527905   -0.0018952666367873566   -0.0004934312923752882
0.002264770052558719   -0.0055992588677089275   -0.0008955284868665909
0.0012379711096368025   -0.001885351565171055   -0.00041416633371286614
0.0001403143686685542   -0.0018296417961914007   -0.00048066174145866265
0.002264770052558719   -0.0055992588677089275   -0.0008955284868665909
0.00021560438063459062   -0.005538798378007606   -0.0008884751401533691
0.0001965453551773055   -0.005510146744136313   -0.0008925236544943662
0.0001403143686685542   -0.0018296417961914007   -0.00048066174145866265
0.002264770052558719   -0.0055992588677089275   -0.0008955284868665909
0.0001965453551773055   -0.005510146744136313   -0.0008925236544943662
0.0012379711096368025   -0.001885351565171055   -0.00041416633371286614
0.0001403143686685542   -0.0018296417961914007   -0.00048066174145866265
0.00021560438063459062   -0.005538798378007606   -0.0008884751401533691
0.0012405507618527905   -0.0018952666367873566   -0.0004934312923752882
0.00015822612531367382   -0.0018269999329613119   -0.0004880417068454058
0.00021560438063459062   -0.005538798378007606   -0.0008884751401533691
0.002264770052558719   -0.0055992588677089275   -0.0008955284868665909
0.0012405507618527905   -0.0018952666367873566   -0.0004934312923752882
0.0022549205424386865   -0.005568930137558152   -0.0009560750681137665
0.00015822612531367382   -0.0018269999329613119   -0.0004880417068454058
0.0012355637015820382   -0.001868205655221073   -0.0005695186178293233
0.0022549205424386865   -0.005568930137558152   -0.0009560750681137665
0.0012405507618527905   -0.0018952666367873566   -0.0004934312923752882
0.00015822612531367382   -0.0018269999329613119   -0.0004880417068454058
0.0022549205424386865   -0.005568930137558152   -0.0009560750681137665
0.0002285972062573713   -0.005536961027863923   -0.0008907801080646171
0.00021560438063459062   -0.005538798378007606   -0.0008884751401533691
0.00015822612531367382   -0.0018269999329613119   -0.0004880417068454058
0.0022549205424386865   -0.005568930137558152   -0.0009560750681137665
0.00021560438063459062   -0.005538798378007606   -0.0008884751401533691
0.0012405507618527905   -0.0018952666367873566   -0.0004934312923752882
0.00015822612531367382   -0.0018269999329613119   -0.0004880417068454058
0.0002285972062573713   -0.005536961027863923   -0.0008907801080646171
0.0012355637015820382   -0.001868205655221073   -0.0005695186178293233
0.00018222150357074542   -0.001787517594402125   -0.0004956636792108228
0.0002285972062573713   -0.005536961027863923   -0.0008907801080646171
0.0022549205424386865   -0.005568930137558152   -0.0009560750681137665
0.0012355637015820382   -0.001868205655221073   -0.0005695186178293233
0.002249499578847766   -0.005500452837636995   -0.0010215672295285224
0.00018222150357074542   -0.001787517594402125   -0.0004956636792108228
0.0012598061325456392   -0.0017959213949199399   -0.0006441942473678748
0.002249499578847766   -0.005500452837636995   -0.0010215672295285224
0.0012355637015820382   -0.001868205655221073   -0.0005695186178293233
0.00018222150357074542   -0.001787517594402125   -0.0004956636792108228
0.002249499578847766   -0.005500452837636995   -0.0010215672295285224
0.00024249693399772826   -0.0055037069085396   -0.000899538350369393
0.0002285972062573713   -0.005536961027863923   -0.0008907801080646171
0.00018222150357074542   -0.001787517594402125   -0.0004956636792108228
0.002249499578847766   -0.005500452837636995   -0.0010215672295285224
0.0002285972062573713   -0.005536961027863923   -0.0008907801080646171
0.0012355637015820382   -0.001868205655221073   -0.0005695186178293233
0.0012379711096368025   -0.001885351565171055   -0.00041416633371286614
0.002253673633074632   -0.005599707464488355   -0.0008421697179669343
0.00279689694381696   -0.002106357686482692   -0.0003911215665150962
0.0012405507618527905   -0.0018952666367873566   -0.0004934312923752882
0.002253673633074632   -0.005599707464488355   -0.0008421697179669343
0.004736840485961896   -0.00576606954441809   -0.0008290487772048607
0.00279689694381696   -0.002106357686482692   -0.0003911215665150962
0.004641389609859075   -0.0057500821091105705   -0.0009491759015588102
0.0012405507618527905   -0.0018952666367873566   -0.0004934312923752882
0.002627229014313125   -0.0020831877831600774   -0.0005709620043625235
0.004641389609859075   -0.0057500821091105705   -0.0009491759015588102
0.00279689694381696   -0.002106357686482692   -0.0003911215665150962
0.0012405507618527905   -0.0018952666367873566   -0.0004934312923752882
0.004641389609859075   -0.0057500821091105705   -0.0009491759015588102
0.002264770052558719   -0.0055992588677089275   -0.0008955284868665909
0.002253673633074632   -0.005599707464488355   -0.0008421697179669343
0.0012405507618527905   -0.0018952666367873566   -0.0004934312923752882
0.004641389609859075   -0.0057500821091105705   -0.0009491759015588102
0.002253673633074632   -0.005599707464488355   -0.0008421697179669343
0.00279689694381696   -0.002106357686482692   -0.0003911215665150962
0.0012405507618527905   -0.0018952666367873566   -0.0004934312923752882
0.002264770052558719   -0.0055992588677089275   -0.0008955284868665909
0.002627229014313125   -0.0020831877831600774   -0.0005709620043625235
0.0012355637015820382   -0.001868205655221073   -0.0005695186178293233
0.002264770052558719   -0.0055992588677089275   -0.0008955284868665909
0.004641389609859075   -0.0057500821091105705   -0.0009491759015588102
0.002627229014313125   -0.0020831877831600774   -0.0005709620043625235
0.004556008453717039   -0.00570336006571526   -0.0010844192746971403
0.0012355637015820382   -0.001868205655221073   -0.0005695186178293233
0.00254913561632403   -0.002039880743140475   -0.0007230773465481408
0.004556008453717039   -0.00570336006571526   -0.0010844192746971403
0.002627229014313125   -0.0020831877831600774   -0.0005709620043625235
0.0012355637015820382   -0.001868205655221073   -0.0005695186178293233
0.004556008453717039   -0.00570336006571526   -0.0010844192746971403
0.0022549205424386865   -0.005568930137558152   -0.0009560750681137665
0.002264770052558719   -0.0055992588677089275   -0.0008955284868665909
0.0012355637015820382   -0.001868205655221073   -0.0005695186178293233
0.004556008453717039   -0.00570336006571526   -0.0010844192746971403
0.002264770052558719   -0.0055992588677089275   -0.0008955284868665909
0.002627229014313125   -0.0020831877831600774   -0.0005709620043625235
0.0012355637015820382   -0.001868205655221073   -0.0005695186178293233
0.0022549205424386865   -0.005568930137558152   -0.0009560750681137665
0.00254913561632403   -0.002039880743140475   -0.0007230773465481408
0.0012598061325456392   -0.0017959213949199399   -0.0006441942473678748
0.0022549205424386865   -0.005568930137558152   -0.0009560750681137665
0.004556008453717039   -0.00570336006571526   -0.0010844192746971403
0.00254913561632403   -0.002039880743140475   -0.0007230773465481408
0.004427677113697494   -0.005599614103305058   -0.0012252652765136335
0.0012598061325456392   -0.0017959213949199399   -0.0006441942473678748
0.0024326486301923943   -0.001929210486168721   -0.0008841306878726404
0.004427677113697494   -0.005599614103305058   -0.0012252652765136335
0.00254913561632403   -0.002039880743140475   -0.0007230773465481408
0.0012598061325456392   -0.0017959213949199399   -0.0006441942473678748
0.004427677113697494   -0.005599614103305058   -0.0012252652765136335
0.002249499578847766   -0.005500452837636995   -0.0010215672295285224
0.0022549205424386865   -0.005568930137558152   -0.0009560750681137665
0.0012598061325456392   -0.0017959213949199399   -0.0006441942473678748
0.004427677113697494   -0.005599614103305058   -0.0012252652765136335
0.0022549205424386865   -0.005568930137558152   -0.0009560750681137665
0.00254913561632403   -0.002039880743140475   -0.0007230773465481408
-0.005887348035789842   -0.005783136718863534   -0.0014240677240509383
-0.00806204076247154   -0.010835925596964472   -0.0016225562648345838
-0.0037574973801438472   -0.0055950377744009745   -0.0011725530196705378
-0.006063041570393327   -0.005916289645182615   -0.0012352644015737675
-0.00806204076247154   -0.010835925596964472   -0.0016225562648345838
-0.0051838480052778385   -0.010692337344314656   -0.0014188501511592237
-0.0037574973801438472   -0.0055950377744009745   -0.0011725530196705378
-0.005194566321483888   -0.010774564544356512   -0.0013287001706391486
-0.006063041570393327   -0.005916289645182615   -0.0012352644015737675
-0.003761412835886728   -0.005690421522987922   -0.0010562347749998426
-0.005194566321483888   -0.010774564544356512   -0.0013287001706391486
-0.0037574973801438472   -0.0055950377744009745   -0.0011725530196705378
-0.006063041570393327   -0.005916289645182615   -0.0012352644015737675
-0.005194566321483888   -0.010774564544356512   -0.0013287001706391486
-0.008204510748118727   -0.010948340093737114   -0.0014819675210001877
-0.00806204076247154   -0.010835925596964472   -0.0016225562648345838
-0.006063041570393327   -0.005916289645182615   -0.0012352644015737675
-0.005194566321483888   -0.010774564544356512   -0.0013287001706391486
-0.00806204076247154   -0.010835925596964472   -0.0016225562648345838
-0.0037574973801438472   -0.0055950377744009745   -0.0011725530196705378
-0.006063041570393327   -0.005916289645182615   -0.0012352644015737675
-0.008204510748118727   -0.010948340093737114   -0.0014819675210001877
-0.003761412835886728   -0.005690421522987922   -0.0010562347749998426
-0.006184891070834949   -0.005991535053489768   -0.0010504409289701843
-0.008204510748118727   -0.010948340093737114   -0.0014819675210001877
-0.005194566321483888   -0.010774564544356512   -0.0013287001706391486
-0.003761412835886728   -0.005690421522987922   -0.0010562347749998426
-0.005207266967079688   -0.010831843414943856   -0.001245098039637698
-0.006184891070834949   -0.005991535053489768   -0.0010504409289701843
-0.003775663929089915   -0.005748616540064897   -0.0009444919002908898
-0.005207266967079688   -0.010831843414943856   -0.001245098039637698
-0.003761412835886728   -0.005690421522987922   -0.0010562347749998426
-0.006184891070834949   -0.005991535053489768   -0.0010504409289701843
-0.005207266967079688   -0.010831843414943856   -0.001245098039637698
-0.008294028420957545   -0.011018895123080767   -0.00135097469096226
-0.008204510748118727   -0.010948340093737114   -0.0014819675210001877
-0.006184891070834949   -0.005991535053489768   -0.0010504409289701843
-0.005207266967079688   -0.010831843414943856   -0.001245098039637698
-0.008204510748118727   -0.010948340093737114   -0.0014819675210001877
-0.003761412835886728   -0.005690421522987922   -0.0010562347749998426
-0.006184891070834949   -0.005991535053489768   -0.0010504409289701843
-0.008294028420957545   -0.011018895123080767   -0.00135097469096226
-0.003775663929089915   -0.005748616540064897   -0.0009444919002908898
-0.006328888330984986   -0.00603542988178924   -0.0008823617894257039
-0.008294028420957545   -0.011018895123080767   -0.00135097469096226
-0.005207266967079688   -0.010831843414943856   -0.001245098039637698
-0.003775663929089915   -0.005748616540064897   -0.0009444919002908898
-0.005196820642001806   -0.01086961342029598   -0.001166647159068565
-0.006328888330984986   -0.00603542988178924   -0.0008823617894257039
-0.0037638313121735184   -0.005778896166514676   -0.0008399309114269707
-0.005196820642001806   -0.01086961342029598   -0.001166647159068565
-0.003775663929089915   -0.005748616540064897   -0.0009444919002908898
-0.006328888330984986   -0.00603542988178924   -0.0008823617894257039
-0.005196820642001806   -0.01086961342029598   -0.001166647159068565
-0.008395880873269897   -0.011069776070188097   -0.001230475748000911
-0.008294028420957545   -0.011018895123080767   -0.00135097469096226
-0.006328888330984986   -0.00603542988178924   -0.0008823617894257039
-0.005196820642001806   -0.01086961342029598   -0.001166647159068565
-0.008294028420957545   -0.011018895123080767   -0.00135097469096226
-0.003775663929089915   -0.005748616540064897   -0.0009444919002908898
-0.0037574973801438472   -0.0055950377744009745   -0.0011725530196705378
-0.0051838480052778385   -0.010692337344314656   -0.0014188501511592237
-0.0017443755607275914   -0.005507508760877984   -0.0010009115185982817
-0.003761412835886728   -0.005690421522987922   -0.0010562347749998426
-0.0051838480052778385   -0.010692337344314656   -0.0014188501511592237
-0.002471033383709523   -0.010620687481325384   -0.001277354110577418
-0.0017443755607275914   -0.005507508760877984   -0.0010009115185982817
-0.002464203269714783   -0.010673214561656855   -0.001226341182794982
-0.003761412835886728   -0.005690421522987922   -0.0010562347749998426
-0.0017287943186547828   -0.005568163806045667   -0.0009412552839208074
-0.002464203269714783   -0.010673214561656855   -0.001226341182794982
-0.0017443755607275914   -0.005507508760877984   -0.0010009115185982817
-0.003761412835886728   -0.005690421522987922   -0.0010562347749998426
-0.002464203269714783   -0.010673214561656855   -0.001226341182794982
-0.005194566321483888   -0.010774564544356512   -0.0013287001706391486
-0.0051838480052778385   -0.010692337344314656   -0.0014188501511592237
-0.003761412835886728   -0.005690421522987922   -0.0010562347749998426
-0.002464203269714783   -0.010673214561656855   -0.001226341182794982
-0.0051838480052778385   -0.010692337344314656   -0.0014188501511592237
-0.0017443755607275914   -0.005507508760877984   -0.0010009115185982817
-0.003761412835886728   -0.005690421522987922   -0.0010562347749998426
-0.005194566321483888   -0.010774564544356512   -0.0013287001706391486
-0.0017287943186547828   -0.005568163806045667   -0.0009412552839208074
-0.003775663929089915   -0.005748616540064897   -0.0009444919002908898
-0.005194566321483888   -0.010774564544356512   -0.0013287001706391486
-0.002464203269714783   -0.010673214561656855   -0.001226341182794982
-0.0017287943186547828   -0.005568163806045667   -0.0009412552839208074
-0.0024559850372419144   -0.010704090666897615   -0.0011815592464923966
-0.003775663929089915   -0.005748616540064897   -0.0009444919002908898
-0.0017149269063343258   -0.005597599890003589   -0.0008871986947766482
-0.0024559850372419144   -0.010704090666897615   -0.0011815592464923966
-0.0017287943186547828   -0.005568163806045667   -0.0009412552839208074
-0.003775663929089915   -0.005748616540064897   -0.0009444919002908898
-0.0024559850372419144   -0.010704090666897615   -0.0011815592464923966
-0.005207266967079688   -0.010831843414943856   -0.001245098039637698
-0.005194566321483888   -0.010774564544356512   -0.0013287001706391486
-0.003775663929089915   -0.005748616540064897   -0.0009444919002908898
-0.0024559850372419144   -0.010704090666897615   -0.0011815592464923966
-0.005194566321483888   -0.010774564544356512   -0.0013287001706391486
-0.0017287943186547828   -0.005568163806045667   -0.0009412552839208074
-0.003775663929089915   -0.005748616540064897   -0.0009444919002908898
-0.005207266967079688   -0.010831843414943856   -0.001245098039637698
-0.0017149269063343258   -0.005597599890003589   -0.0008871986947766482
-0.0037638313121735184   -0.005778896166514676   -0.0008399309114269707
-0.005207266967079688   -0.010831843414943856   -0.001245098039637698
-0.0024559850372419144   -0.010704090666897615   -0.0011815592464923966
-0.0017149269063343258   -0.005597599890003589   -0.0008871986947766482
-0.0024428765404272807   -0.01071375706064641   -0.0011429916378473313
-0.0037638313121735184   -0.005778896166514676   -0.0008399309114269707
-0.0016944807343513696   -0.005596925239135651   -0.0008401632746969743
-0.0024428765404272807   -0.01071375706064641   -0.0011429916378473313
-0.0017149269063343258   -0.005597599890003589   -0.0008871986947766482
-0.0037638313121735184   -0.005778896166514676   -0.0008399309114269707
-0.0024428765404272807   -0.01071375706064641   -0.0011429916378473313
-0.005196820642001806   -0.01086961342029598   -0.001166647159068565
-0.005207266967079688   -0.010831843414943856   -0.001245098039637698
-0.0037638313121735184   -0.005778896166514676   -0.0008399309114269707
-0.0024428765404272807   -0.01071375706064641   -0.0011429916378473313
-0.005207266967079688   -0.010831843414943856   -0.001245098039637698
-0.0017149269063343258   -0.005597599890003589   -0.0008871986947766482
-0.0017443755607275914   -0.005507508760877984   -0.0010009115185982817
-0.002471033383709523   -0.010620687481325384   -0.001277354110577418
0.0001965453551773055   -0.005510146744136313   -0.0008925236544943662
-0.0017287943186547828   -0.005568163806045667   -0.0009412552839208074
-0.002471033383709523   -0.010620687481325384   -0.001277354110577418
0.00016183305538799517   -0.010616862568489172   -0.0011897638843359596
0.0001965453551773055   -0.005510146744136313   -0.0008925236544943662
0.0001738799020945987   -0.010640138874289789   -0.0011776825261546426
-0.0017287943186547828   -0.005568163806045667   -0.0009412552839208074
0.00021560438063459062   -0.005538798378007606   -0.0008884751401533691
0.0001738799020945987   -0.010640138874289789   -0.0011776825261546426
0.0001965453551773055   -0.005510146744136313   -0.0008925236544943662
-0.0017287943186547828   -0.005568163806045667   -0.0009412552839208074
0.0001738799020945987   -0.010640138874289789   -0.0011776825261546426
-0.002464203269714783   -0.010673214561656855   -0.001226341182794982
-0.002471033383709523   -0.010620687481325384   -0.001277354110577418
-0.0017287943186547828   -0.005568163806045667   -0.0009412552839208074
0.0001738799020945987   -0.010640138874289789   -0.0011776825261546426
-0.002471033383709523   -0.010620687481325384   -0.001277354110577418
0.0001965453551773055   -0.005510146744136313   -0.0008925236544943662
-0.0017287943186547828   -0.005568163806045667   -0.0009412552839208074
-0.002464203269714783   -0.010673214561656855   -0.001226341182794982
0.00021560438063459062   -0.005538798378007606   -0.0008884751401533691
-0.0017149269063343258   -0.005597599890003589   -0.0008871986947766482
-0.002464203269714783   -0.010673214561656855   -0.001226341182794982
0.0001738799020945987   -0.010640138874289789   -0.0011776825261546426
0.00021560438063459062   -0.005538798378007606   -0.0008884751401533691
0.00018183181432845162   -0.010641849807103722   -0.001171671607187869
-0.0017149269063343258   -0.005597599890003589   -0.0008871986947766482
0.0002285972062573713   -0.005536961027863923   -0.0008907801080646171
0.00018183181432845162   -0.010641849807103722   -0.001171671607187869
0.00021560438063459062   -0.005538798378007606   -0.0008884751401533691
-0.0017149269063343258   -0.005597599890003589   -0.0008871986947766482
0.00018183181432845162   -0.010641849807103722   -0.001171671607187869
-0.0024559850372419144   -0.010704090666897615   -0.0011815592464923966
-0.002464203269714783   -0.010673214561656855   -0.001226341182794982
-0.0017149269063343258   -0.005597599890003589   -0.0008871986947766482
0.00018183181432845162   -0.010641849807103722   -0.001171671607187869
-0.002464203269714783   -0.010673214561656855   -0.001226341182794982
0.00021560438063459062   -0.005538798378007606   -0.0008884751401533691
-0.0017149269063343258   -0.005597599890003589   -0.0008871986947766482
-0.0024559850372419144   -0.010704090666897615   -0.0011815592464923966
0.0002285972062573713   -0.005536961027863923   -0.0008907801080646171
-0.0016944807343513696   -0.005596925239135651   -0.0008401632746969743
-0.0024559850372419144   -0.010704090666897615   -0.0011815592464923966
0.00018183181432845162   -0.010641849807103722   -0.001171671607187869
0.0002285972062573713   -0.005536961027863923   -0.0008907801080646171
0.00018776869714855397   -0.010621674731462001   -0.0011720975595027783
-0.0016944807343513696   -0.005596925239135651   -0.0008401632746969743
0.00024249693399772826   -0.0055037069085396   -0.000899538350369393
0.00018776869714855397   -0.010621674731462001   -0.0011720975595027783
0.0002285972062573713   -0.005536961027863923   -0.0008907801080646171
-0.0016944807343513696   -0.005596925239135651   -0.0008401632746969743
0.00018776869714855397   -0.010621674731462001   -0.0011720975595027783
-0.0024428765404272807   -0.01071375706064641   -0.0011429916378473313
-0.0024559850372419144   -0.010704090666897615   -0.0011815592464923966
-0.0016944807343513696   -0.005596925239135651   -0.0008401632746969743
0.00018776869714855397   -0.010621674731462001   -0.0011720975595027783
-0.0024559850372419144   -0.010704090666897615   -0.0011815592464923966
0.0002285972062573713   -0.005536961027863923   -0.0008907801080646171
0.0001965453551773055   -0.005510146744136313   -0.0008925236544943662
0.00016183305538799517   -0.010616862568489172   -0.0011897638843359596
0.002253673633074632   -0.005599707464488355   -0.0008421697179669343
0.00021560438063459062   -0.005538798378007606   -0.0008884751401533691
0.00016183305538799517   -0.010616862568489172   -0.0011897638843359596
0.0029072548763137466   -0.010676825104643968   -0.0011546020478529647
0.002253673633074632   -0.005599707464488355   -0.0008421697179669343
0.002917924055709884   -0.010673267402531786   -0.001182255470889508
0.00021560438063459062   -0.005538798378007606   -0.0008884751401533691
0.002264770052558719   -0.0055992588677089275   -0.0008955284868665909
0.002917924055709884   -0.010673267402531786   -0.001182255470889508
0.002253673633074632   -0.005599707464488355   -0.0008421697179669343
0.00021560438063459062   -0.005538798378007606   -0.0008884751401533691
0.002917924055709884   -0.010673267402531786   -0.001182255470889508
0.0001738799020945987   -0.010640138874289789   -0.0011776825261546426
0.00016183305538799517   -0.010616862568489172   -0.0011897638843359596
0.00021560438063459062   -0.005538798378007606   -0.0008884751401533691
0.002917924055709884   -0.010673267402531786   -0.001182255470889508
0.00016183305538799517   -0.010616862568489172   -0.0011897638843359596
0.002253673633074632   -0.005599707464488355   -0.0008421697179669343
0.00021560438063459062   -0.005538798378007606   -0.0008884751401533691
0.0001738799020945987   -0.010640138874289789   -0.0011776825261546426
0.002264770052558719   -0.0055992588677089275   -0.0008955284868665909
0.0002285972062573713   -0.005536961027863923   -0.0008907801080646171
0.0001738799020945987   -0.010640138874289789   -0.0011776825261546426
0.002917924055709884   -0.010673267402531786   -0.001182255470889508
0.002264770052558719   -0.0055992588677089275   -0.0008955284868665909
0.0029112756434760832   -0.010648629291350653   -0.001215533290048187
0.0002285972062573713   -0.005536961027863923   -0.0008907801080646171
0.0022549205424386865   -0.005568930137558152   -0.0009560750681137665
0.0029112756434760832   -0.010648629291350653   -0.001215533290048187
0.002264770052558719   -0.0055992588677089275   -0.0008955284868665909
0.0002285972062573713   -0.005536961027863923   -0.0008907801080646171
0.0029112756434760832   -0.010648629291350653   -0.001215533290048187
0.00018183181432845162   -0.010641849807103722   -0.001171671607187869
0.0001738799020945987   -0.010640138874289789   -0.0011776825261546426
0.0002285972062573713   -0.005536961027863923   -0.0008907801080646171
0.0029112756434760832   -0.010648629291350653   -0.001215533290048187
0.0001738799020945987   -0.010640138874289789   -0.0011776825261546426
0.002264770052558719   -0.0055992588677089275   -0.0008955284868665909
0.0002285972062573713   -0.005536961027863923   -0.0008907801080646171
0.00018183181432845162   -0.010641849807103722   -0.001171671607187869
0.0022549205424386865   -0.005568930137558152   -0.0009560750681137665
0.00024249693399772826   -0.0055037069085396   -0.000899538350369393
0.00018183181432845162   -0.010641849807103722   -0.001171671607187869
0.0029112756434760832   -0.010648629291350653   -0.001215533290048187
0.0022549205424386865   -0.005568930137558152   -0.0009560750681137665
0.0029009006588707146   -0.01059766591597358   -0.0012551038655390547
0.00024249693399772826   -0.0055037069085396   -0.000899538350369393
0.002249499578847766   -0.005500452837636995   -0.0010215672295285224
0.0029009006588707146   -0.01059766591597358   -0.0012551038655390547
0.0022549205424386865   -0.005568930137558152   -0.0009560750681137665
0.00024249693399772826   -0.0055037069085396   -0.000899538350369393
0.0029009006588707146   -0.01059766591597358   -0.0012551038655390547
0.00018776869714855397   -0.010621674731462001   -0.0011720975595027783
0.00018183181432845162   -0.010641849807103722   -0.001171671607187869
0.00024249693399772826   -0.0055037069085396   -0.000899538350369393
0.0029009006588707146   -0.01059766591597358   -0.0012551038655390547
0.00018183181432845162   -0.010641849807103722   -0.001171671607187869
0.0022549205424386865   -0.005568930137558152   -0.0009560750681137665
0.002253673633074632   -0.005599707464488355   -0.0008421697179669343
0.0029072548763137466   -0.010676825104643968   -0.0011546020478529647
0.004736840485961896   -0.00576606954441809   -0.0008290487772048607
0.002264770052558719   -0.0055992588677089275   -0.0008955284868665909
0.0029072548763137466   -0.010676825104643968   -0.0011546020478529647
0.006034264230131773   -0.010785436405810115   -0.0011558567922762986
0.004736840485961896   -0.00576606954441809   -0.0008290487772048607
0.005982872501088674   -0.010766380568941903   -0.0012282858295685328
0.002264770052558719   -0.0055992588677089275   -0.0008955284868665909
0.004641389609859075   -0.0057500821091105705   -0.0009491759015588102
0.005982872501088674   -0.010766380568941903   -0.0012282858295685328
0.004736840485961896   -0.00576606954441809   -0.0008290487772048607
0.002264770052558719   -0.0055992588677089275   -0.0008955284868665909
0.005982872501088674   -0.010766380568941903   -0.0012282858295685328
0.002917924055709884   -0.010673267402531786   -0.001182255470889508
0.0029072548763137466   -0.010676825104643968   -0.0011546020478529647
0.002264770052558719   -0.0055992588677089275   -0.0008955284868665909
0.005982872501088674   -0.010766380568941903   -0.0012282858295685328
0.0029072548763137466   -0.010676825104643968   -0.0011546020478529647
0.004736840485961896   -0.00576606954441809   -0.0008290487772048607
0.002264770052558719   -0.0055992588677089275   -0.0008955284868665909
0.002917924055709884   -0.010673267402531786   -0.001182255470889508
0.004641389609859075   -0.0057500821091105705   -0.0009491759015588102
0.0022549205424386865   -0.005568930137558152   -0.0009560750681137665
0.002917924055709884   -0.010673267402531786   -0.001182255470889508
0.005982872501088674   -0.010766380568941903   -0.0012282858295685328
0.004641389609859075   -0.0057500821091105705   -0.0009491759015588102
0.00593141789144374   -0.01072849080182761   -0.001310857640673684
0.0022549205424386865   -0.005568930137558152   -0.0009560750681137665
0.004556008453717039   -0.00570336006571526   -0.0010844192746971403
0.00593141789144374   -0.01072849080182761   -0.001310857640673684
0.004641389609859075   -0.0057500821091105705   -0.0009491759015588102
0.0022549205424386865   -0.005568930137558152   -0.0009560750681137665
0.00593141789144374   -0.01072849080182761   -0.001310857640673684
0.0029112756434760832   -0.010648629291350653   -0.001215533290048187
0.002917924055709884   -0.010673267402531786   -0.001182255470889508
0.0022549205424386865   -0.005568930137558152   -0.0009560750681137665
0.00593141789144374   -0.01072849080182761   -0.001310857640673684
0.002917924055709884   -0.010673267402531786   -0.001182255470889508
0.004641389609859075   -0.0057500821091105705   -0.0009491759015588102
0.0022549205424386865   -0.005568930137558152   -0.0009560750681137665
0.0029112756434760832   -0.010648629291350653   -0.001215533290048187
0.004556008453717039   -0.00570336006571526   -0.0010844192746971403
0.002249499578847766   -0.005500452837636995   -0.0010215672295285224
0.0029112756434760832   -0.010648629291350653   -0.001215533290048187
0.00593141789144374   -0.01072849080182761   -0.001310857640673684
0.004556008453717039   -0.00570336006571526   -0.0010844192746971403
0.005839292837629269   -0.010649252423591058   -0.001403583283059629
0.002249499578847766   -0.005500452837636995   -0.0010215672295285224
0.004427677113697494   -0.005599614103305058   -0.0012252652765136335
0.005839292837629269   -0.010649252423591058   -0.001403583283059629
0.004556008453717039   -0.00570336006571526   -0.0010844192746971403
0.002249499578847766   -0.005500452837636995   -0.0010215672295285224
0.005839292837629269   -0.010649252423591058   -0.001403583283059629
0.0029009006588707146   -0.01059766591597358   -0.0012551038655390547
0.0029112756434760832   -0.010648629291350653   -0.001215533290048187
0.002249499578847766   -0.005500452837636995   -0.0010215672295285224
0.005839292837629269   -0.010649252423591058   -0.001403583283059629
0.0029112756434760832   -0.010648629291350653   -0.001215533290048187
0.004556008453717039   -0.00570336006571526   -0.0010844192746971403
-0.00806204076247154   -0.010835925596964472   -0.0016225562648345838
-0.00962250110747552   -0.01682160328643631   -0.001731173909641488
-0.0051838480052778385   -0.010692337344314656   -0.0014188501511592237
-0.008204510748118727   -0.010948340093737114   -0.0014819675210001877
-0.00962250110747552   -0.01682160328643631   -0.001731173909641488
-0.00624726653295975   -0.016730393979362115   -0.0015653455015113506
-0.0051838480052778385   -0.010692337344314656   -0.0014188501511592237
-0.006254096119215095   -0.016801023172454733   -0.0015008937230650897
-0.008204510748118727   -0.010948340093737114   -0.0014819675210001877
-0.005194566321483888   -0.010774564544356512   -0.0013287001706391486
-0.006254096119215095   -0.016801023172454733   -0.0015008937230650897
-0.0051838480052778385   -0.010692337344314656   -0.0014188501511592237
-0.008204510748118727   -0.010948340093737114   -0.0014819675210001877
-0.006254096119215095   -0.016801023172454733   -0.0015008937230650897
-0.009718081823411853   -0.016917189488477924   -0.0016380006514461788
-0.00962250110747552   -0.01682160328643631   -0.001731173909641488
-0.008204510748118727   -0.010948340093737114   -0.0014819675210001877
-0.006254096119215095   -0.016801023172454733   -0.0015008937230650897
-0.00962250110747552   -0.01682160328643631   -0.001731173909641488
-0.0051838480052778385   -0.010692337344314656   -0.0014188501511592237
-0.008204510748118727   -0.010948340093737114   -0.0014819675210001877
-0.009718081823411853   -0.016917189488477924   -0.0016380006514461788
-0.005194566321483888   -0.010774564544356512   -0.0013287001706391486
-0.008294028420957545   -0.011018895123080767   -0.00135097469096226
-0.009718081823411853   -0.016917189488477924   -0.0016380006514461788
-0.006254096119215095   -0.016801023172454733   -0.0015008937230650897
-0.005194566321483888   -0.010774564544356512   -0.0013287001706391486
-0.00625874949266773   -0.016857077415052997   -0.0014428766690751662
-0.008294028420957545   -0.011018895123080767   -0.00135097469096226
-0.005207266967079688   -0.010831843414943856   -0.001245098039637698
-0.00625874949266773   -0.016857077415052997   -0.0014428766690751662
-0.005194566321483888   -0.010774564544356512   -0.0013287001706391486
-0.008294028420957545   -0.011018895123080767   -0.00135097469096226
-0.00625874949266773   -0.016857077415052997   -0.0014428766690751662
-0.009772586860099151   -0.016984891063904314   -0.0015537974463375164
-0.009718081823411853   -0.016917189488477924   -0.0016380006514461788
-0.008294028420957545   -0.011018895123080767   -0.00135097469096226
-0.00625874949266773   -0.016857077415052997   -0.0014428766690751662
-0.009718081823411853   -0.016917189488477924   -0.0016380006514461788
-0.005194566321483888   -0.010774564544356512   -0.0013287001706391486
-0.008294028420957545   -0.011018895123080767   -0.00135097469096226
-0.009772586860099151   -0.016984891063904314   -0.0015537974463375164
-0.005207266967079688   -0.010831843414943856   -0.001245098039637698
-0.008395880873269897   -0.011069776070188097   -0.001230475748000911
-0.009772586860099151   -0.016984891063904314   -0.0015537974463375164
-0.00625874949266773   -0.016857077415052997   -0.0014428766690751662
-0.005207266967079688   -0.010831843414943856   -0.001245098039637698
-0.006245106865782289   -0.016903211835687323   -0.0013904346197312362
-0.008395880873269897   -0.011069776070188097   -0.001230475748000911
-0.005196820642001806   -0.01086961342029598   -0.001166647159068565
-0.006245106865782289   -0.016903211835687323   -0.0013904346197312362
-0.005207266967079688   -0.010831843414943856   -0.001245098039637698
-0.008395880873269897   -0.011069776070188097   -0.001230475748000911
-0.006245106865782289   -0.016903211835687323   -0.0013904346197312362
-0.00982867276623031   -0.017045701340258027   -0.001479634524546574
-0.009772586860099151   -0.016984891063904314   -0.0015537974463375164
-0.008395880873269897   -0.011069776070188097   -0.001230475748000911
-0.006245106865782289   -0.016903211835687323   -0.0013904346197312362
-0.009772586860099151   -0.016984891063904314   -0.0015537974463375164
-0.005207266967079688   -0.010831843414943856   -0.001245098039637698
-0.0051838480052778385   -0.010692337344314656   -0.0014188501511592237
-0.00624726653295975   -0.016730393979362115   -0.0015653455015113506
-0.002471033383709523   -0.010620687481325384   -0.001277354110577418
-0.005194566321483888   -0.010774564544356512   -0.0013287001706391486
-0.00624726653295975   -0.016730393979362115   -0.0015653455015113506
-0.003083647542249866   -0.016683148854227916   -0.0014505408763855268
-0.002471033383709523   -0.010620687481325384   -0.001277354110577418
-0.0030771237591551864   -0.01672741702667191   -0.0014079085060486483
-0.005194566321483888   -0.010774564544356512   -0.0013287001706391486
-0.002464203269714783   -0.010673214561656855   -0.001226341182794982
-0.0030771237591551864   -0.01672741702667191   -0.0014079085060486483
-0.002471033383709523   -0.010620687481325384   -0.001277354110577418
-0.005194566321483888   -0.010774564544356512   -0.0013287001706391486
-0.0030771237591551864   -0.01672741702667191   -0.0014079085060486483
-0.006254096119215095   -0.016801023172454733   -0.0015008937230650897
-0.00624726653295975   -0.016730393979362115   -0.0015653455015113506
-0.005194566321483888   -0.010774564544356512   -0.0013287001706391486
-0.0030771237591551864   -0.01672741702667191   -0.0014079085060486483
-0.00624726653295975   -0.016730393979362115   -0.0015653455015113506
-0.002471033383709523   -0.010620687481325384   -0.001277354110577418
-0.005194566321483888   -0.010774564544356512   -0.0013287001706391486
-0.006254096119215095   -0.016801023172454733   -0.0015008937230650897
-0.002464203269714783   -0.010673214561656855   -0.001226341182794982
-0.005207266967079688   -0.010831843414943856   -0.001245098039637698
-0.006254096119215095   -0.016801023172454733   -0.0015008937230650897
-0.0030771237591551864   -0.01672741702667191   -0.0014079085060486483
-0.002464203269714783   -0.010673214561656855   -0.001226341182794982
-0.003068464709303008   -0.016759465303506676   -0.0013716106539562035
-0.005207266967079688   -0.010831843414943856   -0.001245098039637698
-0.0024559850372419144   -0.010704090666897615   -0.0011815592464923966
-0.003068464709303008   -0.016759465303506676   -0.0013716106539562035
-0.002464203269714783   -0.010673214561656855   -0.001226341182794982
-0.005207266967079688   -0.010831843414943856   -0.001245098039637698
-0.003068464709303008   -0.016759465303506676   -0.0013716106539562035
-0.00625874949266773   -0.016857077415052997   -0.0014428766690751662
-0.006254096119215095   -0.016801023172454733   -0.0015008937230650897
-0.005207266967079688   -0.010831843414943856   -0.001245098039637698
-0.003068464709303008   -0.016759465303506676   -0.0013716106539562035
-0.006254096119215095   -0.016801023172454733   -0.0015008937230650897
-0.002464203269714783   -0.010673214561656855   -0.001226341182794982
-0.005207266967079688   -0.010831843414943856   -0.001245098039637698
-0.00625874949266773   -0.016857077415052997   -0.0014428766690751662
-0.0024559850372419144   -0.010704090666897615   -0.0011815592464923966
-0.005196820642001806   -0.01086961342029598   -0.001166647159068565
-0.00625874949266773   -0.016857077415052997   -0.0014428766690751662
-0.003068464709303008   -0.016759465303506676   -0.0013716106539562035
-0.0024559850372419144   -0.010704090666897615   -0.0011815592464923966
-0.0030558644977530074   -0.016779504495844113   -0.0013417548213930284
-0.005196820642001806   -0.01086961342029598   -0.001166647159068565
-0.0024428765404272807   -0.01071375706064641   -0.0011429916378473313
-0.0030558644977530074   -0.016779504495844113   -0.0013417548213930284
-0.0024559850372419144   -0.010704090666897615   -0.0011815592464923966
-0.005196820642001806   -0.01086961342029598   -0.001166647159068565
-0.0030558644977530074   -0.016779504495844113   -0.0013417548213930284
-0.006245106865782289   -0.016903211835687323   -0.0013904346197312362
-0.00625874949266773   -0.016857077415052997   -0.0014428766690751662
-0.005196820642001806   -0.01086961342029598   -0.001166647159068565
-0.0030558644977530074   -0.016779504495844113   -0.0013417548213930284
-0.00625874949266773   -0.016857077415052997   -0.0014428766690751662
-0.0024559850372419144   -0.010704090666897615   -0.0011815592464923966
-0.002471033383709523   -0.010620687481325384   -0.001277354110577418
-0.003083647542249866   -0.016683148854227916   -0.0014505408763855268
0.00016183305538799517   -0.010616862568489172   -0.0011897638843359596
-0.002464203269714783   -0.010673214561656855   -0.001226341182794982
-0.003083647542249866   -0.016683148854227916   -0.0014505408763855268
-6.103256244124263e-06   -0.016674959045301356   -0.0013838267232746783
0.00016183305538799517   -0.010616862568489172   -0.0011897638843359596
5.609990540554592e-06   -0.016692703081131858   -0.0013631915944204058
-0.002464203269714783   -0.010673214561656855   -0.001226341182794982
0.0001738799020945987   -0.010640138874289789   -0.0011776825261546426
5.609990540554592e-06   -0.016692703081131858   -0.0013631915944204058
0.00016183305538799517   -0.010616862568489172   -0.0011897638843359596
-0.002464203269714783   -0.010673214561656855   -0.001226341182794982
5.609990540554592e-06   -0.016692703081131858   -0.0013631915944204058
-0.0030771237591551864   -0.01672741702667191   -0.0014079085060486483
-0.003083647542249866   -0.016683148854227916   -0.0014505408763855268
-0.002464203269714783   -0.010673214561656855   -0.001226341182794982
5.609990540554592e-06   -0.016692703081131858   -0.0013631915944204058
-0.003083647542249866   -0.016683148854227916   -0.0014505408763855268
0.00016183305538799517   -0.010616862568489172   -0.0011897638843359596
-0.002464203269714783   -0.010673214561656855   -0.001226341182794982
-0.0030771237591551864   -0.01672741702667191   -0.0014079085060486483
0.0001738799020945987   -0.010640138874289789   -0.0011776825261546426
-0.0024559850372419144   -0.010704090666897615   -0.0011815592464923966
-0.0030771237591551864   -0.01672741702667191   -0.0014079085060486483
5.609990540554592e-06   -0.016692703081131858   -0.0013631915944204058
0.0001738799020945987   -0.010640138874289789   -0.0011776825261546426
1.4138309430031911e-05   -0.01669814211122244   -0.0013488131240538203
-0.0024559850372419144   -0.010704090666897615   -0.0011815592464923966
0.00018183181432845162   -0.010641849807103722   -0.001171671607187869
1.4138309430031911e-05   -0.01669814211122244   -0.0013488131240538203
0.0001738799020945987   -0.010640138874289789   -0.0011776825261546426
-0.0024559850372419144   -0.010704090666897615   -0.0011815592464923966
1.4138309430031911e-05   -0.01669814211122244   -0.0013488131240538203
-0.003068464709303008   -0.016759465303506676   -0.0013716106539562035
-0.0030771237591551864   -0.01672741702667191   -0.0014079085060486483
-0.0024559850372419144   -0.010704090666897615   -0.0011815592464923966
1.4138309430031911e-05   -0.01669814211122244   -0.0013488131240538203
-0.0030771237591551864   -0.01672741702667191   -0.0014079085060486483
0.0001738799020945987   -0.010640138874289789   -0.0011776825261546426
-0.0024559850372419144   -0.010704090666897615   -0.0011815592464923966
-0.003068464709303008   -0.016759465303506676   -0.0013716106539562035
0.00018183181432845162   -0.010641849807103722   -0.001171671607187869
-0.0024428765404272807   -0.01071375706064641   -0.0011429916378473313
-0.003068464709303008   -0.016759465303506676   -0.0013716106539562035
1.4138309430031911e-05   -0.01669814211122244   -0.0013488131240538203
0.00018183181432845162   -0.010641849807103722   -0.001171671607187869
1.9807051825181616e-05   -0.016691106832016425   -0.001340966134854025
-0.0024428765404272807   -0.01071375706064641   -0.0011429916378473313
0.00018776869714855397   -0.010621674731462001   -0.0011720975595027783
1.9807051825181616e-05   -0.016691106832016425   -0.001340966134854025
0.00018183181432845162   -0.010641849807103722   -0.001171671607187869
-0.0024428765404272807   -0.01071375706064641   -0.0011429916378473313
1.9807051825181616e-05   -0.016691106832016425   -0.001340966134854025
-0.0030558644977530074   -0.016779504495844113   -0.0013417548213930284
-0.003068464709303008   -0.016759465303506676   -0.0013716106539562035
-0.0024428765404272807   -0.01071375706064641   -0.0011429916378473313
1.9807051825181616e-05   -0.016691106832016425   -0.001340966134854025
-0.003068464709303008   -0.016759465303506676   -0.0013716106539562035
0.00018183181432845162   -0.010641849807103722   -0.001171671607187869
0.00016183305538799517   -0.010616862568489172   -0.0011897638843359596
-6.103256244124263e-06   -0.016674959045301356   -0.0013838267232746783
0.0029072548763137466   -0.010676825104643968   -0.0011546020478529647
0.0001738799020945987   -0.010640138874289789   -0.0011776825261546426
-6.103256244124263e-06   -0.016674959045301356   -0.0013838267232746783
0.003177310803133779   -0.016702471407586204   -0.0013649591648398662
0.0029072548763137466   -0.010676825104643968   -0.0011546020478529647
0.0031915484764266067   -0.016695212100695068   -0.0013667795596685305
0.0001738799020945987   -0.010640138874289789   -0.0011776825261546426
0.002917924055709884   -0.010673267402531786   -0.001182255470889508
0.0031915484764266067   -0.016695212100695068   -0.0013667795596685305
0.0029072548763137466   -0.010676825104643968   -0.0011546020478529647
0.0001738799020945987   -0.010640138874289789   -0.0011776825261546426
0.0031915484764266067   -0.016695212100695068   -0.0013667795596685305
5.609990540554592e-06   -0.016692703081131858   -0.0013631915944204058
-6.103256244124263e-06   -0.016674959045301356   -0.0013838267232746783
0.0001738799020945987   -0.010640138874289789   -0.0011776825261546426
0.0031915484764266067   -0.016695212100695068   -0.0013667795596685305
-6.103256244124263e-06   -0.016674959045301356   -0.0013838267232746783
0.0029072548763137466   -0.010676825104643968   -0.0011546020478529647
0.0001738799020945987   -0.010640138874289789   -0.0011776825261546426
5.609990540554592e-06   -0.016692703081131858   -0.0013631915944204058
0.002917924055709884   -0.010673267402531786   -0.001182255470889508
0.00018183181432845162   -0.010641849807103722   -0.001171671607187869
5.609990540554592e-06   -0.016692703081131858   -0.0013631915944204058
0.0031915484764266067   -0.016695212100695068   -0.0013667795596685305
0.002917924055709884   -0.010673267402531786   -0.001182255470889508
0.0031933645223111927   -0.016676615780170215   -0.0013745179909626494
0.00018183181432845162   -0.010641849807103722   -0.001171671607187869
0.0029112756434760832   -0.010648629291350653   -0.001215533290048187
0.0031933645223111927   -0.016676615780170215   -0.0013745179909626494
0.002917924055709884   -0.010673267402531786   -0.001182255470889508
0.00018183181432845162   -0.010641849807103722   -0.001171671607187869
0.0031933645223111927   -0.016676615780170215   -0.0013745179909626494
1.4138309430031911e-05   -0.01669814211122244   -0.0013488131240538203
5.609990540554592e-06   -0.016692703081131858   -0.0013631915944204058
0.00018183181432845162   -0.010641849807103722   -0.001171671607187869
0.0031933645223111927   -0.016676615780170215   -0.0013745179909626494
5.609990540554592e-06   -0.016692703081131858   -0.0013631915944204058
0.002917924055709884   -0.010673267402531786   -0.001182255470889508
0.00018183181432845162   -0.010641849807103722   -0.001171671607187869
1.4138309430031911e-05   -0.01669814211122244   -0.0013488131240538203
0.0029112756434760832   -0.010648629291350653   -0.001215533290048187
0.00018776869714855397   -0.010621674731462001   -0.0011720975595027783
1.4138309430031911e-05   -0.01669814211122244   -0.0013488131240538203
0.0031933645223111927   -0.016676615780170215   -0.0013745179909626494
0.0029112756434760832   -0.010648629291350653   -0.001215533290048187
0.003187145959545128   -0.01664205359437769   -0.0013884022313273268
0.00018776869714855397   -0.010621674731462001   -0.0011720975595027783
0.0029009006588707146   -0.01059766591597358   -0.0012551038655390547
0.003187145959545128   -0.01664205359437769   -0.0013884022313273268
0.0029112756434760832   -0.010648629291350653   -0.001215533290048187
0.00018776869714855397   -0.010621674731462001   -0.0011720975595027783
0.003187145959545128   -0.01664205359437769   -0.0013884022313273268
1.9807051825181616e-05   -0.016691106832016425   -0.001340966134854025
1.4138309430031911e-05   -0.01669814211122244   -0.0013488131240538203
0.00018776869714855397   -0.010621674731462001   -0.0011720975595027783
0.003187145959545128   -0.01664205359437769   -0.0013884022313273268
1.4138309430031911e-05   -0.01669814211122244   -0.0013488131240538203
0.0029112756434760832   -0.010648629291350653   -0.001215533290048187
0.0029072548763137466   -0.010676825104643968   -0.0011546020478529647
0.003177310803133779   -0.016702471407586204   -0.0013649591648398662
0.006034264230131773   -0.010785436405810115   -0.0011558567922762986
0.002917924055709884   -0.010673267402531786   -0.001182255470889508
0.003177310803133779   -0.016702471407586204   -0.0013649591648398662
0.006692512307537945   -0.016752911342182687   -0.0013836128857681973
0.006034264230131773   -0.010785436405810115   -0.0011558567922762986
0.006687515947573423   -0.01672869054256242   -0.0014095837910083238
0.002917924055709884   -0.010673267402531786   -0.001182255470889508
0.005982872501088674   -0.010766380568941903   -0.0012282858295685328
0.006687515947573423   -0.01672869054256242   -0.0014095837910083238
0.006034264230131773   -0.010785436405810115   -0.0011558567922762986
0.002917924055709884   -0.010673267402531786   -0.001182255470889508
0.006687515947573423   -0.01672869054256242   -0.0014095837910083238
0.0031915484764266067   -0.016695212100695068   -0.0013667795596685305
0.003177310803133779   -0.016702471407586204   -0.0013649591648398662
0.002917924055709884   -0.010673267402531786   -0.001182255470889508
0.006687515947573423   -0.01672869054256242   -0.0014095837910083238
0.003177310803133779   -0.016702471407586204   -0.0013649591648398662
0.006034264230131773   -0.010785436405810115   -0.0011558567922762986
0.002917924055709884   -0.010673267402531786   -0.001182255470889508
0.0031915484764266067   -0.016695212100695068   -0.0013667795596685305
0.005982872501088674   -0.010766380568941903   -0.0012282858295685328
0.0029112756434760832   -0.010648629291350653   -0.001215533290048187
0.0031915484764266067   -0.016695212100695068   -0.0013667795596685305
0.006687515947573423   -0.01672869054256242   -0.0014095837910083238
0.005982872501088674   -0.010766380568941903   -0.0012282858295685328
0.006671808248751347   -0.016698407886924196   -0.0014451612150034778
0.0029112756434760832   -0.010648629291350653   -0.001215533290048187
0.00593141789144374   -0.01072849080182761   -0.001310857640673684
0.006671808248751347   -0.016698407886924196   -0.0014451612150034778
0.005982872501088674   -0.010766380568941903   -0.0012282858295685328
0.0029112756434760832   -0.010648629291350653   -0.001215533290048187
0.006671808248751347   -0.016698407886924196   -0.0014451612150034778
0.0031933645223111927   -0.016676615780170215   -0.0013745179909626494
0.0031915484764266067   -0.016695212100695068   -0.0013667795596685305
0.0029112756434760832   -0.010648629291350653   -0.001215533290048187
0.006671808248751347   -0.016698407886924196   -0.0014451612150034778
0.0031915484764266067   -0.016695212100695068   -0.0013667795596685305
0.005982872501088674   -0.010766380568941903   -0.0012282858295685328
0.0029112756434760832   -0.010648629291350653   -0.001215533290048187
0.0031933645223111927   -0.016676615780170215   -0.0013745179909626494
0.00593141789144374   -0.01072849080182761   -0.001310857640673684
0.0029009006588707146   -0.01059766591597358   -0.0012551038655390547
0.0031933645223111927   -0.016676615780170215   -0.0013745179909626494
0.006671808248751347   -0.016698407886924196   -0.0014451612150034778
0.00593141789144374   -0.01072849080182761   -0.001310857640673684
0.006627239447022063   -0.01664091633407429   -0.001490275395365424
0.0029009006588707146   -0.01059766591597358   -0.0012551038655390547
0.005839292837629269   -0.010649252423591058   -0.001403583283059629
0.006627239447022063   -0.01664091633407429   -0.001490275395365424
0.00593141789144374   -0.01072849080182761   -0.001310857640673684
0.0029009006588707146   -0.01059766591597358   -0.0012551038655390547
0.006627239447022063   -0.01664091633407429   -0.001490275395365424
0.003187145959545128   -0.01664205359437769   -0.0013884022313273268
0.0031933645223111927   -0.016676615780170215   -0.0013745179909626494
0.0029009006588707146   -0.01059766591597358   -0.0012551038655390547
0.006627239447022063   -0.01664091633407429   -0.001490275395365424
0.0031933645223111927   -0.016676615780170215   -0.0013745179909626494
0.00593141789144374   -0.01072849080182761   -0.001310857640673684
-0.00962250110747552   -0.01682160328643631   -0.001731173909641488
-0.01056500254339398   -0.02333166941034112   -0.001763713166124268
-0.00624726653295975   -0.016730393979362115   -0.0015653455015113506
-0.009718081823411853   -0.016917189488477924   -0.0016380006514461788
-0.01056500254339398   -0.02333166941034112   -0.001763713166124268
-0.006944457590400667   -0.023294634819936256   -0.0016318544390896055
-0.00624726653295975   -0.016730393979362115   -0.0015653455015113506
-0.006941103279747366   -0.023354784253341247   -0.0015923758141422387
-0.009718081823411853   -0.016917189488477924   -0.0016380006514461788
-0.006254096119215095   -0.016801023172454733   -0.0015008937230650897
-0.006941103279747366   -0.023354784253341247   -0.0015923758141422387
-0.00624726653295975   -0.016730393979362115   -0.0015653455015113506
-0.009718081823411853   -0.016917189488477924   -0.0016380006514461788
-0.006941103279747366   -0.023354784253341247   -0.0015923758141422387
-0.010609214039841375   -0.023412558444656492   -0.0017158317320279065
-0.01056500254339398   -0.02333166941034112   -0.001763713166124268
-0.009718081823411853   -0.016917189488477924   -0.0016380006514461788
-0.006941103279747366   -0.023354784253341247   -0.0015923758141422387
-0.01056500254339398   -0.02333166941034112   -0.001763713166124268
-0.00624726653295975   -0.016730393979362115   -0.0015653455015113506
-0.009718081823411853   -0.016917189488477924   -0.0016380006514461788
-0.010609214039841375   -0.023412558444656492   -0.0017158317320279065
-0.006254096119215095   -0.016801023172454733   -0.0015008937230650897
-0.009772586860099151   -0.016984891063904314   -0.0015537974463375164
-0.010609214039841375   -0.023412558444656492   -0.0017158317320279065
-0.006941103279747366   -0.023354784253341247   -0.0015923758141422387
-0.006254096119215095   -0.016801023172454733   -0.0015008937230650897
-0.006931200222729133   -0.023410344288748622   -0.001559454723513019
-0.009772586860099151   -0.016984891063904314   -0.0015537974463375164
-0.00625874949266773   -0.016857077415052997   -0.0014428766690751662
-0.006931200222729133   -0.023410344288748622   -0.001559454723513019
-0.006254096119215095   -0.016801023172454733   -0.0015008937230650897
-0.009772586860099151   -0.016984891063904314   -0.0015537974463375164
-0.006931200222729133   -0.023410344288748622   -0.001559454723513019
-0.010622806842326521   -0.02347862111276723   -0.0016773865626887828
-0.010609214039841375   -0.023412558444656492   -0.0017158317320279065
-0.009772586860099151   -0.016984891063904314   -0.0015537974463375164
-0.006931200222729133   -0.023410344288748622   -0.001559454723513019
-0.010609214039841375   -0.023412558444656492   -0.0017158317320279065
-0.006254096119215095   -0.016801023172454733   -0.0015008937230650897
-0.009772586860099151   -0.016984891063904314   -0.0015537974463375164
-0.010622806842326521   -0.02347862111276723   -0.0016773865626887828
-0.00625874949266773   -0.016857077415052997   -0.0014428766690751662
-0.00982867276623031   -0.017045701340258027   -0.001479634524546574
-0.010622806842326521   -0.02347862111276723   -0.0016773865626887828
-0.006931200222729133   -0.023410344288748622   -0.001559454723513019
-0.00625874949266773   -0.016857077415052997   -0.0014428766690751662
-0.006907697239410379   -0.023465556826520264   -0.0015326254994405637
-0.00982867276623031   -0.017045701340258027   -0.001479634524546574
-0.006245106865782289   -0.016903211835687323   -0.0013904346197312362
-0.006907697239410379   -0.023465556826520264   -0.0015326254994405637
-0.00625874949266773   -0.016857077415052997   -0.0014428766690751662
-0.00982867276623031   -0.017045701340258027   -0.001479634524546574
-0.006907697239410379   -0.023465556826520264   -0.0015326254994405637
-0.010626812300858672   -0.023550482074436396   -0.0016491950608492965
-0.010622806842326521   -0.02347862111276723   -0.0016773865626887828
-0.00982867276623031   -0.017045701340258027   -0.001479634524546574
-0.006907697239410379   -0.023465556826520264   -0.0015326254994405637
-0.010622806842326521   -0.02347862111276723   -0.0016773865626887828
-0.00625874949266773   -0.016857077415052997   -0.0014428766690751662
-0.00624726653295975   -0.016730393979362115   -0.0015653455015113506
-0.006944457590400667   -0.023294634819936256   -0.0016318544390896055
-0.003083647542249866   -0.016683148854227916   -0.0014505408763855268
-0.006254096119215095   -0.016801023172454733   -0.0015008937230650897
-0.006944457590400667   -0.023294634819936256   -0.0016318544390896055
-0.003581364457837579   -0.02327324344153162   -0.0015421069729186377
-0.003083647542249866   -0.016683148854227916   -0.0014505408763855268
-0.0035682212504272127   -0.023309598614893016   -0.0015075895899509867
-0.006254096119215095   -0.016801023172454733   -0.0015008937230650897
-0.0030771237591551864   -0.01672741702667191   -0.0014079085060486483
-0.0035682212504272127   -0.023309598614893016   -0.0015075895899509867
-0.003083647542249866   -0.016683148854227916   -0.0014505408763855268
-0.006254096119215095   -0.016801023172454733   -0.0015008937230650897
-0.0035682212504272127   -0.023309598614893016   -0.0015075895899509867
-0.006941103279747366   -0.023354784253341247   -0.0015923758141422387
-0.006944457590400667   -0.023294634819936256   -0.0016318544390896055
-0.006254096119215095   -0.016801023172454733   -0.0015008937230650897
-0.0035682212504272127   -0.023309598614893016   -0.0015075895899509867
-0.006944457590400667   -0.023294634819936256   -0.0016318544390896055
-0.003083647542249866   -0.016683148854227916   -0.0014505408763855268
-0.006254096119215095   -0.016801023172454733   -0.0015008937230650897
-0.006941103279747366   -0.023354784253341247   -0.0015923758141422387
-0.0030771237591551864   -0.01672741702667191   -0.0014079085060486483
-0.00625874949266773   -0.016857077415052997   -0.0014428766690751662
-0.006941103279747366   -0.023354784253341247   -0.0015923758141422387
-0.0035682212504272127   -0.023309598614893016   -0.0015075895899509867
-0.0030771237591551864   -0.01672741702667191   -0.0014079085060486483
-0.003552245003571256   -0.023343013618366357   -0.0014796318845602785
-0.00625874949266773   -0.016857077415052997   -0.0014428766690751662
-0.003068464709303008   -0.016759465303506676   -0.0013716106539562035
-0.003552245003571256   -0.023343013618366357   -0.0014796318845602785
-0.0030771237591551864   -0.01672741702667191   -0.0014079085060486483
-0.00625874949266773   -0.016857077415052997   -0.0014428766690751662
-0.003552245003571256   -0.023343013618366357   -0.0014796318845602785
-0.006931200222729133   -0.023410344288748622   -0.001559454723513019
-0.006941103279747366   -0.023354784253341247   -0.0015923758141422387
-0.00625874949266773   -0.016857077415052997   -0.0014428766690751662
-0.003552245003571256   -0.023343013618366357   -0.0014796318845602785
-0.006941103279747366   -0.023354784253341247   -0.0015923758141422387
-0.0030771237591551864   -0.01672741702667191   -0.0014079085060486483
-0.00625874949266773   -0.016857077415052997   -0.0014428766690751662
-0.006931200222729133   -0.023410344288748622   -0.001559454723513019
-0.003068464709303008   -0.016759465303506676   -0.0013716106539562035
-0.006245106865782289   -0.016903211835687323   -0.0013904346197312362
-0.006931200222729133   -0.023410344288748622   -0.001559454723513019
-0.003552245003571256   -0.023343013618366357   -0.0014796318845602785
-0.003068464709303008   -0.016759465303506676   -0.0013716106539562035
-0.0035331564282181224   -0.023373599537095884   -0.0014583946656163695
-0.006245106865782289   -0.016903211835687323   -0.0013904346197312362
-0.0030558644977530074   -0.016779504495844113   -0.0013417548213930284
-0.0035331564282181224   -0.023373599537095884   -0.0014583946656163695
-0.003068464709303008   -0.016759465303506676   -0.0013716106539562035
-0.006245106865782289   -0.016903211835687323   -0.0013904346197312362
-0.0035331564282181224   -0.023373599537095884   -0.0014583946656163695
-0.006907697239410379   -0.023465556826520264   -0.0015326254994405637
-0.006931200222729133   -0.023410344288748622   -0.001559454723513019
-0.006245106865782289   -0.016903211835687323   -0.0013904346197312362
-0.0035331564282181224   -0.023373599537095884   -0.0014583946656163695
-0.006931200222729133   -0.023410344288748622   -0.001559454723513019
-0.003068464709303008   -0.016759465303506676   -0.0013716106539562035
-0.003083647542249866   -0.016683148854227916   -0.0014505408763855268
-0.003581364457837579   -0.02327324344153162   -0.0015421069729186377
-6.103256244124263e-06   -0.016674959045301356   -0.0013838267232746783
-0.0030771237591551864   -0.01672741702667191   -0.0014079085060486483
-0.003581364457837579   -0.02327324344153162   -0.0015421069729186377
-0.0003093091349881368   -0.023260897944392376   -0.001495849364943316
-6.103256244124263e-06   -0.016674959045301356   -0.0013838267232746783
-0.00029115643141411297   -0.023272995660348725   -0.001466645486040447
-0.0030771237591551864   -0.01672741702667191   -0.0014079085060486483
5.609990540554592e-06   -0.016692703081131858   -0.0013631915944204058
-0.00029115643141411297   -0.023272995660348725   -0.001466645486040447
-6.103256244124263e-06   -0.016674959045301356   -0.0013838267232746783
-0.0030771237591551864   -0.01672741702667191   -0.0014079085060486483
-0.00029115643141411297   -0.023272995660348725   -0.001466645486040447
-0.0035682212504272127   -0.023309598614893016   -0.0015075895899509867
-0.003581364457837579   -0.02327324344153162   -0.0015421069729186377
-0.0030771237591551864   -0.01672741702667191   -0.0014079085060486483
-0.00029115643141411297   -0.023272995660348725   -0.001466645486040447
-0.003581364457837579   -0.02327324344153162   -0.0015421069729186377
-6.103256244124263e-06   -0.016674959045301356   -0.0013838267232746783
-0.0030771237591551864   -0.01672741702667191   -0.0014079085060486483
-0.0035682212504272127   -0.023309598614893016   -0.0015075895899509867
5.609990540554592e-06   -0.016692703081131858   -0.0013631915944204058
-0.003068464709303008   -0.016759465303506676   -0.0013716106539562035
-0.0035682212504272127   -0.023309598614893016   -0.0015075895899509867
-0.00029115643141411297   -0.023272995660348725   -0.001466645486040447
5.609990540554592e-06   -0.016692703081131858   -0.0013631915944204058
-0.00027536191707218513   -0.023281941732796005   -0.0014439473700420117
-0.003068464709303008   -0.016759465303506676   -0.0013716106539562035
1.4138309430031911e-05   -0.01669814211122244   -0.0013488131240538203
-0.00027536191707218513   -0.023281941732796005   -0.0014439473700420117
5.609990540554592e-06   -0.016692703081131858   -0.0013631915944204058
-0.003068464709303008   -0.016759465303506676   -0.0013716106539562035
-0.00027536191707218513   -0.023281941732796005   -0.0014439473700420117
-0.003552245003571256   -0.023343013618366357   -0.0014796318845602785
-0.0035682212504272127   -0.023309598614893016   -0.0015075895899509867
-0.003068464709303008   -0.016759465303506676   -0.0013716106539562035
-0.00027536191707218513   -0.023281941732796005   -0.0014439473700420117
-0.0035682212504272127   -0.023309598614893016   -0.0015075895899509867
5.609990540554592e-06   -0.016692703081131858   -0.0013631915944204058
-0.003068464709303008   -0.016759465303506676   -0.0013716106539562035
-0.003552245003571256   -0.023343013618366357   -0.0014796318845602785
1.4138309430031911e-05   -0.01669814211122244   -0.0013488131240538203
-0.0030558644977530074   -0.016779504495844113   -0.0013417548213930284
-0.003552245003571256   -0.023343013618366357   -0.0014796318845602785
-0.00027536191707218513   -0.023281941732796005   -0.0014439473700420117
1.4138309430031911e-05   -0.01669814211122244   -0.0013488131240538203
-0.00026317119821940425   -0.023287688247368588   -0.0014279905128536698
-0.0030558644977530074   -0.016779504495844113   -0.0013417548213930284
1.9807051825181616e-05   -0.016691106832016425   -0.001340966134854025
-0.00026317119821940425   -0.023287688247368588   -0.0014279905128536698
1.4138309430031911e-05   -0.01669814211122244   -0.0013488131240538203
-0.0030558644977530074   -0.016779504495844113   -0.0013417548213930284
-0.00026317119821940425   -0.023287688247368588   -0.0014279905128536698
-0.0035331564282181224   -0.023373599537095884   -0.0014583946656163695
-0.003552245003571256   -0.023343013618366357   -0.0014796318845602785
-0.0030558644977530074   -0.016779504495844113   -0.0013417548213930284
-0.00026317119821940425   -0.023287688247368588   -0.0014279905128536698
-0.003552245003571256   -0.023343013618366357   -0.0014796318845602785
1.4138309430031911e-05   -0.01669814211122244   -0.0013488131240538203
-6.103256244124263e-06   -0.016674959045301356   -0.0013838267232746783
-0.0003093091349881368   -0.023260897944392376   -0.001495849364943316
0.003177310803133779   -0.016702471407586204   -0.0013649591648398662
5.609990540554592e-06   -0.016692703081131858   -0.0013631915944204058
-0.0003093091349881368   -0.023260897944392376   -0.001495849364943316
0.00306248204238768   -0.023255466774295862   -0.0014935147019966338
0.003177310803133779   -0.016702471407586204   -0.0013649591648398662
0.0030863923403182366   -0.023244049727611335   -0.0014698877204888713
5.609990540554592e-06   -0.016692703081131858   -0.0013631915944204058
0.0031915484764266067   -0.016695212100695068   -0.0013667795596685305
0.0030863923403182366   -0.023244049727611335   -0.0014698877204888713
0.003177310803133779   -0.016702471407586204   -0.0013649591648398662
5.609990540554592e-06   -0.016692703081131858   -0.0013631915944204058
0.0030863923403182366   -0.023244049727611335   -0.0014698877204888713
-0.00029115643141411297   -0.023272995660348725   -0.001466645486040447
-0.0003093091349881368   -0.023260897944392376   -0.001495849364943316
5.609990540554592e-06   -0.016692703081131858   -0.0013631915944204058
0.0030863923403182366   -0.023244049727611335   -0.0014698877204888713
-0.0003093091349881368   -0.023260897944392376   -0.001495849364943316
0.003177310803133779   -0.016702471407586204   -0.0013649591648398662
5.609990540554592e-06   -0.016692703081131858   -0.0013631915944204058
-0.00029115643141411297   -0.023272995660348725   -0.001466645486040447
0.0031915484764266067   -0.016695212100695068   -0.0013667795596685305
1.4138309430031911e-05   -0.01669814211122244   -0.0013488131240538203
-0.00029115643141411297   -0.023272995660348725   -0.001466645486040447
0.0030863923403182366   -0.023244049727611335   -0.0014698877204888713
0.0031915484764266067   -0.016695212100695068   -0.0013667795596685305
0.0031026526065111135   -0.023230853928634474   -0.0014525779466772182
1.4138309430031911e-05   -0.01669814211122244   -0.0013488131240538203
0.0031933645223111927   -0.016676615780170215   -0.0013745179909626494
0.0031026526065111135   -0.023230853928634474   -0.0014525779466772182
0.0031915484764266067   -0.016695212100695068   -0.0013667795596685305
1.4138309430031911e-05   -0.01669814211122244   -0.0013488131240538203
0.0031026526065111135   -0.023230853928634474   -0.0014525779466772182
-0.00027536191707218513   -0.023281941732796005   -0.0014439473700420117
-0.00029115643141411297   -0.023272995660348725   -0.001466645486040447
1.4138309430031911e-05   -0.01669814211122244   -0.0013488131240538203
0.0031026526065111135   -0.023230853928634474   -0.0014525779466772182
-0.00029115643141411297   -0.023272995660348725   -0.001466645486040447
0.0031915484764266067   -0.016695212100695068   -0.0013667795596685305
1.4138309430031911e-05   -0.01669814211122244   -0.0013488131240538203
-0.00027536191707218513   -0.023281941732796005   -0.0014439473700420117
0.0031933645223111927   -0.016676615780170215   -0.0013745179909626494
1.9807051825181616e-05   -0.016691106832016425   -0.001340966134854025
-0.00027536191707218513   -0.023281941732796005   -0.0014439473700420117
0.0031026526065111135   -0.023230853928634474   -0.0014525779466772182
0.0031933645223111927   -0.016676615780170215   -0.0013745179909626494
0.003106504865304455   -0.023211585868169782   -0.0014414573836835202
1.9807051825181616e-05   -0.016691106832016425   -0.001340966134854025
0.003187145959545128   -0.01664205359437769   -0.0013884022313273268
0.003106504865304455   -0.023211585868169782   -0.0014414573836835202
0.0031933645223111927   -0.016676615780170215   -0.0013745179909626494
1.9807051825181616e-05   -0.016691106832016425   -0.001340966134854025
0.003106504865304455   -0.023211585868169782   -0.0014414573836835202
-0.00026317119821940425   -0.023287688247368588   -0.0014279905128536698
-0.00027536191707218513   -0.023281941732796005   -0.0014439473700420117
1.9807051825181616e-05   -0.016691106832016425   -0.001340966134854025
0.003106504865304455   -0.023211585868169782   -0.0014414573836835202
-0.00027536191707218513   -0.023281941732796005   -0.0014439473700420117
0.0031933645223111927   -0.016676615780170215   -0.0013745179909626494
0.003177310803133779   -0.016702471407586204   -0.0013649591648398662
0.00306248204238768   -0.023255466774295862   -0.0014935147019966338
0.006692512307537945   -0.016752911342182687   -0.0013836128857681973
0.0031915484764266067   -0.016695212100695068   -0.0013667795596685305
0.00306248204238768   -0.023255466774295862   -0.0014935147019966338
0.006715956749501942   -0.023247763203271404   -0.001530803455669516
0.006692512307537945   -0.016752911342182687   -0.0013836128857681973
0.006762537213042037   -0.023217738654606825   -0.001511203075691725
0.0031915484764266067   -0.016695212100695068   -0.0013667795596685305
0.006687515947573423   -0.01672869054256242   -0.0014095837910083238
0.006762537213042037   -0.023217738654606825   -0.001511203075691725
0.006692512307537945   -0.016752911342182687   -0.0013836128857681973
0.0031915484764266067   -0.016695212100695068   -0.0013667795596685305
0.006762537213042037   -0.023217738654606825   -0.001511203075691725
0.0030863923403182366   -0.023244049727611335   -0.0014698877204888713
0.00306248204238768   -0.023255466774295862   -0.0014935147019966338
0.0031915484764266067   -0.016695212100695068   -0.0013667795596685305
0.006762537213042037   -0.023217738654606825   -0.001511203075691725
0.00306248204238768   -0.023255466774295862   -0.0014935147019966338
0.006692512307537945   -0.016752911342182687   -0.0013836128857681973
0.0031915484764266067   -0.016695212100695068   -0.0013667795596685305
0.0030863923403182366   -0.023244049727611335   -0.0014698877204888713
0.006687515947573423   -0.01672869054256242   -0.0014095837910083238
0.0031933645223111927   -0.016676615780170215   -0.0013745179909626494
0.0030863923403182366   -0.023244049727611335   -0.0014698877204888713
0.006762537213042037   -0.023217738654606825   -0.001511203075691725
0.006687515947573423   -0.01672869054256242   -0.0014095837910083238
0.006787566873248891   -0.023194089167685845   -0.0015012086057548525
0.0031933645223111927   -0.016676615780170215   -0.0013745179909626494
0.006671808248751347   -0.016698407886924196   -0.0014451612150034778
0.006787566873248891   -0.023194089167685845   -0.0015012086057548525
0.006687515947573423   -0.01672869054256242   -0.0014095837910083238
0.0031933645223111927   -0.016676615780170215   -0.0013745179909626494
0.006787566873248891   -0.023194089167685845   -0.0015012086057548525
0.0031026526065111135   -0.023230853928634474   -0.0014525779466772182
0.0030863923403182366   -0.023244049727611335   -0.0014698877204888713
0.0031933645223111927   -0.016676615780170215   -0.0013745179909626494
0.006787566873248891   -0.023194089167685845   -0.0015012086057548525
0.0030863923403182366   -0.023244049727611335   -0.0014698877204888713
0.006687515947573423   -0.01672869054256242   -0.0014095837910083238
0.0031933645223111927   -0.016676615780170215   -0.0013745179909626494
0.0031026526065111135   -0.023230853928634474   -0.0014525779466772182
0.006671808248751347   -0.016698407886924196   -0.0014451612150034778
0.003187145959545128   -0.01664205359437769   -0.0013884022313273268
0.0031026526065111135   -0.023230853928634474   -0.0014525779466772182
0.006787566873248891   -0.023194089167685845   -0.0015012086057548525
0.006671808248751347   -0.016698407886924196   -0.0014451612150034778
0.006794476471989315   -0.023156334799984298   -0.001500984049492516
0.003187145959545128   -0.01664205359437769   -0.0013884022313273268
0.006627239447022063   -0.01664091633407429   -0.001490275395365424
0.006794476471989315   -0.023156334799984298   -0.001500984049492516
0.006671808248751347   -0.016698407886924196   -0.0014451612150034778
0.003187145959545128   -0.01664205359437769   -0.0013884022313273268
0.006794476471989315   -0.023156334799984298   -0.001500984049492516
0.003106504865304455   -0.023211585868169782   -0.0014414573836835202
0.0031026526065111135   -0.023230853928634474   -0.0014525779466772182
0.003187145959545128   -0.01664205359437769   -0.0013884022313273268
0.006794476471989315   -0.023156334799984298   -0.001500984049492516
0.0031026526065111135   -0.023230853928634474   -0.0014525779466772182
0.006671808248751347   -0.016698407886924196   -0.0014451612150034778
-0.01056500254339398   -0.02333166941034112   -0.001763713166124268
-0.010891074823581405   -0.029953854740092038   -0.0017347234582365345
-0.006944457590400667   -0.023294634819936256   -0.0016318544390896055
-0.010609214039841375   -0.023412558444656492   -0.0017158317320279065
-0.010891074823581405   -0.029953854740092038   -0.0017347234582365345
-0.007277105521578966   -0.02997127952920548   -0.0016374231242268433
-0.006944457590400667   -0.023294634819936256   -0.0016318544390896055
-0.007257217069844108   -0.030020772060543936   -0.001622485677989026
-0.010609214039841375   -0.023412558444656492   -0.0017158317320279065
-0.006941103279747366   -0.023354784253341247   -0.0015923758141422387
-0.007257217069844108   -0.030020772060543936   -0.001622485677989026
-0.006944457590400667   -0.023294634819936256   -0.0016318544390896055
-0.010609214039841375   -0.023412558444656492   -0.0017158317320279065
-0.007257217069844108   -0.030020772060543936   -0.001622485677989026
-0.010877936591189106   -0.030020098926323933   -0.0017318431440063577
-0.010891074823581405   -0.029953854740092038   -0.0017347234582365345
-0.010609214039841375   -0.023412558444656492   -0.0017158317320279065
-0.007257217069844108   -0.030020772060543936   -0.001622485677989026
-0.010891074823581405   -0.029953854740092038   -0.0017347234582365345
-0.006944457590400667   -0.023294634819936256   -0.0016318544390896055
-0.010609214039841375   -0.023412558444656492   -0.0017158317320279065
-0.010877936591189106   -0.030020098926323933   -0.0017318431440063577
-0.006941103279747366   -0.023354784253341247   -0.0015923758141422387
-0.010622806842326521   -0.02347862111276723   -0.0016773865626887828
-0.010877936591189106   -0.030020098926323933   -0.0017318431440063577
-0.007257217069844108   -0.030020772060543936   -0.001622485677989026
-0.006941103279747366   -0.023354784253341247   -0.0015923758141422387
-0.007226430647202805   -0.030075698006967994   -0.0016142887648367909
-0.010622806842326521   -0.02347862111276723   -0.0016773865626887828
-0.006931200222729133   -0.023410344288748622   -0.001559454723513019
-0.007226430647202805   -0.030075698006967994   -0.0016142887648367909
-0.006941103279747366   -0.023354784253341247   -0.0015923758141422387
-0.010622806842326521   -0.02347862111276723   -0.0016773865626887828
-0.007226430647202805   -0.030075698006967994   -0.0016142887648367909
-0.010844178418682696   -0.030084528656389564   -0.0017390335886190724
-0.010877936591189106   -0.030020098926323933   -0.0017318431440063577
-0.010622806842326521   -0.02347862111276723   -0.0016773865626887828
-0.007226430647202805   -0.030075698006967994   -0.0016142887648367909
-0.010877936591189106   -0.030020098926323933   -0.0017318431440063577
-0.006941103279747366   -0.023354784253341247   -0.0015923758141422387
-0.010622806842326521   -0.02347862111276723   -0.0016773865626887828
-0.010844178418682696   -0.030084528656389564   -0.0017390335886190724
-0.006931200222729133   -0.023410344288748622   -0.001559454723513019
-0.010626812300858672   -0.023550482074436396   -0.0016491950608492965
-0.010844178418682696   -0.030084528656389564   -0.0017390335886190724
-0.007226430647202805   -0.030075698006967994   -0.0016142887648367909
-0.006931200222729133   -0.023410344288748622   -0.001559454723513019
-0.007186700934561467   -0.03013984566240997   -0.001612716524725085
-0.010626812300858672   -0.023550482074436396   -0.0016491950608492965
-0.006907697239410379   -0.023465556826520264   -0.0015326254994405637
-0.007186700934561467   -0.03013984566240997   -0.001612716524725085
-0.006931200222729133   -0.023410344288748622   -0.001559454723513019
-0.010626812300858672   -0.023550482074436396   -0.0016491950608492965
-0.007186700934561467   -0.03013984566240997   -0.001612716524725085
-0.010789720530982287   -0.030167621414681732   -0.001756812207705174
-0.010844178418682696   -0.030084528656389564   -0.0017390335886190724
-0.010626812300858672   -0.023550482074436396   -0.0016491950608492965
-0.007186700934561467   -0.03013984566240997   -0.001612716524725085
-0.010844178418682696   -0.030084528656389564   -0.0017390335886190724
-0.006931200222729133   -0.023410344288748622   -0.001559454723513019
-0.006944457590400667   -0.023294634819936256   -0.0016318544390896055
-0.007277105521578966   -0.02997127952920548   -0.0016374231242268433
-0.003581364457837579   -0.02327324344153162   -0.0015421069729186377
-0.006941103279747366   -0.023354784253341247   -0.0015923758141422387
-0.007277105521578966   -0.02997127952920548   -0.0016374231242268433
-0.003966341104075664   -0.02997496405657385   -0.0015727756526432157
-0.003581364457837579   -0.02327324344153162   -0.0015421069729186377
-0.003939887946046747   -0.030003302285187418   -0.0015461214560890768
-0.006941103279747366   -0.023354784253341247   -0.0015923758141422387
-0.0035682212504272127   -0.023309598614893016   -0.0015075895899509867
-0.003939887946046747   -0.030003302285187418   -0.0015461214560890768
-0.003581364457837579   -0.02327324344153162   -0.0015421069729186377
-0.006941103279747366   -0.023354784253341247   -0.0015923758141422387
-0.003939887946046747   -0.030003302285187418   -0.0015461214560890768
-0.007257217069844108   -0.030020772060543936   -0.001622485677989026
-0.007277105521578966   -0.02997127952920548   -0.0016374231242268433
-0.006941103279747366   -0.023354784253341247   -0.0015923758141422387
-0.003939887946046747   -0.030003302285187418   -0.0015461214560890768
-0.007277105521578966   -0.02997127952920548   -0.0016374231242268433
-0.003581364457837579   -0.02327324344153162   -0.0015421069729186377
-0.006941103279747366   -0.023354784253341247   -0.0015923758141422387
-0.007257217069844108   -0.030020772060543936   -0.001622485677989026
-0.0035682212504272127   -0.023309598614893016   -0.0015075895899509867
-0.006931200222729133   -0.023410344288748622   -0.001559454723513019
-0.007257217069844108   -0.030020772060543936   -0.001622485677989026
-0.003939887946046747   -0.030003302285187418   -0.0015461214560890768
-0.0035682212504272127   -0.023309598614893016   -0.0015075895899509867
-0.00391006439749789   -0.030037843163189745   -0.0015262307866648946
-0.006931200222729133   -0.023410344288748622   -0.001559454723513019
-0.003552245003571256   -0.023343013618366357   -0.0014796318845602785
-0.00391006439749789   -0.030037843163189745   -0.0015262307866648946
-0.0035682212504272127   -0.023309598614893016   -0.0015075895899509867
-0.006931200222729133   -0.023410344288748622   -0.001559454723513019
-0.00391006439749789   -0.030037843163189745   -0.0015262307866648946
-0.007226430647202805   -0.030075698006967994   -0.0016142887648367909
-0.007257217069844108   -0.030020772060543936   -0.001622485677989026
-0.006931200222729133   -0.023410344288748622   -0.001559454723513019
-0.00391006439749789   -0.030037843163189745   -0.0015262307866648946
-0.007257217069844108   -0.030020772060543936   -0.001622485677989026
-0.0035682212504272127   -0.023309598614893016   -0.0015075895899509867
-0.006931200222729133   -0.023410344288748622   -0.001559454723513019
-0.007226430647202805   -0.030075698006967994   -0.0016142887648367909
-0.003552245003571256   -0.023343013618366357   -0.0014796318845602785
-0.006907697239410379   -0.023465556826520264   -0.0015326254994405637
-0.007226430647202805   -0.030075698006967994   -0.0016142887648367909
-0.00391006439749789   -0.030037843163189745   -0.0015262307866648946
-0.003552245003571256   -0.023343013618366357   -0.0014796318845602785
-0.003877951397411769   -0.030078694567678952   -0.0015133264385196322
-0.006907697239410379   -0.023465556826520264   -0.0015326254994405637
-0.0035331564282181224   -0.023373599537095884   -0.0014583946656163695
-0.003877951397411769   -0.030078694567678952   -0.0015133264385196322
-0.003552245003571256   -0.023343013618366357   -0.0014796318845602785
-0.006907697239410379   -0.023465556826520264   -0.0015326254994405637
-0.003877951397411769   -0.030078694567678952   -0.0015133264385196322
-0.007186700934561467   -0.03013984566240997   -0.001612716524725085
-0.007226430647202805   -0.030075698006967994   -0.0016142887648367909
-0.006907697239410379   -0.023465556826520264   -0.0015326254994405637
-0.003877951397411769   -0.030078694567678952   -0.0015133264385196322
-0.007226430647202805   -0.030075698006967994   -0.0016142887648367909
-0.003552245003571256   -0.023343013618366357   -0.0014796318845602785
-0.003581364457837579   -0.02327324344153162   -0.0015421069729186377
-0.003966341104075664   -0.02997496405657385   -0.0015727756526432157
-0.0003093091349881368   -0.023260897944392376   -0.001495849364943316
-0.0035682212504272127   -0.023309598614893016   -0.0015075895899509867
-0.003966341104075664   -0.02997496405657385   -0.0015727756526432157
-0.0007491567206434192   -0.02995729600053953   -0.0015465391581227228
-0.0003093091349881368   -0.023260897944392376   -0.001495849364943316
-0.0007179351653253032   -0.029963746026715376   -0.0015087526018503683
-0.0035682212504272127   -0.023309598614893016   -0.0015075895899509867
-0.00029115643141411297   -0.023272995660348725   -0.001466645486040447
-0.0007179351653253032   -0.029963746026715376   -0.0015087526018503683
-0.0003093091349881368   -0.023260897944392376   -0.001495849364943316
-0.0035682212504272127   -0.023309598614893016   -0.0015075895899509867
-0.0007179351653253032   -0.029963746026715376   -0.0015087526018503683
-0.003939887946046747   -0.030003302285187418   -0.0015461214560890768
-0.003966341104075664   -0.02997496405657385   -0.0015727756526432157
-0.0035682212504272127   -0.023309598614893016   -0.0015075895899509867
-0.0007179351653253032   -0.029963746026715376   -0.0015087526018503683
-0.003966341104075664   -0.02997496405657385   -0.0015727756526432157
-0.0003093091349881368   -0.023260897944392376   -0.001495849364943316
-0.0035682212504272127   -0.023309598614893016   -0.0015075895899509867
-0.003939887946046747   -0.030003302285187418   -0.0015461214560890768
-0.00029115643141411297   -0.023272995660348725   -0.001466645486040447
-0.003552245003571256   -0.023343013618366357   -0.0014796318845602785
-0.003939887946046747   -0.030003302285187418   -0.0015461214560890768
-0.0007179351653253032   -0.029963746026715376   -0.0015087526018503683
-0.00029115643141411297   -0.023272995660348725   -0.001466645486040447
-0.0006883775127705405   -0.02997592125342393   -0.0014776846130817318
-0.003552245003571256   -0.023343013618366357   -0.0014796318845602785
-0.00027536191707218513   -0.023281941732796005   -0.0014439473700420117
-0.0006883775127705405   -0.02997592125342393   -0.0014776846130817318
-0.00029115643141411297   -0.023272995660348725   -0.001466645486040447
-0.003552245003571256   -0.023343013618366357   -0.0014796318845602785
-0.0006883775127705405   -0.02997592125342393   -0.0014776846130817318
-0.00391006439749789   -0.030037843163189745   -0.0015262307866648946
-0.003939887946046747   -0.030003302285187418   -0.0015461214560890768
-0.003552245003571256   -0.023343013618366357   -0.0014796318845602785
-0.0006883775127705405   -0.02997592125342393   -0.0014776846130817318
-0.003939887946046747   -0.030003302285187418   -0.0015461214560890768
-0.00029115643141411297   -0.023272995660348725   -0.001466645486040447
-0.003552245003571256   -0.023343013618366357   -0.0014796318845602785
-0.00391006439749789   -0.030037843163189745   -0.0015262307866648946
-0.00027536191707218513   -0.023281941732796005   -0.0014439473700420117
-0.0035331564282181224   -0.023373599537095884   -0.0014583946656163695
-0.00391006439749789   -0.030037843163189745   -0.0015262307866648946
-0.0006883775127705405   -0.02997592125342393   -0.0014776846130817318
-0.00027536191707218513   -0.023281941732796005   -0.0014439473700420117
-0.0006632108964800679   -0.029994095670754672   -0.0014535682789214965
-0.0035331564282181224   -0.023373599537095884   -0.0014583946656163695
-0.00026317119821940425   -0.023287688247368588   -0.0014279905128536698
-0.0006632108964800679   -0.029994095670754672   -0.0014535682789214965
-0.00027536191707218513   -0.023281941732796005   -0.0014439473700420117
-0.0035331564282181224   -0.023373599537095884   -0.0014583946656163695
-0.0006632108964800679   -0.029994095670754672   -0.0014535682789214965
-0.003877951397411769   -0.030078694567678952   -0.0015133264385196322
-0.00391006439749789   -0.030037843163189745   -0.0015262307866648946
-0.0035331564282181224   -0.023373599537095884   -0.0014583946656163695
-0.0006632108964800679   -0.029994095670754672   -0.0014535682789214965
-0.00391006439749789   -0.030037843163189745   -0.0015262307866648946
-0.00027536191707218513   -0.023281941732796005   -0.0014439473700420117
-0.0003093091349881368   -0.023260897944392376   -0.001495849364943316
-0.0007491567206434192   -0.02995729600053953   -0.0015465391581227228
0.00306248204238768   -0.023255466774295862   -0.0014935147019966338
-0.00029115643141411297   -0.023272995660348725   -0.001466645486040447
-0.0007491567206434192   -0.02995729600053953   -0.0015465391581227228
0.002564530063831444   -0.029918076786466297   -0.0015599967693198098
0.00306248204238768   -0.023255466774295862   -0.0014935147019966338
0.0026042880431873193   -0.029902552298505688   -0.0015112638122606497
-0.00029115643141411297   -0.023272995660348725   -0.001466645486040447
0.0030863923403182366   -0.023244049727611335   -0.0014698877204888713
0.0026042880431873193   -0.029902552298505688   -0.0015112638122606497
0.00306248204238768   -0.023255466774295862   -0.0014935147019966338
-0.00029115643141411297   -0.023272995660348725   -0.001466645486040447
0.0026042880431873193   -0.029902552298505688   -0.0015112638122606497
-0.0007179351653253032   -0.029963746026715376   -0.0015087526018503683
-0.0007491567206434192   -0.02995729600053953   -0.0015465391581227228
-0.00029115643141411297   -0.023272995660348725   -0.001466645486040447
0.0026042880431873193   -0.029902552298505688   -0.0015112638122606497
-0.0007491567206434192   -0.02995729600053953   -0.0015465391581227228
0.00306248204238768   -0.023255466774295862   -0.0014935147019966338
-0.00029115643141411297   -0.023272995660348725   -0.001466645486040447
-0.0007179351653253032   -0.029963746026715376   -0.0015087526018503683
0.0030863923403182366   -0.023244049727611335   -0.0014698877204888713
-0.00027536191707218513   -0.023281941732796005   -0.0014439473700420117
-0.0007179351653253032   -0.029963746026715376   -0.0015087526018503683
0.0026042880431873193   -0.029902552298505688   -0.0015112638122606497
0.0030863923403182366   -0.023244049727611335   -0.0014698877204888713
0.0026411080248233674   -0.029894470711191317   -0.0014692274802138607
-0.00027536191707218513   -0.023281941732796005   -0.0014439473700420117
0.0031026526065111135   -0.023230853928634474   -0.0014525779466772182
0.0026411080248233674   -0.029894470711191317   -0.0014692274802138607
0.0030863923403182366   -0.023244049727611335   -0.0014698877204888713
-0.00027536191707218513   -0.023281941732796005   -0.0014439473700420117
0.0026411080248233674   -0.029894470711191317   -0.0014692274802138607
-0.0006883775127705405   -0.02997592125342393   -0.0014776846130817318
-0.0007179351653253032   -0.029963746026715376   -0.0015087526018503683
-0.00027536191707218513   -0.023281941732796005   -0.0014439473700420117
0.0026411080248233674   -0.029894470711191317   -0.0014692274802138607
-0.0007179351653253032   -0.029963746026715376   -0.0015087526018503683
0.0030863923403182366   -0.023244049727611335   -0.0014698877204888713
-0.00027536191707218513   -0.023281941732796005   -0.0014439473700420117
-0.0006883775127705405   -0.02997592125342393   -0.0014776846130817318
0.0031026526065111135   -0.023230853928634474   -0.0014525779466772182
-0.00026317119821940425   -0.023287688247368588   -0.0014279905128536698
-0.0006883775127705405   -0.02997592125342393   -0.0014776846130817318
0.0026411080248233674   -0.029894470711191317   -0.0014692274802138607
0.0031026526065111135   -0.023230853928634474   -0.0014525779466772182
0.0026610916724652913   -0.02988996707965138   -0.0014334505477042743
-0.00026317119821940425   -0.023287688247368588   -0.0014279905128536698
0.003106504865304455   -0.023211585868169782   -0.0014414573836835202
0.0026610916724652913   -0.02988996707965138   -0.0014334505477042743
0.0031026526065111135   -0.023230853928634474   -0.0014525779466772182
-0.00026317119821940425   -0.023287688247368588   -0.0014279905128536698
0.0026610916724652913   -0.02988996707965138   -0.0014334505477042743
-0.0006632108964800679   -0.029994095670754672   -0.0014535682789214965
-0.0006883775127705405   -0.02997592125342393   -0.0014776846130817318
-0.00026317119821940425   -0.023287688247368588   -0.0014279905128536698
0.0026610916724652913   -0.02988996707965138   -0.0014334505477042743
-0.0006883775127705405   -0.02997592125342393   -0.0014776846130817318
0.0031026526065111135   -0.023230853928634474   -0.0014525779466772182
0.00306248204238768   -0.023255466774295862   -0.0014935147019966338
0.002564530063831444   -0.029918076786466297   -0.0015599967693198098
0.006715956749501942   -0.023247763203271404   -0.001530803455669516
0.0030863923403182366   -0.023244049727611335   -0.0014698877204888713
0.002564530063831444   -0.029918076786466297   -0.0015599967693198098
0.006111399571054474   -0.029852078897522612   -0.0016153011021852915
0.006715956749501942   -0.023247763203271404   -0.001530803455669516
0.006214778715699193   -0.0298166116298813   -0.0015512230992975552
0.0030863923403182366   -0.023244049727611335   -0.0014698877204888713
0.006762537213042037   -0.023217738654606825   -0.001511203075691725
0.006214778715699193   -0.0298166116298813   -0.0015512230992975552
0.006715956749501942   -0.023247763203271404   -0.001530803455669516
0.0030863923403182366   -0.023244049727611335   -0.0014698877204888713
0.006214778715699193   -0.0298166116298813   -0.0015512230992975552
0.0026042880431873193   -0.029902552298505688   -0.0015112638122606497
0.002564530063831444   -0.029918076786466297   -0.0015599967693198098
0.0030863923403182366   -0.023244049727611335   -0.0014698877204888713
0.006214778715699193   -0.0298166116298813   -0.0015512230992975552
0.002564530063831444   -0.029918076786466297   -0.0015599967693198098
0.006715956749501942   -0.023247763203271404   -0.001530803455669516
0.0030863923403182366   -0.023244049727611335   -0.0014698877204888713
0.0026042880431873193   -0.029902552298505688   -0.0015112638122606497
0.006762537213042037   -0.023217738654606825   -0.001511203075691725
0.0031026526065111135   -0.023230853928634474   -0.0014525779466772182
0.0026042880431873193   -0.029902552298505688   -0.0015112638122606497
0.006214778715699193   -0.0298166116298813   -0.0015512230992975552
0.006762537213042037   -0.023217738654606825   -0.001511203075691725
0.006286006101176767   -0.02979940071811272   -0.0014966899807857248
0.0031026526065111135   -0.023230853928634474   -0.0014525779466772182
0.006787566873248891   -0.023194089167685845   -0.0015012086057548525
0.006286006101176767   -0.02979940071811272   -0.0014966899807857248
0.006762537213042037   -0.023217738654606825   -0.001511203075691725
0.0031026526065111135   -0.023230853928634474   -0.0014525779466772182
0.006286006101176767   -0.02979940071811272   -0.0014966899807857248
0.0026411080248233674   -0.029894470711191317   -0.0014692274802138607
0.0026042880431873193   -0.029902552298505688   -0.0015112638122606497
0.0031026526065111135   -0.023230853928634474   -0.0014525779466772182
0.006286006101176767   -0.02979940071811272   -0.0014966899807857248
0.0026042880431873193   -0.029902552298505688   -0.0015112638122606497
0.006762537213042037   -0.023217738654606825   -0.001511203075691725
0.0031026526065111135   -0.023230853928634474   -0.0014525779466772182
0.0026411080248233674   -0.029894470711191317   -0.0014692274802138607
0.006787566873248891   -0.023194089167685845   -0.0015012086057548525
0.003106504865304455   -0.023211585868169782   -0.0014414573836835202
0.0026411080248233674   -0.029894470711191317   -0.0014692274802138607
0.006286006101176767   -0.02979940071811272   -0.0014966899807857248
0.006787566873248891   -0.023194089167685845   -0.0015012086057548525
0.006349504436334727   -0.029780808708336975   -0.0014520999646843913
0.003106504865304455   -0.023211585868169782   -0.0014414573836835202
0.006794476471989315   -0.023156334799984298   -0.001500984049492516
0.006349504436334727   -0.029780808708336975   -0.0014520999646843913
0.006787566873248891   -0.023194089167685845   -0.0015012086057548525
0.003106504865304455   -0.023211585868169782   -0.0014414573836835202
0.006349504436334727   -0.029780808708336975   -0.0014520999646843913
0.0026610916724652913   -0.02988996707965138   -0.0014334505477042743
0.0026411080248233674   -0.029894470711191317   -0.0014692274802138607
0.003106504865304455   -0.023211585868169782   -0.0014414573836835202
0.006349504436334727   -0.029780808708336975   -0.0014520999646843913
0.0026411080248233674   -0.029894470711191317   -0.0014692274802138607
0.006787566873248891   -0.023194089167685845   -0.0015012086057548525
-0.010891074823581405   -0.029953854740092038   -0.0017347234582365345
-0.01059705318357485   -0.03627278400513563   -0.0016592277992356532
-0.007277105521578966   -0.02997127952920548   -0.0016374231242268433
-0.010877936591189106   -0.030020098926323933   -0.0017318431440063577
-0.01059705318357485   -0.03627278400513563   -0.0016592277992356532
-0.007246533416419098   -0.036345517247476866   -0.0016007734843213415
-0.007277105521578966   -0.02997127952920548   -0.0016374231242268433
-0.00720400751535135   -0.03638241321130305   -0.001609679623027354
-0.010877936591189106   -0.030020098926323933   -0.0017318431440063577
-0.007257217069844108   -0.030020772060543936   -0.001622485677989026
-0.00720400751535135   -0.03638241321130305   -0.001609679623027354
-0.007277105521578966   -0.02997127952920548   -0.0016374231242268433
-0.010877936591189106   -0.030020098926323933   -0.0017318431440063577
-0.00720400751535135   -0.03638241321130305   -0.001609679623027354
-0.010520257554163652   -0.03632260971617574   -0.0017013437870082035
-0.01059705318357485   -0.03627278400513563   -0.0016592277992356532
-0.010877936591189106   -0.030020098926323933   -0.0017318431440063577
-0.00720400751535135   -0.03638241321130305   -0.001609679623027354
-0.01059705318357485   -0.03627278400513563   -0.0016592277992356532
-0.007277105521578966   -0.02997127952920548   -0.0016374231242268433
-0.010877936591189106   -0.030020098926323933   -0.0017318431440063577
-0.010520257554163652   -0.03632260971617574   -0.0017013437870082035
-0.007257217069844108   -0.030020772060543936   -0.001622485677989026
-0.010844178418682696   -0.030084528656389564   -0.0017390335886190724
-0.010520257554163652   -0.03632260971617574   -0.0017013437870082035
-0.00720400751535135   -0.03638241321130305   -0.001609679623027354
-0.007257217069844108   -0.030020772060543936   -0.001622485677989026
-0.007146511752918895   -0.03643505312197101   -0.0016254801260796004
-0.010844178418682696   -0.030084528656389564   -0.0017390335886190724
-0.007226430647202805   -0.030075698006967994   -0.0016142887648367909
-0.007146511752918895   -0.03643505312197101   -0.0016254801260796004
-0.007257217069844108   -0.030020772060543936   -0.001622485677989026
-0.010844178418682696   -0.030084528656389564   -0.0017390335886190724
-0.007146511752918895   -0.03643505312197101   -0.0016254801260796004
-0.010432770914527264   -0.03638390154869196   -0.0017542997439616858
-0.010520257554163652   -0.03632260971617574   -0.0017013437870082035
-0.010844178418682696   -0.030084528656389564   -0.0017390335886190724
-0.007146511752918895   -0.03643505312197101   -0.0016254801260796004
-0.010520257554163652   -0.03632260971617574   -0.0017013437870082035
-0.007257217069844108   -0.030020772060543936   -0.001622485677989026
-0.010844178418682696   -0.030084528656389564   -0.0017390335886190724
-0.010432770914527264   -0.03638390154869196   -0.0017542997439616858
-0.007226430647202805   -0.030075698006967994   -0.0016142887648367909
-0.010789720530982287   -0.030167621414681732   -0.001756812207705174
-0.010432770914527264   -0.03638390154869196   -0.0017542997439616858
-0.007146511752918895   -0.03643505312197101   -0.0016254801260796004
-0.007226430647202805   -0.030075698006967994   -0.0016142887648367909
-0.007084855616585704   -0.03650665350539218   -0.0016483726986981746
-0.010789720530982287   -0.030167621414681732   -0.001756812207705174
-0.007186700934561467   -0.03013984566240997   -0.001612716524725085
-0.007084855616585704   -0.03650665350539218   -0.0016483726986981746
-0.007226430647202805   -0.030075698006967994   -0.0016142887648367909
-0.010789720530982287   -0.030167621414681732   -0.001756812207705174
-0.007084855616585704   -0.03650665350539218   -0.0016483726986981746
-0.01031376483943619   -0.03647727149021227   -0.001818304385983986
-0.010432770914527264   -0.03638390154869196   -0.0017542997439616858
-0.010789720530982287   -0.030167621414681732   -0.001756812207705174
-0.007084855616585704   -0.03650665350539218   -0.0016483726986981746
-0.010432770914527264   -0.03638390154869196   -0.0017542997439616858
-0.007226430647202805   -0.030075698006967994   -0.0016142887648367909
-0.007277105521578966   -0.02997127952920548   -0.0016374231242268433
-0.007246533416419098   -0.036345517247476866   -0.0016007734843213415
-0.003966341104075664   -0.02997496405657385   -0.0015727756526432157
-0.007257217069844108   -0.030020772060543936   -0.001622485677989026
-0.007246533416419098   -0.036345517247476866   -0.0016007734843213415
-0.004242230524475153   -0.03637415573741405   -0.001563394961692941
-0.003966341104075664   -0.02997496405657385   -0.0015727756526432157
-0.0041959660288079705   -0.03639328990349358   -0.0015439803715141859
-0.007257217069844108   -0.030020772060543936   -0.001622485677989026
-0.003939887946046747   -0.030003302285187418   -0.0015461214560890768
-0.0041959660288079705   -0.03639328990349358   -0.0015439803715141859
-0.003966341104075664   -0.02997496405657385   -0.0015727756526432157
-0.007257217069844108   -0.030020772060543936   -0.001622485677989026
-0.0041959660288079705   -0.03639328990349358   -0.0015439803715141859
-0.00720400751535135   -0.03638241321130305   -0.001609679623027354
-0.007246533416419098   -0.036345517247476866   -0.0016007734843213415
-0.007257217069844108   -0.030020772060543936   -0.001622485677989026
-0.0041959660288079705   -0.03639328990349358   -0.0015439803715141859
-0.007246533416419098   -0.036345517247476866   -0.0016007734843213415
-0.003966341104075664   -0.02997496405657385   -0.0015727756526432157
-0.007257217069844108   -0.030020772060543936   -0.001622485677989026
-0.00720400751535135   -0.03638241321130305   -0.001609679623027354
-0.003939887946046747   -0.030003302285187418   -0.0015461214560890768
-0.007226430647202805   -0.030075698006967994   -0.0016142887648367909
-0.00720400751535135   -0.03638241321130305   -0.001609679623027354
-0.0041959660288079705   -0.03639328990349358   -0.0015439803715141859
-0.003939887946046747   -0.030003302285187418   -0.0015461214560890768
-0.004146216228835272   -0.036427552514963366   -0.0015313750838299018
-0.007226430647202805   -0.030075698006967994   -0.0016142887648367909
-0.00391006439749789   -0.030037843163189745   -0.0015262307866648946
-0.004146216228835272   -0.036427552514963366   -0.0015313750838299018
-0.003939887946046747   -0.030003302285187418   -0.0015461214560890768
-0.007226430647202805   -0.030075698006967994   -0.0016142887648367909
-0.004146216228835272   -0.036427552514963366   -0.0015313750838299018
-0.007146511752918895   -0.03643505312197101   -0.0016254801260796004
-0.00720400751535135   -0.03638241321130305   -0.001609679623027354
-0.007226430647202805   -0.030075698006967994   -0.0016142887648367909
-0.004146216228835272   -0.036427552514963366   -0.0015313750838299018
-0.00720400751535135   -0.03638241321130305   -0.001609679623027354
-0.003939887946046747   -0.030003302285187418   -0.0015461214560890768
-0.007226430647202805   -0.030075698006967994   -0.0016142887648367909
-0.007146511752918895   -0.03643505312197101   -0.0016254801260796004
-0.00391006439749789   -0.030037843163189745   -0.0015262307866648946
-0.007186700934561467   -0.03013984566240997   -0.001612716524725085
-0.007146511752918895   -0.03643505312197101   -0.0016254801260796004
-0.004146216228835272   -0.036427552514963366   -0.0015313750838299018
-0.00391006439749789   -0.030037843163189745   -0.0015262307866648946
-0.004095080258913341   -0.03647737227435248   -0.001525915717459044
-0.007186700934561467   -0.03013984566240997   -0.001612716524725085
-0.003877951397411769   -0.030078694567678952   -0.0015133264385196322
-0.004095080258913341   -0.03647737227435248   -0.001525915717459044
-0.00391006439749789   -0.030037843163189745   -0.0015262307866648946
-0.007186700934561467   -0.03013984566240997   -0.001612716524725085
-0.004095080258913341   -0.03647737227435248   -0.001525915717459044
-0.007084855616585704   -0.03650665350539218   -0.0016483726986981746
-0.007146511752918895   -0.03643505312197101   -0.0016254801260796004
-0.007186700934561467   -0.03013984566240997   -0.001612716524725085
-0.004095080258913341   -0.03647737227435248   -0.001525915717459044
-0.007146511752918895   -0.03643505312197101   -0.0016254801260796004
-0.00391006439749789   -0.030037843163189745   -0.0015262307866648946
-0.003966341104075664   -0.02997496405657385   -0.0015727756526432157
-0.004242230524475153   -0.03637415573741405   -0.001563394961692941
-0.0007491567206434192   -0.02995729600053953   -0.0015465391581227228
-0.003939887946046747   -0.030003302285187418   -0.0015461214560890768
-0.004242230524475153   -0.03637415573741405   -0.001563394961692941
-0.0013287623276899412   -0.03635189187175009   -0.0015574521791870545
-0.0007491567206434192   -0.02995729600053953   -0.0015465391581227228
-0.0012775989598130053   -0.036352211265298535   -0.001510688273558618
-0.003939887946046747   -0.030003302285187418   -0.0015461214560890768
-0.0007179351653253032   -0.029963746026715376   -0.0015087526018503683
-0.0012775989598130053   -0.036352211265298535   -0.001510688273558618
-0.0007491567206434192   -0.02995729600053953   -0.0015465391581227228
-0.003939887946046747   -0.030003302285187418   -0.0015461214560890768
-0.0012775989598130053   -0.036352211265298535   -0.001510688273558618
-0.0041959660288079705   -0.03639328990349358   -0.0015439803715141859
-0.004242230524475153   -0.03637415573741405   -0.001563394961692941
-0.003939887946046747   -0.030003302285187418   -0.0015461214560890768
-0.0012775989598130053   -0.036352211265298535   -0.001510688273558618
-0.004242230524475153   -0.03637415573741405   -0.001563394961692941
-0.0007491567206434192   -0.02995729600053953   -0.0015465391581227228
-0.003939887946046747   -0.030003302285187418   -0.0015461214560890768
-0.0041959660288079705   -0.03639328990349358   -0.0015439803715141859
-0.0007179351653253032   -0.029963746026715376   -0.0015087526018503683
-0.00391006439749789   -0.030037843163189745   -0.0015262307866648946
-0.0041959660288079705   -0.03639328990349358   -0.0015439803715141859
-0.0012775989598130053   -0.036352211265298535   -0.001510688273558618
-0.0007179351653253032   -0.029963746026715376   -0.0015087526018503683
-0.0012277644279577826   -0.03636656444253076   -0.0014707529521225512
-0.00391006439749789   -0.030037843163189745   -0.0015262307866648946
-0.0006883775127705405   -0.02997592125342393   -0.0014776846130817318
-0.0012277644279577826   -0.03636656444253076   -0.0014707529521225512
-0.0007179351653253032   -0.029963746026715376   -0.0015087526018503683
-0.00391006439749789   -0.030037843163189745   -0.0015262307866648946
-0.0012277644279577826   -0.03636656444253076   -0.0014707529521225512
-0.004146216228835272   -0.036427552514963366   -0.0015313750838299018
-0.0041959660288079705   -0.03639328990349358   -0.0015439803715141859
-0.00391006439749789   -0.030037843163189745   -0.0015262307866648946
-0.0012277644279577826   -0.03636656444253076   -0.0014707529521225512
-0.0041959660288079705   -0.03639328990349358   -0.0015439803715141859
-0.0007179351653253032   -0.029963746026715376   -0.0015087526018503683
-0.00391006439749789   -0.030037843163189745   -0.0015262307866648946
-0.004146216228835272   -0.036427552514963366   -0.0015313750838299018
-0.0006883775127705405   -0.02997592125342393   -0.0014776846130817318
-0.003877951397411769   -0.030078694567678952   -0.0015133264385196322
-0.004146216228835272   -0.036427552514963366   -0.0015313750838299018
-0.0012277644279577826   -0.03636656444253076   -0.0014707529521225512
-0.0006883775127705405   -0.02997592125342393   -0.0014776846130817318
-0.0011832653926031498   -0.03639612949613277   -0.0014378825010640678
-0.003877951397411769   -0.030078694567678952   -0.0015133264385196322
-0.0006632108964800679   -0.029994095670754672   -0.0014535682789214965
-0.0011832653926031498   -0.03639612949613277   -0.0014378825010640678
-0.0006883775127705405   -0.02997592125342393   -0.0014776846130817318
-0.003877951397411769   -0.030078694567678952   -0.0015133264385196322
-0.0011832653926031498   -0.03639612949613277   -0.0014378825010640678
-0.004095080258913341   -0.03647737227435248   -0.001525915717459044
-0.004146216228835272   -0.036427552514963366   -0.0015313750838299018
-0.003877951397411769   -0.030078694567678952   -0.0015133264385196322
-0.0011832653926031498   -0.03639612949613277   -0.0014378825010640678
-0.004146216228835272   -0.036427552514963366   -0.0015313750838299018
-0.0006883775127705405   -0.02997592125342393   -0.0014776846130817318
-0.0007491567206434192   -0.02995729600053953   -0.0015465391581227228
-0.0013287623276899412   -0.03635189187175009   -0.0015574521791870545
0.002564530063831444   -0.029918076786466297   -0.0015599967693198098
-0.0007179351653253032   -0.029963746026715376   -0.0015087526018503683
-0.0013287623276899412   -0.03635189187175009   -0.0015574521791870545
0.0016844952799878591   -0.0362801657567773   -0.0015854082137768905
0.002564530063831444   -0.029918076786466297   -0.0015599967693198098
0.0017470645510972143   -0.036260400416520025   -0.0015115401847087396
-0.0007179351653253032   -0.029963746026715376   -0.0015087526018503683
0.0026042880431873193   -0.029902552298505688   -0.0015112638122606497
0.0017470645510972143   -0.036260400416520025   -0.0015115401847087396
0.002564530063831444   -0.029918076786466297   -0.0015599967693198098
-0.0007179351653253032   -0.029963746026715376   -0.0015087526018503683
0.0017470645510972143   -0.036260400416520025   -0.0015115401847087396
-0.0012775989598130053   -0.036352211265298535   -0.001510688273558618
-0.0013287623276899412   -0.03635189187175009   -0.0015574521791870545
-0.0007179351653253032   -0.029963746026715376   -0.0015087526018503683
0.0017470645510972143   -0.036260400416520025   -0.0015115401847087396
-0.0013287623276899412   -0.03635189187175009   -0.0015574521791870545
0.002564530063831444   -0.029918076786466297   -0.0015599967693198098
-0.0007179351653253032   -0.029963746026715376   -0.0015087526018503683
-0.0012775989598130053   -0.036352211265298535   -0.001510688273558618
0.0026042880431873193   -0.029902552298505688   -0.0015112638122606497
-0.0006883775127705405   -0.02997592125342393   -0.0014776846130817318
-0.0012775989598130053   -0.036352211265298535   -0.001510688273558618
0.0017470645510972143   -0.036260400416520025   -0.0015115401847087396
0.0026042880431873193   -0.029902552298505688   -0.0015112638122606497
0.001811268920585112   -0.03625667423162098   -0.0014449348096074199
-0.0006883775127705405   -0.02997592125342393   -0.0014776846130817318
0.0026411080248233674   -0.029894470711191317   -0.0014692274802138607
0.001811268920585112   -0.03625667423162098   -0.0014449348096074199
0.0026042880431873193   -0.029902552298505688   -0.0015112638122606497
-0.0006883775127705405   -0.02997592125342393   -0.0014776846130817318
0.001811268920585112   -0.03625667423162098   -0.0014449348096074199
-0.0012277644279577826   -0.03636656444253076   -0.0014707529521225512
-0.0012775989598130053   -0.036352211265298535   -0.001510688273558618
-0.0006883775127705405   -0.02997592125342393   -0.0014776846130817318
0.001811268920585112   -0.03625667423162098   -0.0014449348096074199
-0.0012775989598130053   -0.036352211265298535   -0.001510688273558618
0.0026042880431873193   -0.029902552298505688   -0.0015112638122606497
-0.0006883775127705405   -0.02997592125342393   -0.0014776846130817318
-0.0012277644279577826   -0.03636656444253076   -0.0014707529521225512
0.0026411080248233674   -0.029894470711191317   -0.0014692274802138607
-0.0006632108964800679   -0.029994095670754672   -0.0014535682789214965
-0.0012277644279577826   -0.03636656444253076   -0.0014707529521225512
0.001811268920585112   -0.03625667423162098   -0.0014449348096074199
0.0026411080248233674   -0.029894470711191317   -0.0014692274802138607
0.001854048626643362   -0.036266037568703294   -0.0013846333195325618
-0.0006632108964800679   -0.029994095670754672   -0.0014535682789214965
0.0026610916724652913   -0.02988996707965138   -0.0014334505477042743
0.001854048626643362   -0.036266037568703294   -0.0013846333195325618
0.0026411080248233674   -0.029894470711191317   -0.0014692274802138607
-0.0006632108964800679   -0.029994095670754672   -0.0014535682789214965
0.001854048626643362   -0.036266037568703294   -0.0013846333195325618
-0.0011832653926031498   -0.03639612949613277   -0.0014378825010640678
-0.0012277644279577826   -0.03636656444253076   -0.0014707529521225512
-0.0006632108964800679   -0.029994095670754672   -0.0014535682789214965
0.001854048626643362   -0.036266037568703294   -0.0013846333195325618
-0.0012277644279577826   -0.03636656444253076   -0.0014707529521225512
0.0026411080248233674   -0.029894470711191317   -0.0014692274802138607
0.002564530063831444   -0.029918076786466297   -0.0015599967693198098
0.0016844952799878591   -0.0362801657567773   -0.0015854082137768905
0.006111399571054474   -0.029852078897522612   -0.0016153011021852915
0.0026042880431873193   -0.029902552298505688   -0.0015112638122606497
0.0016844952799878591   -0.0362801657567773   -0.0015854082137768905
0.00488860914816826   -0.036156813536541585   -0.0016571298746272652
0.006111399571054474   -0.029852078897522612   -0.0016153011021852915
0.005055128591701546   -0.03611617449382589   -0.0015495748957668446
0.0026042880431873193   -0.029902552298505688   -0.0015112638122606497
0.006214778715699193   -0.0298166116298813   -0.0015512230992975552
0.005055128591701546   -0.03611617449382589   -0.0015495748957668446
0.006111399571054474   -0.029852078897522612   -0.0016153011021852915
0.0026042880431873193   -0.029902552298505688   -0.0015112638122606497
0.005055128591701546   -0.03611617449382589   -0.0015495748957668446
0.0017470645510972143   -0.036260400416520025   -0.0015115401847087396
0.0016844952799878591   -0.0362801657567773   -0.0015854082137768905
0.0026042880431873193   -0.029902552298505688   -0.0015112638122606497
0.005055128591701546   -0.03611617449382589   -0.0015495748957668446
0.0016844952799878591   -0.0362801657567773   -0.0015854082137768905
0.006111399571054474   -0.029852078897522612   -0.0016153011021852915
0.0026042880431873193   -0.029902552298505688   -0.0015112638122606497
0.0017470645510972143   -0.036260400416520025   -0.0015115401847087396
0.006214778715699193   -0.0298166116298813   -0.0015512230992975552
0.0026411080248233674   -0.029894470711191317   -0.0014692274802138607
0.0017470645510972143   -0.036260400416520025   -0.0015115401847087396
0.005055128591701546   -0.03611617449382589   -0.0015495748957668446
0.006214778715699193   -0.0298166116298813   -0.0015512230992975552
0.00517853899102187   -0.03610496196221185   -0.0014516853040745816
0.0026411080248233674   -0.029894470711191317   -0.0014692274802138607
0.006286006101176767   -0.02979940071811272   -0.0014966899807857248
0.00517853899102187   -0.03610496196221185   -0.0014516853040745816
0.006214778715699193   -0.0298166116298813   -0.0015512230992975552
0.0026411080248233674   -0.029894470711191317   -0.0014692274802138607
0.00517853899102187   -0.03610496196221185   -0.0014516853040745816
0.001811268920585112   -0.03625667423162098   -0.0014449348096074199
0.0017470645510972143   -0.036260400416520025   -0.0015115401847087396
0.0026411080248233674   -0.029894470711191317   -0.0014692274802138607
0.00517853899102187   -0.03610496196221185   -0.0014516853040745816
0.0017470645510972143   -0.036260400416520025   -0.0015115401847087396
0.006214778715699193   -0.0298166116298813   -0.0015512230992975552
0.0026411080248233674   -0.029894470711191317   -0.0014692274802138607
0.001811268920585112   -0.03625667423162098   -0.0014449348096074199
0.006286006101176767   -0.02979940071811272   -0.0014966899807857248
0.0026610916724652913   -0.02988996707965138   -0.0014334505477042743
0.001811268920585112   -0.03625667423162098   -0.0014449348096074199
0.00517853899102187   -0.03610496196221185   -0.0014516853040745816
0.006286006101176767   -0.02979940071811272   -0.0014966899807857248
0.005303842767179938   -0.03610489359067454   -0.0013639066957700603
0.0026610916724652913   -0.02988996707965138   -0.0014334505477042743
0.006349504436334727   -0.029780808708336975   -0.0014520999646843913
0.005303842767179938   -0.03610489359067454   -0.0013639066957700603
0.006286006101176767   -0.02979940071811272   -0.0014966899807857248
0.0026610916724652913   -0.02988996707965138   -0.0014334505477042743
0.005303842767179938   -0.03610489359067454   -0.0013639066957700603
0.001854048626643362   -0.036266037568703294   -0.0013846333195325618
0.001811268920585112   -0.03625667423162098   -0.0014449348096074199
0.0026610916724652913   -0.02988996707965138   -0.0014334505477042743
0.005303842767179938   -0.03610489359067454   -0.0013639066957700603
0.001811268920585112   -0.03625667423162098   -0.0014449348096074199
0.006286006101176767   -0.02979940071811272   -0.0014966899807857248
-0.01059705318357485   -0.03627278400513563   -0.0016592277992356532
-0.009671828192827194   -0.041860502912185224   -0.0015477962763771002
-0.007246533416419098   -0.036345517247476866   -0.0016007734843213415
-0.010520257554163652   -0.03632260971617574   -0.0017013437870082035
-0.009671828192827194   -0.041860502912185224   -0.0015477962763771002
-0.006852823150705078   -0.04199142821440185   -0.001538476042726522
-0.007246533416419098   -0.036345517247476866   -0.0016007734843213415
-0.006782708906772149   -0.04201034592464671   -0.001569476705871825
-0.010520257554163652   -0.03632260971617574   -0.0017013437870082035
-0.00720400751535135   -0.03638241321130305   -0.001609679623027354
-0.006782708906772149   -0.04201034592464671   -0.001569476705871825
-0.007246533416419098   -0.036345517247476866   -0.0016007734843213415
-0.010520257554163652   -0.03632260971617574   -0.0017013437870082035
-0.006782708906772149   -0.04201034592464671   -0.001569476705871825
-0.009525574916495135   -0.04188855315156863   -0.0016346828919037335
-0.009671828192827194   -0.041860502912185224   -0.0015477962763771002
-0.010520257554163652   -0.03632260971617574   -0.0017013437870082035
-0.006782708906772149   -0.04201034592464671   -0.001569476705871825
-0.009671828192827194   -0.041860502912185224   -0.0015477962763771002
-0.007246533416419098   -0.036345517247476866   -0.0016007734843213415
-0.010520257554163652   -0.03632260971617574   -0.0017013437870082035
-0.009525574916495135   -0.04188855315156863   -0.0016346828919037335
-0.00720400751535135   -0.03638241321130305   -0.001609679623027354
-0.010432770914527264   -0.03638390154869196   -0.0017542997439616858
-0.009525574916495135   -0.04188855315156863   -0.0016346828919037335
-0.006782708906772149   -0.04201034592464671   -0.001569476705871825
-0.00720400751535135   -0.03638241321130305   -0.001609679623027354
-0.006694634524404457   -0.04205576501731807   -0.0016074581483629603
-0.010432770914527264   -0.03638390154869196   -0.0017542997439616858
-0.007146511752918895   -0.03643505312197101   -0.0016254801260796004
-0.006694634524404457   -0.04205576501731807   -0.0016074581483629603
-0.00720400751535135   -0.03638241321130305   -0.001609679623027354
-0.010432770914527264   -0.03638390154869196   -0.0017542997439616858
-0.006694634524404457   -0.04205576501731807   -0.0016074581483629603
-0.009379807295145058   -0.04194185987587674   -0.0017329348575361421
-0.009525574916495135   -0.04188855315156863   -0.0016346828919037335
-0.010432770914527264   -0.03638390154869196   -0.0017542997439616858
-0.006694634524404457   -0.04205576501731807   -0.0016074581483629603
-0.009525574916495135   -0.04188855315156863   -0.0016346828919037335
-0.00720400751535135   -0.03638241321130305   -0.001609679623027354
-0.010432770914527264   -0.03638390154869196   -0.0017542997439616858
-0.009379807295145058   -0.04194185987587674   -0.0017329348575361421
-0.007146511752918895   -0.03643505312197101   -0.0016254801260796004
-0.01031376483943619   -0.03647727149021227   -0.001818304385983986
-0.009379807295145058   -0.04194185987587674   -0.0017329348575361421
-0.006694634524404457   -0.04205576501731807   -0.0016074581483629603
-0.007146511752918895   -0.03643505312197101   -0.0016254801260796004
-0.006607754909076014   -0.04213026720372442   -0.0016523544838809004
-0.01031376483943619   -0.03647727149021227   -0.001818304385983986
-0.007084855616585704   -0.03650665350539218   -0.0016483726986981746
-0.006607754909076014   -0.04213026720372442   -0.0016523544838809004
-0.007146511752918895   -0.03643505312197101   -0.0016254801260796004
-0.01031376483943619   -0.03647727149021227   -0.001818304385983986
-0.006607754909076014   -0.04213026720372442   -0.0016523544838809004
-0.009193120909611881   -0.04204126211715328   -0.0018423517553410058
-0.009379807295145058   -0.04194185987587674   -0.0017329348575361421
-0.01031376483943619   -0.03647727149021227   -0.001818304385983986
-0.006607754909076014   -0.04213026720372442   -0.0016523544838809004
-0.009379807295145058   -0.04194185987587674   -0.0017329348575361421
-0.007146511752918895   -0.03643505312197101   -0.0016254801260796004
-0.007246533416419098   -0.036345517247476866   -0.0016007734843213415
-0.006852823150705078   -0.04199142821440185   -0.001538476042726522
-0.004242230524475153   -0.03637415573741405   -0.001563394961692941
-0.00720400751535135   -0.03638241321130305   -0.001609679623027354
-0.006852823150705078   -0.04199142821440185   -0.001538476042726522
-0.004410509882162117   -0.042052538691719994   -0.0015348442395296182
-0.004242230524475153   -0.03637415573741405   -0.001563394961692941
-0.004338614352179928   -0.04205870868259422   -0.0015209182324812099
-0.00720400751535135   -0.03638241321130305   -0.001609679623027354
-0.0041959660288079705   -0.03639328990349358   -0.0015439803715141859
-0.004338614352179928   -0.04205870868259422   -0.0015209182324812099
-0.004242230524475153   -0.03637415573741405   -0.001563394961692941
-0.00720400751535135   -0.03638241321130305   -0.001609679623027354
-0.004338614352179928   -0.04205870868259422   -0.0015209182324812099
-0.006782708906772149   -0.04201034592464671   -0.001569476705871825
-0.006852823150705078   -0.04199142821440185   -0.001538476042726522
-0.00720400751535135   -0.03638241321130305   -0.001609679623027354
-0.004338614352179928   -0.04205870868259422   -0.0015209182324812099
-0.006852823150705078   -0.04199142821440185   -0.001538476042726522
-0.004242230524475153   -0.03637415573741405   -0.001563394961692941
-0.00720400751535135   -0.03638241321130305   -0.001609679623027354
-0.006782708906772149   -0.04201034592464671   -0.001569476705871825
-0.0041959660288079705   -0.03639328990349358   -0.0015439803715141859
-0.007146511752918895   -0.03643505312197101   -0.0016254801260796004
-0.006782708906772149   -0.04201034592464671   -0.001569476705871825
-0.004338614352179928   -0.04205870868259422   -0.0015209182324812099
-0.0041959660288079705   -0.03639328990349358   -0.0015439803715141859
-0.004264393573689586   -0.04208855130985974   -0.0015137660949887024
-0.007146511752918895   -0.03643505312197101   -0.0016254801260796004
-0.004146216228835272   -0.036427552514963366   -0.0015313750838299018
-0.004264393573689586   -0.04208855130985974   -0.0015137660949887024
-0.0041959660288079705   -0.03639328990349358   -0.0015439803715141859
-0.007146511752918895   -0.03643505312197101   -0.0016254801260796004
-0.004264393573689586   -0.04208855130985974   -0.0015137660949887024
-0.006694634524404457   -0.04205576501731807   -0.0016074581483629603
-0.006782708906772149   -0.04201034592464671   -0.001569476705871825
-0.007146511752918895   -0.03643505312197101   -0.0016254801260796004
-0.004264393573689586   -0.04208855130985974   -0.0015137660949887024
-0.006782708906772149   -0.04201034592464671   -0.001569476705871825
-0.0041959660288079705   -0.03639328990349358   -0.0015439803715141859
-0.007146511752918895   -0.03643505312197101   -0.0016254801260796004
-0.006694634524404457   -0.04205576501731807   -0.0016074581483629603
-0.004146216228835272   -0.036427552514963366   -0.0015313750838299018
-0.007084855616585704   -0.03650665350539218   -0.0016483726986981746
-0.006694634524404457   -0.04205576501731807   -0.0016074581483629603
-0.004264393573689586   -0.04208855130985974   -0.0015137660949887024
-0.004146216228835272   -0.036427552514963366   -0.0015313750838299018
-0.00419028565061051   -0.042143441180206395   -0.0015133075410283818
-0.007084855616585704   -0.03650665350539218   -0.0016483726986981746
-0.004095080258913341   -0.03647737227435248   -0.001525915717459044
-0.00419028565061051   -0.042143441180206395   -0.0015133075410283818
-0.004146216228835272   -0.036427552514963366   -0.0015313750838299018
-0.007084855616585704   -0.03650665350539218   -0.0016483726986981746
-0.00419028565061051   -0.042143441180206395   -0.0015133075410283818
-0.006607754909076014   -0.04213026720372442   -0.0016523544838809004
-0.006694634524404457   -0.04205576501731807   -0.0016074581483629603
-0.007084855616585704   -0.03650665350539218   -0.0016483726986981746
-0.00419028565061051   -0.042143441180206395   -0.0015133075410283818
-0.006694634524404457   -0.04205576501731807   -0.0016074581483629603
-0.004146216228835272   -0.036427552514963366   -0.0015313750838299018
-0.004242230524475153   -0.03637415573741405   -0.001563394961692941
-0.004410509882162117   -0.042052538691719994   -0.0015348442395296182
-0.0013287623276899412   -0.03635189187175009   -0.0015574521791870545
-0.0041959660288079705   -0.03639328990349358   -0.0015439803715141859
-0.004410509882162117   -0.042052538691719994   -0.0015348442395296182
-0.0020491299298619047   -0.04204101517343108   -0.0015525359351280074
-0.0013287623276899412   -0.03635189187175009   -0.0015574521791870545
-0.001970383534621934   -0.04203285204359939   -0.0014952551679061205
-0.0041959660288079705   -0.03639328990349358   -0.0015439803715141859
-0.0012775989598130053   -0.036352211265298535   -0.001510688273558618
-0.001970383534621934   -0.04203285204359939   -0.0014952551679061205
-0.0013287623276899412   -0.03635189187175009   -0.0015574521791870545
-0.0041959660288079705   -0.03639328990349358   -0.0015439803715141859
-0.001970383534621934   -0.04203285204359939   -0.0014952551679061205
-0.004338614352179928   -0.04205870868259422   -0.0015209182324812099
-0.004410509882162117   -0.042052538691719994   -0.0015348442395296182
-0.0041959660288079705   -0.03639328990349358   -0.0015439803715141859
-0.001970383534621934   -0.04203285204359939   -0.0014952551679061205
-0.004410509882162117   -0.042052538691719994   -0.0015348442395296182
-0.0013287623276899412   -0.03635189187175009   -0.0015574521791870545
-0.0041959660288079705   -0.03639328990349358   -0.0015439803715141859
-0.004338614352179928   -0.04205870868259422   -0.0015209182324812099
-0.0012775989598130053   -0.036352211265298535   -0.001510688273558618
-0.004146216228835272   -0.036427552514963366   -0.0015313750838299018
-0.004338614352179928   -0.04205870868259422   -0.0015209182324812099
-0.001970383534621934   -0.04203285204359939   -0.0014952551679061205
-0.0012775989598130053   -0.036352211265298535   -0.001510688273558618
-0.0018939357537326282   -0.0420461192855566   -0.0014451959636726667
-0.004146216228835272   -0.036427552514963366   -0.0015313750838299018
-0.0012277644279577826   -0.03636656444253076   -0.0014707529521225512
-0.0018939357537326282   -0.0420461192855566   -0.0014451959636726667
-0.0012775989598130053   -0.036352211265298535   -0.001510688273558618
-0.004146216228835272   -0.036427552514963366   -0.0015313750838299018
-0.0018939357537326282   -0.0420461192855566   -0.0014451959636726667
-0.004264393573689586   -0.04208855130985974   -0.0015137660949887024
-0.004338614352179928   -0.04205870868259422   -0.0015209182324812099
-0.004146216228835272   -0.036427552514963366   -0.0015313750838299018
-0.0018939357537326282   -0.0420461192855566   -0.0014451959636726667
-0.004338614352179928   -0.04205870868259422   -0.0015209182324812099
-0.0012775989598130053   -0.036352211265298535   -0.001510688273558618
-0.004146216228835272   -0.036427552514963366   -0.0015313750838299018
-0.004264393573689586   -0.04208855130985974   -0.0015137660949887024
-0.0012277644279577826   -0.03636656444253076   -0.0014707529521225512
-0.004095080258913341   -0.03647737227435248   -0.001525915717459044
-0.004264393573689586   -0.04208855130985974   -0.0015137660949887024
-0.0018939357537326282   -0.0420461192855566   -0.0014451959636726667
-0.0012277644279577826   -0.03636656444253076   -0.0014707529521225512
-0.0018248461733946   -0.04208388333453475   -0.001401736394219882
-0.004095080258913341   -0.03647737227435248   -0.001525915717459044
-0.0011832653926031498   -0.03639612949613277   -0.0014378825010640678
-0.0018248461733946   -0.04208388333453475   -0.001401736394219882
-0.0012277644279577826   -0.03636656444253076   -0.0014707529521225512
-0.004095080258913341   -0.03647737227435248   -0.001525915717459044
-0.0018248461733946   -0.04208388333453475   -0.001401736394219882
-0.00419028565061051   -0.042143441180206395   -0.0015133075410283818
-0.004264393573689586   -0.04208855130985974   -0.0015137660949887024
-0.004095080258913341   -0.03647737227435248   -0.001525915717459044
-0.0018248461733946   -0.04208388333453475   -0.001401736394219882
-0.004264393573689586   -0.04208855130985974   -0.0015137660949887024
-0.0012277644279577826   -0.03636656444253076   -0.0014707529521225512
-0.0013287623276899412   -0.03635189187175009   -0.0015574521791870545
-0.0020491299298619047   -0.04204101517343108   -0.0015525359351280074
0.0016844952799878591   -0.0362801657567773   -0.0015854082137768905
-0.0012775989598130053   -0.036352211265298535   -0.001510688273558618
-0.0020491299298619047   -0.04204101517343108   -0.0015525359351280074
0.0004218792668252175   -0.04195425066986127   -0.001595368079210558
0.0016844952799878591   -0.0362801657567773   -0.0015854082137768905
0.000517719200682687   -0.04192791445848207   -0.0014948686416554864
-0.0012775989598130053   -0.036352211265298535   -0.001510688273558618
0.0017470645510972143   -0.036260400416520025   -0.0015115401847087396
0.000517719200682687   -0.04192791445848207   -0.0014948686416554864
0.0016844952799878591   -0.0362801657567773   -0.0015854082137768905
-0.0012775989598130053   -0.036352211265298535   -0.001510688273558618
0.000517719200682687   -0.04192791445848207   -0.0014948686416554864
-0.001970383534621934   -0.04203285204359939   -0.0014952551679061205
-0.0020491299298619047   -0.04204101517343108   -0.0015525359351280074
-0.0012775989598130053   -0.036352211265298535   -0.001510688273558618
0.000517719200682687   -0.04192791445848207   -0.0014948686416554864
-0.0020491299298619047   -0.04204101517343108   -0.0015525359351280074
0.0016844952799878591   -0.0362801657567773   -0.0015854082137768905
-0.0012775989598130053   -0.036352211265298535   -0.001510688273558618
-0.001970383534621934   -0.04203285204359939   -0.0014952551679061205
0.0017470645510972143   -0.036260400416520025   -0.0015115401847087396
-0.0012277644279577826   -0.03636656444253076   -0.0014707529521225512
-0.001970383534621934   -0.04203285204359939   -0.0014952551679061205
0.000517719200682687   -0.04192791445848207   -0.0014948686416554864
0.0017470645510972143   -0.036260400416520025   -0.0015115401847087396
0.0006187931206802881   -0.04192553537102822   -0.0014035174002608067
-0.0012277644279577826   -0.03636656444253076   -0.0014707529521225512
0.001811268920585112   -0.03625667423162098   -0.0014449348096074199
0.0006187931206802881   -0.04192553537102822   -0.0014035174002608067
0.0017470645510972143   -0.036260400416520025   -0.0015115401847087396
-0.0012277644279577826   -0.03636656444253076   -0.0014707529521225512
0.0006187931206802881   -0.04192553537102822   -0.0014035174002608067
-0.0018939357537326282   -0.0420461192855566   -0.0014451959636726667
-0.001970383534621934   -0.04203285204359939   -0.0014952551679061205
-0.0012277644279577826   -0.03636656444253076   -0.0014707529521225512
0.0006187931206802881   -0.04192553537102822   -0.0014035174002608067
-0.001970383534621934   -0.04203285204359939   -0.0014952551679061205
0.0017470645510972143   -0.036260400416520025   -0.0015115401847087396
-0.0012277644279577826   -0.03636656444253076   -0.0014707529521225512
-0.0018939357537326282   -0.0420461192855566   -0.0014451959636726667
0.001811268920585112   -0.03625667423162098   -0.0014449348096074199
-0.0011832653926031498   -0.03639612949613277   -0.0014378825010640678
-0.0018939357537326282   -0.0420461192855566   -0.0014451959636726667
0.0006187931206802881   -0.04192553537102822   -0.0014035174002608067
0.001811268920585112   -0.03625667423162098   -0.0014449348096074199
0.0006927133311658479   -0.041946012624627216   -0.001318462354695437
-0.0011832653926031498   -0.03639612949613277   -0.0014378825010640678
0.001854048626643362   -0.036266037568703294   -0.0013846333195325618
0.0006927133311658479   -0.041946012624627216   -0.001318462354695437
0.001811268920585112   -0.03625667423162098   -0.0014449348096074199
-0.0011832653926031498   -0.03639612949613277   -0.0014378825010640678
0.0006927133311658479   -0.041946012624627216   -0.001318462354695437
-0.0018248461733946   -0.04208388333453475   -0.001401736394219882
-0.0018939357537326282   -0.0420461192855566   -0.0014451959636726667
-0.0011832653926031498   -0.03639612949613277   -0.0014378825010640678
0.0006927133311658479   -0.041946012624627216   -0.001318462354695437
-0.0018939357537326282   -0.0420461192855566   -0.0014451959636726667
0.001811268920585112   -0.03625667423162098   -0.0014449348096074199
0.0016844952799878591   -0.0362801657567773   -0.0015854082137768905
0.0004218792668252175   -0.04195425066986127   -0.001595368079210558
0.00488860914816826   -0.036156813536541585   -0.0016571298746272652
0.0017470645510972143   -0.036260400416520025   -0.0015115401847087396
0.0004218792668252175   -0.04195425066986127   -0.001595368079210558
0.0030543035432565938   -0.041784049552726604   -0.0016865931196852195
0.00488860914816826   -0.036156813536541585   -0.0016571298746272652
0.0032976194445771233   -0.04173356293233694   -0.0015327486633738784
0.0017470645510972143   -0.036260400416520025   -0.0015115401847087396
0.005055128591701546   -0.03611617449382589   -0.0015495748957668446
0.0032976194445771233   -0.04173356293233694   -0.0015327486633738784
0.00488860914816826   -0.036156813536541585   -0.0016571298746272652
0.0017470645510972143   -0.036260400416520025   -0.0015115401847087396
0.0032976194445771233   -0.04173356293233694   -0.0015327486633738784
0.000517719200682687   -0.04192791445848207   -0.0014948686416554864
0.0004218792668252175   -0.04195425066986127   -0.001595368079210558
0.0017470645510972143   -0.036260400416520025   -0.0015115401847087396
0.0032976194445771233   -0.04173356293233694   -0.0015327486633738784
0.0004218792668252175   -0.04195425066986127   -0.001595368079210558
0.00488860914816826   -0.036156813536541585   -0.0016571298746272652
0.0017470645510972143   -0.036260400416520025   -0.0015115401847087396
0.000517719200682687   -0.04192791445848207   -0.0014948686416554864
0.005055128591701546   -0.03611617449382589   -0.0015495748957668446
0.001811268920585112   -0.03625667423162098   -0.0014449348096074199
0.000517719200682687   -0.04192791445848207   -0.0014948686416554864
0.0032976194445771233   -0.04173356293233694   -0.0015327486633738784
0.005055128591701546   -0.03611617449382589   -0.0015495748957668446
0.0034842173936799883   -0.041724818610214216   -0.0013902512071130686
0.001811268920585112   -0.03625667423162098   -0.0014449348096074199
0.00517853899102187   -0.03610496196221185   -0.0014516853040745816
0.0034842173936799883   -0.041724818610214216   -0.0013902512071130686
0.005055128591701546   -0.03611617449382589   -0.0015495748957668446
0.001811268920585112   -0.03625667423162098   -0.0014449348096074199
0.0034842173936799883   -0.041724818610214216   -0.0013902512071130686
0.0006187931206802881   -0.04192553537102822   -0.0014035174002608067
0.000517719200682687   -0.04192791445848207   -0.0014948686416554864
0.001811268920585112   -0.03625667423162098   -0.0014449348096074199
0.0034842173936799883   -0.041724818610214216   -0.0013902512071130686
0.000517719200682687   -0.04192791445848207   -0.0014948686416554864
0.005055128591701546   -0.03611617449382589   -0.0015495748957668446
0.001811268920585112   -0.03625667423162098   -0.0014449348096074199
0.0006187931206802881   -0.04192553537102822   -0.0014035174002608067
0.00517853899102187   -0.03610496196221185   -0.0014516853040745816
0.001854048626643362   -0.036266037568703294   -0.0013846333195325618
0.0006187931206802881   -0.04192553537102822   -0.0014035174002608067
0.0034842173936799883   -0.041724818610214216   -0.0013902512071130686
0.00517853899102187   -0.03610496196221185   -0.0014516853040745816
0.0036777857466645894   -0.041739882040966236   -0.0012602605864790585
0.001854048626643362   -0.036266037568703294   -0.0013846333195325618
0.005303842767179938   -0.03610489359067454   -0.0013639066957700603
0.0036777857466645894   -0.041739882040966236   -0.0012602605864790585
0.00517853899102187   -0.03610496196221185   -0.0014516853040745816
0.001854048626643362   -0.036266037568703294   -0.0013846333195325618
0.0036777857466645894   -0.041739882040966236   -0.0012602605864790585
0.0006927133311658479   -0.041946012624627216   -0.001318462354695437
0.0006187931206802881   -0.04192553537102822   -0.0014035174002608067
0.001854048626643362   -0.036266037568703294   -0.0013846333195325618
0.0036777857466645894   -0.041739882040966236   -0.0012602605864790585
0.0006187931206802881   -0.04192553537102822   -0.0014035174002608067
0.00517853899102187   -0.03610496196221185   -0.0014516853040745816
-0.009671828192827194   -0.041860502912185224   -0.0015477962763771002
-0.008105538612340375   -0.046244932759889334   -0.0014047135389754326
-0.006852823150705078   -0.04199142821440185   -0.001538476042726522
-0.009525574916495135   -0.04188855315156863   -0.0016346828919037335
-0.008105538612340375   -0.046244932759889334   -0.0014047135389754326
-0.006098762359763927   -0.046438487705014124   -0.0014627019546208035
-0.006852823150705078   -0.04199142821440185   -0.001538476042726522
-0.005998094125468977   -0.04642862647746651   -0.0015103936611147739
-0.009525574916495135   -0.04188855315156863   -0.0016346828919037335
-0.006782708906772149   -0.04201034592464671   -0.001569476705871825
-0.005998094125468977   -0.04642862647746651   -0.0015103936611147739
-0.006852823150705078   -0.04199142821440185   -0.001538476042726522
-0.009525574916495135   -0.04188855315156863   -0.0016346828919037335
-0.005998094125468977   -0.04642862647746651   -0.0015103936611147739
-0.007888052973137733   -0.04623955556654867   -0.0015332814583221656
-0.008105538612340375   -0.046244932759889334   -0.0014047135389754326
-0.009525574916495135   -0.04188855315156863   -0.0016346828919037335
-0.005998094125468977   -0.04642862647746651   -0.0015103936611147739
-0.008105538612340375   -0.046244932759889334   -0.0014047135389754326
-0.006852823150705078   -0.04199142821440185   -0.001538476042726522
-0.009525574916495135   -0.04188855315156863   -0.0016346828919037335
-0.007888052973137733   -0.04623955556654867   -0.0015332814583221656
-0.006782708906772149   -0.04201034592464671   -0.001569476705871825
-0.009379807295145058   -0.04194185987587674   -0.0017329348575361421
-0.007888052973137733   -0.04623955556654867   -0.0015332814583221656
-0.005998094125468977   -0.04642862647746651   -0.0015103936611147739
-0.006782708906772149   -0.04201034592464671   -0.001569476705871825
-0.005879617008203599   -0.04645667613513426   -0.0015652033554128736
-0.009379807295145058   -0.04194185987587674   -0.0017329348575361421
-0.006694634524404457   -0.04205576501731807   -0.0016074581483629603
-0.005879617008203599   -0.04645667613513426   -0.0015652033554128736
-0.006782708906772149   -0.04201034592464671   -0.001569476705871825
-0.009379807295145058   -0.04194185987587674   -0.0017329348575361421
-0.005879617008203599   -0.04645667613513426   -0.0015652033554128736
-0.007687654879281343   -0.04627418140388957   -0.001671879640602346
-0.007888052973137733   -0.04623955556654867   -0.0015332814583221656
-0.009379807295145058   -0.04194185987587674   -0.0017329348575361421
-0.005879617008203599   -0.04645667613513426   -0.0015652033554128736
-0.007888052973137733   -0.04623955556654867   -0.0015332814583221656
-0.006782708906772149   -0.04201034592464671   -0.001569476705871825
-0.009379807295145058   -0.04194185987587674   -0.0017329348575361421
-0.007687654879281343   -0.04627418140388957   -0.001671879640602346
-0.006694634524404457   -0.04205576501731807   -0.0016074581483629603
-0.009193120909611881   -0.04204126211715328   -0.0018423517553410058
-0.007687654879281343   -0.04627418140388957   -0.001671879640602346
-0.005879617008203599   -0.04645667613513426   -0.0015652033554128736
-0.006694634524404457   -0.04205576501731807   -0.0016074581483629603
-0.005772139189866918   -0.04652328723030282   -0.0016266773392931172
-0.009193120909611881   -0.04204126211715328   -0.0018423517553410058
-0.006607754909076014   -0.04213026720372442   -0.0016523544838809004
-0.005772139189866918   -0.04652328723030282   -0.0016266773392931172
-0.006694634524404457   -0.04205576501731807   -0.0016074581483629603
-0.009193120909611881   -0.04204126211715328   -0.0018423517553410058
-0.005772139189866918   -0.04652328723030282   -0.0016266773392931172
-0.007443183399584423   -0.04636639852818694   -0.0018199258739659242
-0.007687654879281343   -0.04627418140388957   -0.001671879640602346
-0.009193120909611881   -0.04204126211715328   -0.0018423517553410058
-0.005772139189866918   -0.04652328723030282   -0.0016266773392931172
-0.007687654879281343   -0.04627418140388957   -0.001671879640602346
-0.006694634524404457   -0.04205576501731807   -0.0016074581483629603
-0.006852823150705078   -0.04199142821440185   -0.001538476042726522
-0.006098762359763927   -0.046438487705014124   -0.0014627019546208035
-0.004410509882162117   -0.042052538691719994   -0.0015348442395296182
-0.006782708906772149   -0.04201034592464671   -0.001569476705871825
-0.006098762359763927   -0.046438487705014124   -0.0014627019546208035
-0.004457493198850177   -0.0465634370431397   -0.0015081010050968361
-0.004410509882162117   -0.042052538691719994   -0.0015348442395296182
-0.004354263519206532   -0.046547526838895126   -0.001493525056265948
-0.006782708906772149   -0.04201034592464671   -0.001569476705871825
-0.004338614352179928   -0.04205870868259422   -0.0015209182324812099
-0.004354263519206532   -0.046547526838895126   -0.001493525056265948
-0.004410509882162117   -0.042052538691719994   -0.0015348442395296182
-0.006782708906772149   -0.04201034592464671   -0.001569476705871825
-0.004354263519206532   -0.046547526838895126   -0.001493525056265948
-0.005998094125468977   -0.04642862647746651   -0.0015103936611147739
-0.006098762359763927   -0.046438487705014124   -0.0014627019546208035
-0.006782708906772149   -0.04201034592464671   -0.001569476705871825
-0.004354263519206532   -0.046547526838895126   -0.001493525056265948
-0.006098762359763927   -0.046438487705014124   -0.0014627019546208035
-0.004410509882162117   -0.042052538691719994   -0.0015348442395296182
-0.006782708906772149   -0.04201034592464671   -0.001569476705871825
-0.005998094125468977   -0.04642862647746651   -0.0015103936611147739
-0.004338614352179928   -0.04205870868259422   -0.0015209182324812099
-0.006694634524404457   -0.04205576501731807   -0.0016074581483629603
-0.005998094125468977   -0.04642862647746651   -0.0015103936611147739
-0.004354263519206532   -0.046547526838895126   -0.001493525056265948
-0.004338614352179928   -0.04205870868259422   -0.0015209182324812099
-0.004252442535668354   -0.04656436389731651   -0.001485867756158553
-0.006694634524404457   -0.04205576501731807   -0.0016074581483629603
-0.004264393573689586   -0.04208855130985974   -0.0015137660949887024
-0.004252442535668354   -0.04656436389731651   -0.001485867756158553
-0.004338614352179928   -0.04205870868259422   -0.0015209182324812099
-0.006694634524404457   -0.04205576501731807   -0.0016074581483629603
-0.004252442535668354   -0.04656436389731651   -0.001485867756158553
-0.005879617008203599   -0.04645667613513426   -0.0015652033554128736
-0.005998094125468977   -0.04642862647746651   -0.0015103936611147739
-0.006694634524404457   -0.04205576501731807   -0.0016074581483629603
-0.004252442535668354   -0.04656436389731651   -0.001485867756158553
-0.005998094125468977   -0.04642862647746651   -0.0015103936611147739
-0.004338614352179928   -0.04205870868259422   -0.0015209182324812099
-0.006694634524404457   -0.04205576501731807   -0.0016074581483629603
-0.005879617008203599   -0.04645667613513426   -0.0015652033554128736
-0.004264393573689586   -0.04208855130985974   -0.0015137660949887024
-0.006607754909076014   -0.04213026720372442   -0.0016523544838809004
-0.005879617008203599   -0.04645667613513426   -0.0015652033554128736
-0.004252442535668354   -0.04656436389731651   -0.001485867756158553
-0.004264393573689586   -0.04208855130985974   -0.0015137660949887024
-0.004158708815245708   -0.0466150181727533   -0.0014865708193727194
-0.006607754909076014   -0.04213026720372442   -0.0016523544838809004
-0.00419028565061051   -0.042143441180206395   -0.0015133075410283818
-0.004158708815245708   -0.0466150181727533   -0.0014865708193727194
-0.004264393573689586   -0.04208855130985974   -0.0015137660949887024
-0.006607754909076014   -0.04213026720372442   -0.0016523544838809004
-0.004158708815245708   -0.0466150181727533   -0.0014865708193727194
-0.005772139189866918   -0.04652328723030282   -0.0016266773392931172
-0.005879617008203599   -0.04645667613513426   -0.0015652033554128736
-0.006607754909076014   -0.04213026720372442   -0.0016523544838809004
-0.004158708815245708   -0.0466150181727533   -0.0014865708193727194
-0.005879617008203599   -0.04645667613513426   -0.0015652033554128736
-0.004264393573689586   -0.04208855130985974   -0.0015137660949887024
-0.004410509882162117   -0.042052538691719994   -0.0015348442395296182
-0.004457493198850177   -0.0465634370431397   -0.0015081010050968361
-0.0020491299298619047   -0.04204101517343108   -0.0015525359351280074
-0.004338614352179928   -0.04205870868259422   -0.0015209182324812099
-0.004457493198850177   -0.0465634370431397   -0.0015081010050968361
-0.002885327983747164   -0.04662830085400542   -0.0015619207371680422
-0.0020491299298619047   -0.04204101517343108   -0.0015525359351280074
-0.0027689756227700906   -0.04660524242298309   -0.0014885920181096812
-0.004338614352179928   -0.04205870868259422   -0.0015209182324812099
-0.001970383534621934   -0.04203285204359939   -0.0014952551679061205
-0.0027689756227700906   -0.04660524242298309   -0.0014885920181096812
-0.0020491299298619047   -0.04204101517343108   -0.0015525359351280074
-0.004338614352179928   -0.04205870868259422   -0.0015209182324812099
-0.0027689756227700906   -0.04660524242298309   -0.0014885920181096812
-0.004354263519206532   -0.046547526838895126   -0.001493525056265948
-0.004457493198850177   -0.0465634370431397   -0.0015081010050968361
-0.004338614352179928   -0.04205870868259422   -0.0015209182324812099
-0.0027689756227700906   -0.04660524242298309   -0.0014885920181096812
-0.004457493198850177   -0.0465634370431397   -0.0015081010050968361
-0.0020491299298619047   -0.04204101517343108   -0.0015525359351280074
-0.004338614352179928   -0.04205870868259422   -0.0015209182324812099
-0.004354263519206532   -0.046547526838895126   -0.001493525056265948
-0.001970383534621934   -0.04203285204359939   -0.0014952551679061205
-0.004264393573689586   -0.04208855130985974   -0.0015137660949887024
-0.004354263519206532   -0.046547526838895126   -0.001493525056265948
-0.0027689756227700906   -0.04660524242298309   -0.0014885920181096812
-0.001970383534621934   -0.04203285204359939   -0.0014952551679061205
-0.0026580276071628424   -0.046611022319408175   -0.001421397268443692
-0.004264393573689586   -0.04208855130985974   -0.0015137660949887024
-0.0018939357537326282   -0.0420461192855566   -0.0014451959636726667
-0.0026580276071628424   -0.046611022319408175   -0.001421397268443692
-0.001970383534621934   -0.04203285204359939   -0.0014952551679061205
-0.004264393573689586   -0.04208855130985974   -0.0015137660949887024
-0.0026580276071628424   -0.046611022319408175   -0.001421397268443692
-0.004252442535668354   -0.04656436389731651   -0.001485867756158553
-0.004354263519206532   -0.046547526838895126   -0.001493525056265948
-0.004264393573689586   -0.04208855130985974   -0.0015137660949887024
-0.0026580276071628424   -0.046611022319408175   -0.001421397268443692
-0.004354263519206532   -0.046547526838895126   -0.001493525056265948
-0.001970383534621934   -0.04203285204359939   -0.0014952551679061205
-0.004264393573689586   -0.04208855130985974   -0.0015137660949887024
-0.004252442535668354   -0.04656436389731651   -0.001485867756158553
-0.0018939357537326282   -0.0420461192855566   -0.0014451959636726667
-0.00419028565061051   -0.042143441180206395   -0.0015133075410283818
-0.004252442535668354   -0.04656436389731651   -0.001485867756158553
-0.0026580276071628424   -0.046611022319408175   -0.001421397268443692
-0.0018939357537326282   -0.0420461192855566   -0.0014451959636726667
-0.00256568608380365   -0.04665118117422057   -0.0013641269073227233
-0.00419028565061051   -0.042143441180206395   -0.0015133075410283818
-0.0018248461733946   -0.04208388333453475   -0.001401736394219882
-0.00256568608380365   -0.04665118117422057   -0.0013641269073227233
-0.0018939357537326282   -0.0420461192855566   -0.0014451959636726667
-0.00419028565061051   -0.042143441180206395   -0.0015133075410283818
-0.00256568608380365   -0.04665118117422057   -0.0013641269073227233
-0.004158708815245708   -0.0466150181727533   -0.0014865708193727194
-0.004252442535668354   -0.04656436389731651   -0.001485867756158553
-0.00419028565061051   -0.042143441180206395   -0.0015133075410283818
-0.00256568608380365   -0.04665118117422057   -0.0013641269073227233
-0.004252442535668354   -0.04656436389731651   -0.001485867756158553
-0.0018939357537326282   -0.0420461192855566   -0.0014451959636726667
-0.0020491299298619047   -0.04204101517343108   -0.0015525359351280074
-0.002885327983747164   -0.04662830085400542   -0.0015619207371680422
0.0004218792668252175   -0.04195425066986127   -0.001595368079210558
-0.001970383534621934   -0.04203285204359939   -0.0014952551679061205
-0.002885327983747164   -0.04662830085400542   -0.0015619207371680422
-0.0012147022551737346   -0.04661023557017319   -0.0016254630424157033
0.0004218792668252175   -0.04195425066986127   -0.001595368079210558
-0.0010653127709703712   -0.04657405844328378   -0.0014958843333507013
-0.001970383534621934   -0.04203285204359939   -0.0014952551679061205
0.000517719200682687   -0.04192791445848207   -0.0014948686416554864
-0.0010653127709703712   -0.04657405844328378   -0.0014958843333507013
0.0004218792668252175   -0.04195425066986127   -0.001595368079210558
-0.001970383534621934   -0.04203285204359939   -0.0014952551679061205
-0.0010653127709703712   -0.04657405844328378   -0.0014958843333507013
-0.0027689756227700906   -0.04660524242298309   -0.0014885920181096812
-0.002885327983747164   -0.04662830085400542   -0.0015619207371680422
-0.001970383534621934   -0.04203285204359939   -0.0014952551679061205
-0.0010653127709703712   -0.04657405844328378   -0.0014958843333507013
-0.002885327983747164   -0.04662830085400542   -0.0015619207371680422
0.0004218792668252175   -0.04195425066986127   -0.001595368079210558
-0.001970383534621934   -0.04203285204359939   -0.0014952551679061205
-0.0027689756227700906   -0.04660524242298309   -0.0014885920181096812
0.000517719200682687   -0.04192791445848207   -0.0014948686416554864
-0.0018939357537326282   -0.0420461192855566   -0.0014451959636726667
-0.0027689756227700906   -0.04660524242298309   -0.0014885920181096812
-0.0010653127709703712   -0.04657405844328378   -0.0014958843333507013
0.000517719200682687   -0.04192791445848207   -0.0014948686416554864
-0.0009124170983598702   -0.04656777208132746   -0.0013728566319866002
-0.0018939357537326282   -0.0420461192855566   -0.0014451959636726667
0.0006187931206802881   -0.04192553537102822   -0.0014035174002608067
-0.0009124170983598702   -0.04656777208132746   -0.0013728566319866002
0.000517719200682687   -0.04192791445848207   -0.0014948686416554864
-0.0018939357537326282   -0.0420461192855566   -0.0014451959636726667
-0.0009124170983598702   -0.04656777208132746   -0.0013728566319866002
-0.0026580276071628424   -0.046611022319408175   -0.001421397268443692
-0.0027689756227700906   -0.04660524242298309   -0.0014885920181096812
-0.0018939357537326282   -0.0420461192855566   -0.0014451959636726667
-0.0009124170983598702   -0.04656777208132746   -0.0013728566319866002
-0.0027689756227700906   -0.04660524242298309   -0.0014885920181096812
0.000517719200682687   -0.04192791445848207   -0.0014948686416554864
-0.0018939357537326282   -0.0420461192855566   -0.0014451959636726667
-0.0026580276071628424   -0.046611022319408175   -0.001421397268443692
0.0006187931206802881   -0.04192553537102822   -0.0014035174002608067
-0.0018248461733946   -0.04208388333453475   -0.001401736394219882
-0.0026580276071628424   -0.046611022319408175   -0.001421397268443692
-0.0009124170983598702   -0.04656777208132746   -0.0013728566319866002
0.0006187931206802881   -0.04192553537102822   -0.0014035174002608067
-0.000799267455471464   -0.046597746284595946   -0.001261038473747419
-0.0018248461733946   -0.04208388333453475   -0.001401736394219882
0.0006927133311658479   -0.041946012624627216   -0.001318462354695437
-0.000799267455471464   -0.046597746284595946   -0.001261038473747419
0.0006187931206802881   -0.04192553537102822   -0.0014035174002608067
-0.0018248461733946   -0.04208388333453475   -0.001401736394219882
-0.000799267455471464   -0.046597746284595946   -0.001261038473747419
-0.00256568608380365   -0.04665118117422057   -0.0013641269073227233
-0.0026580276071628424   -0.046611022319408175   -0.001421397268443692
-0.0018248461733946   -0.04208388333453475   -0.001401736394219882
-0.000799267455471464   -0.046597746284595946   -0.001261038473747419
-0.0026580276071628424   -0.046611022319408175   -0.001421397268443692
0.0006187931206802881   -0.04192553537102822   -0.0014035174002608067
0.0004218792668252175   -0.04195425066986127   -0.001595368079210558
-0.0012147022551737346   -0.04661023557017319   -0.0016254630424157033
0.0030543035432565938   -0.041784049552726604   -0.0016865931196852195
0.000517719200682687   -0.04192791445848207   -0.0014948686416554864
-0.0012147022551737346   -0.04661023557017319   -0.0016254630424157033
0.0005810109809208894   -0.04644924138696024   -0.001755175088333116
0.0030543035432565938   -0.041784049552726604   -0.0016865931196852195
0.0009304123842336826   -0.04637067809971642   -0.0015432973388509906
0.000517719200682687   -0.04192791445848207   -0.0014948686416554864
0.0032976194445771233   -0.04173356293233694   -0.0015327486633738784
0.0009304123842336826   -0.04637067809971642   -0.0015432973388509906
0.0030543035432565938   -0.041784049552726604   -0.0016865931196852195
0.000517719200682687   -0.04192791445848207   -0.0014948686416554864
0.0009304123842336826   -0.04637067809971642   -0.0015432973388509906
-0.0010653127709703712   -0.04657405844328378   -0.0014958843333507013
-0.0012147022551737346   -0.04661023557017319   -0.0016254630424157033
0.000517719200682687   -0.04192791445848207   -0.0014948686416554864
0.0009304123842336826   -0.04637067809971642   -0.0015432973388509906
-0.0012147022551737346   -0.04661023557017319   -0.0016254630424157033
0.0030543035432565938   -0.041784049552726604   -0.0016865931196852195
0.000517719200682687   -0.04192791445848207   -0.0014948686416554864
-0.0010653127709703712   -0.04657405844328378   -0.0014958843333507013
0.0032976194445771233   -0.04173356293233694   -0.0015327486633738784
0.0006187931206802881   -0.04192553537102822   -0.0014035174002608067
-0.0010653127709703712   -0.04657405844328378   -0.0014958843333507013
0.0009304123842336826   -0.04637067809971642   -0.0015432973388509906
0.0032976194445771233   -0.04173356293233694   -0.0015327486633738784
0.0012049295891412392   -0.04635484653694386   -0.0013442541718803995
0.0006187931206802881   -0.04192553537102822   -0.0014035174002608067
0.0034842173936799883   -0.041724818610214216   -0.0013902512071130686
0.0012049295891412392   -0.04635484653694386   -0.0013442541718803995
0.0032976194445771233   -0.04173356293233694   -0.0015327486633738784
0.0006187931206802881   -0.04192553537102822   -0.0014035174002608067
0.0012049295891412392   -0.04635484653694386   -0.0013442541718803995
-0.0009124170983598702   -0.04656777208132746   -0.0013728566319866002
-0.0010653127709703712   -0.04657405844328378   -0.0014958843333507013
0.0006187931206802881   -0.04192553537102822   -0.0014035174002608067
0.0012049295891412392   -0.04635484653694386   -0.0013442541718803995
-0.0010653127709703712   -0.04657405844328378   -0.0014958843333507013
0.0032976194445771233   -0.04173356293233694   -0.0015327486633738784
0.0006187931206802881   -0.04192553537102822   -0.0014035174002608067
-0.0009124170983598702   -0.04656777208132746   -0.0013728566319866002
0.0034842173936799883   -0.041724818610214216   -0.0013902512071130686
0.0006927133311658479   -0.041946012624627216   -0.001318462354695437
-0.0009124170983598702   -0.04656777208132746   -0.0013728566319866002
0.0012049295891412392   -0.04635484653694386   -0.0013442541718803995
0.0034842173936799883   -0.041724818610214216   -0.0013902512071130686
0.0014905203849601841   -0.046368555359509386   -0.0011623483345420851
0.0006927133311658479   -0.041946012624627216   -0.001318462354695437
0.0036777857466645894   -0.041739882040966236   -0.0012602605864790585
0.0014905203849601841   -0.046368555359509386   -0.0011623483345420851
0.0034842173936799883   -0.041724818610214216   -0.0013902512071130686
0.0006927133311658479   -0.041946012624627216   -0.001318462354695437
0.0014905203849601841   -0.046368555359509386   -0.0011623483345420851
-0.000799267455471464   -0.046597746284595946   -0.001261038473747419
-0.0009124170983598702   -0.04656777208132746   -0.0013728566319866002
0.0006927133311658479   -0.041946012624627216   -0.001318462354695437
0.0014905203849601841   -0.046368555359509386   -0.0011623483345420851
-0.0009124170983598702   -0.04656777208132746   -0.0013728566319866002
0.0034842173936799883   -0.041724818610214216   -0.0013902512071130686
-0.008105538612340375   -0.046244932759889334   -0.0014047135389754326
-0.005955261651295604   -0.04885332298678588   -0.0012365184202139754
-0.006098762359763927   -0.046438487705014124   -0.0014627019546208035
-0.007888052973137733   -0.04623955556654867   -0.0015332814583221656
-0.005955261651295604   -0.04885332298678588   -0.0012365184202139754
-0.005018712423565291   -0.04909786488439496   -0.0013831220947209052
-0.006098762359763927   -0.046438487705014124   -0.0014627019546208035
-0.004891923924713674   -0.04904979744637681   -0.0014339572262529457
-0.007888052973137733   -0.04623955556654867   -0.0015332814583221656
-0.005998094125468977   -0.04642862647746651   -0.0015103936611147739
-0.004891923924713674   -0.04904979744637681   -0.0014339572262529457
-0.006098762359763927   -0.046438487705014124   -0.0014627019546208035
-0.007888052973137733   -0.04623955556654867   -0.0015332814583221656
-0.004891923924713674   -0.04904979744637681   -0.0014339572262529457
-0.005684541863588723   -0.04879913642348516   -0.0013907027209711334
-0.005955261651295604   -0.04885332298678588   -0.0012365184202139754
-0.007888052973137733   -0.04623955556654867   -0.0015332814583221656
-0.004891923924713674   -0.04904979744637681   -0.0014339572262529457
-0.005955261651295604   -0.04885332298678588   -0.0012365184202139754
-0.006098762359763927   -0.046438487705014124   -0.0014627019546208035
-0.007888052973137733   -0.04623955556654867   -0.0015332814583221656
-0.005684541863588723   -0.04879913642348516   -0.0013907027209711334
-0.005998094125468977   -0.04642862647746651   -0.0015103936611147739
-0.007687654879281343   -0.04627418140388957   -0.001671879640602346
-0.005684541863588723   -0.04879913642348516   -0.0013907027209711334
-0.004891923924713674   -0.04904979744637681   -0.0014339572262529457
-0.005998094125468977   -0.04642862647746651   -0.0015103936611147739
-0.004751375046646486   -0.04905250987100674   -0.0014853134199660078
-0.007687654879281343   -0.04627418140388957   -0.001671879640602346
-0.005879617008203599   -0.04645667613513426   -0.0015652033554128736
-0.004751375046646486   -0.04905250987100674   -0.0014853134199660078
-0.005998094125468977   -0.04642862647746651   -0.0015103936611147739
-0.007687654879281343   -0.04627418140388957   -0.001671879640602346
-0.004751375046646486   -0.04905250987100674   -0.0014853134199660078
-0.005450995046522071   -0.04880415113248885   -0.001544322916865446
-0.005684541863588723   -0.04879913642348516   -0.0013907027209711334
-0.007687654879281343   -0.04627418140388957   -0.001671879640602346
-0.004751375046646486   -0.04905250987100674   -0.0014853134199660078
-0.005684541863588723   -0.04879913642348516   -0.0013907027209711334
-0.005998094125468977   -0.04642862647746651   -0.0015103936611147739
-0.007687654879281343   -0.04627418140388957   -0.001671879640602346
-0.005450995046522071   -0.04880415113248885   -0.001544322916865446
-0.005879617008203599   -0.04645667613513426   -0.0015652033554128736
-0.007443183399584423   -0.04636639852818694   -0.0018199258739659242
-0.005450995046522071   -0.04880415113248885   -0.001544322916865446
-0.004751375046646486   -0.04905250987100674   -0.0014853134199660078
-0.005879617008203599   -0.04645667613513426   -0.0015652033554128736
-0.004620876789515763   -0.04910625375482218   -0.001537404909638873
-0.007443183399584423   -0.04636639852818694   -0.0018199258739659242
-0.005772139189866918   -0.04652328723030282   -0.0016266773392931172
-0.004620876789515763   -0.04910625375482218   -0.001537404909638873
-0.005879617008203599   -0.04645667613513426   -0.0015652033554128736
-0.007443183399584423   -0.04636639852818694   -0.0018199258739659242
-0.004620876789515763   -0.04910625375482218   -0.001537404909638873
-0.005173880263819205   -0.048871802807570155   -0.001701242595281246
-0.005450995046522071   -0.04880415113248885   -0.001544322916865446
-0.007443183399584423   -0.04636639852818694   -0.0018199258739659242
-0.004620876789515763   -0.04910625375482218   -0.001537404909638873
-0.005450995046522071   -0.04880415113248885   -0.001544322916865446
-0.005879617008203599   -0.04645667613513426   -0.0015652033554128736
-0.006098762359763927   -0.046438487705014124   -0.0014627019546208035
-0.005018712423565291   -0.04909786488439496   -0.0013831220947209052
-0.004457493198850177   -0.0465634370431397   -0.0015081010050968361
-0.005998094125468977   -0.04642862647746651   -0.0015103936611147739
-0.005018712423565291   -0.04909786488439496   -0.0013831220947209052
-0.004331501808997188   -0.04934204928979021   -0.0015126042294877045
-0.004457493198850177   -0.0465634370431397   -0.0015081010050968361
-0.004197854649530341   -0.049292664567155774   -0.001477346142997205
-0.005998094125468977   -0.04642862647746651   -0.0015103936611147739
-0.004354263519206532   -0.046547526838895126   -0.001493525056265948
-0.004197854649530341   -0.049292664567155774   -0.001477346142997205
-0.004457493198850177   -0.0465634370431397   -0.0015081010050968361
-0.005998094125468977   -0.04642862647746651   -0.0015103936611147739
-0.004197854649530341   -0.049292664567155774   -0.001477346142997205
-0.004891923924713674   -0.04904979744637681   -0.0014339572262529457
-0.005018712423565291   -0.04909786488439496   -0.0013831220947209052
-0.005998094125468977   -0.04642862647746651   -0.0015103936611147739
-0.004197854649530341   -0.049292664567155774   -0.001477346142997205
-0.005018712423565291   -0.04909786488439496   -0.0013831220947209052
-0.004457493198850177   -0.0465634370431397   -0.0015081010050968361
-0.005998094125468977   -0.04642862647746651   -0.0015103936611147739
-0.004891923924713674   -0.04904979744637681   -0.0014339572262529457
-0.004354263519206532   -0.046547526838895126   -0.001493525056265948
-0.005879617008203599   -0.04645667613513426   -0.0015652033554128736
-0.004891923924713674   -0.04904979744637681   -0.0014339572262529457
-0.004197854649530341   -0.049292664567155774   -0.001477346142997205
-0.004354263519206532   -0.046547526838895126   -0.001493525056265948
-0.004068580093133188   -0.04929202990438835   -0.0014416583196894476
-0.005879617008203599   -0.04645667613513426   -0.0015652033554128736
-0.004252442535668354   -0.04656436389731651   -0.001485867756158553
-0.004068580093133188   -0.04929202990438835   -0.0014416583196894476
-0.004354263519206532   -0.046547526838895126   -0.001493525056265948
-0.005879617008203599   -0.04645667613513426   -0.0015652033554128736
-0.004068580093133188   -0.04929202990438835   -0.0014416583196894476
-0.004751375046646486   -0.04905250987100674   -0.0014853134199660078
-0.004891923924713674   -0.04904979744637681   -0.0014339572262529457
-0.005879617008203599   -0.04645667613513426   -0.0015652033554128736
-0.004068580093133188   -0.04929202990438835   -0.0014416583196894476
-0.004891923924713674   -0.04904979744637681   -0.0014339572262529457
-0.004354263519206532   -0.046547526838895126   -0.001493525056265948
-0.005879617008203599   -0.04645667613513426   -0.0015652033554128736
-0.004751375046646486   -0.04905250987100674   -0.0014853134199660078
-0.004252442535668354   -0.04656436389731651   -0.001485867756158553
-0.005772139189866918   -0.04652328723030282   -0.0016266773392931172
-0.004751375046646486   -0.04905250987100674   -0.0014853134199660078
-0.004068580093133188   -0.04929202990438835   -0.0014416583196894476
-0.004252442535668354   -0.04656436389731651   -0.001485867756158553
-0.0039338509961989445   -0.049339143261630795   -0.001407401239331319
-0.005772139189866918   -0.04652328723030282   -0.0016266773392931172
-0.004158708815245708   -0.0466150181727533   -0.0014865708193727194
-0.0039338509961989445   -0.049339143261630795   -0.001407401239331319
-0.004252442535668354   -0.04656436389731651   -0.001485867756158553
-0.005772139189866918   -0.04652328723030282   -0.0016266773392931172
-0.0039338509961989445   -0.049339143261630795   -0.001407401239331319
-0.004620876789515763   -0.04910625375482218   -0.001537404909638873
-0.004751375046646486   -0.04905250987100674   -0.0014853134199660078
-0.005772139189866918   -0.04652328723030282   -0.0016266773392931172
-0.0039338509961989445   -0.049339143261630795   -0.001407401239331319
-0.004751375046646486   -0.04905250987100674   -0.0014853134199660078
-0.004252442535668354   -0.04656436389731651   -0.001485867756158553
-0.004457493198850177   -0.0465634370431397   -0.0015081010050968361
-0.004331501808997188   -0.04934204928979021   -0.0015126042294877045
-0.002885327983747164   -0.04662830085400542   -0.0015619207371680422
-0.004354263519206532   -0.046547526838895126   -0.001493525056265948
-0.004331501808997188   -0.04934204928979021   -0.0015126042294877045
-0.003703440360115531   -0.04963540884960182   -0.0016553714111060306
-0.002885327983747164   -0.04662830085400542   -0.0015619207371680422
-0.00353968345537382   -0.04959241414679849   -0.001529217415428199
-0.004354263519206532   -0.046547526838895126   -0.001493525056265948
-0.0027689756227700906   -0.04660524242298309   -0.0014885920181096812
-0.00353968345537382   -0.04959241414679849   -0.001529217415428199
-0.002885327983747164   -0.04662830085400542   -0.0015619207371680422
-0.004354263519206532   -0.046547526838895126   -0.001493525056265948
-0.00353968345537382   -0.04959241414679849   -0.001529217415428199
-0.004197854649530341   -0.049292664567155774   -0.001477346142997205
-0.004331501808997188   -0.04934204928979021   -0.0015126042294877045
-0.004354263519206532   -0.046547526838895126   -0.001493525056265948
-0.00353968345537382   -0.04959241414679849   -0.001529217415428199
-0.004331501808997188   -0.04934204928979021   -0.0015126042294877045
-0.002885327983747164   -0.04662830085400542   -0.0015619207371680422
-0.004354263519206532   -0.046547526838895126   -0.001493525056265948
-0.004197854649530341   -0.049292664567155774   -0.001477346142997205
-0.0027689756227700906   -0.04660524242298309   -0.0014885920181096812
-0.004252442535668354   -0.04656436389731651   -0.001485867756158553
-0.004197854649530341   -0.049292664567155774   -0.001477346142997205
-0.00353968345537382   -0.04959241414679849   -0.001529217415428199
-0.0027689756227700906   -0.04660524242298309   -0.0014885920181096812
-0.0033878589272334676   -0.04959025931458749   -0.001403436392575621
-0.004252442535668354   -0.04656436389731651   -0.001485867756158553
-0.0026580276071628424   -0.046611022319408175   -0.001421397268443692
-0.0033878589272334676   -0.04959025931458749   -0.001403436392575621
-0.0027689756227700906   -0.04660524242298309   -0.0014885920181096812
-0.004252442535668354   -0.04656436389731651   -0.001485867756158553
-0.0033878589272334676   -0.04959025931458749   -0.001403436392575621
-0.004068580093133188   -0.04929202990438835   -0.0014416583196894476
-0.004197854649530341   -0.049292664567155774   -0.001477346142997205
-0.004252442535668354   -0.04656436389731651   -0.001485867756158553
-0.0033878589272334676   -0.04959025931458749   -0.001403436392575621
-0.004197854649530341   -0.049292664567155774   -0.001477346142997205
-0.0027689756227700906   -0.04660524242298309   -0.0014885920181096812
-0.004252442535668354   -0.04656436389731651   -0.001485867756158553
-0.004068580093133188   -0.04929202990438835   -0.0014416583196894476
-0.0026580276071628424   -0.046611022319408175   -0.001421397268443692
-0.004158708815245708   -0.0466150181727533   -0.0014865708193727194
-0.004068580093133188   -0.04929202990438835   -0.0014416583196894476
-0.0033878589272334676   -0.04959025931458749   -0.001403436392575621
-0.0026580276071628424   -0.046611022319408175   -0.001421397268443692
-0.003224973540488406   -0.049626777090039736   -0.0012774656658748444
-0.004158708815245708   -0.0466150181727533   -0.0014865708193727194
-0.00256568608380365   -0.04665118117422057   -0.0013641269073227233
-0.003224973540488406   -0.049626777090039736   -0.0012774656658748444
-0.0026580276071628424   -0.046611022319408175   -0.001421397268443692
-0.004158708815245708   -0.0466150181727533   -0.0014865708193727194
-0.003224973540488406   -0.049626777090039736   -0.0012774656658748444
-0.0039338509961989445   -0.049339143261630795   -0.001407401239331319
-0.004068580093133188   -0.04929202990438835   -0.0014416583196894476
-0.004158708815245708   -0.0466150181727533   -0.0014865708193727194
-0.003224973540488406   -0.049626777090039736   -0.0012774656658748444
-0.004068580093133188   -0.04929202990438835   -0.0014416583196894476
-0.0026580276071628424   -0.046611022319408175   -0.001421397268443692
-0.002885327983747164   -0.04662830085400542   -0.0015619207371680422
-0.003703440360115531   -0.04963540884960182   -0.0016553714111060306
-0.0012147022551737346   -0.04661023557017319   -0.0016254630424157033
-0.0027689756227700906   -0.04660524242298309   -0.0014885920181096812
-0.003703440360115531   -0.04963540884960182   -0.0016553714111060306
-0.0030853144170616977   -0.05   -0.0017657391237671793
-0.0012147022551737346   -0.04661023557017319   -0.0016254630424157033
-0.0028791557457025843   -0.05   -0.00157359087809262
-0.0027689756227700906   -0.04660524242298309   -0.0014885920181096812
-0.0010653127709703712   -0.04657405844328378   -0.0014958843333507013
-0.0028791557457025843   -0.05   -0.00157359087809262
-0.0012147022551737346   -0.04661023557017319   -0.0016254630424157033
-0.0027689756227700906   -0.04660524242298309   -0.0014885920181096812
-0.0028791557457025843   -0.05   -0.00157359087809262
-0.00353968345537382   -0.04959241414679849   -0.001529217415428199
-0.003703440360115531   -0.04963540884960182   -0.0016553714111060306
-0.0027689756227700906   -0.04660524242298309   -0.0014885920181096812
-0.0028791557457025843   -0.05   -0.00157359087809262
-0.003703440360115531   -0.04963540884960182   -0.0016553714111060306
-0.0012147022551737346   -0.04661023557017319   -0.0016254630424157033
-0.0027689756227700906   -0.04660524242298309   -0.0014885920181096812
-0.00353968345537382   -0.04959241414679849   -0.001529217415428199
-0.0010653127709703712   -0.04657405844328378   -0.0014958843333507013
-0.0026580276071628424   -0.046611022319408175   -0.001421397268443692
-0.00353968345537382   -0.04959241414679849   -0.001529217415428199
-0.0028791557457025843   -0.05   -0.00157359087809262
-0.0010653127709703712   -0.04657405844328378   -0.0014958843333507013
-0.002671859034337542   -0.05   -0.0013791692860898135
-0.0026580276071628424   -0.046611022319408175   -0.001421397268443692
-0.0009124170983598702   -0.04656777208132746   -0.0013728566319866002
-0.002671859034337542   -0.05   -0.0013791692860898135
-0.0010653127709703712   -0.04657405844328378   -0.0014958843333507013
-0.0026580276071628424   -0.046611022319408175   -0.001421397268443692
-0.002671859034337542   -0.05   -0.0013791692860898135
-0.0033878589272334676   -0.04959025931458749   -0.001403436392575621
-0.00353968345537382   -0.04959241414679849   -0.001529217415428199
-0.0026580276071628424   -0.046611022319408175   -0.001421397268443692
-0.002671859034337542   -0.05   -0.0013791692860898135
-0.00353968345537382   -0.04959241414679849   -0.001529217415428199
-0.0010653127709703712   -0.04657405844328378   -0.0014958843333507013
-0.0026580276071628424   -0.046611022319408175   -0.001421397268443692
-0.0033878589272334676   -0.04959025931458749   -0.001403436392575621
-0.0009124170983598702   -0.04656777208132746   -0.0013728566319866002
-0.00256568608380365   -0.04665118117422057   -0.0013641269073227233
-0.0033878589272334676   -0.04959025931458749   -0.001403436392575621
-0.002671859034337542   -0.05   -0.0013791692860898135
-0.0009124170983598702   -0.04656777208132746   -0.0013728566319866002
-0.0024694199449323564   -0.05   -0.0011873316343707825
-0.00256568608380365   -0.04665118117422057   -0.0013641269073227233
-0.000799267455471464   -0.046597746284595946   -0.001261038473747419
-0.0024694199449323564   -0.05   -0.0011873316343707825
-0.0009124170983598702   -0.04656777208132746   -0.0013728566319866002
-0.00256568608380365   -0.04665118117422057   -0.0013641269073227233
-0.0024694199449323564   -0.05   -0.0011873316343707825
-0.003224973540488406   -0.049626777090039736   -0.0012774656658748444
-0.0033878589272334676   -0.04959025931458749   -0.001403436392575621
-0.00256568608380365   -0.04665118117422057   -0.0013641269073227233
-0.0024694199449323564   -0.05   -0.0011873316343707825
-0.0033878589272334676   -0.04959025931458749   -0.001403436392575621
-0.0009124170983598702   -0.04656777208132746   -0.0013728566319866002
-0.0012147022551737346   -0.04661023557017319   -0.0016254630424157033
-0.0030853144170616977   -0.05   -0.0017657391237671793
0.0005810109809208894   -0.04644924138696024   -0.001755175088333116
-0.0010653127709703712   -0.04657405844328378   -0.0014958843333507013
-0.0030853144170616977   -0.05   -0.0017657391237671793
-0.0026352087360775136   -0.05   -0.0018994003871519805
0.0005810109809208894   -0.04644924138696024   -0.001755175088333116
-0.002202888881479498   -0.05   -0.0016211349029915131
-0.0010653127709703712   -0.04657405844328378   -0.0014958843333507013
0.0009304123842336826   -0.04637067809971642   -0.0015432973388509906
-0.002202888881479498   -0.05   -0.0016211349029915131
0.0005810109809208894   -0.04644924138696024   -0.001755175088333116
-0.0010653127709703712   -0.04657405844328378   -0.0014958843333507013
-0.002202888881479498   -0.05   -0.0016211349029915131
-0.0028791557457025843   -0.05   -0.00157359087809262
-0.0030853144170616977   -0.05   -0.0017657391237671793
-0.0010653127709703712   -0.04657405844328378   -0.0014958843333507013
-0.002202888881479498   -0.05   -0.0016211349029915131
-0.0030853144170616977   -0.05   -0.0017657391237671793
0.0005810109809208894   -0.04644924138696024   -0.001755175088333116
-0.0010653127709703712   -0.04657405844328378   -0.0014958843333507013
-0.0028791557457025843   -0.05   -0.00157359087809262
0.0009304123842336826   -0.04637067809971642   -0.0015432973388509906
-0.0009124170983598702   -0.04656777208132746   -0.0013728566319866002
-0.0028791557457025843   -0.05   -0.00157359087809262
-0.002202888881479498   -0.05   -0.0016211349029915131
0.0009304123842336826   -0.04637067809971642   -0.0015432973388509906
-0.0018581330570249955   -0.05   -0.0013549553074816054
-0.0009124170983598702   -0.04656777208132746   -0.0013728566319866002
0.0012049295891412392   -0.04635484653694386   -0.0013442541718803995
-0.0018581330570249955   -0.05   -0.0013549553074816054
0.0009304123842336826   -0.04637067809971642   -0.0015432973388509906
-0.0009124170983598702   -0.04656777208132746   -0.0013728566319866002
-0.0018581330570249955   -0.05   -0.0013549553074816054
-0.002671859034337542   -0.05   -0.0013791692860898135
-0.0028791557457025843   -0.05   -0.00157359087809262
-0.0009124170983598702   -0.04656777208132746   -0.0013728566319866002
-0.0018581330570249955   -0.05   -0.0013549553074816054
-0.0028791557457025843   -0.05   -0.00157359087809262
0.0009304123842336826   -0.04637067809971642   -0.0015432973388509906
-0.0009124170983598702   -0.04656777208132746   -0.0013728566319866002
-0.002671859034337542   -0.05   -0.0013791692860898135
0.0012049295891412392   -0.04635484653694386   -0.0013442541718803995
-0.000799267455471464   -0.046597746284595946   -0.001261038473747419
-0.002671859034337542   -0.05   -0.0013791692860898135
-0.0018581330570249955   -0.05   -0.0013549553074816054
0.0012049295891412392   -0.04635484653694386   -0.0013442541718803995
-0.0014323062221941129   -0.05   -0.001078617041666382
-0.000799267455471464   -0.046597746284595946   -0.001261038473747419
0.0014905203849601841   -0.046368555359509386   -0.0011623483345420851
-0.0014323062221941129   -0.05   -0.001078617041666382
0.0012049295891412392   -0.04635484653694386   -0.0013442541718803995
-0.000799267455471464   -0.046597746284595946   -0.001261038473747419
-0.0014323062221941129   -0.05   -0.001078617041666382
-0.0024694199449323564   -0.05   -0.0011873316343707825
-0.002671859034337542   -0.05   -0.0013791692860898135
-0.000799267455471464   -0.046597746284595946   -0.001261038473747419
-0.0014323062221941129   -0.05   -0.001078617041666382
-0.002671859034337542   -0.05   -0.0013791692860898135
0.0012049295891412392   -0.04635484653694386   -0.0013442541718803995
-0.005955261651295604   -0.04885332298678588   -0.0012365184202139754
-0.0035763942395561675   -0.04899592163578799   -0.0010585903116675133
-0.005018712423565291   -0.04909786488439496   -0.0013831220947209052
-0.005684541863588723   -0.04879913642348516   -0.0013907027209711334
-0.0035763942395561675   -0.04899592163578799   -0.0010585903116675133
-0.0037855492293388747   -0.049184859606667894   -0.0012473887451971172
-0.005018712423565291   -0.04909786488439496   -0.0013831220947209052
-0.0036895649256837083   -0.04911916099546899   -0.0013165780318439785
-0.005684541863588723   -0.04879913642348516   -0.0013907027209711334
-0.004891923924713674   -0.04904979744637681   -0.0014339572262529457
-0.0036895649256837083   -0.04911916099546899   -0.0013165780318439785
-0.005018712423565291   -0.04909786488439496   -0.0013831220947209052
-0.005684541863588723   -0.04879913642348516   -0.0013907027209711334
-0.0036895649256837083   -0.04911916099546899   -0.0013165780318439785
-0.0033308135243311074   -0.048911523960587074   -0.0012206226113800787
-0.0035763942395561675   -0.04899592163578799   -0.0010585903116675133
-0.005684541863588723   -0.04879913642348516   -0.0013907027209711334
-0.0036895649256837083   -0.04911916099546899   -0.0013165780318439785
-0.0035763942395561675   -0.04899592163578799   -0.0010585903116675133
-0.005018712423565291   -0.04909786488439496   -0.0013831220947209052
-0.005684541863588723   -0.04879913642348516   -0.0013907027209711334
-0.0033308135243311074   -0.048911523960587074   -0.0012206226113800787
-0.004891923924713674   -0.04904979744637681   -0.0014339572262529457
-0.005450995046522071   -0.04880415113248885   -0.001544322916865446
-0.0033308135243311074   -0.048911523960587074   -0.0012206226113800787
-0.0036895649256837083   -0.04911916099546899   -0.0013165780318439785
-0.004891923924713674   -0.04904979744637681   -0.0014339572262529457
-0.0035769028672846797   -0.04909524861303604   -0.0013804658833148225
-0.005450995046522071   -0.04880415113248885   -0.001544322916865446
-0.004751375046646486   -0.04905250987100674   -0.0014853134199660078
-0.0035769028672846797   -0.04909524861303604   -0.0013804658833148225
-0.004891923924713674   -0.04904979744637681   -0.0014339572262529457
-0.005450995046522071   -0.04880415113248885   -0.001544322916865446
-0.0035769028672846797   -0.04909524861303604   -0.0013804658833148225
-0.0031264199512124427   -0.04888592911005655   -0.0013760791768562075
-0.0033308135243311074   -0.048911523960587074   -0.0012206226113800787
-0.005450995046522071   -0.04880415113248885   -0.001544322916865446
-0.0035769028672846797   -0.04909524861303604   -0.0013804658833148225
-0.0033308135243311074   -0.048911523960587074   -0.0012206226113800787
-0.004891923924713674   -0.04904979744637681   -0.0014339572262529457
-0.005450995046522071   -0.04880415113248885   -0.001544322916865446
-0.0031264199512124427   -0.04888592911005655   -0.0013760791768562075
-0.004751375046646486   -0.04905250987100674   -0.0014853134199660078
-0.005173880263819205   -0.048871802807570155   -0.001701242595281246
-0.0031264199512124427   -0.04888592911005655   -0.0013760791768562075
-0.0035769028672846797   -0.04909524861303604   -0.0013804658833148225
-0.004751375046646486   -0.04905250987100674   -0.0014853134199660078
-0.003480438408948227   -0.049113483567526546   -0.0014387237804817598
-0.005173880263819205   -0.048871802807570155   -0.001701242595281246
-0.004620876789515763   -0.04910625375482218   -0.001537404909638873
-0.003480438408948227   -0.049113483567526546   -0.0014387237804817598
-0.004751375046646486   -0.04905250987100674   -0.0014853134199660078
-0.005173880263819205   -0.048871802807570155   -0.001701242595281246
-0.003480438408948227   -0.049113483567526546   -0.0014387237804817598
-0.0028949904287386935   -0.048908661467289075   -0.0015242808622755997
-0.0031264199512124427   -0.04888592911005655   -0.0013760791768562075
-0.005173880263819205   -0.048871802807570155   -0.001701242595281246
-0.003480438408948227   -0.049113483567526546   -0.0014387237804817598
-0.0031264199512124427   -0.04888592911005655   -0.0013760791768562075
-0.004751375046646486   -0.04905250987100674   -0.0014853134199660078
-0.005018712423565291   -0.04909786488439496   -0.0013831220947209052
-0.0037855492293388747   -0.049184859606667894   -0.0012473887451971172
-0.004331501808997188   -0.04934204928979021   -0.0015126042294877045
-0.004891923924713674   -0.04904979744637681   -0.0014339572262529457
-0.0037855492293388747   -0.049184859606667894   -0.0012473887451971172
-0.004071873632121483   -0.04930111162507989   -0.0013982587806134659
-0.004331501808997188   -0.04934204928979021   -0.0015126042294877045
-0.003986973412909397   -0.0492424226307563   -0.0013999919475182034
-0.004891923924713674   -0.04904979744637681   -0.0014339572262529457
-0.004197854649530341   -0.049292664567155774   -0.001477346142997205
-0.003986973412909397   -0.0492424226307563   -0.0013999919475182034
-0.004331501808997188   -0.04934204928979021   -0.0015126042294877045
-0.004891923924713674   -0.04904979744637681   -0.0014339572262529457
-0.003986973412909397   -0.0492424226307563   -0.0013999919475182034
-0.0036895649256837083   -0.04911916099546899   -0.0013165780318439785
-0.0037855492293388747   -0.049184859606667894   -0.0012473887451971172
-0.004891923924713674   -0.04904979744637681   -0.0014339572262529457
-0.003986973412909397   -0.0492424226307563   -0.0013999919475182034
-0.0037855492293388747   -0.049184859606667894   -0.0012473887451971172
-0.004331501808997188   -0.04934204928979021   -0.0015126042294877045
-0.004891923924713674   -0.04904979744637681   -0.0014339572262529457
-0.0036895649256837083   -0.04911916099546899   -0.0013165780318439785
-0.004197854649530341   -0.049292664567155774   -0.001477346142997205
-0.004751375046646486   -0.04905250987100674   -0.0014853134199660078
-0.0036895649256837083   -0.04911916099546899   -0.0013165780318439785
-0.003986973412909397   -0.0492424226307563   -0.0013999919475182034
-0.004197854649530341   -0.049292664567155774   -0.001477346142997205
-0.003892494408383202   -0.04922157599438004   -0.0013948526575357962
-0.004751375046646486   -0.04905250987100674   -0.0014853134199660078
-0.004068580093133188   -0.04929202990438835   -0.0014416583196894476
-0.003892494408383202   -0.04922157599438004   -0.0013948526575357962
-0.004197854649530341   -0.049292664567155774   -0.001477346142997205
-0.004751375046646486   -0.04905250987100674   -0.0014853134199660078
-0.003892494408383202   -0.04922157599438004   -0.0013948526575357962
-0.0035769028672846797   -0.04909524861303604   -0.0013804658833148225
-0.0036895649256837083   -0.04911916099546899   -0.0013165780318439785
-0.004751375046646486   -0.04905250987100674   -0.0014853134199660078
-0.003892494408383202   -0.04922157599438004   -0.0013948526575357962
-0.0036895649256837083   -0.04911916099546899   -0.0013165780318439785
-0.004197854649530341   -0.049292664567155774   -0.001477346142997205
-0.004751375046646486   -0.04905250987100674   -0.0014853134199660078
-0.0035769028672846797   -0.04909524861303604   -0.0013804658833148225
-0.004068580093133188   -0.04929202990438835   -0.0014416583196894476
-0.004620876789515763   -0.04910625375482218   -0.001537404909638873
-0.0035769028672846797   -0.04909524861303604   -0.0013804658833148225
-0.003892494408383202   -0.04922157599438004   -0.0013948526575357962
-0.004068580093133188   -0.04929202990438835   -0.0014416583196894476
-0.0037964581761934686   -0.04923687129196195   -0.0013843193500644865
-0.004620876789515763   -0.04910625375482218   -0.001537404909638873
-0.0039338509961989445   -0.049339143261630795   -0.001407401239331319
-0.0037964581761934686   -0.04923687129196195   -0.0013843193500644865
-0.004068580093133188   -0.04929202990438835   -0.0014416583196894476
-0.004620876789515763   -0.04910625375482218   -0.001537404909638873
-0.0037964581761934686   -0.04923687129196195   -0.0013843193500644865
-0.003480438408948227   -0.049113483567526546   -0.0014387237804817598
-0.0035769028672846797   -0.04909524861303604   -0.0013804658833148225
-0.004620876789515763   -0.04910625375482218   -0.001537404909638873
-0.0037964581761934686   -0.04923687129196195   -0.0013843193500644865
-0.0035769028672846797   -0.04909524861303604   -0.0013804658833148225
-0.004068580093133188   -0.04929202990438835   -0.0014416583196894476
-0.004331501808997188   -0.04934204928979021   -0.0015126042294877045
-0.004071873632121483   -0.04930111162507989   -0.0013982587806134659
-0.003703440360115531   -0.04963540884960182   -0.0016553714111060306
-0.004197854649530341   -0.049292664567155774   -0.001477346142997205
-0.004071873632121483   -0.04930111162507989   -0.0013982587806134659
-0.004379233227916986   -0.049349111951438436   -0.0015468392308799002
-0.003703440360115531   -0.04963540884960182   -0.0016553714111060306
-0.004291282654611085   -0.04929308027364058   -0.0014837014610683203
-0.004197854649530341   -0.049292664567155774   -0.001477346142997205
-0.00353968345537382   -0.04959241414679849   -0.001529217415428199
-0.004291282654611085   -0.04929308027364058   -0.0014837014610683203
-0.003703440360115531   -0.04963540884960182   -0.0016553714111060306
-0.004197854649530341   -0.049292664567155774   -0.001477346142997205
-0.004291282654611085   -0.04929308027364058   -0.0014837014610683203
-0.003986973412909397   -0.0492424226307563   -0.0013999919475182034
-0.004071873632121483   -0.04930111162507989   -0.0013982587806134659
-0.004197854649530341   -0.049292664567155774   -0.001477346142997205
-0.004291282654611085   -0.04929308027364058   -0.0014837014610683203
-0.004071873632121483   -0.04930111162507989   -0.0013982587806134659
-0.003703440360115531   -0.04963540884960182   -0.0016553714111060306
-0.004197854649530341   -0.049292664567155774   -0.001477346142997205
-0.003986973412909397   -0.0492424226307563   -0.0013999919475182034
-0.00353968345537382   -0.04959241414679849   -0.001529217415428199
-0.004068580093133188   -0.04929202990438835   -0.0014416583196894476
-0.003986973412909397   -0.0492424226307563   -0.0013999919475182034
-0.004291282654611085   -0.04929308027364058   -0.0014837014610683203
-0.00353968345537382   -0.04959241414679849   -0.001529217415428199
-0.004185847278677783   -0.04927550217749882   -0.0014121917147170533
-0.004068580093133188   -0.04929202990438835   -0.0014416583196894476
-0.0033878589272334676   -0.04959025931458749   -0.001403436392575621
-0.004185847278677783   -0.04927550217749882   -0.0014121917147170533
-0.00353968345537382   -0.04959241414679849   -0.001529217415428199
-0.004068580093133188   -0.04929202990438835   -0.0014416583196894476
-0.004185847278677783   -0.04927550217749882   -0.0014121917147170533
-0.003892494408383202   -0.04922157599438004   -0.0013948526575357962
-0.003986973412909397   -0.0492424226307563   -0.0013999919475182034
-0.004068580093133188   -0.04929202990438835   -0.0014416583196894476
-0.004185847278677783   -0.04927550217749882   -0.0014121917147170533
-0.003986973412909397   -0.0492424226307563   -0.0013999919475182034
-0.00353968345537382   -0.04959241414679849   -0.001529217415428199
-0.004068580093133188   -0.04929202990438835   -0.0014416583196894476
-0.003892494408383202   -0.04922157599438004   -0.0013948526575357962
-0.0033878589272334676   -0.04959025931458749   -0.001403436392575621
-0.0039338509961989445   -0.049339143261630795   -0.001407401239331319
-0.003892494408383202   -0.04922157599438004   -0.0013948526575357962
-0.004185847278677783   -0.04927550217749882   -0.0014121917147170533
-0.0033878589272334676   -0.04959025931458749   -0.001403436392575621
-0.004077455651842832   -0.0492904060947866   -0.0013360604446075635
-0.0039338509961989445   -0.049339143261630795   -0.001407401239331319
-0.003224973540488406   -0.049626777090039736   -0.0012774656658748444
-0.004077455651842832   -0.0492904060947866   -0.0013360604446075635
-0.0033878589272334676   -0.04959025931458749   -0.001403436392575621
-0.0039338509961989445   -0.049339143261630795   -0.001407401239331319
-0.004077455651842832   -0.0492904060947866   -0.0013360604446075635
-0.0037964581761934686   -0.04923687129196195   -0.0013843193500644865
-0.003892494408383202   -0.04922157599438004   -0.0013948526575357962
-0.0039338509961989445   -0.049339143261630795   -0.001407401239331319
-0.004077455651842832   -0.0492904060947866   -0.0013360604446075635
-0.003892494408383202   -0.04922157599438004   -0.0013948526575357962
-0.0033878589272334676   -0.04959025931458749   -0.001403436392575621
-0.003703440360115531   -0.04963540884960182   -0.0016553714111060306
-0.004379233227916986   -0.049349111951438436   -0.0015468392308799002
-0.0030853144170616977   -0.05   -0.0017657391237671793
-0.00353968345537382   -0.04959241414679849   -0.001529217415428199
-0.004379233227916986   -0.049349111951438436   -0.0015468392308799002
-0.004824645498713621   -0.049294967937793165   -0.0016882387006665889
-0.0030853144170616977   -0.05   -0.0017657391237671793
-0.0047097904293142605   -0.0492419394688028   -0.0015632847336469818
-0.00353968345537382   -0.04959241414679849   -0.001529217415428199
-0.0028791557457025843   -0.05   -0.00157359087809262
-0.0047097904293142605   -0.0492419394688028   -0.0015632847336469818
-0.0030853144170616977   -0.05   -0.0017657391237671793
-0.00353968345537382   -0.04959241414679849   -0.001529217415428199
-0.0047097904293142605   -0.0492419394688028   -0.0015632847336469818
-0.004291282654611085   -0.04929308027364058   -0.0014837014610683203
-0.004379233227916986   -0.049349111951438436   -0.0015468392308799002
-0.00353968345537382   -0.04959241414679849   -0.001529217415428199
-0.0047097904293142605   -0.0492419394688028   -0.0015632847336469818
-0.004379233227916986   -0.049349111951438436   -0.0015468392308799002
-0.0030853144170616977   -0.05   -0.0017657391237671793
-0.00353968345537382   -0.04959241414679849   -0.001529217415428199
-0.004291282654611085   -0.04929308027364058   -0.0014837014610683203
-0.0028791557457025843   -0.05   -0.00157359087809262
-0.0033878589272334676   -0.04959025931458749   -0.001403436392575621
-0.004291282654611085   -0.04929308027364058   -0.0014837014610683203
-0.0047097904293142605   -0.0492419394688028   -0.0015632847336469818
-0.0028791557457025843   -0.05   -0.00157359087809262
-0.004558102813717973   -0.04923005655041311   -0.0014289865297707413
-0.0033878589272334676   -0.04959025931458749   -0.001403436392575621
-0.002671859034337542   -0.05   -0.0013791692860898135
-0.004558102813717973   -0.04923005655041311   -0.0014289865297707413
-0.0028791557457025843   -0.05   -0.00157359087809262
-0.0033878589272334676   -0.04959025931458749   -0.001403436392575621
-0.004558102813717973   -0.04923005655041311   -0.0014289865297707413
-0.004185847278677783   -0.04927550217749882   -0.0014121917147170533
-0.004291282654611085   -0.04929308027364058   -0.0014837014610683203
-0.0033878589272334676   -0.04959025931458749   -0.001403436392575621
-0.004558102813717973   -0.04923005655041311   -0.0014289865297707413
-0.004291282654611085   -0.04929308027364058   -0.0014837014610683203
-0.0028791557457025843   -0.05   -0.00157359087809262
-0.0033878589272334676   -0.04959025931458749   -0.001403436392575621
-0.004185847278677783   -0.04927550217749882   -0.0014121917147170533
-0.002671859034337542   -0.05   -0.0013791692860898135
-0.003224973540488406   -0.049626777090039736   -0.0012774656658748444
-0.004185847278677783   -0.04927550217749882   -0.0014121917147170533
-0.004558102813717973   -0.04923005655041311   -0.0014289865297707413
-0.002671859034337542   -0.05   -0.0013791692860898135
-0.004415627852192733   -0.04925142934880145   -0.0012895506791761248
-0.003224973540488406   -0.049626777090039736   -0.0012774656658748444
-0.0024694199449323564   -0.05   -0.0011873316343707825
-0.004415627852192733   -0.04925142934880145   -0.0012895506791761248
-0.002671859034337542   -0.05   -0.0013791692860898135
-0.003224973540488406   -0.049626777090039736   -0.0012774656658748444
-0.004415627852192733   -0.04925142934880145   -0.0012895506791761248
-0.004077455651842832   -0.0492904060947866   -0.0013360604446075635
-0.004185847278677783   -0.04927550217749882   -0.0014121917147170533
-0.003224973540488406   -0.049626777090039736   -0.0012774656658748444
-0.004415627852192733   -0.04925142934880145   -0.0012895506791761248
-0.004185847278677783   -0.04927550217749882   -0.0014121917147170533
-0.002671859034337542   -0.05   -0.0013791692860898135
-0.0030853144170616977   -0.05   -0.0017657391237671793
-0.004824645498713621   -0.049294967937793165   -0.0016882387006665889
-0.0026352087360775136   -0.05   -0.0018994003871519805
-0.0028791557457025843   -0.05   -0.00157359087809262
-0.004824645498713621   -0.049294967937793165   -0.0016882387006665889
-0.005693624888111707   -0.04905401644373956   -0.0018386158187978757
-0.0026352087360775136   -0.05   -0.0018994003871519805
-0.005386829520587283   -0.049009100338846145   -0.0016336425111111185
-0.0028791557457025843   -0.05   -0.00157359087809262
-0.002202888881479498   -0.05   -0.0016211349029915131
-0.005386829520587283   -0.049009100338846145   -0.0016336425111111185
-0.0026352087360775136   -0.05   -0.0018994003871519805
-0.0028791557457025843   -0.05   -0.00157359087809262
-0.005386829520587283   -0.049009100338846145   -0.0016336425111111185
-0.0047097904293142605   -0.0492419394688028   -0.0015632847336469818
-0.004824645498713621   -0.049294967937793165   -0.0016882387006665889
-0.0028791557457025843   -0.05   -0.00157359087809262
-0.005386829520587283   -0.049009100338846145   -0.0016336425111111185
-0.004824645498713621   -0.049294967937793165   -0.0016882387006665889
-0.0026352087360775136   -0.05   -0.0018994003871519805
-0.0028791557457025843   -0.05   -0.00157359087809262
-0.0047097904293142605   -0.0492419394688028   -0.0015632847336469818
-0.002202888881479498   -0.05   -0.0016211349029915131
-0.002671859034337542   -0.05   -0.0013791692860898135
-0.0047097904293142605   -0.0492419394688028   -0.0015632847336469818
-0.005386829520587283   -0.049009100338846145   -0.0016336425111111185
-0.002202888881479498   -0.05   -0.0016211349029915131
-0.005105243567791304   -0.04900308369765082   -0.0014149931032313386
-0.002671859034337542   -0.05   -0.0013791692860898135
-0.0018581330570249955   -0.05   -0.0013549553074816054
-0.005105243567791304   -0.04900308369765082   -0.0014149931032313386
-0.002202888881479498   -0.05   -0.0016211349029915131
-0.002671859034337542   -0.05   -0.0013791692860898135
-0.005105243567791304   -0.04900308369765082   -0.0014149931032313386
-0.004558102813717973   -0.04923005655041311   -0.0014289865297707413
-0.0047097904293142605   -0.0492419394688028   -0.0015632847336469818
-0.002671859034337542   -0.05   -0.0013791692860898135
-0.005105243567791304   -0.04900308369765082   -0.0014149931032313386
-0.0047097904293142605   -0.0492419394688028   -0.0015632847336469818
-0.002202888881479498   -0.05   -0.0016211349029915131
-0.002671859034337542   -0.05   -0.0013791692860898135
-0.004558102813717973   -0.04923005655041311   -0.0014289865297707413
-0.0018581330570249955   -0.05   -0.0013549553074816054
-0.0024694199449323564   -0.05   -0.0011873316343707825
-0.004558102813717973   -0.04923005655041311   -0.0014289865297707413
-0.005105243567791304   -0.04900308369765082   -0.0014149931032313386
-0.0018581330570249955   -0.05   -0.0013549553074816054
-0.004749575433683089   -0.04906197136966357   -0.0011864362739142827
-0.0024694199449323564   -0.05   -0.0011873316343707825
-0.0014323062221941129   -0.05   -0.001078617041666382
-0.004749575433683089   -0.04906197136966357   -0.0011864362739142827
-0.0018581330570249955   -0.05   -0.0013549553074816054
-0.0024694199449323564   -0.05   -0.0011873316343707825
-0.004749575433683089   -0.04906197136966357   -0.0011864362739142827
-0.004415627852192733   -0.04925142934880145   -0.0012895506791761248
-0.004558102813717973   -0.04923005655041311   -0.0014289865297707413
-0.0024694199449323564   -0.05   -0.0011873316343707825
-0.004749575433683089   -0.04906197136966357   -0.0011864362739142827
-0.004558102813717973   -0.04923005655041311   -0.0014289865297707413
-0.0018581330570249955   -0.05   -0.0013549553074816054
-0.0035763942395561675   -0.04899592163578799   -0.0010585903116675133
-0.001480426902164399   -0.04716246216455164   -0.0009140728521861245
-0.0037855492293388747   -0.049184859606667894   -0.0012473887451971172
-0.0033308135243311074   -0.048911523960587074   -0.0012206226113800787
-0.001480426902164399   -0.04716246216455164   -0.0009140728521861245
-0.002726251271890936   -0.047305369471247374   -0.0011147092440761848
-0.0037855492293388747   -0.049184859606667894   -0.0012473887451971172
-0.00265800999209703   -0.047225846136039376   -0.0011764863680713603
-0.0033308135243311074   -0.048911523960587074   -0.0012206226113800787
-0.0036895649256837083   -0.04911916099546899   -0.0013165780318439785
-0.00265800999209703   -0.047225846136039376   -0.0011764863680713603
-0.0037855492293388747   -0.049184859606667894   -0.0012473887451971172
-0.0033308135243311074   -0.048911523960587074   -0.0012206226113800787
-0.00265800999209703   -0.047225846136039376   -0.0011764863680713603
-0.0012842848364107904   -0.04706398690798868   -0.0010543566880740225
-0.001480426902164399   -0.04716246216455164   -0.0009140728521861245
-0.0033308135243311074   -0.048911523960587074   -0.0012206226113800787
-0.00265800999209703   -0.047225846136039376   -0.0011764863680713603
-0.001480426902164399   -0.04716246216455164   -0.0009140728521861245
-0.0037855492293388747   -0.049184859606667894   -0.0012473887451971172
-0.0033308135243311074   -0.048911523960587074   -0.0012206226113800787
-0.0012842848364107904   -0.04706398690798868   -0.0010543566880740225
-0.0036895649256837083   -0.04911916099546899   -0.0013165780318439785
-0.0031264199512124427   -0.04888592911005655   -0.0013760791768562075
-0.0012842848364107904   -0.04706398690798868   -0.0010543566880740225
-0.00265800999209703   -0.047225846136039376   -0.0011764863680713603
-0.0036895649256837083   -0.04911916099546899   -0.0013165780318439785
-0.0025810923721783455   -0.04718212644081298   -0.0012327431079469453
-0.0031264199512124427   -0.04888592911005655   -0.0013760791768562075
-0.0035769028672846797   -0.04909524861303604   -0.0013804658833148225
-0.0025810923721783455   -0.04718212644081298   -0.0012327431079469453
-0.0036895649256837083   -0.04911916099546899   -0.0013165780318439785
-0.0031264199512124427   -0.04888592911005655   -0.0013760791768562075
-0.0025810923721783455   -0.04718212644081298   -0.0012327431079469453
-0.0011299351991662892   -0.04701747645711642   -0.001186460797799954
-0.0012842848364107904   -0.04706398690798868   -0.0010543566880740225
-0.0031264199512124427   -0.04888592911005655   -0.0013760791768562075
-0.0025810923721783455   -0.04718212644081298   -0.0012327431079469453
-0.0012842848364107904   -0.04706398690798868   -0.0010543566880740225
-0.0036895649256837083   -0.04911916099546899   -0.0013165780318439785
-0.0031264199512124427   -0.04888592911005655   -0.0013760791768562075
-0.0011299351991662892   -0.04701747645711642   -0.001186460797799954
-0.0035769028672846797   -0.04909524861303604   -0.0013804658833148225
-0.0028949904287386935   -0.048908661467289075   -0.0015242808622755997
-0.0011299351991662892   -0.04701747645711642   -0.001186460797799954
-0.0025810923721783455   -0.04718212644081298   -0.0012327431079469453
-0.0035769028672846797   -0.04909524861303604   -0.0013804658833148225
-0.0025221462105893314   -0.04717298469520911   -0.0012836589097392625
-0.0028949904287386935   -0.048908661467289075   -0.0015242808622755997
-0.003480438408948227   -0.049113483567526546   -0.0014387237804817598
-0.0025221462105893314   -0.04717298469520911   -0.0012836589097392625
-0.0035769028672846797   -0.04909524861303604   -0.0013804658833148225
-0.0028949904287386935   -0.048908661467289075   -0.0015242808622755997
-0.0025221462105893314   -0.04717298469520911   -0.0012836589097392625
-0.0009611632999930018   -0.04700949284139015   -0.0013100433135170718
-0.0011299351991662892   -0.04701747645711642   -0.001186460797799954
-0.0028949904287386935   -0.048908661467289075   -0.0015242808622755997
-0.0025221462105893314   -0.04717298469520911   -0.0012836589097392625
-0.0011299351991662892   -0.04701747645711642   -0.001186460797799954
-0.0035769028672846797   -0.04909524861303604   -0.0013804658833148225
-0.0037855492293388747   -0.049184859606667894   -0.0012473887451971172
-0.002726251271890936   -0.047305369471247374   -0.0011147092440761848
-0.004071873632121483   -0.04930111162507989   -0.0013982587806134659
-0.0036895649256837083   -0.04911916099546899   -0.0013165780318439785
-0.002726251271890936   -0.047305369471247374   -0.0011147092440761848
-0.00395756745680976   -0.04735565027441596   -0.0012782135292935097
-0.004071873632121483   -0.04930111162507989   -0.0013982587806134659
-0.0039002482449391205   -0.04728628538490287   -0.0012815333866462175
-0.0036895649256837083   -0.04911916099546899   -0.0013165780318439785
-0.003986973412909397   -0.0492424226307563   -0.0013999919475182034
-0.0039002482449391205   -0.04728628538490287   -0.0012815333866462175
-0.004071873632121483   -0.04930111162507989   -0.0013982587806134659
-0.0036895649256837083   -0.04911916099546899   -0.0013165780318439785
-0.0039002482449391205   -0.04728628538490287   -0.0012815333866462175
-0.00265800999209703   -0.047225846136039376   -0.0011764863680713603
-0.002726251271890936   -0.047305369471247374   -0.0011147092440761848
-0.0036895649256837083   -0.04911916099546899   -0.0013165780318439785
-0.0039002482449391205   -0.04728628538490287   -0.0012815333866462175
-0.002726251271890936   -0.047305369471247374   -0.0011147092440761848
-0.004071873632121483   -0.04930111162507989   -0.0013982587806134659
-0.0036895649256837083   -0.04911916099546899   -0.0013165780318439785
-0.00265800999209703   -0.047225846136039376   -0.0011764863680713603
-0.003986973412909397   -0.0492424226307563   -0.0013999919475182034
-0.0035769028672846797   -0.04909524861303604   -0.0013804658833148225
-0.00265800999209703   -0.047225846136039376   -0.0011764863680713603
-0.0039002482449391205   -0.04728628538490287   -0.0012815333866462175
-0.003986973412909397   -0.0492424226307563   -0.0013999919475182034
-0.0038409541396057854   -0.047249191448594775   -0.0012797393938490658
-0.0035769028672846797   -0.04909524861303604   -0.0013804658833148225
-0.003892494408383202   -0.04922157599438004   -0.0013948526575357962
-0.0038409541396057854   -0.047249191448594775   -0.0012797393938490658
-0.003986973412909397   -0.0492424226307563   -0.0013999919475182034
-0.0035769028672846797   -0.04909524861303604   -0.0013804658833148225
-0.0038409541396057854   -0.047249191448594775   -0.0012797393938490658
-0.0025810923721783455   -0.04718212644081298   -0.0012327431079469453
-0.00265800999209703   -0.047225846136039376   -0.0011764863680713603
-0.0035769028672846797   -0.04909524861303604   -0.0013804658833148225
-0.0038409541396057854   -0.047249191448594775   -0.0012797393938490658
-0.00265800999209703   -0.047225846136039376   -0.0011764863680713603
-0.003986973412909397   -0.0492424226307563   -0.0013999919475182034
-0.0035769028672846797   -0.04909524861303604   -0.0013804658833148225
-0.0025810923721783455   -0.04718212644081298   -0.0012327431079469453
-0.003892494408383202   -0.04922157599438004   -0.0013948526575357962
-0.003480438408948227   -0.049113483567526546   -0.0014387237804817598
-0.0025810923721783455   -0.04718212644081298   -0.0012327431079469453
-0.0038409541396057854   -0.047249191448594775   -0.0012797393938490658
-0.003892494408383202   -0.04922157599438004   -0.0013948526575357962
-0.003783783577847783   -0.04724283646715929   -0.001272789698758084
-0.003480438408948227   -0.049113483567526546   -0.0014387237804817598
-0.0037964581761934686   -0.04923687129196195   -0.0013843193500644865
-0.003783783577847783   -0.04724283646715929   -0.001272789698758084
-0.003892494408383202   -0.04922157599438004   -0.0013948526575357962
-0.003480438408948227   -0.049113483567526546   -0.0014387237804817598
-0.003783783577847783   -0.04724283646715929   -0.001272789698758084
-0.0025221462105893314   -0.04717298469520911   -0.0012836589097392625
-0.0025810923721783455   -0.04718212644081298   -0.0012327431079469453
-0.003480438408948227   -0.049113483567526546   -0.0014387237804817598
-0.003783783577847783   -0.04724283646715929   -0.001272789698758084
-0.0025810923721783455   -0.04718212644081298   -0.0012327431079469453
-0.003892494408383202   -0.04922157599438004   -0.0013948526575357962
-0.004071873632121483   -0.04930111162507989   -0.0013982587806134659
-0.00395756745680976   -0.04735565027441596   -0.0012782135292935097
-0.004379233227916986   -0.049349111951438436   -0.0015468392308799002
-0.003986973412909397   -0.0492424226307563   -0.0013999919475182034
-0.00395756745680976   -0.04735565027441596   -0.0012782135292935097
-0.005180594149883912   -0.04731065211528608   -0.0014312743153416783
-0.004379233227916986   -0.049349111951438436   -0.0015468392308799002
-0.005123728359388699   -0.047249014528867   -0.0013785282852478485
-0.003986973412909397   -0.0492424226307563   -0.0013999919475182034
-0.004291282654611085   -0.04929308027364058   -0.0014837014610683203
-0.005123728359388699   -0.047249014528867   -0.0013785282852478485
-0.004379233227916986   -0.049349111951438436   -0.0015468392308799002
-0.003986973412909397   -0.0492424226307563   -0.0013999919475182034
-0.005123728359388699   -0.047249014528867   -0.0013785282852478485
-0.0039002482449391205   -0.04728628538490287   -0.0012815333866462175
-0.00395756745680976   -0.04735565027441596   -0.0012782135292935097
-0.003986973412909397   -0.0492424226307563   -0.0013999919475182034
-0.005123728359388699   -0.047249014528867   -0.0013785282852478485
-0.00395756745680976   -0.04735565027441596   -0.0012782135292935097
-0.004379233227916986   -0.049349111951438436   -0.0015468392308799002
-0.003986973412909397   -0.0492424226307563   -0.0013999919475182034
-0.0039002482449391205   -0.04728628538490287   -0.0012815333866462175
-0.004291282654611085   -0.04929308027364058   -0.0014837014610683203
-0.003892494408383202   -0.04922157599438004   -0.0013948526575357962
-0.0039002482449391205   -0.04728628538490287   -0.0012815333866462175
-0.005123728359388699   -0.047249014528867   -0.0013785282852478485
-0.004291282654611085   -0.04929308027364058   -0.0014837014610683203
-0.00505991414170179   -0.04721911343773073   -0.001320746892615812
-0.003892494408383202   -0.04922157599438004   -0.0013948526575357962
-0.004185847278677783   -0.04927550217749882   -0.0014121917147170533
-0.00505991414170179   -0.04721911343773073   -0.001320746892615812
-0.004291282654611085   -0.04929308027364058   -0.0014837014610683203
-0.003892494408383202   -0.04922157599438004   -0.0013948526575357962
-0.00505991414170179   -0.04721911343773073   -0.001320746892615812
-0.0038409541396057854   -0.047249191448594775   -0.0012797393938490658
-0.0039002482449391205   -0.04728628538490287   -0.0012815333866462175
-0.003892494408383202   -0.04922157599438004   -0.0013948526575357962
-0.00505991414170179   -0.04721911343773073   -0.001320746892615812
-0.0039002482449391205   -0.04728628538490287   -0.0012815333866462175
-0.004291282654611085   -0.04929308027364058   -0.0014837014610683203
-0.003892494408383202   -0.04922157599438004   -0.0013948526575357962
-0.0038409541396057854   -0.047249191448594775   -0.0012797393938490658
-0.004185847278677783   -0.04927550217749882   -0.0014121917147170533
-0.0037964581761934686   -0.04923687129196195   -0.0013843193500644865
-0.0038409541396057854   -0.047249191448594775   -0.0012797393938490658
-0.00505991414170179   -0.04721911343773073   -0.001320746892615812
-0.004185847278677783   -0.04927550217749882   -0.0014121917147170533
-0.0049958655207399255   -0.04721792754792549   -0.0012573171530719574
-0.0037964581761934686   -0.04923687129196195   -0.0013843193500644865
-0.004077455651842832   -0.0492904060947866   -0.0013360604446075635
-0.0049958655207399255   -0.04721792754792549   -0.0012573171530719574
-0.004185847278677783   -0.04927550217749882   -0.0014121917147170533
-0.0037964581761934686   -0.04923687129196195   -0.0013843193500644865
-0.0049958655207399255   -0.04721792754792549   -0.0012573171530719574
-0.003783783577847783   -0.04724283646715929   -0.001272789698758084
-0.0038409541396057854   -0.047249191448594775   -0.0012797393938490658
-0.0037964581761934686   -0.04923687129196195   -0.0013843193500644865
-0.0049958655207399255   -0.04721792754792549   -0.0012573171530719574
-0.0038409541396057854   -0.047249191448594775   -0.0012797393938490658
-0.004185847278677783   -0.04927550217749882   -0.0014121917147170533
-0.004379233227916986   -0.049349111951438436   -0.0015468392308799002
-0.005180594149883912   -0.04731065211528608   -0.0014312743153416783
-0.004824645498713621   -0.049294967937793165   -0.0016882387006665889
-0.004291282654611085   -0.04929308027364058   -0.0014837014610683203
-0.005180594149883912   -0.04731065211528608   -0.0014312743153416783
-0.006523667855548254   -0.04716446902274923   -0.0015719826985535737
-0.004824645498713621   -0.049294967937793165   -0.0016882387006665889
-0.006453973292880101   -0.04711055159174853   -0.0014643877791470057
-0.004291282654611085   -0.04929308027364058   -0.0014837014610683203
-0.0047097904293142605   -0.0492419394688028   -0.0015632847336469818
-0.006453973292880101   -0.04711055159174853   -0.0014643877791470057
-0.004824645498713621   -0.049294967937793165   -0.0016882387006665889
-0.004291282654611085   -0.04929308027364058   -0.0014837014610683203
-0.006453973292880101   -0.04711055159174853   -0.0014643877791470057
-0.005123728359388699   -0.047249014528867   -0.0013785282852478485
-0.005180594149883912   -0.04731065211528608   -0.0014312743153416783
-0.004291282654611085   -0.04929308027364058   -0.0014837014610683203
-0.006453973292880101   -0.04711055159174853   -0.0014643877791470057
-0.005180594149883912   -0.04731065211528608   -0.0014312743153416783
-0.004824645498713621   -0.049294967937793165   -0.0016882387006665889
-0.004291282654611085   -0.04929308027364058   -0.0014837014610683203
-0.005123728359388699   -0.047249014528867   -0.0013785282852478485
-0.0047097904293142605   -0.0492419394688028   -0.0015632847336469818
-0.004185847278677783   -0.04927550217749882   -0.0014121917147170533
-0.005123728359388699   -0.047249014528867   -0.0013785282852478485
-0.006453973292880101   -0.04711055159174853   -0.0014643877791470057
-0.0047097904293142605   -0.0492419394688028   -0.0015632847336469818
-0.006357668674318227   -0.04708781489147318   -0.0013521354655602865
-0.004185847278677783   -0.04927550217749882   -0.0014121917147170533
-0.004558102813717973   -0.04923005655041311   -0.0014289865297707413
-0.006357668674318227   -0.04708781489147318   -0.0013521354655602865
-0.0047097904293142605   -0.0492419394688028   -0.0015632847336469818
-0.004185847278677783   -0.04927550217749882   -0.0014121917147170533
-0.006357668674318227   -0.04708781489147318   -0.0013521354655602865
-0.00505991414170179   -0.04721911343773073   -0.001320746892615812
-0.005123728359388699   -0.047249014528867   -0.0013785282852478485
-0.004185847278677783   -0.04927550217749882   -0.0014121917147170533
-0.006357668674318227   -0.04708781489147318   -0.0013521354655602865
-0.005123728359388699   -0.047249014528867   -0.0013785282852478485
-0.0047097904293142605   -0.0492419394688028   -0.0015632847336469818
-0.004185847278677783   -0.04927550217749882   -0.0014121917147170533
-0.00505991414170179   -0.04721911343773073   -0.001320746892615812
-0.004558102813717973   -0.04923005655041311   -0.0014289865297707413
-0.004077455651842832   -0.0492904060947866   -0.0013360604446075635
-0.00505991414170179   -0.04721911343773073   -0.001320746892615812
-0.006357668674318227   -0.04708781489147318   -0.0013521354655602865
-0.004558102813717973   -0.04923005655041311   -0.0014289865297707413
-0.0062737501592460745   -0.04709628801067068   -0.00123212018324349
-0.004077455651842832   -0.0492904060947866   -0.0013360604446075635
-0.004415627852192733   -0.04925142934880145   -0.0012895506791761248
-0.0062737501592460745   -0.04709628801067068   -0.00123212018324349
-0.004558102813717973   -0.04923005655041311   -0.0014289865297707413
-0.004077455651842832   -0.0492904060947866   -0.0013360604446075635
-0.0062737501592460745   -0.04709628801067068   -0.00123212018324349
-0.0049958655207399255   -0.04721792754792549   -0.0012573171530719574
-0.00505991414170179   -0.04721911343773073   -0.001320746892615812
-0.004077455651842832   -0.0492904060947866   -0.0013360604446075635
-0.0062737501592460745   -0.04709628801067068   -0.00123212018324349
-0.00505991414170179   -0.04721911343773073   -0.001320746892615812
-0.004558102813717973   -0.04923005655041311   -0.0014289865297707413
-0.004824645498713621   -0.049294967937793165   -0.0016882387006665889
-0.006523667855548254   -0.04716446902274923   -0.0015719826985535737
-0.005693624888111707   -0.04905401644373956   -0.0018386158187978757
-0.0047097904293142605   -0.0492419394688028   -0.0015632847336469818
-0.006523667855548254   -0.04716446902274923   -0.0015719826985535737
-0.008253097548016662   -0.04692672678363794   -0.0017073832656187948
-0.005693624888111707   -0.04905401644373956   -0.0018386158187978757
-0.008027435032387873   -0.04686812532282173   -0.0015374722231331368
-0.0047097904293142605   -0.0492419394688028   -0.0015632847336469818
-0.005386829520587283   -0.049009100338846145   -0.0016336425111111185
-0.008027435032387873   -0.04686812532282173   -0.0015374722231331368
-0.005693624888111707   -0.04905401644373956   -0.0018386158187978757
-0.0047097904293142605   -0.0492419394688028   -0.0015632847336469818
-0.008027435032387873   -0.04686812532282173   -0.0015374722231331368
-0.006453973292880101   -0.04711055159174853   -0.0014643877791470057
-0.006523667855548254   -0.04716446902274923   -0.0015719826985535737
-0.0047097904293142605   -0.0492419394688028   -0.0015632847336469818
-0.008027435032387873   -0.04686812532282173   -0.0015374722231331368
-0.006523667855548254   -0.04716446902274923   -0.0015719826985535737
-0.005693624888111707   -0.04905401644373956   -0.0018386158187978757
-0.0047097904293142605   -0.0492419394688028   -0.0015632847336469818
-0.006453973292880101   -0.04711055159174853   -0.0014643877791470057
-0.005386829520587283   -0.049009100338846145   -0.0016336425111111185
-0.004558102813717973   -0.04923005655041311   -0.0014289865297707413
-0.006453973292880101   -0.04711055159174853   -0.0014643877791470057
-0.008027435032387873   -0.04686812532282173   -0.0015374722231331368
-0.005386829520587283   -0.049009100338846145   -0.0016336425111111185
-0.007825407433605082   -0.046847094636426785   -0.0013577757589105718
-0.004558102813717973   -0.04923005655041311   -0.0014289865297707413
-0.005105243567791304   -0.04900308369765082   -0.0014149931032313386
-0.007825407433605082   -0.046847094636426785   -0.0013577757589105718
-0.005386829520587283   -0.049009100338846145   -0.0016336425111111185
-0.004558102813717973   -0.04923005655041311   -0.0014289865297707413
-0.007825407433605082   -0.046847094636426785   -0.0013577757589105718
-0.006357668674318227   -0.04708781489147318   -0.0013521354655602865
-0.006453973292880101   -0.04711055159174853   -0.0014643877791470057
-0.004558102813717973   -0.04923005655041311   -0.0014289865297707413
-0.007825407433605082   -0.046847094636426785   -0.0013577757589105718
-0.006453973292880101   -0.04711055159174853   -0.0014643877791470057
-0.005386829520587283   -0.049009100338846145   -0.0016336425111111185
-0.004558102813717973   -0.04923005655041311   -0.0014289865297707413
-0.006357668674318227   -0.04708781489147318   -0.0013521354655602865
-0.005105243567791304   -0.04900308369765082   -0.0014149931032313386
-0.004415627852192733   -0.04925142934880145   -0.0012895506791761248
-0.006357668674318227   -0.04708781489147318   -0.0013521354655602865
-0.007825407433605082   -0.046847094636426785   -0.0013577757589105718
-0.005105243567791304   -0.04900308369765082   -0.0014149931032313386
-0.007563601230776251   -0.0468745653546433   -0.0011699916570029841
-0.004415627852192733   -0.04925142934880145   -0.0012895506791761248
-0.004749575433683089   -0.04906197136966357   -0.0011864362739142827
-0.007563601230776251   -0.0468745653546433   -0.0011699916570029841
-0.005105243567791304   -0.04900308369765082   -0.0014149931032313386
-0.004415627852192733   -0.04925142934880145   -0.0012895506791761248
-0.007563601230776251   -0.0468745653546433   -0.0011699916570029841
-0.0062737501592460745   -0.04709628801067068   -0.00123212018324349
-0.006357668674318227   -0.04708781489147318   -0.0013521354655602865
-0.004415627852192733   -0.04925142934880145   -0.0012895506791761248
-0.007563601230776251   -0.0468745653546433   -0.0011699916570029841
-0.006357668674318227   -0.04708781489147318   -0.0013521354655602865
-0.005105243567791304   -0.04900308369765082   -0.0014149931032313386
-0.001480426902164399   -0.04716246216455164   -0.0009140728521861245
0.0002234340715385497   -0.043774568930570926   -0.0007555962383280516
-0.002726251271890936   -0.047305369471247374   -0.0011147092440761848
-0.0012842848364107904   -0.04706398690798868   -0.0010543566880740225
0.0002234340715385497   -0.043774568930570926   -0.0007555962383280516
-0.0018832955461529474   -0.043879661363629786   -0.0009526622375498908
-0.002726251271890936   -0.047305369471247374   -0.0011147092440761848
-0.0018470233765743565   -0.043796300286118285   -0.0010017793116179677
-0.0012842848364107904   -0.04706398690798868   -0.0010543566880740225
-0.00265800999209703   -0.047225846136039376   -0.0011764863680713603
-0.0018470233765743565   -0.043796300286118285   -0.0010017793116179677
-0.002726251271890936   -0.047305369471247374   -0.0011147092440761848
-0.0012842848364107904   -0.04706398690798868   -0.0010543566880740225
-0.0018470233765743565   -0.043796300286118285   -0.0010017793116179677
0.00036081068586049745   -0.04367446195010572   -0.0008675669534134711
0.0002234340715385497   -0.043774568930570926   -0.0007555962383280516
-0.0012842848364107904   -0.04706398690798868   -0.0010543566880740225
-0.0018470233765743565   -0.043796300286118285   -0.0010017793116179677
0.0002234340715385497   -0.043774568930570926   -0.0007555962383280516
-0.002726251271890936   -0.047305369471247374   -0.0011147092440761848
-0.0012842848364107904   -0.04706398690798868   -0.0010543566880740225
0.00036081068586049745   -0.04367446195010572   -0.0008675669534134711
-0.00265800999209703   -0.047225846136039376   -0.0011764863680713603
-0.0011299351991662892   -0.04701747645711642   -0.001186460797799954
0.00036081068586049745   -0.04367446195010572   -0.0008675669534134711
-0.0018470233765743565   -0.043796300286118285   -0.0010017793116179677
-0.00265800999209703   -0.047225846136039376   -0.0011764863680713603
-0.0018056472383184855   -0.04374220201338567   -0.0010452266525456868
-0.0011299351991662892   -0.04701747645711642   -0.001186460797799954
-0.0025810923721783455   -0.04718212644081298   -0.0012327431079469453
-0.0018056472383184855   -0.04374220201338567   -0.0010452266525456868
-0.00265800999209703   -0.047225846136039376   -0.0011764863680713603
-0.0011299351991662892   -0.04701747645711642   -0.001186460797799954
-0.0018056472383184855   -0.04374220201338567   -0.0010452266525456868
0.0004619094118099578   -0.0436170171897977   -0.0009716015220049899
0.00036081068586049745   -0.04367446195010572   -0.0008675669534134711
-0.0011299351991662892   -0.04701747645711642   -0.001186460797799954
-0.0018056472383184855   -0.04374220201338567   -0.0010452266525456868
0.00036081068586049745   -0.04367446195010572   -0.0008675669534134711
-0.00265800999209703   -0.047225846136039376   -0.0011764863680713603
-0.0011299351991662892   -0.04701747645711642   -0.001186460797799954
0.0004619094118099578   -0.0436170171897977   -0.0009716015220049899
-0.0025810923721783455   -0.04718212644081298   -0.0012327431079469453
-0.0009611632999930018   -0.04700949284139015   -0.0013100433135170718
0.0004619094118099578   -0.0436170171897977   -0.0009716015220049899
-0.0018056472383184855   -0.04374220201338567   -0.0010452266525456868
-0.0025810923721783455   -0.04718212644081298   -0.0012327431079469453
-0.0017809014062676093   -0.04371575362058124   -0.0010835645462968413
-0.0009611632999930018   -0.04700949284139015   -0.0013100433135170718
-0.0025221462105893314   -0.04717298469520911   -0.0012836589097392625
-0.0017809014062676093   -0.04371575362058124   -0.0010835645462968413
-0.0025810923721783455   -0.04718212644081298   -0.0012327431079469453
-0.0009611632999930018   -0.04700949284139015   -0.0013100433135170718
-0.0017809014062676093   -0.04371575362058124   -0.0010835645462968413
0.0005703353927284179   -0.04358930624355646   -0.0010676643775300574
0.0004619094118099578   -0.0436170171897977   -0.0009716015220049899
-0.0009611632999930018   -0.04700949284139015   -0.0013100433135170718
-0.0017809014062676093   -0.04371575362058124   -0.0010835645462968413
0.0004619094118099578   -0.0436170171897977   -0.0009716015220049899
-0.0025810923721783455   -0.04718212644081298   -0.0012327431079469453
-0.002726251271890936   -0.047305369471247374   -0.0011147092440761848
-0.0018832955461529474   -0.043879661363629786   -0.0009526622375498908
-0.00395756745680976   -0.04735565027441596   -0.0012782135292935097
-0.00265800999209703   -0.047225846136039376   -0.0011764863680713603
-0.0018832955461529474   -0.043879661363629786   -0.0009526622375498908
-0.003922731941944944   -0.04389979787509736   -0.0011148271208516545
-0.00395756745680976   -0.04735565027441596   -0.0012782135292935097
-0.0038961208459013007   -0.04382828849961245   -0.0011160303548634865
-0.00265800999209703   -0.047225846136039376   -0.0011764863680713603
-0.0039002482449391205   -0.04728628538490287   -0.0012815333866462175
-0.0038961208459013007   -0.04382828849961245   -0.0011160303548634865
-0.00395756745680976   -0.04735565027441596   -0.0012782135292935097
-0.00265800999209703   -0.047225846136039376   -0.0011764863680713603
-0.0038961208459013007   -0.04382828849961245   -0.0011160303548634865
-0.0018470233765743565   -0.043796300286118285   -0.0010017793116179677
-0.0018832955461529474   -0.043879661363629786   -0.0009526622375498908
-0.00265800999209703   -0.047225846136039376   -0.0011764863680713603
-0.0038961208459013007   -0.04382828849961245   -0.0011160303548634865
-0.0018832955461529474   -0.043879661363629786   -0.0009526622375498908
-0.00395756745680976   -0.04735565027441596   -0.0012782135292935097
-0.00265800999209703   -0.047225846136039376   -0.0011764863680713603
-0.0018470233765743565   -0.043796300286118285   -0.0010017793116179677
-0.0039002482449391205   -0.04728628538490287   -0.0012815333866462175
-0.0025810923721783455   -0.04718212644081298   -0.0012327431079469453
-0.0018470233765743565   -0.043796300286118285   -0.0010017793116179677
-0.0038961208459013007   -0.04382828849961245   -0.0011160303548634865
-0.0039002482449391205   -0.04728628538490287   -0.0012815333866462175
-0.003868747258660006   -0.04378296562029426   -0.001111798600337437
-0.0025810923721783455   -0.04718212644081298   -0.0012327431079469453
-0.0038409541396057854   -0.047249191448594775   -0.0012797393938490658
-0.003868747258660006   -0.04378296562029426   -0.001111798600337437
-0.0039002482449391205   -0.04728628538490287   -0.0012815333866462175
-0.0025810923721783455   -0.04718212644081298   -0.0012327431079469453
-0.003868747258660006   -0.04378296562029426   -0.001111798600337437
-0.0018056472383184855   -0.04374220201338567   -0.0010452266525456868
-0.0018470233765743565   -0.043796300286118285   -0.0010017793116179677
-0.0025810923721783455   -0.04718212644081298   -0.0012327431079469453
-0.003868747258660006   -0.04378296562029426   -0.001111798600337437
-0.0018470233765743565   -0.043796300286118285   -0.0010017793116179677
-0.0039002482449391205   -0.04728628538490287   -0.0012815333866462175
-0.0025810923721783455   -0.04718212644081298   -0.0012327431079469453
-0.0018056472383184855   -0.04374220201338567   -0.0010452266525456868
-0.0038409541396057854   -0.047249191448594775   -0.0012797393938490658
-0.0025221462105893314   -0.04717298469520911   -0.0012836589097392625
-0.0018056472383184855   -0.04374220201338567   -0.0010452266525456868
-0.003868747258660006   -0.04378296562029426   -0.001111798600337437
-0.0038409541396057854   -0.047249191448594775   -0.0012797393938490658
-0.0038448087185519596   -0.043763405296663095   -0.001102498142904314
-0.0025221462105893314   -0.04717298469520911   -0.0012836589097392625
-0.003783783577847783   -0.04724283646715929   -0.001272789698758084
-0.0038448087185519596   -0.043763405296663095   -0.001102498142904314
-0.0038409541396057854   -0.047249191448594775   -0.0012797393938490658
-0.0025221462105893314   -0.04717298469520911   -0.0012836589097392625
-0.0038448087185519596   -0.043763405296663095   -0.001102498142904314
-0.0017809014062676093   -0.04371575362058124   -0.0010835645462968413
-0.0018056472383184855   -0.04374220201338567   -0.0010452266525456868
-0.0025221462105893314   -0.04717298469520911   -0.0012836589097392625
-0.0038448087185519596   -0.043763405296663095   -0.001102498142904314
-0.0018056472383184855   -0.04374220201338567   -0.0010452266525456868
-0.0038409541396057854   -0.047249191448594775   -0.0012797393938490658
-0.00395756745680976   -0.04735565027441596   -0.0012782135292935097
-0.003922731941944944   -0.04389979787509736   -0.0011148271208516545
-0.005180594149883912   -0.04731065211528608   -0.0014312743153416783
-0.0039002482449391205   -0.04728628538490287   -0.0012815333866462175
-0.003922731941944944   -0.04389979787509736   -0.0011148271208516545
-0.005930404840350468   -0.043834712669046434   -0.0012611869330576859
-0.005180594149883912   -0.04731065211528608   -0.0014312743153416783
-0.005905635245322604   -0.04377303233210015   -0.0012156280701171999
-0.0039002482449391205   -0.04728628538490287   -0.0012815333866462175
-0.005123728359388699   -0.047249014528867   -0.0013785282852478485
-0.005905635245322604   -0.04377303233210015   -0.0012156280701171999
-0.005180594149883912   -0.04731065211528608   -0.0014312743153416783
-0.0039002482449391205   -0.04728628538490287   -0.0012815333866462175
-0.005905635245322604   -0.04377303233210015   -0.0012156280701171999
-0.0038961208459013007   -0.04382828849961245   -0.0011160303548634865
-0.003922731941944944   -0.04389979787509736   -0.0011148271208516545
-0.0039002482449391205   -0.04728628538490287   -0.0012815333866462175
-0.005905635245322604   -0.04377303233210015   -0.0012156280701171999
-0.003922731941944944   -0.04389979787509736   -0.0011148271208516545
-0.005180594149883912   -0.04731065211528608   -0.0014312743153416783
-0.0039002482449391205   -0.04728628538490287   -0.0012815333866462175
-0.0038961208459013007   -0.04382828849961245   -0.0011160303548634865
-0.005123728359388699   -0.047249014528867   -0.0013785282852478485
-0.0038409541396057854   -0.047249191448594775   -0.0012797393938490658
-0.0038961208459013007   -0.04382828849961245   -0.0011160303548634865
-0.005905635245322604   -0.04377303233210015   -0.0012156280701171999
-0.005123728359388699   -0.047249014528867   -0.0013785282852478485
-0.0058756991130026505   -0.043737251945870186   -0.001164754586618657
-0.0038409541396057854   -0.047249191448594775   -0.0012797393938490658
-0.00505991414170179   -0.04721911343773073   -0.001320746892615812
-0.0058756991130026505   -0.043737251945870186   -0.001164754586618657
-0.005123728359388699   -0.047249014528867   -0.0013785282852478485
-0.0038409541396057854   -0.047249191448594775   -0.0012797393938490658
-0.0058756991130026505   -0.043737251945870186   -0.001164754586618657
-0.003868747258660006   -0.04378296562029426   -0.001111798600337437
-0.0038961208459013007   -0.04382828849961245   -0.0011160303548634865
-0.0038409541396057854   -0.047249191448594775   -0.0012797393938490658
-0.0058756991130026505   -0.043737251945870186   -0.001164754586618657
-0.0038961208459013007   -0.04382828849961245   -0.0011160303548634865
-0.005123728359388699   -0.047249014528867   -0.0013785282852478485
-0.0038409541396057854   -0.047249191448594775   -0.0012797393938490658
-0.003868747258660006   -0.04378296562029426   -0.001111798600337437
-0.00505991414170179   -0.04721911343773073   -0.001320746892615812
-0.003783783577847783   -0.04724283646715929   -0.001272789698758084
-0.003868747258660006   -0.04378296562029426   -0.001111798600337437
-0.0058756991130026505   -0.043737251945870186   -0.001164754586618657
-0.00505991414170179   -0.04721911343773073   -0.001320746892615812
-0.005846601469342765   -0.0437261835026551   -0.0011087295487232978
-0.003783783577847783   -0.04724283646715929   -0.001272789698758084
-0.0049958655207399255   -0.04721792754792549   -0.0012573171530719574
-0.005846601469342765   -0.0437261835026551   -0.0011087295487232978
-0.00505991414170179   -0.04721911343773073   -0.001320746892615812
-0.003783783577847783   -0.04724283646715929   -0.001272789698758084
-0.005846601469342765   -0.0437261835026551   -0.0011087295487232978
-0.0038448087185519596   -0.043763405296663095   -0.001102498142904314
-0.003868747258660006   -0.04378296562029426   -0.001111798600337437
-0.003783783577847783   -0.04724283646715929   -0.001272789698758084
-0.005846601469342765   -0.0437261835026551   -0.0011087295487232978
-0.003868747258660006   -0.04378296562029426   -0.001111798600337437
-0.00505991414170179   -0.04721911343773073   -0.001320746892615812
-0.005180594149883912   -0.04731065211528608   -0.0014312743153416783
-0.005930404840350468   -0.043834712669046434   -0.0012611869330576859
-0.006523667855548254   -0.04716446902274923   -0.0015719826985535737
-0.005123728359388699   -0.047249014528867   -0.0013785282852478485
-0.005930404840350468   -0.043834712669046434   -0.0012611869330576859
-0.008033974262257533   -0.04368667146999585   -0.0013912327616490258
-0.006523667855548254   -0.04716446902274923   -0.0015719826985535737
-0.008001534033443954   -0.04363434782384053   -0.0012988393680627608
-0.005123728359388699   -0.047249014528867   -0.0013785282852478485
-0.006453973292880101   -0.04711055159174853   -0.0014643877791470057
-0.008001534033443954   -0.04363434782384053   -0.0012988393680627608
-0.006523667855548254   -0.04716446902274923   -0.0015719826985535737
-0.005123728359388699   -0.047249014528867   -0.0013785282852478485
-0.008001534033443954   -0.04363434782384053   -0.0012988393680627608
-0.005905635245322604   -0.04377303233210015   -0.0012156280701171999
-0.005930404840350468   -0.043834712669046434   -0.0012611869330576859
-0.005123728359388699   -0.047249014528867   -0.0013785282852478485
-0.008001534033443954   -0.04363434782384053   -0.0012988393680627608
-0.005930404840350468   -0.043834712669046434   -0.0012611869330576859
-0.006523667855548254   -0.04716446902274923   -0.0015719826985535737
-0.005123728359388699   -0.047249014528867   -0.0013785282852478485
-0.005905635245322604   -0.04377303233210015   -0.0012156280701171999
-0.006453973292880101   -0.04711055159174853   -0.0014643877791470057
-0.00505991414170179   -0.04721911343773073   -0.001320746892615812
-0.005905635245322604   -0.04377303233210015   -0.0012156280701171999
-0.008001534033443954   -0.04363434782384053   -0.0012988393680627608
-0.006453973292880101   -0.04711055159174853   -0.0014643877791470057
-0.007946491742681257   -0.043607218455913234   -0.0012019519738393058
-0.00505991414170179   -0.04721911343773073   -0.001320746892615812
-0.006357668674318227   -0.04708781489147318   -0.0013521354655602865
-0.007946491742681257   -0.043607218455913234   -0.0012019519738393058
-0.006453973292880101   -0.04711055159174853   -0.0014643877791470057
-0.00505991414170179   -0.04721911343773073   -0.001320746892615812
-0.007946491742681257   -0.043607218455913234   -0.0012019519738393058
-0.0058756991130026505   -0.043737251945870186   -0.001164754586618657
-0.005905635245322604   -0.04377303233210015   -0.0012156280701171999
-0.00505991414170179   -0.04721911343773073   -0.001320746892615812
-0.007946491742681257   -0.043607218455913234   -0.0012019519738393058
-0.005905635245322604   -0.04377303233210015   -0.0012156280701171999
-0.006453973292880101   -0.04711055159174853   -0.0014643877791470057
-0.00505991414170179   -0.04721911343773073   -0.001320746892615812
-0.0058756991130026505   -0.043737251945870186   -0.001164754586618657
-0.006357668674318227   -0.04708781489147318   -0.0013521354655602865
-0.0049958655207399255   -0.04721792754792549   -0.0012573171530719574
-0.0058756991130026505   -0.043737251945870186   -0.001164754586618657
-0.007946491742681257   -0.043607218455913234   -0.0012019519738393058
-0.006357668674318227   -0.04708781489147318   -0.0013521354655602865
-0.007901881743217685   -0.043606737786703265   -0.001099161058153184
-0.0049958655207399255   -0.04721792754792549   -0.0012573171530719574
-0.0062737501592460745   -0.04709628801067068   -0.00123212018324349
-0.007901881743217685   -0.043606737786703265   -0.001099161058153184
-0.006357668674318227   -0.04708781489147318   -0.0013521354655602865
-0.0049958655207399255   -0.04721792754792549   -0.0012573171530719574
-0.007901881743217685   -0.043606737786703265   -0.001099161058153184
-0.005846601469342765   -0.0437261835026551   -0.0011087295487232978
-0.0058756991130026505   -0.043737251945870186   -0.001164754586618657
-0.0049958655207399255   -0.04721792754792549   -0.0012573171530719574
-0.007901881743217685   -0.043606737786703265   -0.001099161058153184
-0.0058756991130026505   -0.043737251945870186   -0.001164754586618657
-0.006357668674318227   -0.04708781489147318   -0.0013521354655602865
-0.006523667855548254   -0.04716446902274923   -0.0015719826985535737
-0.008033974262257533   -0.04368667146999585   -0.0013912327616490258
-0.008253097548016662   -0.04692672678363794   -0.0017073832656187948
-0.006453973292880101   -0.04711055159174853   -0.0014643877791470057
-0.008033974262257533   -0.04368667146999585   -0.0013912327616490258
-0.010487021554757163   -0.04347324245781036   -0.0015127250947481513
-0.008253097548016662   -0.04692672678363794   -0.0017073832656187948
-0.010320037882949114   -0.04341856352551592   -0.0013680502108224298
-0.006453973292880101   -0.04711055159174853   -0.0014643877791470057
-0.008027435032387873   -0.04686812532282173   -0.0015374722231331368
-0.010320037882949114   -0.04341856352551592   -0.0013680502108224298
-0.008253097548016662   -0.04692672678363794   -0.0017073832656187948
-0.006453973292880101   -0.04711055159174853   -0.0014643877791470057
-0.010320037882949114   -0.04341856352551592   -0.0013680502108224298
-0.008001534033443954   -0.04363434782384053   -0.0012988393680627608
-0.008033974262257533   -0.04368667146999585   -0.0013912327616490258
-0.006453973292880101   -0.04711055159174853   -0.0014643877791470057
-0.010320037882949114   -0.04341856352551592   -0.0013680502108224298
-0.008033974262257533   -0.04368667146999585   -0.0013912327616490258
-0.008253097548016662   -0.04692672678363794   -0.0017073832656187948
-0.006453973292880101   -0.04711055159174853   -0.0014643877791470057
-0.008001534033443954   -0.04363434782384053   -0.0012988393680627608
-0.008027435032387873   -0.04686812532282173   -0.0015374722231331368
-0.006357668674318227   -0.04708781489147318   -0.0013521354655602865
-0.008001534033443954   -0.04363434782384053   -0.0012988393680627608
-0.010320037882949114   -0.04341856352551592   -0.0013680502108224298
-0.008027435032387873   -0.04686812532282173   -0.0015374722231331368
-0.010175266588117142   -0.043393783464099896   -0.0012159540768924978
-0.006357668674318227   -0.04708781489147318   -0.0013521354655602865
-0.007825407433605082   -0.046847094636426785   -0.0013577757589105718
-0.010175266588117142   -0.043393783464099896   -0.0012159540768924978
-0.008027435032387873   -0.04686812532282173   -0.0015374722231331368
-0.006357668674318227   -0.04708781489147318   -0.0013521354655602865
-0.010175266588117142   -0.043393783464099896   -0.0012159540768924978
-0.007946491742681257   -0.043607218455913234   -0.0012019519738393058
-0.008001534033443954   -0.04363434782384053   -0.0012988393680627608
-0.006357668674318227   -0.04708781489147318   -0.0013521354655602865
-0.010175266588117142   -0.043393783464099896   -0.0012159540768924978
-0.008001534033443954   -0.04363434782384053   -0.0012988393680627608
-0.008027435032387873   -0.04686812532282173   -0.0015374722231331368
-0.006357668674318227   -0.04708781489147318   -0.0013521354655602865
-0.007946491742681257   -0.043607218455913234   -0.0012019519738393058
-0.007825407433605082   -0.046847094636426785   -0.0013577757589105718
-0.0062737501592460745   -0.04709628801067068   -0.00123212018324349
-0.007946491742681257   -0.043607218455913234   -0.0012019519738393058
-0.010175266588117142   -0.043393783464099896   -0.0012159540768924978
-0.007825407433605082   -0.046847094636426785   -0.0013577757589105718
-0.009980288029543002   -0.04340969512943144   -0.0010574036962693852
-0.0062737501592460745   -0.04709628801067068   -0.00123212018324349
-0.007563601230776251   -0.0468745653546433   -0.0011699916570029841
-0.009980288029543002   -0.04340969512943144   -0.0010574036962693852
-0.007825407433605082   -0.046847094636426785   -0.0013577757589105718
-0.0062737501592460745   -0.04709628801067068   -0.00123212018324349
-0.009980288029543002   -0.04340969512943144   -0.0010574036962693852
-0.007901881743217685   -0.043606737786703265   -0.001099161058153184
-0.007946491742681257   -0.043607218455913234   -0.0012019519738393058
-0.0062737501592460745   -0.04709628801067068   -0.00123212018324349
-0.009980288029543002   -0.04340969512943144   -0.0010574036962693852
-0.007946491742681257   -0.043607218455913234   -0.0012019519738393058
-0.007825407433605082   -0.046847094636426785   -0.0013577757589105718
0.0002234340715385497   -0.043774568930570926   -0.0007555962383280516
0.0015206170960261661   -0.039165671048716044   -0.0005756121411390094
-0.0018832955461529474   -0.043879661363629786   -0.0009526622375498908
0.00036081068586049745   -0.04367446195010572   -0.0008675669534134711
0.0015206170960261661   -0.039165671048716044   -0.0005756121411390094
-0.001272945411383005   -0.039235398539042   -0.0007637533308966096
-0.0018832955461529474   -0.043879661363629786   -0.0009526622375498908
-0.001265257141353406   -0.039152479522567174   -0.0007979215685893205
0.00036081068586049745   -0.04367446195010572   -0.0008675669534134711
-0.0018470233765743565   -0.043796300286118285   -0.0010017793116179677
-0.001265257141353406   -0.039152479522567174   -0.0007979215685893205
-0.0018832955461529474   -0.043879661363629786   -0.0009526622375498908
0.00036081068586049745   -0.04367446195010572   -0.0008675669534134711
-0.001265257141353406   -0.039152479522567174   -0.0007979215685893205
0.0016026645359975549   -0.039067948873926915   -0.0006586867588327988
0.0015206170960261661   -0.039165671048716044   -0.0005756121411390094
0.00036081068586049745   -0.04367446195010572   -0.0008675669534134711
-0.001265257141353406   -0.039152479522567174   -0.0007979215685893205
0.0015206170960261661   -0.039165671048716044   -0.0005756121411390094
-0.0018832955461529474   -0.043879661363629786   -0.0009526622375498908
0.00036081068586049745   -0.04367446195010572   -0.0008675669534134711
0.0016026645359975549   -0.039067948873926915   -0.0006586867588327988
-0.0018470233765743565   -0.043796300286118285   -0.0010017793116179677
0.0004619094118099578   -0.0436170171897977   -0.0009716015220049899
0.0016026645359975549   -0.039067948873926915   -0.0006586867588327988
-0.001265257141353406   -0.039152479522567174   -0.0007979215685893205
-0.0018470233765743565   -0.043796300286118285   -0.0010017793116179677
-0.0012554549321841114   -0.03909270221354333   -0.0008268959334656251
0.0004619094118099578   -0.0436170171897977   -0.0009716015220049899
-0.0018056472383184855   -0.04374220201338567   -0.0010452266525456868
-0.0012554549321841114   -0.03909270221354333   -0.0008268959334656251
-0.0018470233765743565   -0.043796300286118285   -0.0010017793116179677
0.0004619094118099578   -0.0436170171897977   -0.0009716015220049899
-0.0012554549321841114   -0.03909270221354333   -0.0008268959334656251
0.0016552422784157288   -0.03900423173099696   -0.0007344187307188718
0.0016026645359975549   -0.039067948873926915   -0.0006586867588327988
0.0004619094118099578   -0.0436170171897977   -0.0009716015220049899
-0.0012554549321841114   -0.03909270221354333   -0.0008268959334656251
0.0016026645359975549   -0.039067948873926915   -0.0006586867588327988
-0.0018470233765743565   -0.043796300286118285   -0.0010017793116179677
0.0004619094118099578   -0.0436170171897977   -0.0009716015220049899
0.0016552422784157288   -0.03900423173099696   -0.0007344187307188718
-0.0018056472383184855   -0.04374220201338567   -0.0010452266525456868
0.0005703353927284179   -0.04358930624355646   -0.0010676643775300574
0.0016552422784157288   -0.03900423173099696   -0.0007344187307188718
-0.0012554549321841114   -0.03909270221354333   -0.0008268959334656251
-0.0018056472383184855   -0.04374220201338567   -0.0010452266525456868
-0.0012598770610574381   -0.03905413503311055   -0.0008510548003066973
0.0005703353927284179   -0.04358930624355646   -0.0010676643775300574
-0.0017809014062676093   -0.04371575362058124   -0.0010835645462968413
-0.0012598770610574381   -0.03905413503311055   -0.0008510548003066973
-0.0018056472383184855   -0.04374220201338567   -0.0010452266525456868
0.0005703353927284179   -0.04358930624355646   -0.0010676643775300574
-0.0012598770610574381   -0.03905413503311055   -0.0008510548003066973
0.0017094109711536258   -0.038962051275058425   -0.000802964697053827
0.0016552422784157288   -0.03900423173099696   -0.0007344187307188718
0.0005703353927284179   -0.04358930624355646   -0.0010676643775300574
-0.0012598770610574381   -0.03905413503311055   -0.0008510548003066973
0.0016552422784157288   -0.03900423173099696   -0.0007344187307188718
-0.0018056472383184855   -0.04374220201338567   -0.0010452266525456868
-0.0018832955461529474   -0.043879661363629786   -0.0009526622375498908
-0.001272945411383005   -0.039235398539042   -0.0007637533308966096
-0.003922731941944944   -0.04389979787509736   -0.0011148271208516545
-0.0018470233765743565   -0.043796300286118285   -0.0010017793116179677
-0.001272945411383005   -0.039235398539042   -0.0007637533308966096
-0.0039622938399991705   -0.03923589990453552   -0.000918653889252287
-0.003922731941944944   -0.04389979787509736   -0.0011148271208516545
-0.003962569165257722   -0.03916583116585633   -0.0009154214226067821
-0.0018470233765743565   -0.043796300286118285   -0.0010017793116179677
-0.0038961208459013007   -0.04382828849961245   -0.0011160303548634865
-0.003962569165257722   -0.03916583116585633   -0.0009154214226067821
-0.003922731941944944   -0.04389979787509736   -0.0011148271208516545
-0.0018470233765743565   -0.043796300286118285   -0.0010017793116179677
-0.003962569165257722   -0.03916583116585633   -0.0009154214226067821
-0.001265257141353406   -0.039152479522567174   -0.0007979215685893205
-0.001272945411383005   -0.039235398539042   -0.0007637533308966096
-0.0018470233765743565   -0.043796300286118285   -0.0010017793116179677
-0.003962569165257722   -0.03916583116585633   -0.0009154214226067821
-0.001272945411383005   -0.039235398539042   -0.0007637533308966096
-0.003922731941944944   -0.04389979787509736   -0.0011148271208516545
-0.0018470233765743565   -0.043796300286118285   -0.0010017793116179677
-0.001265257141353406   -0.039152479522567174   -0.0007979215685893205
-0.0038961208459013007   -0.04382828849961245   -0.0011160303548634865
-0.0018056472383184855   -0.04374220201338567   -0.0010452266525456868
-0.001265257141353406   -0.039152479522567174   -0.0007979215685893205
-0.003962569165257722   -0.03916583116585633   -0.0009154214226067821
-0.0038961208459013007   -0.04382828849961245   -0.0011160303548634865
-0.00396265958502423   -0.039116158575419765   -0.0009070122225010339
-0.0018056472383184855   -0.04374220201338567   -0.0010452266525456868
-0.003868747258660006   -0.04378296562029426   -0.001111798600337437
-0.00396265958502423   -0.039116158575419765   -0.0009070122225010339
-0.0038961208459013007   -0.04382828849961245   -0.0011160303548634865
-0.0018056472383184855   -0.04374220201338567   -0.0010452266525456868
-0.00396265958502423   -0.039116158575419765   -0.0009070122225010339
-0.0012554549321841114   -0.03909270221354333   -0.0008268959334656251
-0.001265257141353406   -0.039152479522567174   -0.0007979215685893205
-0.0018056472383184855   -0.04374220201338567   -0.0010452266525456868
-0.00396265958502423   -0.039116158575419765   -0.0009070122225010339
-0.001265257141353406   -0.039152479522567174   -0.0007979215685893205
-0.0038961208459013007   -0.04382828849961245   -0.0011160303548634865
-0.0018056472383184855   -0.04374220201338567   -0.0010452266525456868
-0.0012554549321841114   -0.03909270221354333   -0.0008268959334656251
-0.003868747258660006   -0.04378296562029426   -0.001111798600337437
-0.0017809014062676093   -0.04371575362058124   -0.0010835645462968413
-0.0012554549321841114   -0.03909270221354333   -0.0008268959334656251
-0.00396265958502423   -0.039116158575419765   -0.0009070122225010339
-0.003868747258660006   -0.04378296562029426   -0.001111798600337437
-0.003966337444487909   -0.03908691947881556   -0.0008936988667228738
-0.0017809014062676093   -0.04371575362058124   -0.0010835645462968413
-0.0038448087185519596   -0.043763405296663095   -0.001102498142904314
-0.003966337444487909   -0.03908691947881556   -0.0008936988667228738
-0.003868747258660006   -0.04378296562029426   -0.001111798600337437
-0.0017809014062676093   -0.04371575362058124   -0.0010835645462968413
-0.003966337444487909   -0.03908691947881556   -0.0008936988667228738
-0.0012598770610574381   -0.03905413503311055   -0.0008510548003066973
-0.0012554549321841114   -0.03909270221354333   -0.0008268959334656251
-0.0017809014062676093   -0.04371575362058124   -0.0010835645462968413
-0.003966337444487909   -0.03908691947881556   -0.0008936988667228738
-0.0012554549321841114   -0.03909270221354333   -0.0008268959334656251
-0.003868747258660006   -0.04378296562029426   -0.001111798600337437
-0.003922731941944944   -0.04389979787509736   -0.0011148271208516545
-0.0039622938399991705   -0.03923589990453552   -0.000918653889252287
-0.005930404840350468   -0.043834712669046434   -0.0012611869330576859
-0.0038961208459013007   -0.04382828849961245   -0.0011160303548634865
-0.0039622938399991705   -0.03923589990453552   -0.000918653889252287
-0.006606237874917542   -0.03916885279972412   -0.001054259148639438
-0.005930404840350468   -0.043834712669046434   -0.0012611869330576859
-0.006608513147107066   -0.039110047983763496   -0.0010140807624468824
-0.0038961208459013007   -0.04382828849961245   -0.0011160303548634865
-0.005905635245322604   -0.04377303233210015   -0.0012156280701171999
-0.006608513147107066   -0.039110047983763496   -0.0010140807624468824
-0.005930404840350468   -0.043834712669046434   -0.0012611869330576859
-0.0038961208459013007   -0.04382828849961245   -0.0011160303548634865
-0.006608513147107066   -0.039110047983763496   -0.0010140807624468824
-0.003962569165257722   -0.03916583116585633   -0.0009154214226067821
-0.0039622938399991705   -0.03923589990453552   -0.000918653889252287
-0.0038961208459013007   -0.04382828849961245   -0.0011160303548634865
-0.006608513147107066   -0.039110047983763496   -0.0010140807624468824
-0.0039622938399991705   -0.03923589990453552   -0.000918653889252287
-0.005930404840350468   -0.043834712669046434   -0.0012611869330576859
-0.0038961208459013007   -0.04382828849961245   -0.0011160303548634865
-0.003962569165257722   -0.03916583116585633   -0.0009154214226067821
-0.005905635245322604   -0.04377303233210015   -0.0012156280701171999
-0.003868747258660006   -0.04378296562029426   -0.001111798600337437
-0.003962569165257722   -0.03916583116585633   -0.0009154214226067821
-0.006608513147107066   -0.039110047983763496   -0.0010140807624468824
-0.005905635245322604   -0.04377303233210015   -0.0012156280701171999
-0.006606289787666048   -0.039071459264184025   -0.0009688282386695199
-0.003868747258660006   -0.04378296562029426   -0.001111798600337437
-0.0058756991130026505   -0.043737251945870186   -0.001164754586618657
-0.006606289787666048   -0.039071459264184025   -0.0009688282386695199
-0.005905635245322604   -0.04377303233210015   -0.0012156280701171999
-0.003868747258660006   -0.04378296562029426   -0.001111798600337437
-0.006606289787666048   -0.039071459264184025   -0.0009688282386695199
-0.00396265958502423   -0.039116158575419765   -0.0009070122225010339
-0.003962569165257722   -0.03916583116585633   -0.0009154214226067821
-0.003868747258660006   -0.04378296562029426   -0.001111798600337437
-0.006606289787666048   -0.039071459264184025   -0.0009688282386695199
-0.003962569165257722   -0.03916583116585633   -0.0009154214226067821
-0.005905635245322604   -0.04377303233210015   -0.0012156280701171999
-0.003868747258660006   -0.04378296562029426   -0.001111798600337437
-0.00396265958502423   -0.039116158575419765   -0.0009070122225010339
-0.0058756991130026505   -0.043737251945870186   -0.001164754586618657
-0.0038448087185519596   -0.043763405296663095   -0.001102498142904314
-0.00396265958502423   -0.039116158575419765   -0.0009070122225010339
-0.006606289787666048   -0.039071459264184025   -0.0009688282386695199
-0.0058756991130026505   -0.043737251945870186   -0.001164754586618657
-0.006604887070670162   -0.03905273571950978   -0.0009186484978965585
-0.0038448087185519596   -0.043763405296663095   -0.001102498142904314
-0.005846601469342765   -0.0437261835026551   -0.0011087295487232978
-0.006604887070670162   -0.03905273571950978   -0.0009186484978965585
-0.0058756991130026505   -0.043737251945870186   -0.001164754586618657
-0.0038448087185519596   -0.043763405296663095   -0.001102498142904314
-0.006604887070670162   -0.03905273571950978   -0.0009186484978965585
-0.003966337444487909   -0.03908691947881556   -0.0008936988667228738
-0.00396265958502423   -0.039116158575419765   -0.0009070122225010339
-0.0038448087185519596   -0.043763405296663095   -0.001102498142904314
-0.006604887070670162   -0.03905273571950978   -0.0009186484978965585
-0.00396265958502423   -0.039116158575419765   -0.0009070122225010339
-0.0058756991130026505   -0.043737251945870186   -0.001164754586618657
-0.005930404840350468   -0.043834712669046434   -0.0012611869330576859
-0.006606237874917542   -0.03916885279972412   -0.001054259148639438
-0.008033974262257533   -0.04368667146999585   -0.0013912327616490258
-0.005905635245322604   -0.04377303233210015   -0.0012156280701171999
-0.006606237874917542   -0.03916885279972412   -0.001054259148639438
-0.009332412852381598   -0.03903676276052723   -0.001170863186469164
-0.008033974262257533   -0.04368667146999585   -0.0013912327616490258
-0.009329085062996576   -0.03898872180020432   -0.001093295347721214
-0.005905635245322604   -0.04377303233210015   -0.0012156280701171999
-0.008001534033443954   -0.04363434782384053   -0.0012988393680627608
-0.009329085062996576   -0.03898872180020432   -0.001093295347721214
-0.008033974262257533   -0.04368667146999585   -0.0013912327616490258
-0.005905635245322604   -0.04377303233210015   -0.0012156280701171999
-0.009329085062996576   -0.03898872180020432   -0.001093295347721214
-0.006608513147107066   -0.039110047983763496   -0.0010140807624468824
-0.006606237874917542   -0.03916885279972412   -0.001054259148639438
-0.005905635245322604   -0.04377303233210015   -0.0012156280701171999
-0.009329085062996576   -0.03898872180020432   -0.001093295347721214
-0.006606237874917542   -0.03916885279972412   -0.001054259148639438
-0.008033974262257533   -0.04368667146999585   -0.0013912327616490258
-0.005905635245322604   -0.04377303233210015   -0.0012156280701171999
-0.006608513147107066   -0.039110047983763496   -0.0010140807624468824
-0.008001534033443954   -0.04363434782384053   -0.0012988393680627608
-0.0058756991130026505   -0.043737251945870186   -0.001164754586618657
-0.006608513147107066   -0.039110047983763496   -0.0010140807624468824
-0.009329085062996576   -0.03898872180020432   -0.001093295347721214
-0.008001534033443954   -0.04363434782384053   -0.0012988393680627608
-0.009306072610274458   -0.03896018427928125   -0.0010114196615306041
-0.0058756991130026505   -0.043737251945870186   -0.001164754586618657
-0.007946491742681257   -0.043607218455913234   -0.0012019519738393058
-0.009306072610274458   -0.03896018427928125   -0.0010114196615306041
-0.008001534033443954   -0.04363434782384053   -0.0012988393680627608
-0.0058756991130026505   -0.043737251945870186   -0.001164754586618657
-0.009306072610274458   -0.03896018427928125   -0.0010114196615306041
-0.006606289787666048   -0.039071459264184025   -0.0009688282386695199
-0.006608513147107066   -0.039110047983763496   -0.0010140807624468824
-0.0058756991130026505   -0.043737251945870186   -0.001164754586618657
-0.009306072610274458   -0.03896018427928125   -0.0010114196615306041
-0.006608513147107066   -0.039110047983763496   -0.0010140807624468824
-0.008001534033443954   -0.04363434782384053   -0.0012988393680627608
-0.0058756991130026505   -0.043737251945870186   -0.001164754586618657
-0.006606289787666048   -0.039071459264184025   -0.0009688282386695199
-0.007946491742681257   -0.043607218455913234   -0.0012019519738393058
-0.005846601469342765   -0.0437261835026551   -0.0011087295487232978
-0.006606289787666048   -0.039071459264184025   -0.0009688282386695199
-0.009306072610274458   -0.03896018427928125   -0.0010114196615306041
-0.007946491742681257   -0.043607218455913234   -0.0012019519738393058
-0.009290727457413142   -0.03895318560279824   -0.0009242185619763399
-0.005846601469342765   -0.0437261835026551   -0.0011087295487232978
-0.007901881743217685   -0.043606737786703265   -0.001099161058153184
-0.009290727457413142   -0.03895318560279824   -0.0009242185619763399
-0.007946491742681257   -0.043607218455913234   -0.0012019519738393058
-0.005846601469342765   -0.0437261835026551   -0.0011087295487232978
-0.009290727457413142   -0.03895318560279824   -0.0009242185619763399
-0.006604887070670162   -0.03905273571950978   -0.0009186484978965585
-0.006606289787666048   -0.039071459264184025   -0.0009688282386695199
-0.005846601469342765   -0.0437261835026551   -0.0011087295487232978
-0.009290727457413142   -0.03895318560279824   -0.0009242185619763399
-0.006606289787666048   -0.039071459264184025   -0.0009688282386695199
-0.007946491742681257   -0.043607218455913234   -0.0012019519738393058
-0.008033974262257533   -0.04368667146999585   -0.0013912327616490258
-0.009332412852381598   -0.03903676276052723   -0.001170863186469164
-0.010487021554757163   -0.04347324245781036   -0.0015127250947481513
-0.008001534033443954   -0.04363434782384053   -0.0012988393680627608
-0.009332412852381598   -0.03903676276052723   -0.001170863186469164
-0.01237757628843818   -0.038854434673837604   -0.0012761412774006165
-0.010487021554757163   -0.04347324245781036   -0.0015127250947481513
-0.012262956357010716   -0.03880722124687378   -0.001157399265946863
-0.008001534033443954   -0.04363434782384053   -0.0012988393680627608
-0.010320037882949114   -0.04341856352551592   -0.0013680502108224298
-0.012262956357010716   -0.03880722124687378   -0.001157399265946863
-0.010487021554757163   -0.04347324245781036   -0.0015127250947481513
-0.008001534033443954   -0.04363434782384053   -0.0012988393680627608
-0.012262956357010716   -0.03880722124687378   -0.001157399265946863
-0.009329085062996576   -0.03898872180020432   -0.001093295347721214
-0.009332412852381598   -0.03903676276052723   -0.001170863186469164
-0.008001534033443954   -0.04363434782384053   -0.0012988393680627608
-0.012262956357010716   -0.03880722124687378   -0.001157399265946863
-0.009332412852381598   -0.03903676276052723   -0.001170863186469164
-0.010487021554757163   -0.04347324245781036   -0.0015127250947481513
-0.008001534033443954   -0.04363434782384053   -0.0012988393680627608
-0.009329085062996576   -0.03898872180020432   -0.001093295347721214
-0.010320037882949114   -0.04341856352551592   -0.0013680502108224298
-0.007946491742681257   -0.043607218455913234   -0.0012019519738393058
-0.009329085062996576   -0.03898872180020432   -0.001093295347721214
-0.012262956357010716   -0.03880722124687378   -0.001157399265946863
-0.010320037882949114   -0.04341856352551592   -0.0013680502108224298
-0.012165028734733643   -0.03878235439050732   -0.001031407436473427
-0.007946491742681257   -0.043607218455913234   -0.0012019519738393058
-0.010175266588117142   -0.043393783464099896   -0.0012159540768924978
-0.012165028734733643   -0.03878235439050732   -0.001031407436473427
-0.010320037882949114   -0.04341856352551592   -0.0013680502108224298
-0.007946491742681257   -0.043607218455913234   -0.0012019519738393058
-0.012165028734733643   -0.03878235439050732   -0.001031407436473427
-0.009306072610274458   -0.03896018427928125   -0.0010114196615306041
-0.009329085062996576   -0.03898872180020432   -0.001093295347721214
-0.007946491742681257   -0.043607218455913234   -0.0012019519738393058
-0.012165028734733643   -0.03878235439050732   -0.001031407436473427
-0.009329085062996576   -0.03898872180020432   -0.001093295347721214
-0.010320037882949114   -0.04341856352551592   -0.0013680502108224298
-0.007946491742681257   -0.043607218455913234   -0.0012019519738393058
-0.009306072610274458   -0.03896018427928125   -0.0010114196615306041
-0.010175266588117142   -0.043393783464099896   -0.0012159540768924978
-0.007901881743217685   -0.043606737786703265   -0.001099161058153184
-0.009306072610274458   -0.03896018427928125   -0.0010114196615306041
-0.012165028734733643   -0.03878235439050732   -0.001031407436473427
-0.010175266588117142   -0.043393783464099896   -0.0012159540768924978
-0.01202383726397164   -0.03879161486628385   -0.0008991638616376045
-0.007901881743217685   -0.043606737786703265   -0.001099161058153184
-0.009980288029543002   -0.04340969512943144   -0.0010574036962693852
-0.01202383726397164   -0.03879161486628385   -0.0008991638616376045
-0.010175266588117142   -0.043393783464099896   -0.0012159540768924978
-0.007901881743217685   -0.043606737786703265   -0.001099161058153184
-0.01202383726397164   -0.03879161486628385   -0.0008991638616376045
-0.009290727457413142   -0.03895318560279824   -0.0009242185619763399
-0.009306072610274458   -0.03896018427928125   -0.0010114196615306041
-0.007901881743217685   -0.043606737786703265   -0.001099161058153184
-0.01202383726397164   -0.03879161486628385   -0.0008991638616376045
-0.009306072610274458   -0.03896018427928125   -0.0010114196615306041
-0.010175266588117142   -0.043393783464099896   -0.0012159540768924978
0.0015206170960261661   -0.039165671048716044   -0.0005756121411390094
0.002417847258087742   -0.03361374328893812   -0.0003836028016451454
-0.001272945411383005   -0.039235398539042   -0.0007637533308966096
0.0016026645359975549   -0.039067948873926915   -0.0006586867588327988
0.002417847258087742   -0.03361374328893812   -0.0003836028016451454
-0.0009004293559208616   -0.03364832117636002   -0.0005605859046963204
-0.001272945411383005   -0.039235398539042   -0.0007637533308966096
-0.0009157749078379694   -0.033567441427447726   -0.0005791336715253034
0.0016026645359975549   -0.039067948873926915   -0.0006586867588327988
-0.001265257141353406   -0.039152479522567174   -0.0007979215685893205
-0.0009157749078379694   -0.033567441427447726   -0.0005791336715253034
-0.001272945411383005   -0.039235398539042   -0.0007637533308966096
0.0016026645359975549   -0.039067948873926915   -0.0006586867588327988
-0.0009157749078379694   -0.033567441427447726   -0.0005791336715253034
0.0024508079715989685   -0.033519590387992515   -0.0004382855135980904
0.002417847258087742   -0.03361374328893812   -0.0003836028016451454
0.0016026645359975549   -0.039067948873926915   -0.0006586867588327988
-0.0009157749078379694   -0.033567441427447726   -0.0005791336715253034
0.002417847258087742   -0.03361374328893812   -0.0003836028016451454
-0.001272945411383005   -0.039235398539042   -0.0007637533308966096
0.0016026645359975549   -0.039067948873926915   -0.0006586867588327988
0.0024508079715989685   -0.033519590387992515   -0.0004382855135980904
-0.001265257141353406   -0.039152479522567174   -0.0007979215685893205
0.0016552422784157288   -0.03900423173099696   -0.0007344187307188718
0.0024508079715989685   -0.033519590387992515   -0.0004382855135980904
-0.0009157749078379694   -0.033567441427447726   -0.0005791336715253034
-0.001265257141353406   -0.039152479522567174   -0.0007979215685893205
-0.000931870537561765   -0.03350376251124117   -0.0005930318777322115
0.0016552422784157288   -0.03900423173099696   -0.0007344187307188718
-0.0012554549321841114   -0.03909270221354333   -0.0008268959334656251
-0.000931870537561765   -0.03350376251124117   -0.0005930318777322115
-0.001265257141353406   -0.039152479522567174   -0.0007979215685893205
0.0016552422784157288   -0.03900423173099696   -0.0007344187307188718
-0.000931870537561765   -0.03350376251124117   -0.0005930318777322115
0.002461219910176703   -0.03345135926727726   -0.000486105559415968
0.0024508079715989685   -0.033519590387992515   -0.0004382855135980904
0.0016552422784157288   -0.03900423173099696   -0.0007344187307188718
-0.000931870537561765   -0.03350376251124117   -0.0005930318777322115
0.0024508079715989685   -0.033519590387992515   -0.0004382855135980904
-0.001265257141353406   -0.039152479522567174   -0.0007979215685893205
0.0016552422784157288   -0.03900423173099696   -0.0007344187307188718
0.002461219910176703   -0.03345135926727726   -0.000486105559415968
-0.0012554549321841114   -0.03909270221354333   -0.0008268959334656251
0.0017094109711536258   -0.038962051275058425   -0.000802964697053827
0.002461219910176703   -0.03345135926727726   -0.000486105559415968
-0.000931870537561765   -0.03350376251124117   -0.0005930318777322115
-0.0012554549321841114   -0.03909270221354333   -0.0008268959334656251
-0.0009595190287072081   -0.03345526211748451   -0.0006024370189370969
0.0017094109711536258   -0.038962051275058425   -0.000802964697053827
-0.0012598770610574381   -0.03905413503311055   -0.0008510548003066973
-0.0009595190287072081   -0.03345526211748451   -0.0006024370189370969
-0.0012554549321841114   -0.03909270221354333   -0.0008268959334656251
0.0017094109711536258   -0.038962051275058425   -0.000802964697053827
-0.0009595190287072081   -0.03345526211748451   -0.0006024370189370969
0.002467515734927827   -0.03339689605368982   -0.0005273893293975847
0.002461219910176703   -0.03345135926727726   -0.000486105559415968
0.0017094109711536258   -0.038962051275058425   -0.000802964697053827
-0.0009595190287072081   -0.03345526211748451   -0.0006024370189370969
0.002461219910176703   -0.03345135926727726   -0.000486105559415968
-0.0012554549321841114   -0.03909270221354333   -0.0008268959334656251
-0.001272945411383005   -0.039235398539042   -0.0007637533308966096
-0.0009004293559208616   -0.03364832117636002   -0.0005605859046963204
-0.0039622938399991705   -0.03923589990453552   -0.000918653889252287
-0.001265257141353406   -0.039152479522567174   -0.0007979215685893205
-0.0009004293559208616   -0.03364832117636002   -0.0005605859046963204
-0.004081907979599765   -0.0336309309596769   -0.0007060103352124849
-0.0039622938399991705   -0.03923589990453552   -0.000918653889252287
-0.00410336019051557   -0.03356345820808863   -0.0006974433855396274
-0.001265257141353406   -0.039152479522567174   -0.0007979215685893205
-0.003962569165257722   -0.03916583116585633   -0.0009154214226067821
-0.00410336019051557   -0.03356345820808863   -0.0006974433855396274
-0.0039622938399991705   -0.03923589990453552   -0.000918653889252287
-0.001265257141353406   -0.039152479522567174   -0.0007979215685893205
-0.00410336019051557   -0.03356345820808863   -0.0006974433855396274
-0.0009157749078379694   -0.033567441427447726   -0.0005791336715253034
-0.0009004293559208616   -0.03364832117636002   -0.0005605859046963204
-0.001265257141353406   -0.039152479522567174   -0.0007979215685893205
-0.00410336019051557   -0.03356345820808863   -0.0006974433855396274
-0.0009004293559208616   -0.03364832117636002   -0.0005605859046963204
-0.0039622938399991705   -0.03923589990453552   -0.000918653889252287
-0.001265257141353406   -0.039152479522567174   -0.0007979215685893205
-0.0009157749078379694   -0.033567441427447726   -0.0005791336715253034
-0.003962569165257722   -0.03916583116585633   -0.0009154214226067821
-0.0012554549321841114   -0.03909270221354333   -0.0008268959334656251
-0.0009157749078379694   -0.033567441427447726   -0.0005791336715253034
-0.00410336019051557   -0.03356345820808863   -0.0006974433855396274
-0.003962569165257722   -0.03916583116585633   -0.0009154214226067821
-0.004125108591406076   -0.033510726957486366   -0.0006840868683888386
-0.0012554549321841114   -0.03909270221354333   -0.0008268959334656251
-0.00396265958502423   -0.039116158575419765   -0.0009070122225010339
-0.004125108591406076   -0.033510726957486366   -0.0006840868683888386
-0.003962569165257722   -0.03916583116585633   -0.0009154214226067821
-0.0012554549321841114   -0.03909270221354333   -0.0008268959334656251
-0.004125108591406076   -0.033510726957486366   -0.0006840868683888386
-0.000931870537561765   -0.03350376251124117   -0.0005930318777322115
-0.0009157749078379694   -0.033567441427447726   -0.0005791336715253034
-0.0012554549321841114   -0.03909270221354333   -0.0008268959334656251
-0.004125108591406076   -0.033510726957486366   -0.0006840868683888386
-0.0009157749078379694   -0.033567441427447726   -0.0005791336715253034
-0.003962569165257722   -0.03916583116585633   -0.0009154214226067821
-0.0012554549321841114   -0.03909270221354333   -0.0008268959334656251
-0.000931870537561765   -0.03350376251124117   -0.0005930318777322115
-0.00396265958502423   -0.039116158575419765   -0.0009070122225010339
-0.0012598770610574381   -0.03905413503311055   -0.0008510548003066973
-0.000931870537561765   -0.03350376251124117   -0.0005930318777322115
-0.004125108591406076   -0.033510726957486366   -0.0006840868683888386
-0.00396265958502423   -0.039116158575419765   -0.0009070122225010339
-0.00415026715039946   -0.03347298601085384   -0.0006661754316623636
-0.0012598770610574381   -0.03905413503311055   -0.0008510548003066973
-0.003966337444487909   -0.03908691947881556   -0.0008936988667228738
-0.00415026715039946   -0.03347298601085384   -0.0006661754316623636
-0.00396265958502423   -0.039116158575419765   -0.0009070122225010339
-0.0012598770610574381   -0.03905413503311055   -0.0008510548003066973
-0.00415026715039946   -0.03347298601085384   -0.0006661754316623636
-0.0009595190287072081   -0.03345526211748451   -0.0006024370189370969
-0.000931870537561765   -0.03350376251124117   -0.0005930318777322115
-0.0012598770610574381   -0.03905413503311055   -0.0008510548003066973
-0.00415026715039946   -0.03347298601085384   -0.0006661754316623636
-0.000931870537561765   -0.03350376251124117   -0.0005930318777322115
-0.00396265958502423   -0.039116158575419765   -0.0009070122225010339
-0.0039622938399991705   -0.03923589990453552   -0.000918653889252287
-0.004081907979599765   -0.0336309309596769   -0.0007060103352124849
-0.006606237874917542   -0.03916885279972412   -0.001054259148639438
-0.003962569165257722   -0.03916583116585633   -0.0009154214226067821
-0.004081907979599765   -0.0336309309596769   -0.0007060103352124849
-0.00720977921571801   -0.0335648729885801   -0.0008302973333357757
-0.006606237874917542   -0.03916885279972412   -0.001054259148639438
-0.0072329606174302485   -0.033509557671574854   -0.0007947542628674951
-0.003962569165257722   -0.03916583116585633   -0.0009154214226067821
-0.006608513147107066   -0.039110047983763496   -0.0010140807624468824
-0.0072329606174302485   -0.033509557671574854   -0.0007947542628674951
-0.006606237874917542   -0.03916885279972412   -0.001054259148639438
-0.003962569165257722   -0.03916583116585633   -0.0009154214226067821
-0.0072329606174302485   -0.033509557671574854   -0.0007947542628674951
-0.00410336019051557   -0.03356345820808863   -0.0006974433855396274
-0.004081907979599765   -0.0336309309596769   -0.0007060103352124849
-0.003962569165257722   -0.03916583116585633   -0.0009154214226067821
-0.0072329606174302485   -0.033509557671574854   -0.0007947542628674951
-0.004081907979599765   -0.0336309309596769   -0.0007060103352124849
-0.006606237874917542   -0.03916885279972412   -0.001054259148639438
-0.003962569165257722   -0.03916583116585633   -0.0009154214226067821
-0.00410336019051557   -0.03356345820808863   -0.0006974433855396274
-0.006608513147107066   -0.039110047983763496   -0.0010140807624468824
-0.00396265958502423   -0.039116158575419765   -0.0009070122225010339
-0.00410336019051557   -0.03356345820808863   -0.0006974433855396274
-0.0072329606174302485   -0.033509557671574854   -0.0007947542628674951
-0.006608513147107066   -0.039110047983763496   -0.0010140807624468824
-0.007252140828918288   -0.03346884359370749   -0.0007545081097952035
-0.00396265958502423   -0.039116158575419765   -0.0009070122225010339
-0.006606289787666048   -0.039071459264184025   -0.0009688282386695199
-0.007252140828918288   -0.03346884359370749   -0.0007545081097952035
-0.006608513147107066   -0.039110047983763496   -0.0010140807624468824
-0.00396265958502423   -0.039116158575419765   -0.0009070122225010339
-0.007252140828918288   -0.03346884359370749   -0.0007545081097952035
-0.004125108591406076   -0.033510726957486366   -0.0006840868683888386
-0.00410336019051557   -0.03356345820808863   -0.0006974433855396274
-0.00396265958502423   -0.039116158575419765   -0.0009070122225010339
-0.007252140828918288   -0.03346884359370749   -0.0007545081097952035
-0.00410336019051557   -0.03356345820808863   -0.0006974433855396274
-0.006608513147107066   -0.039110047983763496   -0.0010140807624468824
-0.00396265958502423   -0.039116158575419765   -0.0009070122225010339
-0.004125108591406076   -0.033510726957486366   -0.0006840868683888386
-0.006606289787666048   -0.039071459264184025   -0.0009688282386695199
-0.003966337444487909   -0.03908691947881556   -0.0008936988667228738
-0.004125108591406076   -0.033510726957486366   -0.0006840868683888386
-0.007252140828918288   -0.03346884359370749   -0.0007545081097952035
-0.006606289787666048   -0.039071459264184025   -0.0009688282386695199
-0.007271887157735705   -0.033442668297619216   -0.0007096961573946519
-0.003966337444487909   -0.03908691947881556   -0.0008936988667228738
-0.006604887070670162   -0.03905273571950978   -0.0009186484978965585
-0.007271887157735705   -0.033442668297619216   -0.0007096961573946519
-0.006606289787666048   -0.039071459264184025   -0.0009688282386695199
-0.003966337444487909   -0.03908691947881556   -0.0008936988667228738
-0.007271887157735705   -0.033442668297619216   -0.0007096961573946519
-0.00415026715039946   -0.03347298601085384   -0.0006661754316623636
-0.004125108591406076   -0.033510726957486366   -0.0006840868683888386
-0.003966337444487909   -0.03908691947881556   -0.0008936988667228738
-0.007271887157735705   -0.033442668297619216   -0.0007096961573946519
-0.004125108591406076   -0.033510726957486366   -0.0006840868683888386
-0.006606289787666048   -0.039071459264184025   -0.0009688282386695199
-0.006606237874917542   -0.03916885279972412   -0.001054259148639438
-0.00720977921571801   -0.0335648729885801   -0.0008302973333357757
-0.009332412852381598   -0.03903676276052723   -0.001170863186469164
-0.006608513147107066   -0.039110047983763496   -0.0010140807624468824
-0.00720977921571801   -0.0335648729885801   -0.0008302973333357757
-0.010412026595453655   -0.033451449727238285   -0.0009339519338426954
-0.009332412852381598   -0.03903676276052723   -0.001170863186469164
-0.010431140083696942   -0.03340799335025417   -0.0008710619269486314
-0.006608513147107066   -0.039110047983763496   -0.0010140807624468824
-0.009329085062996576   -0.03898872180020432   -0.001093295347721214
-0.010431140083696942   -0.03340799335025417   -0.0008710619269486314
-0.009332412852381598   -0.03903676276052723   -0.001170863186469164
-0.006608513147107066   -0.039110047983763496   -0.0010140807624468824
-0.010431140083696942   -0.03340799335025417   -0.0008710619269486314
-0.0072329606174302485   -0.033509557671574854   -0.0007947542628674951
-0.00720977921571801   -0.0335648729885801   -0.0008302973333357757
-0.006608513147107066   -0.039110047983763496   -0.0010140807624468824
-0.010431140083696942   -0.03340799335025417   -0.0008710619269486314
-0.00720977921571801   -0.0335648729885801   -0.0008302973333357757
-0.009332412852381598   -0.03903676276052723   -0.001170863186469164
-0.006608513147107066   -0.039110047983763496   -0.0010140807624468824
-0.0072329606174302485   -0.033509557671574854   -0.0007947542628674951
-0.009329085062996576   -0.03898872180020432   -0.001093295347721214
-0.006606289787666048   -0.039071459264184025   -0.0009688282386695199
-0.0072329606174302485   -0.033509557671574854   -0.0007947542628674951
-0.010431140083696942   -0.03340799335025417   -0.0008710619269486314
-0.009329085062996576   -0.03898872180020432   -0.001093295347721214
-0.010433369223554397   -0.03337827084050578   -0.0008041190189448389
-0.006606289787666048   -0.039071459264184025   -0.0009688282386695199
-0.009306072610274458   -0.03896018427928125   -0.0010114196615306041
-0.010433369223554397   -0.03337827084050578   -0.0008041190189448389
-0.009329085062996576   -0.03898872180020432   -0.001093295347721214
-0.006606289787666048   -0.039071459264184025   -0.0009688282386695199
-0.010433369223554397   -0.03337827084050578   -0.0008041190189448389
-0.007252140828918288   -0.03346884359370749   -0.0007545081097952035
-0.0072329606174302485   -0.033509557671574854   -0.0007947542628674951
-0.006606289787666048   -0.039071459264184025   -0.0009688282386695199
-0.010433369223554397   -0.03337827084050578   -0.0008041190189448389
-0.0072329606174302485   -0.033509557671574854   -0.0007947542628674951
-0.009329085062996576   -0.03898872180020432   -0.001093295347721214
-0.006606289787666048   -0.039071459264184025   -0.0009688282386695199
-0.007252140828918288   -0.03346884359370749   -0.0007545081097952035
-0.009306072610274458   -0.03896018427928125   -0.0010114196615306041
-0.006604887070670162   -0.03905273571950978   -0.0009186484978965585
-0.007252140828918288   -0.03346884359370749   -0.0007545081097952035
-0.010433369223554397   -0.03337827084050578   -0.0008041190189448389
-0.009306072610274458   -0.03896018427928125   -0.0010114196615306041
-0.010440443101072443   -0.03336440096437085   -0.0007322629557462874
-0.006604887070670162   -0.03905273571950978   -0.0009186484978965585
-0.009290727457413142   -0.03895318560279824   -0.0009242185619763399
-0.010440443101072443   -0.03336440096437085   -0.0007322629557462874
-0.009306072610274458   -0.03896018427928125   -0.0010114196615306041
-0.006604887070670162   -0.03905273571950978   -0.0009186484978965585
-0.010440443101072443   -0.03336440096437085   -0.0007322629557462874
-0.007271887157735705   -0.033442668297619216   -0.0007096961573946519
-0.007252140828918288   -0.03346884359370749   -0.0007545081097952035
-0.006604887070670162   -0.03905273571950978   -0.0009186484978965585
-0.010440443101072443   -0.03336440096437085   -0.0007322629557462874
-0.007252140828918288   -0.03346884359370749   -0.0007545081097952035
-0.009306072610274458   -0.03896018427928125   -0.0010114196615306041
-0.009332412852381598   -0.03903676276052723   -0.001170863186469164
-0.010412026595453655   -0.033451449727238285   -0.0009339519338426954
-0.01237757628843818   -0.038854434673837604   -0.0012761412774006165
-0.009329085062996576   -0.03898872180020432   -0.001093295347721214
-0.010412026595453655   -0.033451449727238285   -0.0009339519338426954
-0.013904395696908255   -0.033302402546741626   -0.0010225124768559325
-0.01237757628843818   -0.038854434673837604   -0.0012761412774006165
-0.013836756129528694   -0.03326270374370002   -0.00093062307328033
-0.009329085062996576   -0.03898872180020432   -0.001093295347721214
-0.012262956357010716   -0.03880722124687378   -0.001157399265946863
-0.013836756129528694   -0.03326270374370002   -0.00093062307328033
-0.01237757628843818   -0.038854434673837604   -0.0012761412774006165
-0.009329085062996576   -0.03898872180020432   -0.001093295347721214
-0.013836756129528694   -0.03326270374370002   -0.00093062307328033
-0.010431140083696942   -0.03340799335025417   -0.0008710619269486314
-0.010412026595453655   -0.033451449727238285   -0.0009339519338426954
-0.009329085062996576   -0.03898872180020432   -0.001093295347721214
-0.013836756129528694   -0.03326270374370002   -0.00093062307328033
-0.010412026595453655   -0.033451449727238285   -0.0009339519338426954
-0.01237757628843818   -0.038854434673837604   -0.0012761412774006165
-0.009329085062996576   -0.03898872180020432   -0.001093295347721214
-0.010431140083696942   -0.03340799335025417   -0.0008710619269486314
-0.012262956357010716   -0.03880722124687378   -0.001157399265946863
-0.009306072610274458   -0.03896018427928125   -0.0010114196615306041
-0.010431140083696942   -0.03340799335025417   -0.0008710619269486314
-0.013836756129528694   -0.03326270374370002   -0.00093062307328033
-0.012262956357010716   -0.03880722124687378   -0.001157399265946863
-0.013779778952190565   -0.033237645036004924   -0.000831652119204607
-0.009306072610274458   -0.03896018427928125   -0.0010114196615306041
-0.012165028734733643   -0.03878235439050732   -0.001031407436473427
-0.013779778952190565   -0.033237645036004924   -0.000831652119204607
-0.012262956357010716   -0.03880722124687378   -0.001157399265946863
-0.009306072610274458   -0.03896018427928125   -0.0010114196615306041
-0.013779778952190565   -0.033237645036004924   -0.000831652119204607
-0.010433369223554397   -0.03337827084050578   -0.0008041190189448389
-0.010431140083696942   -0.03340799335025417   -0.0008710619269486314
-0.009306072610274458   -0.03896018427928125   -0.0010114196615306041
-0.013779778952190565   -0.033237645036004924   -0.000831652119204607
-0.010431140083696942   -0.03340799335025417   -0.0008710619269486314
-0.012262956357010716   -0.03880722124687378   -0.001157399265946863
-0.009306072610274458   -0.03896018427928125   -0.0010114196615306041
-0.010433369223554397   -0.03337827084050578   -0.0008041190189448389
-0.012165028734733643   -0.03878235439050732   -0.001031407436473427
-0.009290727457413142   -0.03895318560279824   -0.0009242185619763399
-0.010433369223554397   -0.03337827084050578   -0.0008041190189448389
-0.013779778952190565   -0.033237645036004924   -0.000831652119204607
-0.012165028734733643   -0.03878235439050732   -0.001031407436473427
-0.013686055808376988   -0.03323948093624651   -0.0007264840534442832
-0.009290727457413142   -0.03895318560279824   -0.0009242185619763399
-0.01202383726397164   -0.03879161486628385   -0.0008991638616376045
-0.013686055808376988   -0.03323948093624651   -0.0007264840534442832
-0.012165028734733643   -0.03878235439050732   -0.001031407436473427
-0.009290727457413142   -0.03895318560279824   -0.0009242185619763399
-0.013686055808376988   -0.03323948093624651   -0.0007264840534442832
-0.010440443101072443   -0.03336440096437085   -0.0007322629557462874
-0.010433369223554397   -0.03337827084050578   -0.0008041190189448389
-0.009290727457413142   -0.03895318560279824   -0.0009242185619763399
-0.013686055808376988   -0.03323948093624651   -0.0007264840534442832
-0.010433369223554397   -0.03337827084050578   -0.0008041190189448389
-0.012165028734733643   -0.03878235439050732   -0.001031407436473427
0.002417847258087742   -0.03361374328893812   -0.0003836028016451454
0.0029198199632941933   -0.02737620061526633   -0.00019587362365420223
-0.0009004293559208616   -0.03364832117636002   -0.0005605859046963204
0.0024508079715989685   -0.033519590387992515   -0.0004382855135980904
0.0029198199632941933   -0.02737620061526633   -0.00019587362365420223
-0.0007677362730046044   -0.02737589363209434   -0.0003598866922262347
-0.0009004293559208616   -0.03364832117636002   -0.0005605859046963204
-0.0008003698772636245   -0.027297707120027426   -0.0003625689557511997
0.0024508079715989685   -0.033519590387992515   -0.0004382855135980904
-0.0009157749078379694   -0.033567441427447726   -0.0005791336715253034
-0.0008003698772636245   -0.027297707120027426   -0.0003625689557511997
-0.0009004293559208616   -0.03364832117636002   -0.0005605859046963204
0.0024508079715989685   -0.033519590387992515   -0.0004382855135980904
-0.0008003698772636245   -0.027297707120027426   -0.0003625689557511997
0.0029100056289795666   -0.027286099005662548   -0.00022240046782795485
0.0029198199632941933   -0.02737620061526633   -0.00019587362365420223
0.0024508079715989685   -0.033519590387992515   -0.0004382855135980904
-0.0008003698772636245   -0.027297707120027426   -0.0003625689557511997
0.0029198199632941933   -0.02737620061526633   -0.00019587362365420223
-0.0009004293559208616   -0.03364832117636002   -0.0005605859046963204
0.0024508079715989685   -0.033519590387992515   -0.0004382855135980904
0.0029100056289795666   -0.027286099005662548   -0.00022240046782795485
-0.0009157749078379694   -0.033567441427447726   -0.0005791336715253034
0.002461219910176703   -0.03345135926727726   -0.000486105559415968
0.0029100056289795666   -0.027286099005662548   -0.00022240046782795485
-0.0008003698772636245   -0.027297707120027426   -0.0003625689557511997
-0.0009157749078379694   -0.033567441427447726   -0.0005791336715253034
-0.000836638193157616   -0.027230660848497425   -0.0003611156587243893
0.002461219910176703   -0.03345135926727726   -0.000486105559415968
-0.000931870537561765   -0.03350376251124117   -0.0005930318777322115
-0.000836638193157616   -0.027230660848497425   -0.0003611156587243893
-0.0009157749078379694   -0.033567441427447726   -0.0005791336715253034
0.002461219910176703   -0.03345135926727726   -0.000486105559415968
-0.000836638193157616   -0.027230660848497425   -0.0003611156587243893
0.002884171846147949   -0.027213939471622036   -0.00024229864791466282
0.0029100056289795666   -0.027286099005662548   -0.00022240046782795485
0.002461219910176703   -0.03345135926727726   -0.000486105559415968
-0.000836638193157616   -0.027230660848497425   -0.0003611156587243893
0.0029100056289795666   -0.027286099005662548   -0.00022240046782795485
-0.0009157749078379694   -0.033567441427447726   -0.0005791336715253034
0.002461219910176703   -0.03345135926727726   -0.000486105559415968
0.002884171846147949   -0.027213939471622036   -0.00024229864791466282
-0.000931870537561765   -0.03350376251124117   -0.0005930318777322115
0.002467515734927827   -0.03339689605368982   -0.0005273893293975847
0.002884171846147949   -0.027213939471622036   -0.00024229864791466282
-0.000836638193157616   -0.027230660848497425   -0.0003611156587243893
-0.000931870537561765   -0.03350376251124117   -0.0005930318777322115
-0.000881777536859043   -0.027172997747325518   -0.00035536376213753123
0.002467515734927827   -0.03339689605368982   -0.0005273893293975847
-0.0009595190287072081   -0.03345526211748451   -0.0006024370189370969
-0.000881777536859043   -0.027172997747325518   -0.00035536376213753123
-0.000931870537561765   -0.03350376251124117   -0.0005930318777322115
0.002467515734927827   -0.03339689605368982   -0.0005273893293975847
-0.000881777536859043   -0.027172997747325518   -0.00035536376213753123
0.0028479829700859957   -0.027147804599244933   -0.0002560312076164785
0.002884171846147949   -0.027213939471622036   -0.00024229864791466282
0.002467515734927827   -0.03339689605368982   -0.0005273893293975847
-0.000881777536859043   -0.027172997747325518   -0.00035536376213753123
0.002884171846147949   -0.027213939471622036   -0.00024229864791466282
-0.000931870537561765   -0.03350376251124117   -0.0005930318777322115
-0.0009004293559208616   -0.03364832117636002   -0.0005605859046963204
-0.0007677362730046044   -0.02737589363209434   -0.0003598866922262347
-0.004081907979599765   -0.0336309309596769   -0.0007060103352124849
-0.0009157749078379694   -0.033567441427447726   -0.0005791336715253034
-0.0007677362730046044   -0.02737589363209434   -0.0003598866922262347
-0.0042854029006085615   -0.027342658295051062   -0.0004948908886296157
-0.004081907979599765   -0.0336309309596769   -0.0007060103352124849
-0.004322055724304043   -0.027277903906387527   -0.00048052651199047443
-0.0009157749078379694   -0.033567441427447726   -0.0005791336715253034
-0.00410336019051557   -0.03356345820808863   -0.0006974433855396274
-0.004322055724304043   -0.027277903906387527   -0.00048052651199047443
-0.004081907979599765   -0.0336309309596769   -0.0007060103352124849
-0.0009157749078379694   -0.033567441427447726   -0.0005791336715253034
-0.004322055724304043   -0.027277903906387527   -0.00048052651199047443
-0.0008003698772636245   -0.027297707120027426   -0.0003625689557511997
-0.0007677362730046044   -0.02737589363209434   -0.0003598866922262347
-0.0009157749078379694   -0.033567441427447726   -0.0005791336715253034
-0.004322055724304043   -0.027277903906387527   -0.00048052651199047443
-0.0007677362730046044   -0.02737589363209434   -0.0003598866922262347
-0.004081907979599765   -0.0336309309596769   -0.0007060103352124849
-0.0009157749078379694   -0.033567441427447726   -0.0005791336715253034
-0.0008003698772636245   -0.027297707120027426   -0.0003625689557511997
-0.00410336019051557   -0.03356345820808863   -0.0006974433855396274
-0.000931870537561765   -0.03350376251124117   -0.0005930318777322115
-0.0008003698772636245   -0.027297707120027426   -0.0003625689557511997
-0.004322055724304043   -0.027277903906387527   -0.00048052651199047443
-0.00410336019051557   -0.03356345820808863   -0.0006974433855396274
-0.004359454273570939   -0.02722221756273389   -0.00046185114375802647
-0.000931870537561765   -0.03350376251124117   -0.0005930318777322115
-0.004125108591406076   -0.033510726957486366   -0.0006840868683888386
-0.004359454273570939   -0.02722221756273389   -0.00046185114375802647
-0.00410336019051557   -0.03356345820808863   -0.0006974433855396274
-0.000931870537561765   -0.03350376251124117   -0.0005930318777322115
-0.004359454273570939   -0.02722221756273389   -0.00046185114375802647
-0.000836638193157616   -0.027230660848497425   -0.0003611156587243893
-0.0008003698772636245   -0.027297707120027426   -0.0003625689557511997
-0.000931870537561765   -0.03350376251124117   -0.0005930318777322115
-0.004359454273570939   -0.02722221756273389   -0.00046185114375802647
-0.0008003698772636245   -0.027297707120027426   -0.0003625689557511997
-0.00410336019051557   -0.03356345820808863   -0.0006974433855396274
-0.000931870537561765   -0.03350376251124117   -0.0005930318777322115
-0.000836638193157616   -0.027230660848497425   -0.0003611156587243893
-0.004125108591406076   -0.033510726957486366   -0.0006840868683888386
-0.0009595190287072081   -0.03345526211748451   -0.0006024370189370969
-0.000836638193157616   -0.027230660848497425   -0.0003611156587243893
-0.004359454273570939   -0.02722221756273389   -0.00046185114375802647
-0.004125108591406076   -0.033510726957486366   -0.0006840868683888386
-0.004400035957150027   -0.027176134336631824   -0.00043907053597848155
-0.0009595190287072081   -0.03345526211748451   -0.0006024370189370969
-0.00415026715039946   -0.03347298601085384   -0.0006661754316623636
-0.004400035957150027   -0.027176134336631824   -0.00043907053597848155
-0.004125108591406076   -0.033510726957486366   -0.0006840868683888386
-0.0009595190287072081   -0.03345526211748451   -0.0006024370189370969
-0.004400035957150027   -0.027176134336631824   -0.00043907053597848155
-0.000881777536859043   -0.027172997747325518   -0.00035536376213753123
-0.000836638193157616   -0.027230660848497425   -0.0003611156587243893
-0.0009595190287072081   -0.03345526211748451   -0.0006024370189370969
-0.004400035957150027   -0.027176134336631824   -0.00043907053597848155
-0.000836638193157616   -0.027230660848497425   -0.0003611156587243893
-0.004125108591406076   -0.033510726957486366   -0.0006840868683888386
-0.004081907979599765   -0.0336309309596769   -0.0007060103352124849
-0.0042854029006085615   -0.027342658295051062   -0.0004948908886296157
-0.00720977921571801   -0.0335648729885801   -0.0008302973333357757
-0.00410336019051557   -0.03356345820808863   -0.0006974433855396274
-0.0042854029006085615   -0.027342658295051062   -0.0004948908886296157
-0.00774361059161813   -0.02728031160072796   -0.0006085861343606825
-0.00720977921571801   -0.0335648729885801   -0.0008302973333357757
-0.007781388808398368   -0.027227916405639048   -0.0005772167007052281
-0.00410336019051557   -0.03356345820808863   -0.0006974433855396274
-0.0072329606174302485   -0.033509557671574854   -0.0007947542628674951
-0.007781388808398368   -0.027227916405639048   -0.0005772167007052281
-0.00720977921571801   -0.0335648729885801   -0.0008302973333357757
-0.00410336019051557   -0.03356345820808863   -0.0006974433855396274
-0.007781388808398368   -0.027227916405639048   -0.0005772167007052281
-0.004322055724304043   -0.027277903906387527   -0.00048052651199047443
-0.0042854029006085615   -0.027342658295051062   -0.0004948908886296157
-0.00410336019051557   -0.03356345820808863   -0.0006974433855396274
-0.007781388808398368   -0.027227916405639048   -0.0005772167007052281
-0.0042854029006085615   -0.027342658295051062   -0.0004948908886296157
-0.00720977921571801   -0.0335648729885801   -0.0008302973333357757
-0.00410336019051557   -0.03356345820808863   -0.0006974433855396274
-0.004322055724304043   -0.027277903906387527   -0.00048052651199047443
-0.0072329606174302485   -0.033509557671574854   -0.0007947542628674951
-0.004125108591406076   -0.033510726957486366   -0.0006840868683888386
-0.004322055724304043   -0.027277903906387527   -0.00048052651199047443
-0.007781388808398368   -0.027227916405639048   -0.0005772167007052281
-0.0072329606174302485   -0.033509557671574854   -0.0007947542628674951
-0.007815639796050294   -0.027184525257277197   -0.0005416379030301744
-0.004125108591406076   -0.033510726957486366   -0.0006840868683888386
-0.007252140828918288   -0.03346884359370749   -0.0007545081097952035
-0.007815639796050294   -0.027184525257277197   -0.0005416379030301744
-0.0072329606174302485   -0.033509557671574854   -0.0007947542628674951
-0.004125108591406076   -0.033510726957486366   -0.0006840868683888386
-0.007815639796050294   -0.027184525257277197   -0.0005416379030301744
-0.004359454273570939   -0.02722221756273389   -0.00046185114375802647
-0.004322055724304043   -0.027277903906387527   -0.00048052651199047443
-0.004125108591406076   -0.033510726957486366   -0.0006840868683888386
-0.007815639796050294   -0.027184525257277197   -0.0005416379030301744
-0.004322055724304043   -0.027277903906387527   -0.00048052651199047443
-0.0072329606174302485   -0.033509557671574854   -0.0007947542628674951
-0.004125108591406076   -0.033510726957486366   -0.0006840868683888386
-0.004359454273570939   -0.02722221756273389   -0.00046185114375802647
-0.007252140828918288   -0.03346884359370749   -0.0007545081097952035
-0.00415026715039946   -0.03347298601085384   -0.0006661754316623636
-0.004359454273570939   -0.02722221756273389   -0.00046185114375802647
-0.007815639796050294   -0.027184525257277197   -0.0005416379030301744
-0.007252140828918288   -0.03346884359370749   -0.0007545081097952035
-0.00785021836699461   -0.02715020872429662   -0.0005020088684908033
-0.00415026715039946   -0.03347298601085384   -0.0006661754316623636
-0.007271887157735705   -0.033442668297619216   -0.0007096961573946519
-0.00785021836699461   -0.02715020872429662   -0.0005020088684908033
-0.007252140828918288   -0.03346884359370749   -0.0007545081097952035
-0.00415026715039946   -0.03347298601085384   -0.0006661754316623636
-0.00785021836699461   -0.02715020872429662   -0.0005020088684908033
-0.004400035957150027   -0.027176134336631824   -0.00043907053597848155
-0.004359454273570939   -0.02722221756273389   -0.00046185114375802647
-0.00415026715039946   -0.03347298601085384   -0.0006661754316623636
-0.00785021836699461   -0.02715020872429662   -0.0005020088684908033
-0.004359454273570939   -0.02722221756273389   -0.00046185114375802647
-0.007252140828918288   -0.03346884359370749   -0.0007545081097952035
-0.00720977921571801   -0.0335648729885801   -0.0008302973333357757
-0.00774361059161813   -0.02728031160072796   -0.0006085861343606825
-0.010412026595453655   -0.033451449727238285   -0.0009339519338426954
-0.0072329606174302485   -0.033509557671574854   -0.0007947542628674951
-0.00774361059161813   -0.02728031160072796   -0.0006085861343606825
-0.011270402109196175   -0.02718753405901038   -0.0007012511098347193
-0.010412026595453655   -0.033451449727238285   -0.0009339519338426954
-0.011305438916103869   -0.027147591983155247   -0.0006527446535584411
-0.0072329606174302485   -0.033509557671574854   -0.0007947542628674951
-0.010431140083696942   -0.03340799335025417   -0.0008710619269486314
-0.011305438916103869   -0.027147591983155247   -0.0006527446535584411
-0.010412026595453655   -0.033451449727238285   -0.0009339519338426954
-0.0072329606174302485   -0.033509557671574854   -0.0007947542628674951
-0.011305438916103869   -0.027147591983155247   -0.0006527446535584411
-0.007781388808398368   -0.027227916405639048   -0.0005772167007052281
-0.00774361059161813   -0.02728031160072796   -0.0006085861343606825
-0.0072329606174302485   -0.033509557671574854   -0.0007947542628674951
-0.011305438916103869   -0.027147591983155247   -0.0006527446535584411
-0.00774361059161813   -0.02728031160072796   -0.0006085861343606825
-0.010412026595453655   -0.033451449727238285   -0.0009339519338426954
-0.0072329606174302485   -0.033509557671574854   -0.0007947542628674951
-0.007781388808398368   -0.027227916405639048   -0.0005772167007052281
-0.010431140083696942   -0.03340799335025417   -0.0008710619269486314
-0.007252140828918288   -0.03346884359370749   -0.0007545081097952035
-0.007781388808398368   -0.027227916405639048   -0.0005772167007052281
-0.011305438916103869   -0.027147591983155247   -0.0006527446535584411
-0.010431140083696942   -0.03340799335025417   -0.0008710619269486314
-0.01132651008858755   -0.027115538065073642   -0.0006005937669246665
-0.007252140828918288   -0.03346884359370749   -0.0007545081097952035
-0.010433369223554397   -0.03337827084050578   -0.0008041190189448389
-0.01132651008858755   -0.027115538065073642   -0.0006005937669246665
-0.010431140083696942   -0.03340799335025417   -0.0008710619269486314
-0.007252140828918288   -0.03346884359370749   -0.0007545081097952035
-0.01132651008858755   -0.027115538065073642   -0.0006005937669246665
-0.007815639796050294   -0.027184525257277197   -0.0005416379030301744
-0.007781388808398368   -0.027227916405639048   -0.0005772167007052281
-0.007252140828918288   -0.03346884359370749   -0.0007545081097952035
-0.01132651008858755   -0.027115538065073642   -0.0006005937669246665
-0.007781388808398368   -0.027227916405639048   -0.0005772167007052281
-0.010431140083696942   -0.03340799335025417   -0.0008710619269486314
-0.007252140828918288   -0.03346884359370749   -0.0007545081097952035
-0.007815639796050294   -0.027184525257277197   -0.0005416379030301744
-0.010433369223554397   -0.03337827084050578   -0.0008041190189448389
-0.007271887157735705   -0.033442668297619216   -0.0007096961573946519
-0.007815639796050294   -0.027184525257277197   -0.0005416379030301744
-0.01132651008858755   -0.027115538065073642   -0.0006005937669246665
-0.010433369223554397   -0.03337827084050578   -0.0008041190189448389
-0.011349733004297187   -0.027093353318508318   -0.0005440463945282177
-0.007271887157735705   -0.033442668297619216   -0.0007096961573946519
-0.010440443101072443   -0.03336440096437085   -0.0007322629557462874
-0.011349733004297187   -0.027093353318508318   -0.0005440463945282177
-0.010433369223554397   -0.03337827084050578   -0.0008041190189448389
-0.007271887157735705   -0.033442668297619216   -0.0007096961573946519
-0.011349733004297187   -0.027093353318508318   -0.0005440463945282177
-0.00785021836699461   -0.02715020872429662   -0.0005020088684908033
-0.007815639796050294   -0.027184525257277197   -0.0005416379030301744
-0.007271887157735705   -0.033442668297619216   -0.0007096961573946519
-0.011349733004297187   -0.027093353318508318   -0.0005440463945282177
-0.007815639796050294   -0.027184525257277197   -0.0005416379030301744
-0.010433369223554397   -0.03337827084050578   -0.0008041190189448389
-0.010412026595453655   -0.033451449727238285   -0.0009339519338426954
-0.011270402109196175   -0.02718753405901038   -0.0007012511098347193
-0.013904395696908255   -0.033302402546741626   -0.0010225124768559325
-0.010431140083696942   -0.03340799335025417   -0.0008710619269486314
-0.011270402109196175   -0.02718753405901038   -0.0007012511098347193
-0.015056271473255107   -0.0270731391280758   -0.0007747880215149932
-0.013904395696908255   -0.033302402546741626   -0.0010225124768559325
-0.015029487846051879   -0.027039555814365082   -0.0007100085139602199
-0.010431140083696942   -0.03340799335025417   -0.0008710619269486314
-0.013836756129528694   -0.03326270374370002   -0.00093062307328033
-0.015029487846051879   -0.027039555814365082   -0.0007100085139602199
-0.013904395696908255   -0.033302402546741626   -0.0010225124768559325
-0.010431140083696942   -0.03340799335025417   -0.0008710619269486314
-0.015029487846051879   -0.027039555814365082   -0.0007100085139602199
-0.011305438916103869   -0.027147591983155247   -0.0006527446535584411
-0.011270402109196175   -0.02718753405901038   -0.0007012511098347193
-0.010431140083696942   -0.03340799335025417   -0.0008710619269486314
-0.015029487846051879   -0.027039555814365082   -0.0007100085139602199
-0.011270402109196175   -0.02718753405901038   -0.0007012511098347193
-0.013904395696908255   -0.033302402546741626   -0.0010225124768559325
-0.010431140083696942   -0.03340799335025417   -0.0008710619269486314
-0.011305438916103869   -0.027147591983155247   -0.0006527446535584411
-0.013836756129528694   -0.03326270374370002   -0.00093062307328033
-0.010433369223554397   -0.03337827084050578   -0.0008041190189448389
-0.011305438916103869   -0.027147591983155247   -0.0006527446535584411
-0.015029487846051879   -0.027039555814365082   -0.0007100085139602199
-0.013836756129528694   -0.03326270374370002   -0.00093062307328033
-0.015007650962787127   -0.027012845789840374   -0.0006385411458271358
-0.010433369223554397   -0.03337827084050578   -0.0008041190189448389
-0.013779778952190565   -0.033237645036004924   -0.000831652119204607
-0.015007650962787127   -0.027012845789840374   -0.0006385411458271358
-0.013836756129528694   -0.03326270374370002   -0.00093062307328033
-0.010433369223554397   -0.03337827084050578   -0.0008041190189448389
-0.015007650962787127   -0.027012845789840374   -0.0006385411458271358
-0.01132651008858755   -0.027115538065073642   -0.0006005937669246665
-0.011305438916103869   -0.027147591983155247   -0.0006527446535584411
-0.010433369223554397   -0.03337827084050578   -0.0008041190189448389
-0.015007650962787127   -0.027012845789840374   -0.0006385411458271358
-0.011305438916103869   -0.027147591983155247   -0.0006527446535584411
-0.013836756129528694   -0.03326270374370002   -0.00093062307328033
-0.010433369223554397   -0.03337827084050578   -0.0008041190189448389
-0.01132651008858755   -0.027115538065073642   -0.0006005937669246665
-0.013779778952190565   -0.033237645036004924   -0.000831652119204607
-0.010440443101072443   -0.03336440096437085   -0.0007322629557462874
-0.01132651008858755   -0.027115538065073642   -0.0006005937669246665
-0.015007650962787127   -0.027012845789840374   -0.0006385411458271358
-0.013779778952190565   -0.033237645036004924   -0.000831652119204607
-0.014955945039406624   -0.02700524636949568   -0.0005611477669037254
-0.010440443101072443   -0.03336440096437085   -0.0007322629557462874
-0.013686055808376988   -0.03323948093624651   -0.0007264840534442832
-0.014955945039406624   -0.02700524636949568   -0.0005611477669037254
-0.013779778952190565   -0.033237645036004924   -0.000831652119204607
-0.010440443101072443   -0.03336440096437085   -0.0007322629557462874
-0.014955945039406624   -0.02700524636949568   -0.0005611477669037254
-0.011349733004297187   -0.027093353318508318   -0.0005440463945282177
-0.01132651008858755   -0.027115538065073642   -0.0006005937669246665
-0.010440443101072443   -0.03336440096437085   -0.0007322629557462874
-0.014955945039406624   -0.02700524636949568   -0.0005611477669037254
-0.01132651008858755   -0.027115538065073642   -0.0006005937669246665
-0.013779778952190565   -0.033237645036004924   -0.000831652119204607
0.0029198199632941933   -0.02737620061526633   -0.00019587362365420223
0.003025595653552816   -0.020700751973238143   -3.155940061139301e-05
-0.0007677362730046044   -0.02737589363209434   -0.0003598866922262347
0.0029100056289795666   -0.027286099005662548   -0.00022240046782795485
0.003025595653552816   -0.020700751973238143   -3.155940061139301e-05
-0.000874821918851112   -0.020666874551251   -0.0001788033230437365
-0.0007677362730046044   -0.02737589363209434   -0.0003598866922262347
-0.0009197786378317548   -0.02059211972860528   -0.00016557539503314788
0.0029100056289795666   -0.027286099005662548   -0.00022240046782795485
-0.0008003698772636245   -0.027297707120027426   -0.0003625689557511997
-0.0009197786378317548   -0.02059211972860528   -0.00016557539503314788
-0.0007677362730046044   -0.02737589363209434   -0.0003598866922262347
0.0029100056289795666   -0.027286099005662548   -0.00022240046782795485
-0.0009197786378317548   -0.02059211972860528   -0.00016557539503314788
0.00297834219949957   -0.02061487863220615   -2.9368208176919558e-05
0.003025595653552816   -0.020700751973238143   -3.155940061139301e-05
0.0029100056289795666   -0.027286099005662548   -0.00022240046782795485
-0.0009197786378317548   -0.02059211972860528   -0.00016557539503314788
0.003025595653552816   -0.020700751973238143   -3.155940061139301e-05
-0.0007677362730046044   -0.02737589363209434   -0.0003598866922262347
0.0029100056289795666   -0.027286099005662548   -0.00022240046782795485
0.00297834219949957   -0.02061487863220615   -2.9368208176919558e-05
-0.0008003698772636245   -0.027297707120027426   -0.0003625689557511997
0.002884171846147949   -0.027213939471622036   -0.00024229864791466282
0.00297834219949957   -0.02061487863220615   -2.9368208176919558e-05
-0.0009197786378317548   -0.02059211972860528   -0.00016557539503314788
-0.0008003698772636245   -0.027297707120027426   -0.0003625689557511997
-0.0009712832232964043   -0.020521743463604632   -0.0001485864228899184
0.002884171846147949   -0.027213939471622036   -0.00024229864791466282
-0.000836638193157616   -0.027230660848497425   -0.0003611156587243893
-0.0009712832232964043   -0.020521743463604632   -0.0001485864228899184
-0.0008003698772636245   -0.027297707120027426   -0.0003625689557511997
0.002884171846147949   -0.027213939471622036   -0.00024229864791466282
-0.0009712832232964043   -0.020521743463604632   -0.0001485864228899184
0.0029199860984662853   -0.02053841599505809   -1.9499685606759348e-05
0.00297834219949957   -0.02061487863220615   -2.9368208176919558e-05
0.002884171846147949   -0.027213939471622036   -0.00024229864791466282
-0.0009712832232964043   -0.020521743463604632   -0.0001485864228899184
0.00297834219949957   -0.02061487863220615   -2.9368208176919558e-05
-0.0008003698772636245   -0.027297707120027426   -0.0003625689557511997
0.002884171846147949   -0.027213939471622036   -0.00024229864791466282
0.0029199860984662853   -0.02053841599505809   -1.9499685606759348e-05
-0.000836638193157616   -0.027230660848497425   -0.0003611156587243893
0.0028479829700859957   -0.027147804599244933   -0.0002560312076164785
0.0029199860984662853   -0.02053841599505809   -1.9499685606759348e-05
-0.0009712832232964043   -0.020521743463604632   -0.0001485864228899184
-0.000836638193157616   -0.027230660848497425   -0.0003611156587243893
-0.0010291789060997295   -0.020454773413097198   -0.00012689507854459528
0.0028479829700859957   -0.027147804599244933   -0.0002560312076164785
-0.000881777536859043   -0.027172997747325518   -0.00035536376213753123
-0.0010291789060997295   -0.020454773413097198   -0.00012689507854459528
-0.000836638193157616   -0.027230660848497425   -0.0003611156587243893
0.0028479829700859957   -0.027147804599244933   -0.0002560312076164785
-0.0010291789060997295   -0.020454773413097198   -0.00012689507854459528
0.0028429684567826785   -0.02045856988805294   -2.2989101629827708e-06
0.0029199860984662853   -0.02053841599505809   -1.9499685606759348e-05
0.0028479829700859957   -0.027147804599244933   -0.0002560312076164785
-0.0010291789060997295   -0.020454773413097198   -0.00012689507854459528
0.0029199860984662853   -0.02053841599505809   -1.9499685606759348e-05
-0.000836638193157616   -0.027230660848497425   -0.0003611156587243893
-0.0007677362730046044   -0.02737589363209434   -0.0003598866922262347
-0.000874821918851112   -0.020666874551251   -0.0001788033230437365
-0.0042854029006085615   -0.027342658295051062   -0.0004948908886296157
-0.0008003698772636245   -0.027297707120027426   -0.0003625689557511997
-0.000874821918851112   -0.020666874551251   -0.0001788033230437365
-0.004570544157782178   -0.020626951069251935   -0.00030304118611296146
-0.0042854029006085615   -0.027342658295051062   -0.0004948908886296157
-0.004616518386091631   -0.020564594453177366   -0.0002824888051446805
-0.0008003698772636245   -0.027297707120027426   -0.0003625689557511997
-0.004322055724304043   -0.027277903906387527   -0.00048052651199047443
-0.004616518386091631   -0.020564594453177366   -0.0002824888051446805
-0.0042854029006085615   -0.027342658295051062   -0.0004948908886296157
-0.0008003698772636245   -0.027297707120027426   -0.0003625689557511997
-0.004616518386091631   -0.020564594453177366   -0.0002824888051446805
-0.0009197786378317548   -0.02059211972860528   -0.00016557539503314788
-0.000874821918851112   -0.020666874551251   -0.0001788033230437365
-0.0008003698772636245   -0.027297707120027426   -0.0003625689557511997
-0.004616518386091631   -0.020564594453177366   -0.0002824888051446805
-0.000874821918851112   -0.020666874551251   -0.0001788033230437365
-0.0042854029006085615   -0.027342658295051062   -0.0004948908886296157
-0.0008003698772636245   -0.027297707120027426   -0.0003625689557511997
-0.0009197786378317548   -0.02059211972860528   -0.00016557539503314788
-0.004322055724304043   -0.027277903906387527   -0.00048052651199047443
-0.000836638193157616   -0.027230660848497425   -0.0003611156587243893
-0.0009197786378317548   -0.02059211972860528   -0.00016557539503314788
-0.004616518386091631   -0.020564594453177366   -0.0002824888051446805
-0.004322055724304043   -0.027277903906387527   -0.00048052651199047443
-0.004663535432948752   -0.02050563255843534   -0.0002583463613604
-0.000836638193157616   -0.027230660848497425   -0.0003611156587243893
-0.004359454273570939   -0.02722221756273389   -0.00046185114375802647
-0.004663535432948752   -0.02050563255843534   -0.0002583463613604
-0.004322055724304043   -0.027277903906387527   -0.00048052651199047443
-0.000836638193157616   -0.027230660848497425   -0.0003611156587243893
-0.004663535432948752   -0.02050563255843534   -0.0002583463613604
-0.0009712832232964043   -0.020521743463604632   -0.0001485864228899184
-0.0009197786378317548   -0.02059211972860528   -0.00016557539503314788
-0.000836638193157616   -0.027230660848497425   -0.0003611156587243893
-0.004663535432948752   -0.02050563255843534   -0.0002583463613604
-0.0009197786378317548   -0.02059211972860528   -0.00016557539503314788
-0.004322055724304043   -0.027277903906387527   -0.00048052651199047443
-0.000836638193157616   -0.027230660848497425   -0.0003611156587243893
-0.0009712832232964043   -0.020521743463604632   -0.0001485864228899184
-0.004359454273570939   -0.02722221756273389   -0.00046185114375802647
-0.000881777536859043   -0.027172997747325518   -0.00035536376213753123
-0.0009712832232964043   -0.020521743463604632   -0.0001485864228899184
-0.004663535432948752   -0.02050563255843534   -0.0002583463613604
-0.004359454273570939   -0.02722221756273389   -0.00046185114375802647
-0.004713562878230375   -0.02045099643800903   -0.00023057960111812952
-0.000881777536859043   -0.027172997747325518   -0.00035536376213753123
-0.004400035957150027   -0.027176134336631824   -0.00043907053597848155
-0.004713562878230375   -0.02045099643800903   -0.00023057960111812952
-0.004359454273570939   -0.02722221756273389   -0.00046185114375802647
-0.000881777536859043   -0.027172997747325518   -0.00035536376213753123
-0.004713562878230375   -0.02045099643800903   -0.00023057960111812952
-0.0010291789060997295   -0.020454773413097198   -0.00012689507854459528
-0.0009712832232964043   -0.020521743463604632   -0.0001485864228899184
-0.000881777536859043   -0.027172997747325518   -0.00035536376213753123
-0.004713562878230375   -0.02045099643800903   -0.00023057960111812952
-0.0009712832232964043   -0.020521743463604632   -0.0001485864228899184
-0.004359454273570939   -0.02722221756273389   -0.00046185114375802647
-0.0042854029006085615   -0.027342658295051062   -0.0004948908886296157
-0.004570544157782178   -0.020626951069251935   -0.00030304118611296146
-0.00774361059161813   -0.02728031160072796   -0.0006085861343606825
-0.004322055724304043   -0.027277903906387527   -0.00048052651199047443
-0.004570544157782178   -0.020626951069251935   -0.00030304118611296146
-0.008205914921815907   -0.0205788744465296   -0.0004083274279377233
-0.00774361059161813   -0.02728031160072796   -0.0006085861343606825
-0.008251600674308258   -0.020527983181863253   -0.00038047315335210693
-0.004322055724304043   -0.027277903906387527   -0.00048052651199047443
-0.007781388808398368   -0.027227916405639048   -0.0005772167007052281
-0.008251600674308258   -0.020527983181863253   -0.00038047315335210693
-0.00774361059161813   -0.02728031160072796   -0.0006085861343606825
-0.004322055724304043   -0.027277903906387527   -0.00048052651199047443
-0.008251600674308258   -0.020527983181863253   -0.00038047315335210693
-0.004616518386091631   -0.020564594453177366   -0.0002824888051446805
-0.004570544157782178   -0.020626951069251935   -0.00030304118611296146
-0.004322055724304043   -0.027277903906387527   -0.00048052651199047443
-0.008251600674308258   -0.020527983181863253   -0.00038047315335210693
-0.004570544157782178   -0.020626951069251935   -0.00030304118611296146
-0.00774361059161813   -0.02728031160072796   -0.0006085861343606825
-0.004322055724304043   -0.027277903906387527   -0.00048052651199047443
-0.004616518386091631   -0.020564594453177366   -0.0002824888051446805
-0.007781388808398368   -0.027227916405639048   -0.0005772167007052281
-0.004359454273570939   -0.02722221756273389   -0.00046185114375802647
-0.004616518386091631   -0.020564594453177366   -0.0002824888051446805
-0.008251600674308258   -0.020527983181863253   -0.00038047315335210693
-0.007781388808398368   -0.027227916405639048   -0.0005772167007052281
-0.008294317986527307   -0.02048067156013053   -0.00034915128759359447
-0.004359454273570939   -0.02722221756273389   -0.00046185114375802647
-0.007815639796050294   -0.027184525257277197   -0.0005416379030301744
-0.008294317986527307   -0.02048067156013053   -0.00034915128759359447
-0.007781388808398368   -0.027227916405639048   -0.0005772167007052281
-0.004359454273570939   -0.02722221756273389   -0.00046185114375802647
-0.008294317986527307   -0.02048067156013053   -0.00034915128759359447
-0.004663535432948752   -0.02050563255843534   -0.0002583463613604
-0.004616518386091631   -0.020564594453177366   -0.0002824888051446805
-0.004359454273570939   -0.02722221756273389   -0.00046185114375802647
-0.008294317986527307   -0.02048067156013053   -0.00034915128759359447
-0.004616518386091631   -0.020564594453177366   -0.0002824888051446805
-0.007781388808398368   -0.027227916405639048   -0.0005772167007052281
-0.004359454273570939   -0.02722221756273389   -0.00046185114375802647
-0.004663535432948752   -0.02050563255843534   -0.0002583463613604
-0.007815639796050294   -0.027184525257277197   -0.0005416379030301744
-0.004400035957150027   -0.027176134336631824   -0.00043907053597848155
-0.004663535432948752   -0.02050563255843534   -0.0002583463613604
-0.008294317986527307   -0.02048067156013053   -0.00034915128759359447
-0.007815639796050294   -0.027184525257277197   -0.0005416379030301744
-0.008337188511707576   -0.020437067903465604   -0.0003145322311196884
-0.004400035957150027   -0.027176134336631824   -0.00043907053597848155
-0.00785021836699461   -0.02715020872429662   -0.0005020088684908033
-0.008337188511707576   -0.020437067903465604   -0.0003145322311196884
-0.007815639796050294   -0.027184525257277197   -0.0005416379030301744
-0.004400035957150027   -0.027176134336631824   -0.00043907053597848155
-0.008337188511707576   -0.020437067903465604   -0.0003145322311196884
-0.004713562878230375   -0.02045099643800903   -0.00023057960111812952
-0.004663535432948752   -0.02050563255843534   -0.0002583463613604
-0.004400035957150027   -0.027176134336631824   -0.00043907053597848155
-0.008337188511707576   -0.020437067903465604   -0.0003145322311196884
-0.004663535432948752   -0.02050563255843534   -0.0002583463613604
-0.007815639796050294   -0.027184525257277197   -0.0005416379030301744
-0.00774361059161813   -0.02728031160072796   -0.0006085861343606825
-0.008205914921815907   -0.0205788744465296   -0.0004083274279377233
-0.011270402109196175   -0.02718753405901038   -0.0007012511098347193
-0.007781388808398368   -0.027227916405639048   -0.0005772167007052281
-0.008205914921815907   -0.0205788744465296   -0.0004083274279377233
-0.011907086444521443   -0.020513749533244537   -0.0004937588386012601
-0.011270402109196175   -0.02718753405901038   -0.0007012511098347193
-0.011950818157169904   -0.020474917860534826   -0.00045869043532244344
-0.007781388808398368   -0.027227916405639048   -0.0005772167007052281
-0.011305438916103869   -0.027147591983155247   -0.0006527446535584411
-0.011950818157169904   -0.020474917860534826   -0.00045869043532244344
-0.011270402109196175   -0.02718753405901038   -0.0007012511098347193
-0.007781388808398368   -0.027227916405639048   -0.0005772167007052281
-0.011950818157169904   -0.020474917860534826   -0.00045869043532244344
-0.008251600674308258   -0.020527983181863253   -0.00038047315335210693
-0.008205914921815907   -0.0205788744465296   -0.0004083274279377233
-0.007781388808398368   -0.027227916405639048   -0.0005772167007052281
-0.011950818157169904   -0.020474917860534826   -0.00045869043532244344
-0.008205914921815907   -0.0205788744465296   -0.0004083274279377233
-0.011270402109196175   -0.02718753405901038   -0.0007012511098347193
-0.007781388808398368   -0.027227916405639048   -0.0005772167007052281
-0.008251600674308258   -0.020527983181863253   -0.00038047315335210693
-0.011305438916103869   -0.027147591983155247   -0.0006527446535584411
-0.007815639796050294   -0.027184525257277197   -0.0005416379030301744
-0.008251600674308258   -0.020527983181863253   -0.00038047315335210693
-0.011950818157169904   -0.020474917860534826   -0.00045869043532244344
-0.011305438916103869   -0.027147591983155247   -0.0006527446535584411
-0.011983867291223894   -0.020438346673073742   -0.0004207203347194458
-0.007815639796050294   -0.027184525257277197   -0.0005416379030301744
-0.01132651008858755   -0.027115538065073642   -0.0006005937669246665
-0.011983867291223894   -0.020438346673073742   -0.0004207203347194458
-0.011305438916103869   -0.027147591983155247   -0.0006527446535584411
-0.007815639796050294   -0.027184525257277197   -0.0005416379030301744
-0.011983867291223894   -0.020438346673073742   -0.0004207203347194458
-0.008294317986527307   -0.02048067156013053   -0.00034915128759359447
-0.008251600674308258   -0.020527983181863253   -0.00038047315335210693
-0.007815639796050294   -0.027184525257277197   -0.0005416379030301744
-0.011983867291223894   -0.020438346673073742   -0.0004207203347194458
-0.008251600674308258   -0.020527983181863253   -0.00038047315335210693
-0.011305438916103869   -0.027147591983155247   -0.0006527446535584411
-0.007815639796050294   -0.027184525257277197   -0.0005416379030301744
-0.008294317986527307   -0.02048067156013053   -0.00034915128759359447
-0.01132651008858755   -0.027115538065073642   -0.0006005937669246665
-0.00785021836699461   -0.02715020872429662   -0.0005020088684908033
-0.008294317986527307   -0.02048067156013053   -0.00034915128759359447
-0.011983867291223894   -0.020438346673073742   -0.0004207203347194458
-0.01132651008858755   -0.027115538065073642   -0.0006005937669246665
-0.012016683766819464   -0.020405696971943024   -0.000379097071959714
-0.00785021836699461   -0.02715020872429662   -0.0005020088684908033
-0.011349733004297187   -0.027093353318508318   -0.0005440463945282177
-0.012016683766819464   -0.020405696971943024   -0.000379097071959714
-0.01132651008858755   -0.027115538065073642   -0.0006005937669246665
-0.00785021836699461   -0.02715020872429662   -0.0005020088684908033
-0.012016683766819464   -0.020405696971943024   -0.000379097071959714
-0.008337188511707576   -0.020437067903465604   -0.0003145322311196884
-0.008294317986527307   -0.02048067156013053   -0.00034915128759359447
-0.00785021836699461   -0.02715020872429662   -0.0005020088684908033
-0.012016683766819464   -0.020405696971943024   -0.000379097071959714
-0.008294317986527307   -0.02048067156013053   -0.00034915128759359447
-0.01132651008858755   -0.027115538065073642   -0.0006005937669246665
-0.011270402109196175   -0.02718753405901038   -0.0007012511098347193
-0.011907086444521443   -0.020513749533244537   -0.0004937588386012601
-0.015056271473255107   -0.0270731391280758   -0.0007747880215149932
-0.011305438916103869   -0.027147591983155247   -0.0006527446535584411
-0.011907086444521443   -0.020513749533244537   -0.0004937588386012601
-0.01583083247518864   -0.020436580740633137   -0.0005568360473383018
-0.015056271473255107   -0.0270731391280758   -0.0007747880215149932
-0.0158369163461833   -0.02040577046488153   -0.0005179025202958619
-0.011305438916103869   -0.027147591983155247   -0.0006527446535584411
-0.015029487846051879   -0.027039555814365082   -0.0007100085139602199
-0.0158369163461833   -0.02040577046488153   -0.0005179025202958619
-0.015056271473255107   -0.0270731391280758   -0.0007747880215149932
-0.011305438916103869   -0.027147591983155247   -0.0006527446535584411
-0.0158369163461833   -0.02040577046488153   -0.0005179025202958619
-0.011950818157169904   -0.020474917860534826   -0.00045869043532244344
-0.011907086444521443   -0.020513749533244537   -0.0004937588386012601
-0.011305438916103869   -0.027147591983155247   -0.0006527446535584411
-0.0158369163461833   -0.02040577046488153   -0.0005179025202958619
-0.011907086444521443   -0.020513749533244537   -0.0004937588386012601
-0.015056271473255107   -0.0270731391280758   -0.0007747880215149932
-0.011305438916103869   -0.027147591983155247   -0.0006527446535584411
-0.011950818157169904   -0.020474917860534826   -0.00045869043532244344
-0.015029487846051879   -0.027039555814365082   -0.0007100085139602199
-0.01132651008858755   -0.027115538065073642   -0.0006005937669246665
-0.011950818157169904   -0.020474917860534826   -0.00045869043532244344
-0.0158369163461833   -0.02040577046488153   -0.0005179025202958619
-0.015029487846051879   -0.027039555814365082   -0.0007100085139602199
-0.015843268916293677   -0.020374718439206314   -0.000473133774295583
-0.01132651008858755   -0.027115538065073642   -0.0006005937669246665
-0.015007650962787127   -0.027012845789840374   -0.0006385411458271358
-0.015843268916293677   -0.020374718439206314   -0.000473133774295583
-0.015029487846051879   -0.027039555814365082   -0.0007100085139602199
-0.01132651008858755   -0.027115538065073642   -0.0006005937669246665
-0.015843268916293677   -0.020374718439206314   -0.000473133774295583
-0.011983867291223894   -0.020438346673073742   -0.0004207203347194458
-0.011950818157169904   -0.020474917860534826   -0.00045869043532244344
-0.01132651008858755   -0.027115538065073642   -0.0006005937669246665
-0.015843268916293677   -0.020374718439206314   -0.000473133774295583
-0.011950818157169904   -0.020474917860534826   -0.00045869043532244344
-0.015029487846051879   -0.027039555814365082   -0.0007100085139602199
-0.01132651008858755   -0.027115538065073642   -0.0006005937669246665
-0.011983867291223894   -0.020438346673073742   -0.0004207203347194458
-0.015007650962787127   -0.027012845789840374   -0.0006385411458271358
-0.011349733004297187   -0.027093353318508318   -0.0005440463945282177
-0.011983867291223894   -0.020438346673073742   -0.0004207203347194458
-0.015843268916293677   -0.020374718439206314   -0.000473133774295583
-0.015007650962787127   -0.027012845789840374   -0.0006385411458271358
-0.01582739422929231   -0.020354793056836382   -0.00042321800167314356
-0.011349733004297187   -0.027093353318508318   -0.0005440463945282177
-0.014955945039406624   -0.02700524636949568   -0.0005611477669037254
-0.01582739422929231   -0.020354793056836382   -0.00042321800167314356
-0.015007650962787127   -0.027012845789840374   -0.0006385411458271358
-0.011349733004297187   -0.027093353318508318   -0.0005440463945282177
-0.01582739422929231   -0.020354793056836382   -0.00042321800167314356
-0.012016683766819464   -0.020405696971943024   -0.000379097071959714
-0.011983867291223894   -0.020438346673073742   -0.0004207203347194458
-0.011349733004297187   -0.027093353318508318   -0.0005440463945282177
-0.01582739422929231   -0.020354793056836382   -0.00042321800167314356
-0.011983867291223894   -0.020438346673073742   -0.0004207203347194458
-0.015007650962787127   -0.027012845789840374   -0.0006385411458271358
0.003025595653552816   -0.020700751973238143   -3.155940061139301e-05
0.0027170737955228026   -0.013820520962430399   8.191912642555308e-05
-0.000874821918851112   -0.020666874551251   -0.0001788033230437365
0.00297834219949957   -0.02061487863220615   -2.9368208176919558e-05
0.0027170737955228026   -0.013820520962430399   8.191912642555308e-05
-0.0012159572630993027   -0.01375612566114329   -3.4623209043224575e-05
-0.000874821918851112   -0.020666874551251   -0.0001788033230437365
-0.001269875392692505   -0.01368857108774781   -6.694866325830955e-06
0.00297834219949957   -0.02061487863220615   -2.9368208176919558e-05
-0.0009197786378317548   -0.02059211972860528   -0.00016557539503314788
-0.001269875392692505   -0.01368857108774781   -6.694866325830955e-06
-0.000874821918851112   -0.020666874551251   -0.0001788033230437365
0.00297834219949957   -0.02061487863220615   -2.9368208176919558e-05
-0.001269875392692505   -0.01368857108774781   -6.694866325830955e-06
0.00263247699790411   -0.013738799603631335   0.00011640070423382654
0.0027170737955228026   -0.013820520962430399   8.191912642555308e-05
0.00297834219949957   -0.02061487863220615   -2.9368208176919558e-05
-0.001269875392692505   -0.01368857108774781   -6.694866325830955e-06
0.0027170737955228026   -0.013820520962430399   8.191912642555308e-05
-0.000874821918851112   -0.020666874551251   -0.0001788033230437365
0.00297834219949957   -0.02061487863220615   -2.9368208176919558e-05
0.00263247699790411   -0.013738799603631335   0.00011640070423382654
-0.0009197786378317548   -0.02059211972860528   -0.00016557539503314788
0.0029199860984662853   -0.02053841599505809   -1.9499685606759348e-05
0.00263247699790411   -0.013738799603631335   0.00011640070423382654
-0.001269875392692505   -0.01368857108774781   -6.694866325830955e-06
-0.0009197786378317548   -0.02059211972860528   -0.00016557539503314788
-0.0013330037731586807   -0.013617343605522424   2.6244859033434143e-05
0.0029199860984662853   -0.02053841599505809   -1.9499685606759348e-05
-0.0009712832232964043   -0.020521743463604632   -0.0001485864228899184
-0.0013330037731586807   -0.013617343605522424   2.6244859033434143e-05
-0.0009197786378317548   -0.02059211972860528   -0.00016557539503314788
0.0029199860984662853   -0.02053841599505809   -1.9499685606759348e-05
-0.0013330037731586807   -0.013617343605522424   2.6244859033434143e-05
0.002537757610811629   -0.013657810837663382   0.00016618067390266722
0.00263247699790411   -0.013738799603631335   0.00011640070423382654
0.0029199860984662853   -0.02053841599505809   -1.9499685606759348e-05
-0.0013330037731586807   -0.013617343605522424   2.6244859033434143e-05
0.00263247699790411   -0.013738799603631335   0.00011640070423382654
-0.0009197786378317548   -0.02059211972860528   -0.00016557539503314788
0.0029199860984662853   -0.02053841599505809   -1.9499685606759348e-05
0.002537757610811629   -0.013657810837663382   0.00016618067390266722
-0.0009712832232964043   -0.020521743463604632   -0.0001485864228899184
0.0028429684567826785   -0.02045856988805294   -2.2989101629827708e-06
0.002537757610811629   -0.013657810837663382   0.00016618067390266722
-0.0013330037731586807   -0.013617343605522424   2.6244859033434143e-05
-0.0009712832232964043   -0.020521743463604632   -0.0001485864228899184
-0.0013983658128939756   -0.013541778918193173   6.413763550349439e-05
0.0028429684567826785   -0.02045856988805294   -2.2989101629827708e-06
-0.0010291789060997295   -0.020454773413097198   -0.00012689507854459528
-0.0013983658128939756   -0.013541778918193173   6.413763550349439e-05
-0.0009712832232964043   -0.020521743463604632   -0.0001485864228899184
0.0028429684567826785   -0.02045856988805294   -2.2989101629827708e-06
-0.0013983658128939756   -0.013541778918193173   6.413763550349439e-05
0.0024219956259730383   -0.013558255187403636   0.00022100090151002034
0.002537757610811629   -0.013657810837663382   0.00016618067390266722
0.0028429684567826785   -0.02045856988805294   -2.2989101629827708e-06
-0.0013983658128939756   -0.013541778918193173   6.413763550349439e-05
0.002537757610811629   -0.013657810837663382   0.00016618067390266722
-0.0009712832232964043   -0.020521743463604632   -0.0001485864228899184
-0.000874821918851112   -0.020666874551251   -0.0001788033230437365
-0.0012159572630993027   -0.01375612566114329   -3.4623209043224575e-05
-0.004570544157782178   -0.020626951069251935   -0.00030304118611296146
-0.0009197786378317548   -0.02059211972860528   -0.00016557539503314788
-0.0012159572630993027   -0.01375612566114329   -3.4623209043224575e-05
-0.004918619262716432   -0.013739436786085569   -0.00014674815462386643
-0.004570544157782178   -0.020626951069251935   -0.00030304118611296146
-0.004967464638910993   -0.013680634760891604   -0.00012062722708713922
-0.0009197786378317548   -0.02059211972860528   -0.00016557539503314788
-0.004616518386091631   -0.020564594453177366   -0.0002824888051446805
-0.004967464638910993   -0.013680634760891604   -0.00012062722708713922
-0.004570544157782178   -0.020626951069251935   -0.00030304118611296146
-0.0009197786378317548   -0.02059211972860528   -0.00016557539503314788
-0.004967464638910993   -0.013680634760891604   -0.00012062722708713922
-0.001269875392692505   -0.01368857108774781   -6.694866325830955e-06
-0.0012159572630993027   -0.01375612566114329   -3.4623209043224575e-05
-0.0009197786378317548   -0.02059211972860528   -0.00016557539503314788
-0.004967464638910993   -0.013680634760891604   -0.00012062722708713922
-0.0012159572630993027   -0.01375612566114329   -3.4623209043224575e-05
-0.004570544157782178   -0.020626951069251935   -0.00030304118611296146
-0.0009197786378317548   -0.02059211972860528   -0.00016557539503314788
-0.001269875392692505   -0.01368857108774781   -6.694866325830955e-06
-0.004616518386091631   -0.020564594453177366   -0.0002824888051446805
-0.0009712832232964043   -0.020521743463604632   -0.0001485864228899184
-0.001269875392692505   -0.01368857108774781   -6.694866325830955e-06
-0.004967464638910993   -0.013680634760891604   -0.00012062722708713922
-0.004616518386091631   -0.020564594453177366   -0.0002824888051446805
-0.005018019461763319   -0.013619497004523045   -9.188898937956993e-05
-0.0009712832232964043   -0.020521743463604632   -0.0001485864228899184
-0.004663535432948752   -0.02050563255843534   -0.0002583463613604
-0.005018019461763319   -0.013619497004523045   -9.188898937956993e-05
-0.004616518386091631   -0.020564594453177366   -0.0002824888051446805
-0.0009712832232964043   -0.020521743463604632   -0.0001485864228899184
-0.005018019461763319   -0.013619497004523045   -9.188898937956993e-05
-0.0013330037731586807   -0.013617343605522424   2.6244859033434143e-05
-0.001269875392692505   -0.01368857108774781   -6.694866325830955e-06
-0.0009712832232964043   -0.020521743463604632   -0.0001485864228899184
-0.005018019461763319   -0.013619497004523045   -9.188898937956993e-05
-0.001269875392692505   -0.01368857108774781   -6.694866325830955e-06
-0.004616518386091631   -0.020564594453177366   -0.0002824888051446805
-0.0009712832232964043   -0.020521743463604632   -0.0001485864228899184
-0.0013330037731586807   -0.013617343605522424   2.6244859033434143e-05
-0.004663535432948752   -0.02050563255843534   -0.0002583463613604
-0.0010291789060997295   -0.020454773413097198   -0.00012689507854459528
-0.0013330037731586807   -0.013617343605522424   2.6244859033434143e-05
-0.005018019461763319   -0.013619497004523045   -9.188898937956993e-05
-0.004663535432948752   -0.02050563255843534   -0.0002583463613604
-0.005070677890521568   -0.013557154469846913   -6.0016281325688056e-05
-0.0010291789060997295   -0.020454773413097198   -0.00012689507854459528
-0.004713562878230375   -0.02045099643800903   -0.00023057960111812952
-0.005070677890521568   -0.013557154469846913   -6.0016281325688056e-05
-0.004663535432948752   -0.02050563255843534   -0.0002583463613604
-0.0010291789060997295   -0.020454773413097198   -0.00012689507854459528
-0.005070677890521568   -0.013557154469846913   -6.0016281325688056e-05
-0.0013983658128939756   -0.013541778918193173   6.413763550349439e-05
-0.0013330037731586807   -0.013617343605522424   2.6244859033434143e-05
-0.0010291789060997295   -0.020454773413097198   -0.00012689507854459528
-0.005070677890521568   -0.013557154469846913   -6.0016281325688056e-05
-0.0013330037731586807   -0.013617343605522424   2.6244859033434143e-05
-0.004663535432948752   -0.02050563255843534   -0.0002583463613604
-0.004570544157782178   -0.020626951069251935   -0.00030304118611296146
-0.004918619262716432   -0.013739436786085569   -0.00014674815462386643
-0.008205914921815907   -0.0205788744465296   -0.0004083274279377233
-0.004616518386091631   -0.020564594453177366   -0.0002824888051446805
-0.004918619262716432   -0.013739436786085569   -0.00014674815462386643
-0.008582608646328342   -0.013734763903812019   -0.00024796739626363197
-0.008205914921815907   -0.0205788744465296   -0.0004083274279377233
-0.008629357456021064   -0.013683318382026318   -0.00022293249680573732
-0.004616518386091631   -0.020564594453177366   -0.0002824888051446805
-0.008251600674308258   -0.020527983181863253   -0.00038047315335210693
-0.008629357456021064   -0.013683318382026318   -0.00022293249680573732
-0.008205914921815907   -0.0205788744465296   -0.0004083274279377233
-0.004616518386091631   -0.020564594453177366   -0.0002824888051446805
-0.008629357456021064   -0.013683318382026318   -0.00022293249680573732
-0.004967464638910993   -0.013680634760891604   -0.00012062722708713922
-0.004918619262716432   -0.013739436786085569   -0.00014674815462386643
-0.004616518386091631   -0.020564594453177366   -0.0002824888051446805
-0.008629357456021064   -0.013683318382026318   -0.00022293249680573732
-0.004918619262716432   -0.013739436786085569   -0.00014674815462386643
-0.008205914921815907   -0.0205788744465296   -0.0004083274279377233
-0.004616518386091631   -0.020564594453177366   -0.0002824888051446805
-0.004967464638910993   -0.013680634760891604   -0.00012062722708713922
-0.008251600674308258   -0.020527983181863253   -0.00038047315335210693
-0.004663535432948752   -0.02050563255843534   -0.0002583463613604
-0.004967464638910993   -0.013680634760891604   -0.00012062722708713922
-0.008629357456021064   -0.013683318382026318   -0.00022293249680573732
-0.008251600674308258   -0.020527983181863253   -0.00038047315335210693
-0.008673893756053836   -0.013630987027539567   -0.00019560461989711201
-0.004663535432948752   -0.02050563255843534   -0.0002583463613604
-0.008294317986527307   -0.02048067156013053   -0.00034915128759359447
-0.008673893756053836   -0.013630987027539567   -0.00019560461989711201
-0.008251600674308258   -0.020527983181863253   -0.00038047315335210693
-0.004663535432948752   -0.02050563255843534   -0.0002583463613604
-0.008673893756053836   -0.013630987027539567   -0.00019560461989711201
-0.005018019461763319   -0.013619497004523045   -9.188898937956993e-05
-0.004967464638910993   -0.013680634760891604   -0.00012062722708713922
-0.004663535432948752   -0.02050563255843534   -0.0002583463613604
-0.008673893756053836   -0.013630987027539567   -0.00019560461989711201
-0.004967464638910993   -0.013680634760891604   -0.00012062722708713922
-0.008251600674308258   -0.020527983181863253   -0.00038047315335210693
-0.004663535432948752   -0.02050563255843534   -0.0002583463613604
-0.005018019461763319   -0.013619497004523045   -9.188898937956993e-05
-0.008294317986527307   -0.02048067156013053   -0.00034915128759359447
-0.004713562878230375   -0.02045099643800903   -0.00023057960111812952
-0.005018019461763319   -0.013619497004523045   -9.188898937956993e-05
-0.008673893756053836   -0.013630987027539567   -0.00019560461989711201
-0.008294317986527307   -0.02048067156013053   -0.00034915128759359447
-0.008717984944039522   -0.01357746438790498   -0.00016610970296886213
-0.004713562878230375   -0.02045099643800903   -0.00023057960111812952
-0.008337188511707576   -0.020437067903465604   -0.0003145322311196884
-0.008717984944039522   -0.01357746438790498   -0.00016610970296886213
-0.008294317986527307   -0.02048067156013053   -0.00034915128759359447
-0.004713562878230375   -0.02045099643800903   -0.00023057960111812952
-0.008717984944039522   -0.01357746438790498   -0.00016610970296886213
-0.005070677890521568   -0.013557154469846913   -6.0016281325688056e-05
-0.005018019461763319   -0.013619497004523045   -9.188898937956993e-05
-0.004713562878230375   -0.02045099643800903   -0.00023057960111812952
-0.008717984944039522   -0.01357746438790498   -0.00016610970296886213
-0.005018019461763319   -0.013619497004523045   -9.188898937956993e-05
-0.008294317986527307   -0.02048067156013053   -0.00034915128759359447
-0.008205914921815907   -0.0205788744465296   -0.0004083274279377233
-0.008582608646328342   -0.013734763903812019   -0.00024796739626363197
-0.011907086444521443   -0.020513749533244537   -0.0004937588386012601
-0.008251600674308258   -0.020527983181863253   -0.00038047315335210693
-0.008582608646328342   -0.013734763903812019   -0.00024796739626363197
-0.012324320478147384   -0.013713315093731367   -0.0003327295146887095
-0.011907086444521443   -0.020513749533244537   -0.0004937588386012601
-0.012368885242820735   -0.01367157415747874   -0.00030892168277449247
-0.008251600674308258   -0.020527983181863253   -0.00038047315335210693
-0.011950818157169904   -0.020474917860534826   -0.00045869043532244344
-0.012368885242820735   -0.01367157415747874   -0.00030892168277449247
-0.011907086444521443   -0.020513749533244537   -0.0004937588386012601
-0.008251600674308258   -0.020527983181863253   -0.00038047315335210693
-0.012368885242820735   -0.01367157415747874   -0.00030892168277449247
-0.008629357456021064   -0.013683318382026318   -0.00022293249680573732
-0.008582608646328342   -0.013734763903812019   -0.00024796739626363197
-0.008251600674308258   -0.020527983181863253   -0.00038047315335210693
-0.012368885242820735   -0.01367157415747874   -0.00030892168277449247
-0.008582608646328342   -0.013734763903812019   -0.00024796739626363197
-0.011907086444521443   -0.020513749533244537   -0.0004937588386012601
-0.008251600674308258   -0.020527983181863253   -0.00038047315335210693
-0.008629357456021064   -0.013683318382026318   -0.00022293249680573732
-0.011950818157169904   -0.020474917860534826   -0.00045869043532244344
-0.008294317986527307   -0.02048067156013053   -0.00034915128759359447
-0.008629357456021064   -0.013683318382026318   -0.00022293249680573732
-0.012368885242820735   -0.01367157415747874   -0.00030892168277449247
-0.011950818157169904   -0.020474917860534826   -0.00045869043532244344
-0.01240658756348259   -0.013627559584029357   -0.0002834729465265099
-0.008294317986527307   -0.02048067156013053   -0.00034915128759359447
-0.011983867291223894   -0.020438346673073742   -0.0004207203347194458
-0.01240658756348259   -0.013627559584029357   -0.0002834729465265099
-0.011950818157169904   -0.020474917860534826   -0.00045869043532244344
-0.008294317986527307   -0.02048067156013053   -0.00034915128759359447
-0.01240658756348259   -0.013627559584029357   -0.0002834729465265099
-0.008673893756053836   -0.013630987027539567   -0.00019560461989711201
-0.008629357456021064   -0.013683318382026318   -0.00022293249680573732
-0.008294317986527307   -0.02048067156013053   -0.00034915128759359447
-0.01240658756348259   -0.013627559584029357   -0.0002834729465265099
-0.008629357456021064   -0.013683318382026318   -0.00022293249680573732
-0.011950818157169904   -0.020474917860534826   -0.00045869043532244344
-0.008294317986527307   -0.02048067156013053   -0.00034915128759359447
-0.008673893756053836   -0.013630987027539567   -0.00019560461989711201
-0.011983867291223894   -0.020438346673073742   -0.0004207203347194458
-0.008337188511707576   -0.020437067903465604   -0.0003145322311196884
-0.008673893756053836   -0.013630987027539567   -0.00019560461989711201
-0.01240658756348259   -0.013627559584029357   -0.0002834729465265099
-0.011983867291223894   -0.020438346673073742   -0.0004207203347194458
-0.01244221850453684   -0.013582425333209885   -0.0002556806163636734
-0.008337188511707576   -0.020437067903465604   -0.0003145322311196884
-0.012016683766819464   -0.020405696971943024   -0.000379097071959714
-0.01244221850453684   -0.013582425333209885   -0.0002556806163636734
-0.011983867291223894   -0.020438346673073742   -0.0004207203347194458
-0.008337188511707576   -0.020437067903465604   -0.0003145322311196884
-0.01244221850453684   -0.013582425333209885   -0.0002556806163636734
-0.008717984944039522   -0.01357746438790498   -0.00016610970296886213
-0.008673893756053836   -0.013630987027539567   -0.00019560461989711201
-0.008337188511707576   -0.020437067903465604   -0.0003145322311196884
-0.01244221850453684   -0.013582425333209885   -0.0002556806163636734
-0.008673893756053836   -0.013630987027539567   -0.00019560461989711201
-0.011983867291223894   -0.020438346673073742   -0.0004207203347194458
-0.011907086444521443   -0.020513749533244537   -0.0004937588386012601
-0.012324320478147384   -0.013713315093731367   -0.0003327295146887095
-0.01583083247518864   -0.020436580740633137   -0.0005568360473383018
-0.011950818157169904   -0.020474917860534826   -0.00045869043532244344
-0.012324320478147384   -0.013713315093731367   -0.0003327295146887095
-0.01624500066528702   -0.013677813927947265   -0.0003950207689500636
-0.01583083247518864   -0.020436580740633137   -0.0005568360473383018
-0.016272392316776157   -0.013642959858149232   -0.0003769797924013019
-0.011950818157169904   -0.020474917860534826   -0.00045869043532244344
-0.0158369163461833   -0.02040577046488153   -0.0005179025202958619
-0.016272392316776157   -0.013642959858149232   -0.0003769797924013019
-0.01583083247518864   -0.020436580740633137   -0.0005568360473383018
-0.011950818157169904   -0.020474917860534826   -0.00045869043532244344
-0.016272392316776157   -0.013642959858149232   -0.0003769797924013019
-0.012368885242820735   -0.01367157415747874   -0.00030892168277449247
-0.012324320478147384   -0.013713315093731367   -0.0003327295146887095
-0.011950818157169904   -0.020474917860534826   -0.00045869043532244344
-0.016272392316776157   -0.013642959858149232   -0.0003769797924013019
-0.012324320478147384   -0.013713315093731367   -0.0003327295146887095
-0.01583083247518864   -0.020436580740633137   -0.0005568360473383018
-0.011950818157169904   -0.020474917860534826   -0.00045869043532244344
-0.012368885242820735   -0.01367157415747874   -0.00030892168277449247
-0.0158369163461833   -0.02040577046488153   -0.0005179025202958619
-0.011983867291223894   -0.020438346673073742   -0.0004207203347194458
-0.012368885242820735   -0.01367157415747874   -0.00030892168277449247
-0.016272392316776157   -0.013642959858149232   -0.0003769797924013019
-0.0158369163461833   -0.02040577046488153   -0.0005179025202958619
-0.01629743903045752   -0.013603443671823402   -0.00035493908476319285
-0.011983867291223894   -0.020438346673073742   -0.0004207203347194458
-0.015843268916293677   -0.020374718439206314   -0.000473133774295583
-0.01629743903045752   -0.013603443671823402   -0.00035493908476319285
-0.0158369163461833   -0.02040577046488153   -0.0005179025202958619
-0.011983867291223894   -0.020438346673073742   -0.0004207203347194458
-0.01629743903045752   -0.013603443671823402   -0.00035493908476319285
-0.01240658756348259   -0.013627559584029357   -0.0002834729465265099
-0.012368885242820735   -0.01367157415747874   -0.00030892168277449247
-0.011983867291223894   -0.020438346673073742   -0.0004207203347194458
-0.01629743903045752   -0.013603443671823402   -0.00035493908476319285
-0.012368885242820735   -0.01367157415747874   -0.00030892168277449247
-0.0158369163461833   -0.02040577046488153   -0.0005179025202958619
-0.011983867291223894   -0.020438346673073742   -0.0004207203347194458
-0.01240658756348259   -0.013627559584029357   -0.0002834729465265099
-0.015843268916293677   -0.020374718439206314   -0.000473133774295583
-0.012016683766819464   -0.020405696971943024   -0.000379097071959714
-0.01240658756348259   -0.013627559584029357   -0.0002834729465265099
-0.01629743903045752   -0.013603443671823402   -0.00035493908476319285
-0.015843268916293677   -0.020374718439206314   -0.000473133774295583
-0.01630923481758679   -0.013567412228476098   -0.0003298841940596017
-0.012016683766819464   -0.020405696971943024   -0.000379097071959714
-0.01582739422929231   -0.020354793056836382   -0.00042321800167314356
-0.01630923481758679   -0.013567412228476098   -0.0003298841940596017
-0.015843268916293677   -0.020374718439206314   -0.000473133774295583
-0.012016683766819464   -0.020405696971943024   -0.000379097071959714
-0.01630923481758679   -0.013567412228476098   -0.0003298841940596017
-0.01244221850453684   -0.013582425333209885   -0.0002556806163636734
-0.01240658756348259   -0.013627559584029357   -0.0002834729465265099
-0.012016683766819464   -0.020405696971943024   -0.000379097071959714
-0.01630923481758679   -0.013567412228476098   -0.0003298841940596017
-0.01240658756348259   -0.013627559584029357   -0.0002834729465265099
-0.015843268916293677   -0.020374718439206314   -0.000473133774295583
0.0027170737955228026   -0.013820520962430399   8.191912642555308e-05
0.0019068940701641305   -0.006946649301130562   8.839155782831082e-05
-0.0012159572630993027   -0.01375612566114329   -3.4623209043224575e-05
0.00263247699790411   -0.013738799603631335   0.00011640070423382654
0.0019068940701641305   -0.006946649301130562   8.839155782831082e-05
-0.0017645621101032316   -0.006857602912638704   4.6640316431927706e-05
-0.0012159572630993027   -0.01375612566114329   -3.4623209043224575e-05
-0.0018183310660927284   -0.006824010705228334   8.565072808617895e-05
0.00263247699790411   -0.013738799603631335   0.00011640070423382654
-0.001269875392692505   -0.01368857108774781   -6.694866325830955e-06
-0.0018183310660927284   -0.006824010705228334   8.565072808617895e-05
-0.0012159572630993027   -0.01375612566114329   -3.4623209043224575e-05
0.00263247699790411   -0.013738799603631335   0.00011640070423382654
-0.0018183310660927284   -0.006824010705228334   8.565072808617895e-05
0.00173915094772864   -0.006859604885225778   0.00018475985554228448
0.0019068940701641305   -0.006946649301130562   8.839155782831082e-05
0.00263247699790411   -0.013738799603631335   0.00011640070423382654
-0.0018183310660927284   -0.006824010705228334   8.565072808617895e-05
0.0019068940701641305   -0.006946649301130562   8.839155782831082e-05
-0.0012159572630993027   -0.01375612566114329   -3.4623209043224575e-05
0.00263247699790411   -0.013738799603631335   0.00011640070423382654
0.00173915094772864   -0.006859604885225778   0.00018475985554228448
-0.001269875392692505   -0.01368857108774781   -6.694866325830955e-06
0.002537757610811629   -0.013657810837663382   0.00016618067390266722
0.00173915094772864   -0.006859604885225778   0.00018475985554228448
-0.0018183310660927284   -0.006824010705228334   8.565072808617895e-05
-0.001269875392692505   -0.01368857108774781   -6.694866325830955e-06
-0.0018892279915439726   -0.006763403863656657   0.00013308701683933903
0.002537757610811629   -0.013657810837663382   0.00016618067390266722
-0.0013330037731586807   -0.013617343605522424   2.6244859033434143e-05
-0.0018892279915439726   -0.006763403863656657   0.00013308701683933903
-0.001269875392692505   -0.01368857108774781   -6.694866325830955e-06
0.002537757610811629   -0.013657810837663382   0.00016618067390266722
-0.0018892279915439726   -0.006763403863656657   0.00013308701683933903
0.0016410273799532602   -0.0067887754446052445   0.0002565474085577072
0.00173915094772864   -0.006859604885225778   0.00018475985554228448
0.002537757610811629   -0.013657810837663382   0.00016618067390266722
-0.0018892279915439726   -0.006763403863656657   0.00013308701683933903
0.00173915094772864   -0.006859604885225778   0.00018475985554228448
-0.001269875392692505   -0.01368857108774781   -6.694866325830955e-06
0.002537757610811629   -0.013657810837663382   0.00016618067390266722
0.0016410273799532602   -0.0067887754446052445   0.0002565474085577072
-0.0013330037731586807   -0.013617343605522424   2.6244859033434143e-05
0.0024219956259730383   -0.013558255187403636   0.00022100090151002034
0.0016410273799532602   -0.0067887754446052445   0.0002565474085577072
-0.0018892279915439726   -0.006763403863656657   0.00013308701683933903
-0.0013330037731586807   -0.013617343605522424   2.6244859033434143e-05
-0.0019489351293892879   -0.006698378465919294   0.00017483067563162934
0.0024219956259730383   -0.013558255187403636   0.00022100090151002034
-0.0013983658128939756   -0.013541778918193173   6.413763550349439e-05
-0.0019489351293892879   -0.006698378465919294   0.00017483067563162934
-0.0013330037731586807   -0.013617343605522424   2.6244859033434143e-05
0.0024219956259730383   -0.013558255187403636   0.00022100090151002034
-0.0019489351293892879   -0.006698378465919294   0.00017483067563162934
0.0015151116658944834   -0.006680176666527554   0.00033880729876485145
0.0016410273799532602   -0.0067887754446052445   0.0002565474085577072
0.0024219956259730383   -0.013558255187403636   0.00022100090151002034
-0.0019489351293892879   -0.006698378465919294   0.00017483067563162934
0.0016410273799532602   -0.0067887754446052445   0.0002565474085577072
-0.0013330037731586807   -0.013617343605522424   2.6244859033434143e-05
-0.0012159572630993027   -0.01375612566114329   -3.4623209043224575e-05
-0.0017645621101032316   -0.006857602912638704   4.6640316431927706e-05
-0.004918619262716432   -0.013739436786085569   -0.00014674815462386643
-0.001269875392692505   -0.01368857108774781   -6.694866325830955e-06
-0.0017645621101032316   -0.006857602912638704   4.6640316431927706e-05
-0.005256026226148734   -0.006959696410088386   -4.2040876939748144e-05
-0.004918619262716432   -0.013739436786085569   -0.00014674815462386643
-0.005305740593654951   -0.00690777670919913   -1.4324618806409087e-05
-0.001269875392692505   -0.01368857108774781   -6.694866325830955e-06
-0.004967464638910993   -0.013680634760891604   -0.00012062722708713922
-0.005305740593654951   -0.00690777670919913   -1.4324618806409087e-05
-0.004918619262716432   -0.013739436786085569   -0.00014674815462386643
-0.001269875392692505   -0.01368857108774781   -6.694866325830955e-06
-0.005305740593654951   -0.00690777670919913   -1.4324618806409087e-05
-0.0018183310660927284   -0.006824010705228334   8.565072808617895e-05
-0.0017645621101032316   -0.006857602912638704   4.6640316431927706e-05
-0.001269875392692505   -0.01368857108774781   -6.694866325830955e-06
-0.005305740593654951   -0.00690777670919913   -1.4324618806409087e-05
-0.0017645621101032316   -0.006857602912638704   4.6640316431927706e-05
-0.004918619262716432   -0.013739436786085569   -0.00014674815462386643
-0.001269875392692505   -0.01368857108774781   -6.694866325830955e-06
-0.0018183310660927284   -0.006824010705228334   8.565072808617895e-05
-0.004967464638910993   -0.013680634760891604   -0.00012062722708713922
-0.0013330037731586807   -0.013617343605522424   2.6244859033434143e-05
-0.0018183310660927284   -0.006824010705228334   8.565072808617895e-05
-0.005305740593654951   -0.00690777670919913   -1.4324618806409087e-05
-0.004967464638910993   -0.013680634760891604   -0.00012062722708713922
-0.005357889003136786   -0.006849012707661604   1.5063777771538868e-05
-0.0013330037731586807   -0.013617343605522424   2.6244859033434143e-05
-0.005018019461763319   -0.013619497004523045   -9.188898937956993e-05
-0.005357889003136786   -0.006849012707661604   1.5063777771538868e-05
-0.004967464638910993   -0.013680634760891604   -0.00012062722708713922
-0.0013330037731586807   -0.013617343605522424   2.6244859033434143e-05
-0.005357889003136786   -0.006849012707661604   1.5063777771538868e-05
-0.0018892279915439726   -0.006763403863656657   0.00013308701683933903
-0.0018183310660927284   -0.006824010705228334   8.565072808617895e-05
-0.0013330037731586807   -0.013617343605522424   2.6244859033434143e-05
-0.005357889003136786   -0.006849012707661604   1.5063777771538868e-05
-0.0018183310660927284   -0.006824010705228334   8.565072808617895e-05
-0.004967464638910993   -0.013680634760891604   -0.00012062722708713922
-0.0013330037731586807   -0.013617343605522424   2.6244859033434143e-05
-0.0018892279915439726   -0.006763403863656657   0.00013308701683933903
-0.005018019461763319   -0.013619497004523045   -9.188898937956993e-05
-0.0013983658128939756   -0.013541778918193173   6.413763550349439e-05
-0.0018892279915439726   -0.006763403863656657   0.00013308701683933903
-0.005357889003136786   -0.006849012707661604   1.5063777771538868e-05
-0.005018019461763319   -0.013619497004523045   -9.188898937956993e-05
-0.005407547623885659   -0.00678460571730031   4.750780586304924e-05
-0.0013983658128939756   -0.013541778918193173   6.413763550349439e-05
-0.005070677890521568   -0.013557154469846913   -6.0016281325688056e-05
-0.005407547623885659   -0.00678460571730031   4.750780586304924e-05
-0.005018019461763319   -0.013619497004523045   -9.188898937956993e-05
-0.0013983658128939756   -0.013541778918193173   6.413763550349439e-05
-0.005407547623885659   -0.00678460571730031   4.750780586304924e-05
-0.0019489351293892879   -0.006698378465919294   0.00017483067563162934
-0.0018892279915439726   -0.006763403863656657   0.00013308701683933903
-0.0013983658128939756   -0.013541778918193173   6.413763550349439e-05
-0.005407547623885659   -0.00678460571730031   4.750780586304924e-05
-0.0018892279915439726   -0.006763403863656657   0.00013308701683933903
-0.005018019461763319   -0.013619497004523045   -9.188898937956993e-05
-0.004918619262716432   -0.013739436786085569   -0.00014674815462386643
-0.005256026226148734   -0.006959696410088386   -4.2040876939748144e-05
-0.008582608646328342   -0.013734763903812019   -0.00024796739626363197
-0.004967464638910993   -0.013680634760891604   -0.00012062722708713922
-0.005256026226148734   -0.006959696410088386   -4.2040876939748144e-05
-0.008831859487775307   -0.007039469968082738   -0.0001406841397754138
-0.008582608646328342   -0.013734763903812019   -0.00024796739626363197
-0.008876599977083113   -0.006986124439037181   -0.00011913881882347972
-0.004967464638910993   -0.013680634760891604   -0.00012062722708713922
-0.008629357456021064   -0.013683318382026318   -0.00022293249680573732
-0.008876599977083113   -0.006986124439037181   -0.00011913881882347972
-0.008582608646328342   -0.013734763903812019   -0.00024796739626363197
-0.004967464638910993   -0.013680634760891604   -0.00012062722708713922
-0.008876599977083113   -0.006986124439037181   -0.00011913881882347972
-0.005305740593654951   -0.00690777670919913   -1.4324618806409087e-05
-0.005256026226148734   -0.006959696410088386   -4.2040876939748144e-05
-0.004967464638910993   -0.013680634760891604   -0.00012062722708713922
-0.008876599977083113   -0.006986124439037181   -0.00011913881882347972
-0.005256026226148734   -0.006959696410088386   -4.2040876939748144e-05
-0.008582608646328342   -0.013734763903812019   -0.00024796739626363197
-0.004967464638910993   -0.013680634760891604   -0.00012062722708713922
-0.005305740593654951   -0.00690777670919913   -1.4324618806409087e-05
-0.008629357456021064   -0.013683318382026318   -0.00022293249680573732
-0.005018019461763319   -0.013619497004523045   -9.188898937956993e-05
-0.005305740593654951   -0.00690777670919913   -1.4324618806409087e-05
-0.008876599977083113   -0.006986124439037181   -0.00011913881882347972
-0.008629357456021064   -0.013683318382026318   -0.00022293249680573732
-0.008919487278055527   -0.006929719889774463   -9.76238739296701e-05
-0.005018019461763319   -0.013619497004523045   -9.188898937956993e-05
-0.008673893756053836   -0.013630987027539567   -0.00019560461989711201
-0.008919487278055527   -0.006929719889774463   -9.76238739296701e-05
-0.008629357456021064   -0.013683318382026318   -0.00022293249680573732
-0.005018019461763319   -0.013619497004523045   -9.188898937956993e-05
-0.008919487278055527   -0.006929719889774463   -9.76238739296701e-05
-0.005357889003136786   -0.006849012707661604   1.5063777771538868e-05
-0.005305740593654951   -0.00690777670919913   -1.4324618806409087e-05
-0.005018019461763319   -0.013619497004523045   -9.188898937956993e-05
-0.008919487278055527   -0.006929719889774463   -9.76238739296701e-05
-0.005305740593654951   -0.00690777670919913   -1.4324618806409087e-05
-0.008629357456021064   -0.013683318382026318   -0.00022293249680573732
-0.005018019461763319   -0.013619497004523045   -9.188898937956993e-05
-0.005357889003136786   -0.006849012707661604   1.5063777771538868e-05
-0.008673893756053836   -0.013630987027539567   -0.00019560461989711201
-0.005070677890521568   -0.013557154469846913   -6.0016281325688056e-05
-0.005357889003136786   -0.006849012707661604   1.5063777771538868e-05
-0.008919487278055527   -0.006929719889774463   -9.76238739296701e-05
-0.008673893756053836   -0.013630987027539567   -0.00019560461989711201
-0.008959069982571895   -0.006868601721142703   -7.415856297149549e-05
-0.005070677890521568   -0.013557154469846913   -6.0016281325688056e-05
-0.008717984944039522   -0.01357746438790498   -0.00016610970296886213
-0.008959069982571895   -0.006868601721142703   -7.415856297149549e-05
-0.008673893756053836   -0.013630987027539567   -0.00019560461989711201
-0.005070677890521568   -0.013557154469846913   -6.0016281325688056e-05
-0.008959069982571895   -0.006868601721142703   -7.415856297149549e-05
-0.005407547623885659   -0.00678460571730031   4.750780586304924e-05
-0.005357889003136786   -0.006849012707661604   1.5063777771538868e-05
-0.005070677890521568   -0.013557154469846913   -6.0016281325688056e-05
-0.008959069982571895   -0.006868601721142703   -7.415856297149549e-05
-0.005357889003136786   -0.006849012707661604   1.5063777771538868e-05
-0.008673893756053836   -0.013630987027539567   -0.00019560461989711201
-0.008582608646328342   -0.013734763903812019   -0.00024796739626363197
-0.008831859487775307   -0.007039469968082738   -0.0001406841397754138
-0.012324320478147384   -0.013713315093731367   -0.0003327295146887095
-0.008629357456021064   -0.013683318382026318   -0.00022293249680573732
-0.008831859487775307   -0.007039469968082738   -0.0001406841397754138
-0.012533334005348586   -0.00707226564183024   -0.00023166660507608662
-0.012324320478147384   -0.013713315093731367   -0.0003327295146887095
-0.012573661127586332   -0.007024456974296271   -0.00021590525563849227
-0.008629357456021064   -0.013683318382026318   -0.00022293249680573732
-0.012368885242820735   -0.01367157415747874   -0.00030892168277449247
-0.012573661127586332   -0.007024456974296271   -0.00021590525563849227
-0.012324320478147384   -0.013713315093731367   -0.0003327295146887095
-0.008629357456021064   -0.013683318382026318   -0.00022293249680573732
-0.012573661127586332   -0.007024456974296271   -0.00021590525563849227
-0.008876599977083113   -0.006986124439037181   -0.00011913881882347972
-0.008831859487775307   -0.007039469968082738   -0.0001406841397754138
-0.008629357456021064   -0.013683318382026318   -0.00022293249680573732
-0.012573661127586332   -0.007024456974296271   -0.00021590525563849227
-0.008831859487775307   -0.007039469968082738   -0.0001406841397754138
-0.012324320478147384   -0.013713315093731367   -0.0003327295146887095
-0.008629357456021064   -0.013683318382026318   -0.00022293249680573732
-0.008876599977083113   -0.006986124439037181   -0.00011913881882347972
-0.012368885242820735   -0.01367157415747874   -0.00030892168277449247
-0.008673893756053836   -0.013630987027539567   -0.00019560461989711201
-0.008876599977083113   -0.006986124439037181   -0.00011913881882347972
-0.012573661127586332   -0.007024456974296271   -0.00021590525563849227
-0.012368885242820735   -0.01367157415747874   -0.00030892168277449247
-0.01260960089520414   -0.006972301515726523   -0.00020055705644355667
-0.008673893756053836   -0.013630987027539567   -0.00019560461989711201
-0.01240658756348259   -0.013627559584029357   -0.0002834729465265099
-0.01260960089520414   -0.006972301515726523   -0.00020055705644355667
-0.012368885242820735   -0.01367157415747874   -0.00030892168277449247
-0.008673893756053836   -0.013630987027539567   -0.00019560461989711201
-0.01260960089520414   -0.006972301515726523   -0.00020055705644355667
-0.008919487278055527   -0.006929719889774463   -9.76238739296701e-05
-0.008876599977083113   -0.006986124439037181   -0.00011913881882347972
-0.008673893756053836   -0.013630987027539567   -0.00019560461989711201
-0.01260960089520414   -0.006972301515726523   -0.00020055705644355667
-0.008876599977083113   -0.006986124439037181   -0.00011913881882347972
-0.012368885242820735   -0.01367157415747874   -0.00030892168277449247
-0.008673893756053836   -0.013630987027539567   -0.00019560461989711201
-0.008919487278055527   -0.006929719889774463   -9.76238739296701e-05
-0.01240658756348259   -0.013627559584029357   -0.0002834729465265099
-0.008717984944039522   -0.01357746438790498   -0.00016610970296886213
-0.008919487278055527   -0.006929719889774463   -9.76238739296701e-05
-0.01260960089520414   -0.006972301515726523   -0.00020055705644355667
-0.01240658756348259   -0.013627559584029357   -0.0002834729465265099
-0.012642160618969946   -0.006916741554832153   -0.00018471084800946247
-0.008717984944039522   -0.01357746438790498   -0.00016610970296886213
-0.01244221850453684   -0.013582425333209885   -0.0002556806163636734
-0.012642160618969946   -0.006916741554832153   -0.00018471084800946247
-0.01240658756348259   -0.013627559584029357   -0.0002834729465265099
-0.008717984944039522   -0.01357746438790498   -0.00016610970296886213
-0.012642160618969946   -0.006916741554832153   -0.00018471084800946247
-0.008959069982571895   -0.006868601721142703   -7.415856297149549e-05
-0.008919487278055527   -0.006929719889774463   -9.76238739296701e-05
-0.008717984944039522   -0.01357746438790498   -0.00016610970296886213
-0.012642160618969946   -0.006916741554832153   -0.00018471084800946247
-0.008919487278055527   -0.006929719889774463   -9.76238739296701e-05
-0.01240658756348259   -0.013627559584029357   -0.0002834729465265099
-0.012324320478147384   -0.013713315093731367   -0.0003327295146887095
-0.012533334005348586   -0.00707226564183024   -0.00023166660507608662
-0.01624500066528702   -0.013677813927947265   -0.0003950207689500636
-0.012368885242820735   -0.01367157415747874   -0.00030892168277449247
-0.012533334005348586   -0.00707226564183024   -0.00023166660507608662
-0.016367741254816503   -0.0070758358060670256   -0.00030692015107916456
-0.01624500066528702   -0.013677813927947265   -0.0003950207689500636
-0.01640230212560441   -0.007029476425583462   -0.0003000471645551283
-0.012368885242820735   -0.01367157415747874   -0.00030892168277449247
-0.016272392316776157   -0.013642959858149232   -0.0003769797924013019
-0.01640230212560441   -0.007029476425583462   -0.0003000471645551283
-0.01624500066528702   -0.013677813927947265   -0.0003950207689500636
-0.012368885242820735   -0.01367157415747874   -0.00030892168277449247
-0.01640230212560441   -0.007029476425583462   -0.0003000471645551283
-0.012573661127586332   -0.007024456974296271   -0.00021590525563849227
-0.012533334005348586   -0.00707226564183024   -0.00023166660507608662
-0.012368885242820735   -0.01367157415747874   -0.00030892168277449247
-0.01640230212560441   -0.007029476425583462   -0.0003000471645551283
-0.012533334005348586   -0.00707226564183024   -0.00023166660507608662
-0.01624500066528702   -0.013677813927947265   -0.0003950207689500636
-0.012368885242820735   -0.01367157415747874   -0.00030892168277449247
-0.012573661127586332   -0.007024456974296271   -0.00021590525563849227
-0.016272392316776157   -0.013642959858149232   -0.0003769797924013019
-0.01240658756348259   -0.013627559584029357   -0.0002834729465265099
-0.012573661127586332   -0.007024456974296271   -0.00021590525563849227
-0.01640230212560441   -0.007029476425583462   -0.0003000471645551283
-0.016272392316776157   -0.013642959858149232   -0.0003769797924013019
-0.016433265749710553   -0.006979269050412229   -0.0002919891271957783
-0.01240658756348259   -0.013627559584029357   -0.0002834729465265099
-0.01629743903045752   -0.013603443671823402   -0.00035493908476319285
-0.016433265749710553   -0.006979269050412229   -0.0002919891271957783
-0.016272392316776157   -0.013642959858149232   -0.0003769797924013019
-0.01240658756348259   -0.013627559584029357   -0.0002834729465265099
-0.016433265749710553   -0.006979269050412229   -0.0002919891271957783
-0.01260960089520414   -0.006972301515726523   -0.00020055705644355667
-0.012573661127586332   -0.007024456974296271   -0.00021590525563849227
-0.01240658756348259   -0.013627559584029357   -0.0002834729465265099
-0.016433265749710553   -0.006979269050412229   -0.0002919891271957783
-0.012573661127586332   -0.007024456974296271   -0.00021590525563849227
-0.016272392316776157   -0.013642959858149232   -0.0003769797924013019
-0.01240658756348259   -0.013627559584029357   -0.0002834729465265099
-0.01260960089520414   -0.006972301515726523   -0.00020055705644355667
-0.01629743903045752   -0.013603443671823402   -0.00035493908476319285
-0.01244221850453684   -0.013582425333209885   -0.0002556806163636734
-0.01260960089520414   -0.006972301515726523   -0.00020055705644355667
-0.016433265749710553   -0.006979269050412229   -0.0002919891271957783
-0.01629743903045752   -0.013603443671823402   -0.00035493908476319285
-0.016459190086471658   -0.006926120121151608   -0.00028442715133932526
-0.01244221850453684   -0.013582425333209885   -0.0002556806163636734
-0.01630923481758679   -0.013567412228476098   -0.0003298841940596017
-0.016459190086471658   -0.006926120121151608   -0.00028442715133932526
-0.01629743903045752   -0.013603443671823402   -0.00035493908476319285
-0.01244221850453684   -0.013582425333209885   -0.0002556806163636734
-0.016459190086471658   -0.006926120121151608   -0.00028442715133932526
-0.012642160618969946   -0.006916741554832153   -0.00018471084800946247
-0.01260960089520414   -0.006972301515726523   -0.00020055705644355667
-0.01244221850453684   -0.013582425333209885   -0.0002556806163636734
-0.016459190086471658   -0.006926120121151608   -0.00028442715133932526
-0.01260960089520414   -0.006972301515726523   -0.00020055705644355667
-0.01629743903045752   -0.013603443671823402   -0.00035493908476319285
0.0019068940701641305   -0.006946649301130562   8.839155782831082e-05
0.0   0.0   0.0
-0.0017645621101032316   -0.006857602912638704   4.6640316431927706e-05
0.00173915094772864   -0.006859604885225778   0.00018475985554228448
0.0   0.0   0.0
-0.002211654650555675   -0.0005667329328633355   -1.7220511420265536e-05
-0.0017645621101032316   -0.006857602912638704   4.6640316431927706e-05
-0.0023439230817243694   -0.00044164782638598583   5.9572258935635925e-05
0.00173915094772864   -0.006859604885225778   0.00018475985554228448
-0.0018183310660927284   -0.006824010705228334   8.565072808617895e-05
-0.0023439230817243694   -0.00044164782638598583   5.9572258935635925e-05
-0.0017645621101032316   -0.006857602912638704   4.6640316431927706e-05
0.00173915094772864   -0.006859604885225778   0.00018475985554228448
-0.0023439230817243694   -0.00044164782638598583   5.9572258935635925e-05
0.0   0.0   0.0
0.0   0.0   0.0
0.00173915094772864   -0.006859604885225778   0.00018475985554228448
-0.0023439230817243694   -0.00044164782638598583   5.9572258935635925e-05
0.0   0.0   0.0
-0.0017645621101032316   -0.006857602912638704   4.6640316431927706e-05
0.00173915094772864   -0.006859604885225778   0.00018475985554228448
0.0   0.0   0.0
-0.0018183310660927284   -0.006824010705228334   8.565072808617895e-05
0.0016410273799532602   -0.0067887754446052445   0.0002565474085577072
0.0   0.0   0.0
-0.0023439230817243694   -0.00044164782638598583   5.9572258935635925e-05
-0.0018183310660927284   -0.006824010705228334   8.565072808617895e-05
-0.0024271143261510807   -0.00038152897932295266   0.00010410154135085234
0.0016410273799532602   -0.0067887754446052445   0.0002565474085577072
-0.0018892279915439726   -0.006763403863656657   0.00013308701683933903
-0.0024271143261510807   -0.00038152897932295266   0.00010410154135085234
-0.0018183310660927284   -0.006824010705228334   8.565072808617895e-05
0.0016410273799532602   -0.0067887754446052445   0.0002565474085577072
-0.0024271143261510807   -0.00038152897932295266   0.00010410154135085234
0.0   0.0   0.0
0.0   0.0   0.0
0.0016410273799532602   -0.0067887754446052445   0.0002565474085577072
-0.0024271143261510807   -0.00038152897932295266   0.00010410154135085234
0.0   0.0   0.0
-0.0018183310660927284   -0.006824010705228334   8.565072808617895e-05
0.0016410273799532602   -0.0067887754446052445   0.0002565474085577072
0.0   0.0   0.0
-0.0018892279915439726   -0.006763403863656657   0.00013308701683933903
0.0015151116658944834   -0.006680176666527554   0.00033880729876485145
0.0   0.0   0.0
-0.0024271143261510807   -0.00038152897932295266   0.00010410154135085234
-0.0018892279915439726   -0.006763403863656657   0.00013308701683933903
-0.0025389656991476883   -0.0003015927323364462   0.00015525213934935346
0.0015151116658944834   -0.006680176666527554   0.00033880729876485145
-0.0019489351293892879   -0.006698378465919294   0.00017483067563162934
-0.0025389656991476883   -0.0003015927323364462   0.00015525213934935346
-0.0018892279915439726   -0.006763403863656657   0.00013308701683933903
0.0015151116658944834   -0.006680176666527554   0.00033880729876485145
-0.0025389656991476883   -0.0003015927323364462   0.00015525213934935346
0.0   0.0   0.0
0.0   0.0   0.0
0.0015151116658944834   -0.006680176666527554   0.00033880729876485145
-0.0025389656991476883   -0.0003015927323364462   0.00015525213934935346
0.0   0.0   0.0
-0.0018892279915439726   -0.006763403863656657   0.00013308701683933903
-0.0017645621101032316   -0.006857602912638704   4.6640316431927706e-05
-0.002211654650555675   -0.0005667329328633355   -1.7220511420265536e-05
-0.005256026226148734   -0.006959696410088386   -4.2040876939748144e-05
-0.0018183310660927284   -0.006824010705228334   8.565072808617895e-05
-0.002211654650555675   -0.0005667329328633355   -1.7220511420265536e-05
-0.005411416599321333   -0.0007445315185086918   -1.4194482834449948e-05
-0.005256026226148734   -0.006959696410088386   -4.2040876939748144e-05
-0.0054798094002694   -0.0006764953784560353   5.755553022373433e-06
-0.0018183310660927284   -0.006824010705228334   8.565072808617895e-05
-0.005305740593654951   -0.00690777670919913   -1.4324618806409087e-05
-0.0054798094002694   -0.0006764953784560353   5.755553022373433e-06
-0.005256026226148734   -0.006959696410088386   -4.2040876939748144e-05
-0.0018183310660927284   -0.006824010705228334   8.565072808617895e-05
-0.0054798094002694   -0.0006764953784560353   5.755553022373433e-06
-0.0023439230817243694   -0.00044164782638598583   5.9572258935635925e-05
-0.002211654650555675   -0.0005667329328633355   -1.7220511420265536e-05
-0.0018183310660927284   -0.006824010705228334   8.565072808617895e-05
-0.0054798094002694   -0.0006764953784560353   5.755553022373433e-06
-0.002211654650555675   -0.0005667329328633355   -1.7220511420265536e-05
-0.005256026226148734   -0.006959696410088386   -4.2040876939748144e-05
-0.0018183310660927284   -0.006824010705228334   8.565072808617895e-05
-0.0023439230817243694   -0.00044164782638598583   5.9572258935635925e-05
-0.005305740593654951   -0.00690777670919913   -1.4324618806409087e-05
-0.0018892279915439726   -0.006763403863656657   0.00013308701683933903
-0.0023439230817243694   -0.00044164782638598583   5.9572258935635925e-05
-0.0054798094002694   -0.0006764953784560353   5.755553022373433e-06
-0.005305740593654951   -0.00690777670919913   -1.4324618806409087e-05
-0.005547997574888653   -0.0005968034918860756   4.129050643752891e-05
-0.0018892279915439726   -0.006763403863656657   0.00013308701683933903
-0.005357889003136786   -0.006849012707661604   1.5063777771538868e-05
-0.005547997574888653   -0.0005968034918860756   4.129050643752891e-05
-0.005305740593654951   -0.00690777670919913   -1.4324618806409087e-05
-0.0018892279915439726   -0.006763403863656657   0.00013308701683933903
-0.005547997574888653   -0.0005968034918860756   4.129050643752891e-05
-0.0024271143261510807   -0.00038152897932295266   0.00010410154135085234
-0.0023439230817243694   -0.00044164782638598583   5.9572258935635925e-05
-0.0018892279915439726   -0.006763403863656657   0.00013308701683933903
-0.005547997574888653   -0.0005968034918860756   4.129050643752891e-05
-0.0023439230817243694   -0.00044164782638598583   5.9572258935635925e-05
-0.005305740593654951   -0.00690777670919913   -1.4324618806409087e-05
-0.0018892279915439726   -0.006763403863656657   0.00013308701683933903
-0.0024271143261510807   -0.00038152897932295266   0.00010410154135085234
-0.005357889003136786   -0.006849012707661604   1.5063777771538868e-05
-0.0019489351293892879   -0.006698378465919294   0.00017483067563162934
-0.0024271143261510807   -0.00038152897932295266   0.00010410154135085234
-0.005547997574888653   -0.0005968034918860756   4.129050643752891e-05
-0.005357889003136786   -0.006849012707661604   1.5063777771538868e-05
-0.005623828218514163   -0.000504469947969225   7.544044515973202e-05
-0.0019489351293892879   -0.006698378465919294   0.00017483067563162934
-0.005407547623885659   -0.00678460571730031   4.750780586304924e-05
-0.005623828218514163   -0.000504469947969225   7.544044515973202e-05
-0.005357889003136786   -0.006849012707661604   1.5063777771538868e-05
-0.0019489351293892879   -0.006698378465919294   0.00017483067563162934
-0.005623828218514163   -0.000504469947969225   7.544044515973202e-05
-0.0025389656991476883   -0.0003015927323364462   0.00015525213934935346
-0.0024271143261510807   -0.00038152897932295266   0.00010410154135085234
-0.0019489351293892879   -0.006698378465919294   0.00017483067563162934
-0.005623828218514163   -0.000504469947969225   7.544044515973202e-05
-0.0024271143261510807   -0.00038152897932295266   0.00010410154135085234
-0.005357889003136786   -0.006849012707661604   1.5063777771538868e-05
-0.005256026226148734   -0.006959696410088386   -4.2040876939748144e-05
-0.005411416599321333   -0.0007445315185086918   -1.4194482834449948e-05
-0.008831859487775307   -0.007039469968082738   -0.0001406841397754138
-0.005305740593654951   -0.00690777670919913   -1.4324618806409087e-05
-0.005411416599321333   -0.0007445315185086918   -1.4194482834449948e-05
-0.008918772489795493   -0.0007953998451473487   -7.588928990419793e-05
-0.008831859487775307   -0.007039469968082738   -0.0001406841397754138
-0.008960392143440648   -0.0007426875915649083   -7.025972139157692e-05
-0.005305740593654951   -0.00690777670919913   -1.4324618806409087e-05
-0.008876599977083113   -0.006986124439037181   -0.00011913881882347972
-0.008960392143440648   -0.0007426875915649083   -7.025972139157692e-05
-0.008831859487775307   -0.007039469968082738   -0.0001406841397754138
-0.005305740593654951   -0.00690777670919913   -1.4324618806409087e-05
-0.008960392143440648   -0.0007426875915649083   -7.025972139157692e-05
-0.0054798094002694   -0.0006764953784560353   5.755553022373433e-06
-0.005411416599321333   -0.0007445315185086918   -1.4194482834449948e-05
-0.005305740593654951   -0.00690777670919913   -1.4324618806409087e-05
-0.008960392143440648   -0.0007426875915649083   -7.025972139157692e-05
-0.005411416599321333   -0.0007445315185086918   -1.4194482834449948e-05
-0.008831859487775307   -0.007039469968082738   -0.0001406841397754138
-0.005305740593654951   -0.00690777670919913   -1.4324618806409087e-05
-0.0054798094002694   -0.0006764953784560353   5.755553022373433e-06
-0.008876599977083113   -0.006986124439037181   -0.00011913881882347972
-0.005357889003136786   -0.006849012707661604   1.5063777771538868e-05
-0.0054798094002694   -0.0006764953784560353   5.755553022373433e-06
-0.008960392143440648   -0.0007426875915649083   -7.025972139157692e-05
-0.008876599977083113   -0.006986124439037181   -0.00011913881882347972
-0.009003690677298958   -0.0006813371486998882   -6.043936678164811e-05
-0.005357889003136786   -0.006849012707661604   1.5063777771538868e-05
-0.008919487278055527   -0.006929719889774463   -9.76238739296701e-05
-0.009003690677298958   -0.0006813371486998882   -6.043936678164811e-05
-0.008876599977083113   -0.006986124439037181   -0.00011913881882347972
-0.005357889003136786   -0.006849012707661604   1.5063777771538868e-05
-0.009003690677298958   -0.0006813371486998882   -6.043936678164811e-05
-0.005547997574888653   -0.0005968034918860756   4.129050643752891e-05
-0.0054798094002694   -0.0006764953784560353   5.755553022373433e-06
-0.005357889003136786   -0.006849012707661604   1.5063777771538868e-05
-0.009003690677298958   -0.0006813371486998882   -6.043936678164811e-05
-0.0054798094002694   -0.0006764953784560353   5.755553022373433e-06
-0.008876599977083113   -0.006986124439037181   -0.00011913881882347972
-0.005357889003136786   -0.006849012707661604   1.5063777771538868e-05
-0.005547997574888653   -0.0005968034918860756   4.129050643752891e-05
-0.008919487278055527   -0.006929719889774463   -9.76238739296701e-05
-0.005407547623885659   -0.00678460571730031   4.750780586304924e-05
-0.005547997574888653   -0.0005968034918860756   4.129050643752891e-05
-0.009003690677298958   -0.0006813371486998882   -6.043936678164811e-05
-0.008919487278055527   -0.006929719889774463   -9.76238739296701e-05
-0.009045040910317449   -0.0006064103199926184   -4.744500563880022e-05
-0.005407547623885659   -0.00678460571730031   4.750780586304924e-05
-0.008959069982571895   -0.006868601721142703   -7.415856297149549e-05
-0.009045040910317449   -0.0006064103199926184   -4.744500563880022e-05
-0.008919487278055527   -0.006929719889774463   -9.76238739296701e-05
-0.005407547623885659   -0.00678460571730031   4.750780586304924e-05
-0.009045040910317449   -0.0006064103199926184   -4.744500563880022e-05
-0.005623828218514163   -0.000504469947969225   7.544044515973202e-05
-0.005547997574888653   -0.0005968034918860756   4.129050643752891e-05
-0.005407547623885659   -0.00678460571730031   4.750780586304924e-05
-0.009045040910317449   -0.0006064103199926184   -4.744500563880022e-05
-0.005547997574888653   -0.0005968034918860756   4.129050643752891e-05
-0.008919487278055527   -0.006929719889774463   -9.76238739296701e-05
-0.008831859487775307   -0.007039469968082738   -0.0001406841397754138
-0.008918772489795493   -0.0007953998451473487   -7.588928990419793e-05
-0.012533334005348586   -0.00707226564183024   -0.00023166660507608662
-0.008876599977083113   -0.006986124439037181   -0.00011913881882347972
-0.008918772489795493   -0.0007953998451473487   -7.588928990419793e-05
-0.01259838615712493   -0.0007880107703561283   -0.00016550120263984092
-0.012533334005348586   -0.00707226564183024   -0.00023166660507608662
-0.012626528681122106   -0.0007408980127170266   -0.0001630753654786071
-0.008876599977083113   -0.006986124439037181   -0.00011913881882347972
-0.012573661127586332   -0.007024456974296271   -0.00021590525563849227
-0.012626528681122106   -0.0007408980127170266   -0.0001630753654786071
-0.012533334005348586   -0.00707226564183024   -0.00023166660507608662
-0.008876599977083113   -0.006986124439037181   -0.00011913881882347972
-0.012626528681122106   -0.0007408980127170266   -0.0001630753654786071
-0.008960392143440648   -0.0007426875915649083   -7.025972139157692e-05
-0.008918772489795493   -0.0007953998451473487   -7.588928990419793e-05
-0.008876599977083113   -0.006986124439037181   -0.00011913881882347972
-0.012626528681122106   -0.0007408980127170266   -0.0001630753654786071
-0.008918772489795493   -0.0007953998451473487   -7.588928990419793e-05
-0.012533334005348586   -0.00707226564183024   -0.00023166660507608662
-0.008876599977083113   -0.006986124439037181   -0.00011913881882347972
-0.008960392143440648   -0.0007426875915649083   -7.025972139157692e-05
-0.012573661127586332   -0.007024456974296271   -0.00021590525563849227
-0.008919487278055527   -0.006929719889774463   -9.76238739296701e-05
-0.008960392143440648   -0.0007426875915649083   -7.025972139157692e-05
-0.012626528681122106   -0.0007408980127170266   -0.0001630753654786071
-0.012573661127586332   -0.007024456974296271   -0.00021590525563849227
-0.012655882045599427   -0.0006882951960621882   -0.000161300565475287
-0.008919487278055527   -0.006929719889774463   -9.76238739296701e-05
-0.01260960089520414   -0.006972301515726523   -0.00020055705644355667
-0.012655882045599427   -0.0006882951960621882   -0.000161300565475287
-0.012573661127586332   -0.007024456974296271   -0.00021590525563849227
-0.008919487278055527   -0.006929719889774463   -9.76238739296701e-05
-0.012655882045599427   -0.0006882951960621882   -0.000161300565475287
-0.009003690677298958   -0.0006813371486998882   -6.043936678164811e-05
-0.008960392143440648   -0.0007426875915649083   -7.025972139157692e-05
-0.008919487278055527   -0.006929719889774463   -9.76238739296701e-05
-0.012655882045599427   -0.0006882951960621882   -0.000161300565475287
-0.008960392143440648   -0.0007426875915649083   -7.025972139157692e-05
-0.012573661127586332   -0.007024456974296271   -0.00021590525563849227
-0.008919487278055527   -0.006929719889774463   -9.76238739296701e-05
-0.009003690677298958   -0.0006813371486998882   -6.043936678164811e-05
-0.01260960089520414   -0.006972301515726523   -0.00020055705644355667
-0.008959069982571895   -0.006868601721142703   -7.415856297149549e-05
-0.009003690677298958   -0.0006813371486998882   -6.043936678164811e-05
-0.012655882045599427   -0.0006882951960621882   -0.000161300565475287
-0.01260960089520414   -0.006972301515726523   -0.00020055705644355667
-0.012678353382789696   -0.0006311733449004   -0.00016029349054448824
-0.008959069982571895   -0.006868601721142703   -7.415856297149549e-05
-0.012642160618969946   -0.006916741554832153   -0.00018471084800946247
-0.012678353382789696   -0.0006311733449004   -0.00016029349054448824
-0.01260960089520414   -0.006972301515726523   -0.00020055705644355667
-0.008959069982571895   -0.006868601721142703   -7.415856297149549e-05
-0.012678353382789696   -0.0006311733449004   -0.00016029349054448824
-0.009045040910317449   -0.0006064103199926184   -4.744500563880022e-05
-0.009003690677298958   -0.0006813371486998882   -6.043936678164811e-05
-0.008959069982571895   -0.006868601721142703   -7.415856297149549e-05
-0.012678353382789696   -0.0006311733449004   -0.00016029349054448824
-0.009003690677298958   -0.0006813371486998882   -6.043936678164811e-05
-0.01260960089520414   -0.006972301515726523   -0.00020055705644355667
-0.012533334005348586   -0.00707226564183024   -0.00023166660507608662
-0.01259838615712493   -0.0007880107703561283   -0.00016550120263984092
-0.016367741254816503   -0.0070758358060670256   -0.00030692015107916456
-0.012573661127586332   -0.007024456974296271   -0.00021590525563849227
-0.01259838615712493   -0.0007880107703561283   -0.00016550120263984092
-0.016380381405666788   -0.0007825521977998648   -0.0002538014756353816
-0.016367741254816503   -0.0070758358060670256   -0.00030692015107916456
-0.016402997176061432   -0.0007315059568948164   -0.0002537052634465179
-0.012573661127586332   -0.007024456974296271   -0.00021590525563849227
-0.01640230212560441   -0.007029476425583462   -0.0003000471645551283
-0.016402997176061432   -0.0007315059568948164   -0.0002537052634465179
-0.016367741254816503   -0.0070758358060670256   -0.00030692015107916456
-0.012573661127586332   -0.007024456974296271   -0.00021590525563849227
-0.016402997176061432   -0.0007315059568948164   -0.0002537052634465179
-0.012626528681122106   -0.0007408980127170266   -0.0001630753654786071
-0.01259838615712493   -0.0007880107703561283   -0.00016550120263984092
-0.012573661127586332   -0.007024456974296271   -0.00021590525563849227
-0.016402997176061432   -0.0007315059568948164   -0.0002537052634465179
-0.01259838615712493   -0.0007880107703561283   -0.00016550120263984092
-0.016367741254816503   -0.0070758358060670256   -0.00030692015107916456
-0.012573661127586332   -0.007024456974296271   -0.00021590525563849227
-0.012626528681122106   -0.0007408980127170266   -0.0001630753654786071
-0.01640230212560441   -0.007029476425583462   -0.0003000471645551283
-0.01260960089520414   -0.006972301515726523   -0.00020055705644355667
-0.012626528681122106   -0.0007408980127170266   -0.0001630753654786071
-0.016402997176061432   -0.0007315059568948164   -0.0002537052634465179
-0.01640230212560441   -0.007029476425583462   -0.0003000471645551283
-0.016427808144594724   -0.0006803990763816033   -0.00025759802514701923
-0.01260960089520414   -0.006972301515726523   -0.00020055705644355667
-0.016433265749710553   -0.006979269050412229   -0.0002919891271957783
-0.016427808144594724   -0.0006803990763816033   -0.00025759802514701923
-0.01640230212560441   -0.007029476425583462   -0.0003000471645551283
-0.01260960089520414   -0.006972301515726523   -0.00020055705644355667
-0.016427808144594724   -0.0006803990763816033   -0.00025759802514701923
-0.012655882045599427   -0.0006882951960621882   -0.000161300565475287
-0.012626528681122106   -0.0007408980127170266   -0.0001630753654786071
-0.01260960089520414   -0.006972301515726523   -0.00020055705644355667
-0.016427808144594724   -0.0006803990763816033   -0.00025759802514701923
-0.012626528681122106   -0.0007408980127170266   -0.0001630753654786071
-0.01640230212560441   -0.007029476425583462   -0.0003000471645551283
-0.01260960089520414   -0.006972301515726523   -0.00020055705644355667
-0.012655882045599427   -0.0006882951960621882   -0.000161300565475287
-0.016433265749710553   -0.006979269050412229   -0.0002919891271957783
-0.012642160618969946   -0.006916741554832153   -0.00018471084800946247
-0.012655882045599427   -0.0006882951960621882   -0.000161300565475287
-0.016427808144594724   -0.0006803990763816033   -0.00025759802514701923
-0.016433265749710553   -0.006979269050412229   -0.0002919891271957783
-0.01644614512458934   -0.0006246804644787142   -0.00026171083208478705
-0.012642160618969946   -0.006916741554832153   -0.00018471084800946247
-0.016459190086471658   -0.006926120121151608   -0.00028442715133932526
-0.01644614512458934   -0.0006246804644787142   -0.00026171083208478705
-0.016433265749710553   -0.006979269050412229   -0.0002919891271957783
-0.012642160618969946   -0.006916741554832153   -0.00018471084800946247
-0.01644614512458934   -0.0006246804644787142   -0.00026171083208478705
-0.012678353382789696   -0.0006311733449004   -0.00016029349054448824
-0.012655882045599427   -0.0006882951960621882   -0.000161300565475287
-0.012642160618969946   -0.006916741554832153   -0.00018471084800946247
-0.01644614512458934   -0.0006246804644787142   -0.00026171083208478705
-0.012655882045599427   -0.0006882951960621882   -0.000161300565475287
-0.016433265749710553   -0.006979269050412229   -0.0002919891271957783
              </DataArray>   
          </PointData>  
       </Piece>  
   </UnstructuredGrid> 
</VTKFile> 
