<?xml version="1.0"?> 
<VTKFile type="UnstructuredGrid"> 
   <UnstructuredGrid> 
      <Piece NumberOfPoints="6000"  NumberOfCells="1500">  
          <Points>  
             <DataArray type="Float64" NumberOfComponents="3" format="ascii">   
-500.0   0.0   0.0
-450.0   0.0   0.0
-500.0   30.0   0.0
-500.0   0.0   16.666666666666668
-450.0   0.0   0.0
-450.0   30.0   0.0
-500.0   30.0   0.0
-450.0   30.0   16.666666666666668
-500.0   0.0   16.666666666666668
-500.0   30.0   16.666666666666668
-450.0   30.0   16.666666666666668
-500.0   30.0   0.0
-500.0   0.0   16.666666666666668
-450.0   30.0   16.666666666666668
-450.0   0.0   16.666666666666668
-450.0   0.0   0.0
-500.0   0.0   16.666666666666668
-450.0   30.0   16.666666666666668
-450.0   0.0   0.0
-500.0   30.0   0.0
-500.0   0.0   16.666666666666668
-450.0   0.0   16.666666666666668
-500.0   30.0   16.666666666666668
-500.0   0.0   33.333333333333336
-450.0   0.0   16.666666666666668
-450.0   30.0   16.666666666666668
-500.0   30.0   16.666666666666668
-450.0   30.0   33.333333333333336
-500.0   0.0   33.333333333333336
-500.0   30.0   33.333333333333336
-450.0   30.0   33.333333333333336
-500.0   30.0   16.666666666666668
-500.0   0.0   33.333333333333336
-450.0   30.0   33.333333333333336
-450.0   0.0   33.333333333333336
-450.0   0.0   16.666666666666668
-500.0   0.0   33.333333333333336
-450.0   30.0   33.333333333333336
-450.0   0.0   16.666666666666668
-500.0   30.0   16.666666666666668
-500.0   0.0   33.333333333333336
-450.0   0.0   33.333333333333336
-500.0   30.0   33.333333333333336
-500.0   0.0   50.0
-450.0   0.0   33.333333333333336
-450.0   30.0   33.333333333333336
-500.0   30.0   33.333333333333336
-450.0   30.0   50.0
-500.0   0.0   50.0
-500.0   30.0   50.0
-450.0   30.0   50.0
-500.0   30.0   33.333333333333336
-500.0   0.0   50.0
-450.0   30.0   50.0
-450.0   0.0   50.0
-450.0   0.0   33.333333333333336
-500.0   0.0   50.0
-450.0   30.0   50.0
-450.0   0.0   33.333333333333336
-500.0   30.0   33.333333333333336
-500.0   30.0   0.0
-450.0   30.0   0.0
-500.0   60.0   0.0
-500.0   30.0   16.666666666666668
-450.0   30.0   0.0
-450.0   60.0   0.0
-500.0   60.0   0.0
-450.0   60.0   16.666666666666668
-500.0   30.0   16.666666666666668
-500.0   60.0   16.666666666666668
-450.0   60.0   16.666666666666668
-500.0   60.0   0.0
-500.0   30.0   16.666666666666668
-450.0   60.0   16.666666666666668
-450.0   30.0   16.666666666666668
-450.0   30.0   0.0
-500.0   30.0   16.666666666666668
-450.0   60.0   16.666666666666668
-450.0   30.0   0.0
-500.0   60.0   0.0
-500.0   30.0   16.666666666666668
-450.0   30.0   16.666666666666668
-500.0   60.0   16.666666666666668
-500.0   30.0   33.333333333333336
-450.0   30.0   16.666666666666668
-450.0   60.0   16.666666666666668
-500.0   60.0   16.666666666666668
-450.0   60.0   33.333333333333336
-500.0   30.0   33.333333333333336
-500.0   60.0   33.333333333333336
-450.0   60.0   33.333333333333336
-500.0   60.0   16.666666666666668
-500.0   30.0   33.333333333333336
-450.0   60.0   33.333333333333336
-450.0   30.0   33.333333333333336
-450.0   30.0   16.666666666666668
-500.0   30.0   33.333333333333336
-450.0   60.0   33.333333333333336
-450.0   30.0   16.666666666666668
-500.0   60.0   16.666666666666668
-500.0   30.0   33.333333333333336
-450.0   30.0   33.333333333333336
-500.0   60.0   33.333333333333336
-500.0   30.0   50.0
-450.0   30.0   33.333333333333336
-450.0   60.0   33.333333333333336
-500.0   60.0   33.333333333333336
-450.0   60.0   50.0
-500.0   30.0   50.0
-500.0   60.0   50.0
-450.0   60.0   50.0
-500.0   60.0   33.333333333333336
-500.0   30.0   50.0
-450.0   60.0   50.0
-450.0   30.0   50.0
-450.0   30.0   33.333333333333336
-500.0   30.0   50.0
-450.0   60.0   50.0
-450.0   30.0   33.333333333333336
-500.0   60.0   33.333333333333336
-500.0   60.0   0.0
-450.0   60.0   0.0
-500.0   90.0   0.0
-500.0   60.0   16.666666666666668
-450.0   60.0   0.0
-450.0   90.0   0.0
-500.0   90.0   0.0
-450.0   90.0   16.666666666666668
-500.0   60.0   16.666666666666668
-500.0   90.0   16.666666666666668
-450.0   90.0   16.666666666666668
-500.0   90.0   0.0
-500.0   60.0   16.666666666666668
-450.0   90.0   16.666666666666668
-450.0   60.0   16.666666666666668
-450.0   60.0   0.0
-500.0   60.0   16.666666666666668
-450.0   90.0   16.666666666666668
-450.0   60.0   0.0
-500.0   90.0   0.0
-500.0   60.0   16.666666666666668
-450.0   60.0   16.666666666666668
-500.0   90.0   16.666666666666668
-500.0   60.0   33.333333333333336
-450.0   60.0   16.666666666666668
-450.0   90.0   16.666666666666668
-500.0   90.0   16.666666666666668
-450.0   90.0   33.333333333333336
-500.0   60.0   33.333333333333336
-500.0   90.0   33.333333333333336
-450.0   90.0   33.333333333333336
-500.0   90.0   16.666666666666668
-500.0   60.0   33.333333333333336
-450.0   90.0   33.333333333333336
-450.0   60.0   33.333333333333336
-450.0   60.0   16.666666666666668
-500.0   60.0   33.333333333333336
-450.0   90.0   33.333333333333336
-450.0   60.0   16.666666666666668
-500.0   90.0   16.666666666666668
-500.0   60.0   33.333333333333336
-450.0   60.0   33.333333333333336
-500.0   90.0   33.333333333333336
-500.0   60.0   50.0
-450.0   60.0   33.333333333333336
-450.0   90.0   33.333333333333336
-500.0   90.0   33.333333333333336
-450.0   90.0   50.0
-500.0   60.0   50.0
-500.0   90.0   50.0
-450.0   90.0   50.0
-500.0   90.0   33.333333333333336
-500.0   60.0   50.0
-450.0   90.0   50.0
-450.0   60.0   50.0
-450.0   60.0   33.333333333333336
-500.0   60.0   50.0
-450.0   90.0   50.0
-450.0   60.0   33.333333333333336
-500.0   90.0   33.333333333333336
-500.0   90.0   0.0
-450.0   90.0   0.0
-500.0   120.0   0.0
-500.0   90.0   16.666666666666668
-450.0   90.0   0.0
-450.0   120.0   0.0
-500.0   120.0   0.0
-450.0   120.0   16.666666666666668
-500.0   90.0   16.666666666666668
-500.0   120.0   16.666666666666668
-450.0   120.0   16.666666666666668
-500.0   120.0   0.0
-500.0   90.0   16.666666666666668
-450.0   120.0   16.666666666666668
-450.0   90.0   16.666666666666668
-450.0   90.0   0.0
-500.0   90.0   16.666666666666668
-450.0   120.0   16.666666666666668
-450.0   90.0   0.0
-500.0   120.0   0.0
-500.0   90.0   16.666666666666668
-450.0   90.0   16.666666666666668
-500.0   120.0   16.666666666666668
-500.0   90.0   33.333333333333336
-450.0   90.0   16.666666666666668
-450.0   120.0   16.666666666666668
-500.0   120.0   16.666666666666668
-450.0   120.0   33.333333333333336
-500.0   90.0   33.333333333333336
-500.0   120.0   33.333333333333336
-450.0   120.0   33.333333333333336
-500.0   120.0   16.666666666666668
-500.0   90.0   33.333333333333336
-450.0   120.0   33.333333333333336
-450.0   90.0   33.333333333333336
-450.0   90.0   16.666666666666668
-500.0   90.0   33.333333333333336
-450.0   120.0   33.333333333333336
-450.0   90.0   16.666666666666668
-500.0   120.0   16.666666666666668
-500.0   90.0   33.333333333333336
-450.0   90.0   33.333333333333336
-500.0   120.0   33.333333333333336
-500.0   90.0   50.0
-450.0   90.0   33.333333333333336
-450.0   120.0   33.333333333333336
-500.0   120.0   33.333333333333336
-450.0   120.0   50.0
-500.0   90.0   50.0
-500.0   120.0   50.0
-450.0   120.0   50.0
-500.0   120.0   33.333333333333336
-500.0   90.0   50.0
-450.0   120.0   50.0
-450.0   90.0   50.0
-450.0   90.0   33.333333333333336
-500.0   90.0   50.0
-450.0   120.0   50.0
-450.0   90.0   33.333333333333336
-500.0   120.0   33.333333333333336
-500.0   120.0   0.0
-450.0   120.0   0.0
-500.0   150.0   0.0
-500.0   120.0   16.666666666666668
-450.0   120.0   0.0
-450.0   150.0   0.0
-500.0   150.0   0.0
-450.0   150.0   16.666666666666668
-500.0   120.0   16.666666666666668
-500.0   150.0   16.666666666666668
-450.0   150.0   16.666666666666668
-500.0   150.0   0.0
-500.0   120.0   16.666666666666668
-450.0   150.0   16.666666666666668
-450.0   120.0   16.666666666666668
-450.0   120.0   0.0
-500.0   120.0   16.666666666666668
-450.0   150.0   16.666666666666668
-450.0   120.0   0.0
-500.0   150.0   0.0
-500.0   120.0   16.666666666666668
-450.0   120.0   16.666666666666668
-500.0   150.0   16.666666666666668
-500.0   120.0   33.333333333333336
-450.0   120.0   16.666666666666668
-450.0   150.0   16.666666666666668
-500.0   150.0   16.666666666666668
-450.0   150.0   33.333333333333336
-500.0   120.0   33.333333333333336
-500.0   150.0   33.333333333333336
-450.0   150.0   33.333333333333336
-500.0   150.0   16.666666666666668
-500.0   120.0   33.333333333333336
-450.0   150.0   33.333333333333336
-450.0   120.0   33.333333333333336
-450.0   120.0   16.666666666666668
-500.0   120.0   33.333333333333336
-450.0   150.0   33.333333333333336
-450.0   120.0   16.666666666666668
-500.0   150.0   16.666666666666668
-500.0   120.0   33.333333333333336
-450.0   120.0   33.333333333333336
-500.0   150.0   33.333333333333336
-500.0   120.0   50.0
-450.0   120.0   33.333333333333336
-450.0   150.0   33.333333333333336
-500.0   150.0   33.333333333333336
-450.0   150.0   50.0
-500.0   120.0   50.0
-500.0   150.0   50.0
-450.0   150.0   50.0
-500.0   150.0   33.333333333333336
-500.0   120.0   50.0
-450.0   150.0   50.0
-450.0   120.0   50.0
-450.0   120.0   33.333333333333336
-500.0   120.0   50.0
-450.0   150.0   50.0
-450.0   120.0   33.333333333333336
-500.0   150.0   33.333333333333336
-450.0   0.0   0.0
-400.0   0.0   0.0
-450.0   30.0   0.0
-450.0   0.0   16.666666666666668
-400.0   0.0   0.0
-400.0   30.0   0.0
-450.0   30.0   0.0
-400.0   30.0   16.666666666666668
-450.0   0.0   16.666666666666668
-450.0   30.0   16.666666666666668
-400.0   30.0   16.666666666666668
-450.0   30.0   0.0
-450.0   0.0   16.666666666666668
-400.0   30.0   16.666666666666668
-400.0   0.0   16.666666666666668
-400.0   0.0   0.0
-450.0   0.0   16.666666666666668
-400.0   30.0   16.666666666666668
-400.0   0.0   0.0
-450.0   30.0   0.0
-450.0   0.0   16.666666666666668
-400.0   0.0   16.666666666666668
-450.0   30.0   16.666666666666668
-450.0   0.0   33.333333333333336
-400.0   0.0   16.666666666666668
-400.0   30.0   16.666666666666668
-450.0   30.0   16.666666666666668
-400.0   30.0   33.333333333333336
-450.0   0.0   33.333333333333336
-450.0   30.0   33.333333333333336
-400.0   30.0   33.333333333333336
-450.0   30.0   16.666666666666668
-450.0   0.0   33.333333333333336
-400.0   30.0   33.333333333333336
-400.0   0.0   33.333333333333336
-400.0   0.0   16.666666666666668
-450.0   0.0   33.333333333333336
-400.0   30.0   33.333333333333336
-400.0   0.0   16.666666666666668
-450.0   30.0   16.666666666666668
-450.0   0.0   33.333333333333336
-400.0   0.0   33.333333333333336
-450.0   30.0   33.333333333333336
-450.0   0.0   50.0
-400.0   0.0   33.333333333333336
-400.0   30.0   33.333333333333336
-450.0   30.0   33.333333333333336
-400.0   30.0   50.0
-450.0   0.0   50.0
-450.0   30.0   50.0
-400.0   30.0   50.0
-450.0   30.0   33.333333333333336
-450.0   0.0   50.0
-400.0   30.0   50.0
-400.0   0.0   50.0
-400.0   0.0   33.333333333333336
-450.0   0.0   50.0
-400.0   30.0   50.0
-400.0   0.0   33.333333333333336
-450.0   30.0   33.333333333333336
-450.0   30.0   0.0
-400.0   30.0   0.0
-450.0   60.0   0.0
-450.0   30.0   16.666666666666668
-400.0   30.0   0.0
-400.0   60.0   0.0
-450.0   60.0   0.0
-400.0   60.0   16.666666666666668
-450.0   30.0   16.666666666666668
-450.0   60.0   16.666666666666668
-400.0   60.0   16.666666666666668
-450.0   60.0   0.0
-450.0   30.0   16.666666666666668
-400.0   60.0   16.666666666666668
-400.0   30.0   16.666666666666668
-400.0   30.0   0.0
-450.0   30.0   16.666666666666668
-400.0   60.0   16.666666666666668
-400.0   30.0   0.0
-450.0   60.0   0.0
-450.0   30.0   16.666666666666668
-400.0   30.0   16.666666666666668
-450.0   60.0   16.666666666666668
-450.0   30.0   33.333333333333336
-400.0   30.0   16.666666666666668
-400.0   60.0   16.666666666666668
-450.0   60.0   16.666666666666668
-400.0   60.0   33.333333333333336
-450.0   30.0   33.333333333333336
-450.0   60.0   33.333333333333336
-400.0   60.0   33.333333333333336
-450.0   60.0   16.666666666666668
-450.0   30.0   33.333333333333336
-400.0   60.0   33.333333333333336
-400.0   30.0   33.333333333333336
-400.0   30.0   16.666666666666668
-450.0   30.0   33.333333333333336
-400.0   60.0   33.333333333333336
-400.0   30.0   16.666666666666668
-450.0   60.0   16.666666666666668
-450.0   30.0   33.333333333333336
-400.0   30.0   33.333333333333336
-450.0   60.0   33.333333333333336
-450.0   30.0   50.0
-400.0   30.0   33.333333333333336
-400.0   60.0   33.333333333333336
-450.0   60.0   33.333333333333336
-400.0   60.0   50.0
-450.0   30.0   50.0
-450.0   60.0   50.0
-400.0   60.0   50.0
-450.0   60.0   33.333333333333336
-450.0   30.0   50.0
-400.0   60.0   50.0
-400.0   30.0   50.0
-400.0   30.0   33.333333333333336
-450.0   30.0   50.0
-400.0   60.0   50.0
-400.0   30.0   33.333333333333336
-450.0   60.0   33.333333333333336
-450.0   60.0   0.0
-400.0   60.0   0.0
-450.0   90.0   0.0
-450.0   60.0   16.666666666666668
-400.0   60.0   0.0
-400.0   90.0   0.0
-450.0   90.0   0.0
-400.0   90.0   16.666666666666668
-450.0   60.0   16.666666666666668
-450.0   90.0   16.666666666666668
-400.0   90.0   16.666666666666668
-450.0   90.0   0.0
-450.0   60.0   16.666666666666668
-400.0   90.0   16.666666666666668
-400.0   60.0   16.666666666666668
-400.0   60.0   0.0
-450.0   60.0   16.666666666666668
-400.0   90.0   16.666666666666668
-400.0   60.0   0.0
-450.0   90.0   0.0
-450.0   60.0   16.666666666666668
-400.0   60.0   16.666666666666668
-450.0   90.0   16.666666666666668
-450.0   60.0   33.333333333333336
-400.0   60.0   16.666666666666668
-400.0   90.0   16.666666666666668
-450.0   90.0   16.666666666666668
-400.0   90.0   33.333333333333336
-450.0   60.0   33.333333333333336
-450.0   90.0   33.333333333333336
-400.0   90.0   33.333333333333336
-450.0   90.0   16.666666666666668
-450.0   60.0   33.333333333333336
-400.0   90.0   33.333333333333336
-400.0   60.0   33.333333333333336
-400.0   60.0   16.666666666666668
-450.0   60.0   33.333333333333336
-400.0   90.0   33.333333333333336
-400.0   60.0   16.666666666666668
-450.0   90.0   16.666666666666668
-450.0   60.0   33.333333333333336
-400.0   60.0   33.333333333333336
-450.0   90.0   33.333333333333336
-450.0   60.0   50.0
-400.0   60.0   33.333333333333336
-400.0   90.0   33.333333333333336
-450.0   90.0   33.333333333333336
-400.0   90.0   50.0
-450.0   60.0   50.0
-450.0   90.0   50.0
-400.0   90.0   50.0
-450.0   90.0   33.333333333333336
-450.0   60.0   50.0
-400.0   90.0   50.0
-400.0   60.0   50.0
-400.0   60.0   33.333333333333336
-450.0   60.0   50.0
-400.0   90.0   50.0
-400.0   60.0   33.333333333333336
-450.0   90.0   33.333333333333336
-450.0   90.0   0.0
-400.0   90.0   0.0
-450.0   120.0   0.0
-450.0   90.0   16.666666666666668
-400.0   90.0   0.0
-400.0   120.0   0.0
-450.0   120.0   0.0
-400.0   120.0   16.666666666666668
-450.0   90.0   16.666666666666668
-450.0   120.0   16.666666666666668
-400.0   120.0   16.666666666666668
-450.0   120.0   0.0
-450.0   90.0   16.666666666666668
-400.0   120.0   16.666666666666668
-400.0   90.0   16.666666666666668
-400.0   90.0   0.0
-450.0   90.0   16.666666666666668
-400.0   120.0   16.666666666666668
-400.0   90.0   0.0
-450.0   120.0   0.0
-450.0   90.0   16.666666666666668
-400.0   90.0   16.666666666666668
-450.0   120.0   16.666666666666668
-450.0   90.0   33.333333333333336
-400.0   90.0   16.666666666666668
-400.0   120.0   16.666666666666668
-450.0   120.0   16.666666666666668
-400.0   120.0   33.333333333333336
-450.0   90.0   33.333333333333336
-450.0   120.0   33.333333333333336
-400.0   120.0   33.333333333333336
-450.0   120.0   16.666666666666668
-450.0   90.0   33.333333333333336
-400.0   120.0   33.333333333333336
-400.0   90.0   33.333333333333336
-400.0   90.0   16.666666666666668
-450.0   90.0   33.333333333333336
-400.0   120.0   33.333333333333336
-400.0   90.0   16.666666666666668
-450.0   120.0   16.666666666666668
-450.0   90.0   33.333333333333336
-400.0   90.0   33.333333333333336
-450.0   120.0   33.333333333333336
-450.0   90.0   50.0
-400.0   90.0   33.333333333333336
-400.0   120.0   33.333333333333336
-450.0   120.0   33.333333333333336
-400.0   120.0   50.0
-450.0   90.0   50.0
-450.0   120.0   50.0
-400.0   120.0   50.0
-450.0   120.0   33.333333333333336
-450.0   90.0   50.0
-400.0   120.0   50.0
-400.0   90.0   50.0
-400.0   90.0   33.333333333333336
-450.0   90.0   50.0
-400.0   120.0   50.0
-400.0   90.0   33.333333333333336
-450.0   120.0   33.333333333333336
-450.0   120.0   0.0
-400.0   120.0   0.0
-450.0   150.0   0.0
-450.0   120.0   16.666666666666668
-400.0   120.0   0.0
-400.0   150.0   0.0
-450.0   150.0   0.0
-400.0   150.0   16.666666666666668
-450.0   120.0   16.666666666666668
-450.0   150.0   16.666666666666668
-400.0   150.0   16.666666666666668
-450.0   150.0   0.0
-450.0   120.0   16.666666666666668
-400.0   150.0   16.666666666666668
-400.0   120.0   16.666666666666668
-400.0   120.0   0.0
-450.0   120.0   16.666666666666668
-400.0   150.0   16.666666666666668
-400.0   120.0   0.0
-450.0   150.0   0.0
-450.0   120.0   16.666666666666668
-400.0   120.0   16.666666666666668
-450.0   150.0   16.666666666666668
-450.0   120.0   33.333333333333336
-400.0   120.0   16.666666666666668
-400.0   150.0   16.666666666666668
-450.0   150.0   16.666666666666668
-400.0   150.0   33.333333333333336
-450.0   120.0   33.333333333333336
-450.0   150.0   33.333333333333336
-400.0   150.0   33.333333333333336
-450.0   150.0   16.666666666666668
-450.0   120.0   33.333333333333336
-400.0   150.0   33.333333333333336
-400.0   120.0   33.333333333333336
-400.0   120.0   16.666666666666668
-450.0   120.0   33.333333333333336
-400.0   150.0   33.333333333333336
-400.0   120.0   16.666666666666668
-450.0   150.0   16.666666666666668
-450.0   120.0   33.333333333333336
-400.0   120.0   33.333333333333336
-450.0   150.0   33.333333333333336
-450.0   120.0   50.0
-400.0   120.0   33.333333333333336
-400.0   150.0   33.333333333333336
-450.0   150.0   33.333333333333336
-400.0   150.0   50.0
-450.0   120.0   50.0
-450.0   150.0   50.0
-400.0   150.0   50.0
-450.0   150.0   33.333333333333336
-450.0   120.0   50.0
-400.0   150.0   50.0
-400.0   120.0   50.0
-400.0   120.0   33.333333333333336
-450.0   120.0   50.0
-400.0   150.0   50.0
-400.0   120.0   33.333333333333336
-450.0   150.0   33.333333333333336
-400.0   0.0   0.0
-350.0   0.0   0.0
-400.0   30.0   0.0
-400.0   0.0   16.666666666666668
-350.0   0.0   0.0
-350.0   30.0   0.0
-400.0   30.0   0.0
-350.0   30.0   16.666666666666668
-400.0   0.0   16.666666666666668
-400.0   30.0   16.666666666666668
-350.0   30.0   16.666666666666668
-400.0   30.0   0.0
-400.0   0.0   16.666666666666668
-350.0   30.0   16.666666666666668
-350.0   0.0   16.666666666666668
-350.0   0.0   0.0
-400.0   0.0   16.666666666666668
-350.0   30.0   16.666666666666668
-350.0   0.0   0.0
-400.0   30.0   0.0
-400.0   0.0   16.666666666666668
-350.0   0.0   16.666666666666668
-400.0   30.0   16.666666666666668
-400.0   0.0   33.333333333333336
-350.0   0.0   16.666666666666668
-350.0   30.0   16.666666666666668
-400.0   30.0   16.666666666666668
-350.0   30.0   33.333333333333336
-400.0   0.0   33.333333333333336
-400.0   30.0   33.333333333333336
-350.0   30.0   33.333333333333336
-400.0   30.0   16.666666666666668
-400.0   0.0   33.333333333333336
-350.0   30.0   33.333333333333336
-350.0   0.0   33.333333333333336
-350.0   0.0   16.666666666666668
-400.0   0.0   33.333333333333336
-350.0   30.0   33.333333333333336
-350.0   0.0   16.666666666666668
-400.0   30.0   16.666666666666668
-400.0   0.0   33.333333333333336
-350.0   0.0   33.333333333333336
-400.0   30.0   33.333333333333336
-400.0   0.0   50.0
-350.0   0.0   33.333333333333336
-350.0   30.0   33.333333333333336
-400.0   30.0   33.333333333333336
-350.0   30.0   50.0
-400.0   0.0   50.0
-400.0   30.0   50.0
-350.0   30.0   50.0
-400.0   30.0   33.333333333333336
-400.0   0.0   50.0
-350.0   30.0   50.0
-350.0   0.0   50.0
-350.0   0.0   33.333333333333336
-400.0   0.0   50.0
-350.0   30.0   50.0
-350.0   0.0   33.333333333333336
-400.0   30.0   33.333333333333336
-400.0   30.0   0.0
-350.0   30.0   0.0
-400.0   60.0   0.0
-400.0   30.0   16.666666666666668
-350.0   30.0   0.0
-350.0   60.0   0.0
-400.0   60.0   0.0
-350.0   60.0   16.666666666666668
-400.0   30.0   16.666666666666668
-400.0   60.0   16.666666666666668
-350.0   60.0   16.666666666666668
-400.0   60.0   0.0
-400.0   30.0   16.666666666666668
-350.0   60.0   16.666666666666668
-350.0   30.0   16.666666666666668
-350.0   30.0   0.0
-400.0   30.0   16.666666666666668
-350.0   60.0   16.666666666666668
-350.0   30.0   0.0
-400.0   60.0   0.0
-400.0   30.0   16.666666666666668
-350.0   30.0   16.666666666666668
-400.0   60.0   16.666666666666668
-400.0   30.0   33.333333333333336
-350.0   30.0   16.666666666666668
-350.0   60.0   16.666666666666668
-400.0   60.0   16.666666666666668
-350.0   60.0   33.333333333333336
-400.0   30.0   33.333333333333336
-400.0   60.0   33.333333333333336
-350.0   60.0   33.333333333333336
-400.0   60.0   16.666666666666668
-400.0   30.0   33.333333333333336
-350.0   60.0   33.333333333333336
-350.0   30.0   33.333333333333336
-350.0   30.0   16.666666666666668
-400.0   30.0   33.333333333333336
-350.0   60.0   33.333333333333336
-350.0   30.0   16.666666666666668
-400.0   60.0   16.666666666666668
-400.0   30.0   33.333333333333336
-350.0   30.0   33.333333333333336
-400.0   60.0   33.333333333333336
-400.0   30.0   50.0
-350.0   30.0   33.333333333333336
-350.0   60.0   33.333333333333336
-400.0   60.0   33.333333333333336
-350.0   60.0   50.0
-400.0   30.0   50.0
-400.0   60.0   50.0
-350.0   60.0   50.0
-400.0   60.0   33.333333333333336
-400.0   30.0   50.0
-350.0   60.0   50.0
-350.0   30.0   50.0
-350.0   30.0   33.333333333333336
-400.0   30.0   50.0
-350.0   60.0   50.0
-350.0   30.0   33.333333333333336
-400.0   60.0   33.333333333333336
-400.0   60.0   0.0
-350.0   60.0   0.0
-400.0   90.0   0.0
-400.0   60.0   16.666666666666668
-350.0   60.0   0.0
-350.0   90.0   0.0
-400.0   90.0   0.0
-350.0   90.0   16.666666666666668
-400.0   60.0   16.666666666666668
-400.0   90.0   16.666666666666668
-350.0   90.0   16.666666666666668
-400.0   90.0   0.0
-400.0   60.0   16.666666666666668
-350.0   90.0   16.666666666666668
-350.0   60.0   16.666666666666668
-350.0   60.0   0.0
-400.0   60.0   16.666666666666668
-350.0   90.0   16.666666666666668
-350.0   60.0   0.0
-400.0   90.0   0.0
-400.0   60.0   16.666666666666668
-350.0   60.0   16.666666666666668
-400.0   90.0   16.666666666666668
-400.0   60.0   33.333333333333336
-350.0   60.0   16.666666666666668
-350.0   90.0   16.666666666666668
-400.0   90.0   16.666666666666668
-350.0   90.0   33.333333333333336
-400.0   60.0   33.333333333333336
-400.0   90.0   33.333333333333336
-350.0   90.0   33.333333333333336
-400.0   90.0   16.666666666666668
-400.0   60.0   33.333333333333336
-350.0   90.0   33.333333333333336
-350.0   60.0   33.333333333333336
-350.0   60.0   16.666666666666668
-400.0   60.0   33.333333333333336
-350.0   90.0   33.333333333333336
-350.0   60.0   16.666666666666668
-400.0   90.0   16.666666666666668
-400.0   60.0   33.333333333333336
-350.0   60.0   33.333333333333336
-400.0   90.0   33.333333333333336
-400.0   60.0   50.0
-350.0   60.0   33.333333333333336
-350.0   90.0   33.333333333333336
-400.0   90.0   33.333333333333336
-350.0   90.0   50.0
-400.0   60.0   50.0
-400.0   90.0   50.0
-350.0   90.0   50.0
-400.0   90.0   33.333333333333336
-400.0   60.0   50.0
-350.0   90.0   50.0
-350.0   60.0   50.0
-350.0   60.0   33.333333333333336
-400.0   60.0   50.0
-350.0   90.0   50.0
-350.0   60.0   33.333333333333336
-400.0   90.0   33.333333333333336
-400.0   90.0   0.0
-350.0   90.0   0.0
-400.0   120.0   0.0
-400.0   90.0   16.666666666666668
-350.0   90.0   0.0
-350.0   120.0   0.0
-400.0   120.0   0.0
-350.0   120.0   16.666666666666668
-400.0   90.0   16.666666666666668
-400.0   120.0   16.666666666666668
-350.0   120.0   16.666666666666668
-400.0   120.0   0.0
-400.0   90.0   16.666666666666668
-350.0   120.0   16.666666666666668
-350.0   90.0   16.666666666666668
-350.0   90.0   0.0
-400.0   90.0   16.666666666666668
-350.0   120.0   16.666666666666668
-350.0   90.0   0.0
-400.0   120.0   0.0
-400.0   90.0   16.666666666666668
-350.0   90.0   16.666666666666668
-400.0   120.0   16.666666666666668
-400.0   90.0   33.333333333333336
-350.0   90.0   16.666666666666668
-350.0   120.0   16.666666666666668
-400.0   120.0   16.666666666666668
-350.0   120.0   33.333333333333336
-400.0   90.0   33.333333333333336
-400.0   120.0   33.333333333333336
-350.0   120.0   33.333333333333336
-400.0   120.0   16.666666666666668
-400.0   90.0   33.333333333333336
-350.0   120.0   33.333333333333336
-350.0   90.0   33.333333333333336
-350.0   90.0   16.666666666666668
-400.0   90.0   33.333333333333336
-350.0   120.0   33.333333333333336
-350.0   90.0   16.666666666666668
-400.0   120.0   16.666666666666668
-400.0   90.0   33.333333333333336
-350.0   90.0   33.333333333333336
-400.0   120.0   33.333333333333336
-400.0   90.0   50.0
-350.0   90.0   33.333333333333336
-350.0   120.0   33.333333333333336
-400.0   120.0   33.333333333333336
-350.0   120.0   50.0
-400.0   90.0   50.0
-400.0   120.0   50.0
-350.0   120.0   50.0
-400.0   120.0   33.333333333333336
-400.0   90.0   50.0
-350.0   120.0   50.0
-350.0   90.0   50.0
-350.0   90.0   33.333333333333336
-400.0   90.0   50.0
-350.0   120.0   50.0
-350.0   90.0   33.333333333333336
-400.0   120.0   33.333333333333336
-400.0   120.0   0.0
-350.0   120.0   0.0
-400.0   150.0   0.0
-400.0   120.0   16.666666666666668
-350.0   120.0   0.0
-350.0   150.0   0.0
-400.0   150.0   0.0
-350.0   150.0   16.666666666666668
-400.0   120.0   16.666666666666668
-400.0   150.0   16.666666666666668
-350.0   150.0   16.666666666666668
-400.0   150.0   0.0
-400.0   120.0   16.666666666666668
-350.0   150.0   16.666666666666668
-350.0   120.0   16.666666666666668
-350.0   120.0   0.0
-400.0   120.0   16.666666666666668
-350.0   150.0   16.666666666666668
-350.0   120.0   0.0
-400.0   150.0   0.0
-400.0   120.0   16.666666666666668
-350.0   120.0   16.666666666666668
-400.0   150.0   16.666666666666668
-400.0   120.0   33.333333333333336
-350.0   120.0   16.666666666666668
-350.0   150.0   16.666666666666668
-400.0   150.0   16.666666666666668
-350.0   150.0   33.333333333333336
-400.0   120.0   33.333333333333336
-400.0   150.0   33.333333333333336
-350.0   150.0   33.333333333333336
-400.0   150.0   16.666666666666668
-400.0   120.0   33.333333333333336
-350.0   150.0   33.333333333333336
-350.0   120.0   33.333333333333336
-350.0   120.0   16.666666666666668
-400.0   120.0   33.333333333333336
-350.0   150.0   33.333333333333336
-350.0   120.0   16.666666666666668
-400.0   150.0   16.666666666666668
-400.0   120.0   33.333333333333336
-350.0   120.0   33.333333333333336
-400.0   150.0   33.333333333333336
-400.0   120.0   50.0
-350.0   120.0   33.333333333333336
-350.0   150.0   33.333333333333336
-400.0   150.0   33.333333333333336
-350.0   150.0   50.0
-400.0   120.0   50.0
-400.0   150.0   50.0
-350.0   150.0   50.0
-400.0   150.0   33.333333333333336
-400.0   120.0   50.0
-350.0   150.0   50.0
-350.0   120.0   50.0
-350.0   120.0   33.333333333333336
-400.0   120.0   50.0
-350.0   150.0   50.0
-350.0   120.0   33.333333333333336
-400.0   150.0   33.333333333333336
-350.0   0.0   0.0
-300.0   0.0   0.0
-350.0   30.0   0.0
-350.0   0.0   16.666666666666668
-300.0   0.0   0.0
-300.0   30.0   0.0
-350.0   30.0   0.0
-300.0   30.0   16.666666666666668
-350.0   0.0   16.666666666666668
-350.0   30.0   16.666666666666668
-300.0   30.0   16.666666666666668
-350.0   30.0   0.0
-350.0   0.0   16.666666666666668
-300.0   30.0   16.666666666666668
-300.0   0.0   16.666666666666668
-300.0   0.0   0.0
-350.0   0.0   16.666666666666668
-300.0   30.0   16.666666666666668
-300.0   0.0   0.0
-350.0   30.0   0.0
-350.0   0.0   16.666666666666668
-300.0   0.0   16.666666666666668
-350.0   30.0   16.666666666666668
-350.0   0.0   33.333333333333336
-300.0   0.0   16.666666666666668
-300.0   30.0   16.666666666666668
-350.0   30.0   16.666666666666668
-300.0   30.0   33.333333333333336
-350.0   0.0   33.333333333333336
-350.0   30.0   33.333333333333336
-300.0   30.0   33.333333333333336
-350.0   30.0   16.666666666666668
-350.0   0.0   33.333333333333336
-300.0   30.0   33.333333333333336
-300.0   0.0   33.333333333333336
-300.0   0.0   16.666666666666668
-350.0   0.0   33.333333333333336
-300.0   30.0   33.333333333333336
-300.0   0.0   16.666666666666668
-350.0   30.0   16.666666666666668
-350.0   0.0   33.333333333333336
-300.0   0.0   33.333333333333336
-350.0   30.0   33.333333333333336
-350.0   0.0   50.0
-300.0   0.0   33.333333333333336
-300.0   30.0   33.333333333333336
-350.0   30.0   33.333333333333336
-300.0   30.0   50.0
-350.0   0.0   50.0
-350.0   30.0   50.0
-300.0   30.0   50.0
-350.0   30.0   33.333333333333336
-350.0   0.0   50.0
-300.0   30.0   50.0
-300.0   0.0   50.0
-300.0   0.0   33.333333333333336
-350.0   0.0   50.0
-300.0   30.0   50.0
-300.0   0.0   33.333333333333336
-350.0   30.0   33.333333333333336
-350.0   30.0   0.0
-300.0   30.0   0.0
-350.0   60.0   0.0
-350.0   30.0   16.666666666666668
-300.0   30.0   0.0
-300.0   60.0   0.0
-350.0   60.0   0.0
-300.0   60.0   16.666666666666668
-350.0   30.0   16.666666666666668
-350.0   60.0   16.666666666666668
-300.0   60.0   16.666666666666668
-350.0   60.0   0.0
-350.0   30.0   16.666666666666668
-300.0   60.0   16.666666666666668
-300.0   30.0   16.666666666666668
-300.0   30.0   0.0
-350.0   30.0   16.666666666666668
-300.0   60.0   16.666666666666668
-300.0   30.0   0.0
-350.0   60.0   0.0
-350.0   30.0   16.666666666666668
-300.0   30.0   16.666666666666668
-350.0   60.0   16.666666666666668
-350.0   30.0   33.333333333333336
-300.0   30.0   16.666666666666668
-300.0   60.0   16.666666666666668
-350.0   60.0   16.666666666666668
-300.0   60.0   33.333333333333336
-350.0   30.0   33.333333333333336
-350.0   60.0   33.333333333333336
-300.0   60.0   33.333333333333336
-350.0   60.0   16.666666666666668
-350.0   30.0   33.333333333333336
-300.0   60.0   33.333333333333336
-300.0   30.0   33.333333333333336
-300.0   30.0   16.666666666666668
-350.0   30.0   33.333333333333336
-300.0   60.0   33.333333333333336
-300.0   30.0   16.666666666666668
-350.0   60.0   16.666666666666668
-350.0   30.0   33.333333333333336
-300.0   30.0   33.333333333333336
-350.0   60.0   33.333333333333336
-350.0   30.0   50.0
-300.0   30.0   33.333333333333336
-300.0   60.0   33.333333333333336
-350.0   60.0   33.333333333333336
-300.0   60.0   50.0
-350.0   30.0   50.0
-350.0   60.0   50.0
-300.0   60.0   50.0
-350.0   60.0   33.333333333333336
-350.0   30.0   50.0
-300.0   60.0   50.0
-300.0   30.0   50.0
-300.0   30.0   33.333333333333336
-350.0   30.0   50.0
-300.0   60.0   50.0
-300.0   30.0   33.333333333333336
-350.0   60.0   33.333333333333336
-350.0   60.0   0.0
-300.0   60.0   0.0
-350.0   90.0   0.0
-350.0   60.0   16.666666666666668
-300.0   60.0   0.0
-300.0   90.0   0.0
-350.0   90.0   0.0
-300.0   90.0   16.666666666666668
-350.0   60.0   16.666666666666668
-350.0   90.0   16.666666666666668
-300.0   90.0   16.666666666666668
-350.0   90.0   0.0
-350.0   60.0   16.666666666666668
-300.0   90.0   16.666666666666668
-300.0   60.0   16.666666666666668
-300.0   60.0   0.0
-350.0   60.0   16.666666666666668
-300.0   90.0   16.666666666666668
-300.0   60.0   0.0
-350.0   90.0   0.0
-350.0   60.0   16.666666666666668
-300.0   60.0   16.666666666666668
-350.0   90.0   16.666666666666668
-350.0   60.0   33.333333333333336
-300.0   60.0   16.666666666666668
-300.0   90.0   16.666666666666668
-350.0   90.0   16.666666666666668
-300.0   90.0   33.333333333333336
-350.0   60.0   33.333333333333336
-350.0   90.0   33.333333333333336
-300.0   90.0   33.333333333333336
-350.0   90.0   16.666666666666668
-350.0   60.0   33.333333333333336
-300.0   90.0   33.333333333333336
-300.0   60.0   33.333333333333336
-300.0   60.0   16.666666666666668
-350.0   60.0   33.333333333333336
-300.0   90.0   33.333333333333336
-300.0   60.0   16.666666666666668
-350.0   90.0   16.666666666666668
-350.0   60.0   33.333333333333336
-300.0   60.0   33.333333333333336
-350.0   90.0   33.333333333333336
-350.0   60.0   50.0
-300.0   60.0   33.333333333333336
-300.0   90.0   33.333333333333336
-350.0   90.0   33.333333333333336
-300.0   90.0   50.0
-350.0   60.0   50.0
-350.0   90.0   50.0
-300.0   90.0   50.0
-350.0   90.0   33.333333333333336
-350.0   60.0   50.0
-300.0   90.0   50.0
-300.0   60.0   50.0
-300.0   60.0   33.333333333333336
-350.0   60.0   50.0
-300.0   90.0   50.0
-300.0   60.0   33.333333333333336
-350.0   90.0   33.333333333333336
-350.0   90.0   0.0
-300.0   90.0   0.0
-350.0   120.0   0.0
-350.0   90.0   16.666666666666668
-300.0   90.0   0.0
-300.0   120.0   0.0
-350.0   120.0   0.0
-300.0   120.0   16.666666666666668
-350.0   90.0   16.666666666666668
-350.0   120.0   16.666666666666668
-300.0   120.0   16.666666666666668
-350.0   120.0   0.0
-350.0   90.0   16.666666666666668
-300.0   120.0   16.666666666666668
-300.0   90.0   16.666666666666668
-300.0   90.0   0.0
-350.0   90.0   16.666666666666668
-300.0   120.0   16.666666666666668
-300.0   90.0   0.0
-350.0   120.0   0.0
-350.0   90.0   16.666666666666668
-300.0   90.0   16.666666666666668
-350.0   120.0   16.666666666666668
-350.0   90.0   33.333333333333336
-300.0   90.0   16.666666666666668
-300.0   120.0   16.666666666666668
-350.0   120.0   16.666666666666668
-300.0   120.0   33.333333333333336
-350.0   90.0   33.333333333333336
-350.0   120.0   33.333333333333336
-300.0   120.0   33.333333333333336
-350.0   120.0   16.666666666666668
-350.0   90.0   33.333333333333336
-300.0   120.0   33.333333333333336
-300.0   90.0   33.333333333333336
-300.0   90.0   16.666666666666668
-350.0   90.0   33.333333333333336
-300.0   120.0   33.333333333333336
-300.0   90.0   16.666666666666668
-350.0   120.0   16.666666666666668
-350.0   90.0   33.333333333333336
-300.0   90.0   33.333333333333336
-350.0   120.0   33.333333333333336
-350.0   90.0   50.0
-300.0   90.0   33.333333333333336
-300.0   120.0   33.333333333333336
-350.0   120.0   33.333333333333336
-300.0   120.0   50.0
-350.0   90.0   50.0
-350.0   120.0   50.0
-300.0   120.0   50.0
-350.0   120.0   33.333333333333336
-350.0   90.0   50.0
-300.0   120.0   50.0
-300.0   90.0   50.0
-300.0   90.0   33.333333333333336
-350.0   90.0   50.0
-300.0   120.0   50.0
-300.0   90.0   33.333333333333336
-350.0   120.0   33.333333333333336
-350.0   120.0   0.0
-300.0   120.0   0.0
-350.0   150.0   0.0
-350.0   120.0   16.666666666666668
-300.0   120.0   0.0
-300.0   150.0   0.0
-350.0   150.0   0.0
-300.0   150.0   16.666666666666668
-350.0   120.0   16.666666666666668
-350.0   150.0   16.666666666666668
-300.0   150.0   16.666666666666668
-350.0   150.0   0.0
-350.0   120.0   16.666666666666668
-300.0   150.0   16.666666666666668
-300.0   120.0   16.666666666666668
-300.0   120.0   0.0
-350.0   120.0   16.666666666666668
-300.0   150.0   16.666666666666668
-300.0   120.0   0.0
-350.0   150.0   0.0
-350.0   120.0   16.666666666666668
-300.0   120.0   16.666666666666668
-350.0   150.0   16.666666666666668
-350.0   120.0   33.333333333333336
-300.0   120.0   16.666666666666668
-300.0   150.0   16.666666666666668
-350.0   150.0   16.666666666666668
-300.0   150.0   33.333333333333336
-350.0   120.0   33.333333333333336
-350.0   150.0   33.333333333333336
-300.0   150.0   33.333333333333336
-350.0   150.0   16.666666666666668
-350.0   120.0   33.333333333333336
-300.0   150.0   33.333333333333336
-300.0   120.0   33.333333333333336
-300.0   120.0   16.666666666666668
-350.0   120.0   33.333333333333336
-300.0   150.0   33.333333333333336
-300.0   120.0   16.666666666666668
-350.0   150.0   16.666666666666668
-350.0   120.0   33.333333333333336
-300.0   120.0   33.333333333333336
-350.0   150.0   33.333333333333336
-350.0   120.0   50.0
-300.0   120.0   33.333333333333336
-300.0   150.0   33.333333333333336
-350.0   150.0   33.333333333333336
-300.0   150.0   50.0
-350.0   120.0   50.0
-350.0   150.0   50.0
-300.0   150.0   50.0
-350.0   150.0   33.333333333333336
-350.0   120.0   50.0
-300.0   150.0   50.0
-300.0   120.0   50.0
-300.0   120.0   33.333333333333336
-350.0   120.0   50.0
-300.0   150.0   50.0
-300.0   120.0   33.333333333333336
-350.0   150.0   33.333333333333336
-300.0   0.0   0.0
-250.0   0.0   0.0
-300.0   30.0   0.0
-300.0   0.0   16.666666666666668
-250.0   0.0   0.0
-250.0   30.0   0.0
-300.0   30.0   0.0
-250.0   30.0   16.666666666666668
-300.0   0.0   16.666666666666668
-300.0   30.0   16.666666666666668
-250.0   30.0   16.666666666666668
-300.0   30.0   0.0
-300.0   0.0   16.666666666666668
-250.0   30.0   16.666666666666668
-250.0   0.0   16.666666666666668
-250.0   0.0   0.0
-300.0   0.0   16.666666666666668
-250.0   30.0   16.666666666666668
-250.0   0.0   0.0
-300.0   30.0   0.0
-300.0   0.0   16.666666666666668
-250.0   0.0   16.666666666666668
-300.0   30.0   16.666666666666668
-300.0   0.0   33.333333333333336
-250.0   0.0   16.666666666666668
-250.0   30.0   16.666666666666668
-300.0   30.0   16.666666666666668
-250.0   30.0   33.333333333333336
-300.0   0.0   33.333333333333336
-300.0   30.0   33.333333333333336
-250.0   30.0   33.333333333333336
-300.0   30.0   16.666666666666668
-300.0   0.0   33.333333333333336
-250.0   30.0   33.333333333333336
-250.0   0.0   33.333333333333336
-250.0   0.0   16.666666666666668
-300.0   0.0   33.333333333333336
-250.0   30.0   33.333333333333336
-250.0   0.0   16.666666666666668
-300.0   30.0   16.666666666666668
-300.0   0.0   33.333333333333336
-250.0   0.0   33.333333333333336
-300.0   30.0   33.333333333333336
-300.0   0.0   50.0
-250.0   0.0   33.333333333333336
-250.0   30.0   33.333333333333336
-300.0   30.0   33.333333333333336
-250.0   30.0   50.0
-300.0   0.0   50.0
-300.0   30.0   50.0
-250.0   30.0   50.0
-300.0   30.0   33.333333333333336
-300.0   0.0   50.0
-250.0   30.0   50.0
-250.0   0.0   50.0
-250.0   0.0   33.333333333333336
-300.0   0.0   50.0
-250.0   30.0   50.0
-250.0   0.0   33.333333333333336
-300.0   30.0   33.333333333333336
-300.0   30.0   0.0
-250.0   30.0   0.0
-300.0   60.0   0.0
-300.0   30.0   16.666666666666668
-250.0   30.0   0.0
-250.0   60.0   0.0
-300.0   60.0   0.0
-250.0   60.0   16.666666666666668
-300.0   30.0   16.666666666666668
-300.0   60.0   16.666666666666668
-250.0   60.0   16.666666666666668
-300.0   60.0   0.0
-300.0   30.0   16.666666666666668
-250.0   60.0   16.666666666666668
-250.0   30.0   16.666666666666668
-250.0   30.0   0.0
-300.0   30.0   16.666666666666668
-250.0   60.0   16.666666666666668
-250.0   30.0   0.0
-300.0   60.0   0.0
-300.0   30.0   16.666666666666668
-250.0   30.0   16.666666666666668
-300.0   60.0   16.666666666666668
-300.0   30.0   33.333333333333336
-250.0   30.0   16.666666666666668
-250.0   60.0   16.666666666666668
-300.0   60.0   16.666666666666668
-250.0   60.0   33.333333333333336
-300.0   30.0   33.333333333333336
-300.0   60.0   33.333333333333336
-250.0   60.0   33.333333333333336
-300.0   60.0   16.666666666666668
-300.0   30.0   33.333333333333336
-250.0   60.0   33.333333333333336
-250.0   30.0   33.333333333333336
-250.0   30.0   16.666666666666668
-300.0   30.0   33.333333333333336
-250.0   60.0   33.333333333333336
-250.0   30.0   16.666666666666668
-300.0   60.0   16.666666666666668
-300.0   30.0   33.333333333333336
-250.0   30.0   33.333333333333336
-300.0   60.0   33.333333333333336
-300.0   30.0   50.0
-250.0   30.0   33.333333333333336
-250.0   60.0   33.333333333333336
-300.0   60.0   33.333333333333336
-250.0   60.0   50.0
-300.0   30.0   50.0
-300.0   60.0   50.0
-250.0   60.0   50.0
-300.0   60.0   33.333333333333336
-300.0   30.0   50.0
-250.0   60.0   50.0
-250.0   30.0   50.0
-250.0   30.0   33.333333333333336
-300.0   30.0   50.0
-250.0   60.0   50.0
-250.0   30.0   33.333333333333336
-300.0   60.0   33.333333333333336
-300.0   60.0   0.0
-250.0   60.0   0.0
-300.0   90.0   0.0
-300.0   60.0   16.666666666666668
-250.0   60.0   0.0
-250.0   90.0   0.0
-300.0   90.0   0.0
-250.0   90.0   16.666666666666668
-300.0   60.0   16.666666666666668
-300.0   90.0   16.666666666666668
-250.0   90.0   16.666666666666668
-300.0   90.0   0.0
-300.0   60.0   16.666666666666668
-250.0   90.0   16.666666666666668
-250.0   60.0   16.666666666666668
-250.0   60.0   0.0
-300.0   60.0   16.666666666666668
-250.0   90.0   16.666666666666668
-250.0   60.0   0.0
-300.0   90.0   0.0
-300.0   60.0   16.666666666666668
-250.0   60.0   16.666666666666668
-300.0   90.0   16.666666666666668
-300.0   60.0   33.333333333333336
-250.0   60.0   16.666666666666668
-250.0   90.0   16.666666666666668
-300.0   90.0   16.666666666666668
-250.0   90.0   33.333333333333336
-300.0   60.0   33.333333333333336
-300.0   90.0   33.333333333333336
-250.0   90.0   33.333333333333336
-300.0   90.0   16.666666666666668
-300.0   60.0   33.333333333333336
-250.0   90.0   33.333333333333336
-250.0   60.0   33.333333333333336
-250.0   60.0   16.666666666666668
-300.0   60.0   33.333333333333336
-250.0   90.0   33.333333333333336
-250.0   60.0   16.666666666666668
-300.0   90.0   16.666666666666668
-300.0   60.0   33.333333333333336
-250.0   60.0   33.333333333333336
-300.0   90.0   33.333333333333336
-300.0   60.0   50.0
-250.0   60.0   33.333333333333336
-250.0   90.0   33.333333333333336
-300.0   90.0   33.333333333333336
-250.0   90.0   50.0
-300.0   60.0   50.0
-300.0   90.0   50.0
-250.0   90.0   50.0
-300.0   90.0   33.333333333333336
-300.0   60.0   50.0
-250.0   90.0   50.0
-250.0   60.0   50.0
-250.0   60.0   33.333333333333336
-300.0   60.0   50.0
-250.0   90.0   50.0
-250.0   60.0   33.333333333333336
-300.0   90.0   33.333333333333336
-300.0   90.0   0.0
-250.0   90.0   0.0
-300.0   120.0   0.0
-300.0   90.0   16.666666666666668
-250.0   90.0   0.0
-250.0   120.0   0.0
-300.0   120.0   0.0
-250.0   120.0   16.666666666666668
-300.0   90.0   16.666666666666668
-300.0   120.0   16.666666666666668
-250.0   120.0   16.666666666666668
-300.0   120.0   0.0
-300.0   90.0   16.666666666666668
-250.0   120.0   16.666666666666668
-250.0   90.0   16.666666666666668
-250.0   90.0   0.0
-300.0   90.0   16.666666666666668
-250.0   120.0   16.666666666666668
-250.0   90.0   0.0
-300.0   120.0   0.0
-300.0   90.0   16.666666666666668
-250.0   90.0   16.666666666666668
-300.0   120.0   16.666666666666668
-300.0   90.0   33.333333333333336
-250.0   90.0   16.666666666666668
-250.0   120.0   16.666666666666668
-300.0   120.0   16.666666666666668
-250.0   120.0   33.333333333333336
-300.0   90.0   33.333333333333336
-300.0   120.0   33.333333333333336
-250.0   120.0   33.333333333333336
-300.0   120.0   16.666666666666668
-300.0   90.0   33.333333333333336
-250.0   120.0   33.333333333333336
-250.0   90.0   33.333333333333336
-250.0   90.0   16.666666666666668
-300.0   90.0   33.333333333333336
-250.0   120.0   33.333333333333336
-250.0   90.0   16.666666666666668
-300.0   120.0   16.666666666666668
-300.0   90.0   33.333333333333336
-250.0   90.0   33.333333333333336
-300.0   120.0   33.333333333333336
-300.0   90.0   50.0
-250.0   90.0   33.333333333333336
-250.0   120.0   33.333333333333336
-300.0   120.0   33.333333333333336
-250.0   120.0   50.0
-300.0   90.0   50.0
-300.0   120.0   50.0
-250.0   120.0   50.0
-300.0   120.0   33.333333333333336
-300.0   90.0   50.0
-250.0   120.0   50.0
-250.0   90.0   50.0
-250.0   90.0   33.333333333333336
-300.0   90.0   50.0
-250.0   120.0   50.0
-250.0   90.0   33.333333333333336
-300.0   120.0   33.333333333333336
-300.0   120.0   0.0
-250.0   120.0   0.0
-300.0   150.0   0.0
-300.0   120.0   16.666666666666668
-250.0   120.0   0.0
-250.0   150.0   0.0
-300.0   150.0   0.0
-250.0   150.0   16.666666666666668
-300.0   120.0   16.666666666666668
-300.0   150.0   16.666666666666668
-250.0   150.0   16.666666666666668
-300.0   150.0   0.0
-300.0   120.0   16.666666666666668
-250.0   150.0   16.666666666666668
-250.0   120.0   16.666666666666668
-250.0   120.0   0.0
-300.0   120.0   16.666666666666668
-250.0   150.0   16.666666666666668
-250.0   120.0   0.0
-300.0   150.0   0.0
-300.0   120.0   16.666666666666668
-250.0   120.0   16.666666666666668
-300.0   150.0   16.666666666666668
-300.0   120.0   33.333333333333336
-250.0   120.0   16.666666666666668
-250.0   150.0   16.666666666666668
-300.0   150.0   16.666666666666668
-250.0   150.0   33.333333333333336
-300.0   120.0   33.333333333333336
-300.0   150.0   33.333333333333336
-250.0   150.0   33.333333333333336
-300.0   150.0   16.666666666666668
-300.0   120.0   33.333333333333336
-250.0   150.0   33.333333333333336
-250.0   120.0   33.333333333333336
-250.0   120.0   16.666666666666668
-300.0   120.0   33.333333333333336
-250.0   150.0   33.333333333333336
-250.0   120.0   16.666666666666668
-300.0   150.0   16.666666666666668
-300.0   120.0   33.333333333333336
-250.0   120.0   33.333333333333336
-300.0   150.0   33.333333333333336
-300.0   120.0   50.0
-250.0   120.0   33.333333333333336
-250.0   150.0   33.333333333333336
-300.0   150.0   33.333333333333336
-250.0   150.0   50.0
-300.0   120.0   50.0
-300.0   150.0   50.0
-250.0   150.0   50.0
-300.0   150.0   33.333333333333336
-300.0   120.0   50.0
-250.0   150.0   50.0
-250.0   120.0   50.0
-250.0   120.0   33.333333333333336
-300.0   120.0   50.0
-250.0   150.0   50.0
-250.0   120.0   33.333333333333336
-300.0   150.0   33.333333333333336
-250.0   0.0   0.0
-200.0   0.0   0.0
-250.0   30.0   0.0
-250.0   0.0   16.666666666666668
-200.0   0.0   0.0
-200.0   30.0   0.0
-250.0   30.0   0.0
-200.0   30.0   16.666666666666668
-250.0   0.0   16.666666666666668
-250.0   30.0   16.666666666666668
-200.0   30.0   16.666666666666668
-250.0   30.0   0.0
-250.0   0.0   16.666666666666668
-200.0   30.0   16.666666666666668
-200.0   0.0   16.666666666666668
-200.0   0.0   0.0
-250.0   0.0   16.666666666666668
-200.0   30.0   16.666666666666668
-200.0   0.0   0.0
-250.0   30.0   0.0
-250.0   0.0   16.666666666666668
-200.0   0.0   16.666666666666668
-250.0   30.0   16.666666666666668
-250.0   0.0   33.333333333333336
-200.0   0.0   16.666666666666668
-200.0   30.0   16.666666666666668
-250.0   30.0   16.666666666666668
-200.0   30.0   33.333333333333336
-250.0   0.0   33.333333333333336
-250.0   30.0   33.333333333333336
-200.0   30.0   33.333333333333336
-250.0   30.0   16.666666666666668
-250.0   0.0   33.333333333333336
-200.0   30.0   33.333333333333336
-200.0   0.0   33.333333333333336
-200.0   0.0   16.666666666666668
-250.0   0.0   33.333333333333336
-200.0   30.0   33.333333333333336
-200.0   0.0   16.666666666666668
-250.0   30.0   16.666666666666668
-250.0   0.0   33.333333333333336
-200.0   0.0   33.333333333333336
-250.0   30.0   33.333333333333336
-250.0   0.0   50.0
-200.0   0.0   33.333333333333336
-200.0   30.0   33.333333333333336
-250.0   30.0   33.333333333333336
-200.0   30.0   50.0
-250.0   0.0   50.0
-250.0   30.0   50.0
-200.0   30.0   50.0
-250.0   30.0   33.333333333333336
-250.0   0.0   50.0
-200.0   30.0   50.0
-200.0   0.0   50.0
-200.0   0.0   33.333333333333336
-250.0   0.0   50.0
-200.0   30.0   50.0
-200.0   0.0   33.333333333333336
-250.0   30.0   33.333333333333336
-250.0   30.0   0.0
-200.0   30.0   0.0
-250.0   60.0   0.0
-250.0   30.0   16.666666666666668
-200.0   30.0   0.0
-200.0   60.0   0.0
-250.0   60.0   0.0
-200.0   60.0   16.666666666666668
-250.0   30.0   16.666666666666668
-250.0   60.0   16.666666666666668
-200.0   60.0   16.666666666666668
-250.0   60.0   0.0
-250.0   30.0   16.666666666666668
-200.0   60.0   16.666666666666668
-200.0   30.0   16.666666666666668
-200.0   30.0   0.0
-250.0   30.0   16.666666666666668
-200.0   60.0   16.666666666666668
-200.0   30.0   0.0
-250.0   60.0   0.0
-250.0   30.0   16.666666666666668
-200.0   30.0   16.666666666666668
-250.0   60.0   16.666666666666668
-250.0   30.0   33.333333333333336
-200.0   30.0   16.666666666666668
-200.0   60.0   16.666666666666668
-250.0   60.0   16.666666666666668
-200.0   60.0   33.333333333333336
-250.0   30.0   33.333333333333336
-250.0   60.0   33.333333333333336
-200.0   60.0   33.333333333333336
-250.0   60.0   16.666666666666668
-250.0   30.0   33.333333333333336
-200.0   60.0   33.333333333333336
-200.0   30.0   33.333333333333336
-200.0   30.0   16.666666666666668
-250.0   30.0   33.333333333333336
-200.0   60.0   33.333333333333336
-200.0   30.0   16.666666666666668
-250.0   60.0   16.666666666666668
-250.0   30.0   33.333333333333336
-200.0   30.0   33.333333333333336
-250.0   60.0   33.333333333333336
-250.0   30.0   50.0
-200.0   30.0   33.333333333333336
-200.0   60.0   33.333333333333336
-250.0   60.0   33.333333333333336
-200.0   60.0   50.0
-250.0   30.0   50.0
-250.0   60.0   50.0
-200.0   60.0   50.0
-250.0   60.0   33.333333333333336
-250.0   30.0   50.0
-200.0   60.0   50.0
-200.0   30.0   50.0
-200.0   30.0   33.333333333333336
-250.0   30.0   50.0
-200.0   60.0   50.0
-200.0   30.0   33.333333333333336
-250.0   60.0   33.333333333333336
-250.0   60.0   0.0
-200.0   60.0   0.0
-250.0   90.0   0.0
-250.0   60.0   16.666666666666668
-200.0   60.0   0.0
-200.0   90.0   0.0
-250.0   90.0   0.0
-200.0   90.0   16.666666666666668
-250.0   60.0   16.666666666666668
-250.0   90.0   16.666666666666668
-200.0   90.0   16.666666666666668
-250.0   90.0   0.0
-250.0   60.0   16.666666666666668
-200.0   90.0   16.666666666666668
-200.0   60.0   16.666666666666668
-200.0   60.0   0.0
-250.0   60.0   16.666666666666668
-200.0   90.0   16.666666666666668
-200.0   60.0   0.0
-250.0   90.0   0.0
-250.0   60.0   16.666666666666668
-200.0   60.0   16.666666666666668
-250.0   90.0   16.666666666666668
-250.0   60.0   33.333333333333336
-200.0   60.0   16.666666666666668
-200.0   90.0   16.666666666666668
-250.0   90.0   16.666666666666668
-200.0   90.0   33.333333333333336
-250.0   60.0   33.333333333333336
-250.0   90.0   33.333333333333336
-200.0   90.0   33.333333333333336
-250.0   90.0   16.666666666666668
-250.0   60.0   33.333333333333336
-200.0   90.0   33.333333333333336
-200.0   60.0   33.333333333333336
-200.0   60.0   16.666666666666668
-250.0   60.0   33.333333333333336
-200.0   90.0   33.333333333333336
-200.0   60.0   16.666666666666668
-250.0   90.0   16.666666666666668
-250.0   60.0   33.333333333333336
-200.0   60.0   33.333333333333336
-250.0   90.0   33.333333333333336
-250.0   60.0   50.0
-200.0   60.0   33.333333333333336
-200.0   90.0   33.333333333333336
-250.0   90.0   33.333333333333336
-200.0   90.0   50.0
-250.0   60.0   50.0
-250.0   90.0   50.0
-200.0   90.0   50.0
-250.0   90.0   33.333333333333336
-250.0   60.0   50.0
-200.0   90.0   50.0
-200.0   60.0   50.0
-200.0   60.0   33.333333333333336
-250.0   60.0   50.0
-200.0   90.0   50.0
-200.0   60.0   33.333333333333336
-250.0   90.0   33.333333333333336
-250.0   90.0   0.0
-200.0   90.0   0.0
-250.0   120.0   0.0
-250.0   90.0   16.666666666666668
-200.0   90.0   0.0
-200.0   120.0   0.0
-250.0   120.0   0.0
-200.0   120.0   16.666666666666668
-250.0   90.0   16.666666666666668
-250.0   120.0   16.666666666666668
-200.0   120.0   16.666666666666668
-250.0   120.0   0.0
-250.0   90.0   16.666666666666668
-200.0   120.0   16.666666666666668
-200.0   90.0   16.666666666666668
-200.0   90.0   0.0
-250.0   90.0   16.666666666666668
-200.0   120.0   16.666666666666668
-200.0   90.0   0.0
-250.0   120.0   0.0
-250.0   90.0   16.666666666666668
-200.0   90.0   16.666666666666668
-250.0   120.0   16.666666666666668
-250.0   90.0   33.333333333333336
-200.0   90.0   16.666666666666668
-200.0   120.0   16.666666666666668
-250.0   120.0   16.666666666666668
-200.0   120.0   33.333333333333336
-250.0   90.0   33.333333333333336
-250.0   120.0   33.333333333333336
-200.0   120.0   33.333333333333336
-250.0   120.0   16.666666666666668
-250.0   90.0   33.333333333333336
-200.0   120.0   33.333333333333336
-200.0   90.0   33.333333333333336
-200.0   90.0   16.666666666666668
-250.0   90.0   33.333333333333336
-200.0   120.0   33.333333333333336
-200.0   90.0   16.666666666666668
-250.0   120.0   16.666666666666668
-250.0   90.0   33.333333333333336
-200.0   90.0   33.333333333333336
-250.0   120.0   33.333333333333336
-250.0   90.0   50.0
-200.0   90.0   33.333333333333336
-200.0   120.0   33.333333333333336
-250.0   120.0   33.333333333333336
-200.0   120.0   50.0
-250.0   90.0   50.0
-250.0   120.0   50.0
-200.0   120.0   50.0
-250.0   120.0   33.333333333333336
-250.0   90.0   50.0
-200.0   120.0   50.0
-200.0   90.0   50.0
-200.0   90.0   33.333333333333336
-250.0   90.0   50.0
-200.0   120.0   50.0
-200.0   90.0   33.333333333333336
-250.0   120.0   33.333333333333336
-250.0   120.0   0.0
-200.0   120.0   0.0
-250.0   150.0   0.0
-250.0   120.0   16.666666666666668
-200.0   120.0   0.0
-200.0   150.0   0.0
-250.0   150.0   0.0
-200.0   150.0   16.666666666666668
-250.0   120.0   16.666666666666668
-250.0   150.0   16.666666666666668
-200.0   150.0   16.666666666666668
-250.0   150.0   0.0
-250.0   120.0   16.666666666666668
-200.0   150.0   16.666666666666668
-200.0   120.0   16.666666666666668
-200.0   120.0   0.0
-250.0   120.0   16.666666666666668
-200.0   150.0   16.666666666666668
-200.0   120.0   0.0
-250.0   150.0   0.0
-250.0   120.0   16.666666666666668
-200.0   120.0   16.666666666666668
-250.0   150.0   16.666666666666668
-250.0   120.0   33.333333333333336
-200.0   120.0   16.666666666666668
-200.0   150.0   16.666666666666668
-250.0   150.0   16.666666666666668
-200.0   150.0   33.333333333333336
-250.0   120.0   33.333333333333336
-250.0   150.0   33.333333333333336
-200.0   150.0   33.333333333333336
-250.0   150.0   16.666666666666668
-250.0   120.0   33.333333333333336
-200.0   150.0   33.333333333333336
-200.0   120.0   33.333333333333336
-200.0   120.0   16.666666666666668
-250.0   120.0   33.333333333333336
-200.0   150.0   33.333333333333336
-200.0   120.0   16.666666666666668
-250.0   150.0   16.666666666666668
-250.0   120.0   33.333333333333336
-200.0   120.0   33.333333333333336
-250.0   150.0   33.333333333333336
-250.0   120.0   50.0
-200.0   120.0   33.333333333333336
-200.0   150.0   33.333333333333336
-250.0   150.0   33.333333333333336
-200.0   150.0   50.0
-250.0   120.0   50.0
-250.0   150.0   50.0
-200.0   150.0   50.0
-250.0   150.0   33.333333333333336
-250.0   120.0   50.0
-200.0   150.0   50.0
-200.0   120.0   50.0
-200.0   120.0   33.333333333333336
-250.0   120.0   50.0
-200.0   150.0   50.0
-200.0   120.0   33.333333333333336
-250.0   150.0   33.333333333333336
-200.0   0.0   0.0
-150.0   0.0   0.0
-200.0   30.0   0.0
-200.0   0.0   16.666666666666668
-150.0   0.0   0.0
-150.0   30.0   0.0
-200.0   30.0   0.0
-150.0   30.0   16.666666666666668
-200.0   0.0   16.666666666666668
-200.0   30.0   16.666666666666668
-150.0   30.0   16.666666666666668
-200.0   30.0   0.0
-200.0   0.0   16.666666666666668
-150.0   30.0   16.666666666666668
-150.0   0.0   16.666666666666668
-150.0   0.0   0.0
-200.0   0.0   16.666666666666668
-150.0   30.0   16.666666666666668
-150.0   0.0   0.0
-200.0   30.0   0.0
-200.0   0.0   16.666666666666668
-150.0   0.0   16.666666666666668
-200.0   30.0   16.666666666666668
-200.0   0.0   33.333333333333336
-150.0   0.0   16.666666666666668
-150.0   30.0   16.666666666666668
-200.0   30.0   16.666666666666668
-150.0   30.0   33.333333333333336
-200.0   0.0   33.333333333333336
-200.0   30.0   33.333333333333336
-150.0   30.0   33.333333333333336
-200.0   30.0   16.666666666666668
-200.0   0.0   33.333333333333336
-150.0   30.0   33.333333333333336
-150.0   0.0   33.333333333333336
-150.0   0.0   16.666666666666668
-200.0   0.0   33.333333333333336
-150.0   30.0   33.333333333333336
-150.0   0.0   16.666666666666668
-200.0   30.0   16.666666666666668
-200.0   0.0   33.333333333333336
-150.0   0.0   33.333333333333336
-200.0   30.0   33.333333333333336
-200.0   0.0   50.0
-150.0   0.0   33.333333333333336
-150.0   30.0   33.333333333333336
-200.0   30.0   33.333333333333336
-150.0   30.0   50.0
-200.0   0.0   50.0
-200.0   30.0   50.0
-150.0   30.0   50.0
-200.0   30.0   33.333333333333336
-200.0   0.0   50.0
-150.0   30.0   50.0
-150.0   0.0   50.0
-150.0   0.0   33.333333333333336
-200.0   0.0   50.0
-150.0   30.0   50.0
-150.0   0.0   33.333333333333336
-200.0   30.0   33.333333333333336
-200.0   30.0   0.0
-150.0   30.0   0.0
-200.0   60.0   0.0
-200.0   30.0   16.666666666666668
-150.0   30.0   0.0
-150.0   60.0   0.0
-200.0   60.0   0.0
-150.0   60.0   16.666666666666668
-200.0   30.0   16.666666666666668
-200.0   60.0   16.666666666666668
-150.0   60.0   16.666666666666668
-200.0   60.0   0.0
-200.0   30.0   16.666666666666668
-150.0   60.0   16.666666666666668
-150.0   30.0   16.666666666666668
-150.0   30.0   0.0
-200.0   30.0   16.666666666666668
-150.0   60.0   16.666666666666668
-150.0   30.0   0.0
-200.0   60.0   0.0
-200.0   30.0   16.666666666666668
-150.0   30.0   16.666666666666668
-200.0   60.0   16.666666666666668
-200.0   30.0   33.333333333333336
-150.0   30.0   16.666666666666668
-150.0   60.0   16.666666666666668
-200.0   60.0   16.666666666666668
-150.0   60.0   33.333333333333336
-200.0   30.0   33.333333333333336
-200.0   60.0   33.333333333333336
-150.0   60.0   33.333333333333336
-200.0   60.0   16.666666666666668
-200.0   30.0   33.333333333333336
-150.0   60.0   33.333333333333336
-150.0   30.0   33.333333333333336
-150.0   30.0   16.666666666666668
-200.0   30.0   33.333333333333336
-150.0   60.0   33.333333333333336
-150.0   30.0   16.666666666666668
-200.0   60.0   16.666666666666668
-200.0   30.0   33.333333333333336
-150.0   30.0   33.333333333333336
-200.0   60.0   33.333333333333336
-200.0   30.0   50.0
-150.0   30.0   33.333333333333336
-150.0   60.0   33.333333333333336
-200.0   60.0   33.333333333333336
-150.0   60.0   50.0
-200.0   30.0   50.0
-200.0   60.0   50.0
-150.0   60.0   50.0
-200.0   60.0   33.333333333333336
-200.0   30.0   50.0
-150.0   60.0   50.0
-150.0   30.0   50.0
-150.0   30.0   33.333333333333336
-200.0   30.0   50.0
-150.0   60.0   50.0
-150.0   30.0   33.333333333333336
-200.0   60.0   33.333333333333336
-200.0   60.0   0.0
-150.0   60.0   0.0
-200.0   90.0   0.0
-200.0   60.0   16.666666666666668
-150.0   60.0   0.0
-150.0   90.0   0.0
-200.0   90.0   0.0
-150.0   90.0   16.666666666666668
-200.0   60.0   16.666666666666668
-200.0   90.0   16.666666666666668
-150.0   90.0   16.666666666666668
-200.0   90.0   0.0
-200.0   60.0   16.666666666666668
-150.0   90.0   16.666666666666668
-150.0   60.0   16.666666666666668
-150.0   60.0   0.0
-200.0   60.0   16.666666666666668
-150.0   90.0   16.666666666666668
-150.0   60.0   0.0
-200.0   90.0   0.0
-200.0   60.0   16.666666666666668
-150.0   60.0   16.666666666666668
-200.0   90.0   16.666666666666668
-200.0   60.0   33.333333333333336
-150.0   60.0   16.666666666666668
-150.0   90.0   16.666666666666668
-200.0   90.0   16.666666666666668
-150.0   90.0   33.333333333333336
-200.0   60.0   33.333333333333336
-200.0   90.0   33.333333333333336
-150.0   90.0   33.333333333333336
-200.0   90.0   16.666666666666668
-200.0   60.0   33.333333333333336
-150.0   90.0   33.333333333333336
-150.0   60.0   33.333333333333336
-150.0   60.0   16.666666666666668
-200.0   60.0   33.333333333333336
-150.0   90.0   33.333333333333336
-150.0   60.0   16.666666666666668
-200.0   90.0   16.666666666666668
-200.0   60.0   33.333333333333336
-150.0   60.0   33.333333333333336
-200.0   90.0   33.333333333333336
-200.0   60.0   50.0
-150.0   60.0   33.333333333333336
-150.0   90.0   33.333333333333336
-200.0   90.0   33.333333333333336
-150.0   90.0   50.0
-200.0   60.0   50.0
-200.0   90.0   50.0
-150.0   90.0   50.0
-200.0   90.0   33.333333333333336
-200.0   60.0   50.0
-150.0   90.0   50.0
-150.0   60.0   50.0
-150.0   60.0   33.333333333333336
-200.0   60.0   50.0
-150.0   90.0   50.0
-150.0   60.0   33.333333333333336
-200.0   90.0   33.333333333333336
-200.0   90.0   0.0
-150.0   90.0   0.0
-200.0   120.0   0.0
-200.0   90.0   16.666666666666668
-150.0   90.0   0.0
-150.0   120.0   0.0
-200.0   120.0   0.0
-150.0   120.0   16.666666666666668
-200.0   90.0   16.666666666666668
-200.0   120.0   16.666666666666668
-150.0   120.0   16.666666666666668
-200.0   120.0   0.0
-200.0   90.0   16.666666666666668
-150.0   120.0   16.666666666666668
-150.0   90.0   16.666666666666668
-150.0   90.0   0.0
-200.0   90.0   16.666666666666668
-150.0   120.0   16.666666666666668
-150.0   90.0   0.0
-200.0   120.0   0.0
-200.0   90.0   16.666666666666668
-150.0   90.0   16.666666666666668
-200.0   120.0   16.666666666666668
-200.0   90.0   33.333333333333336
-150.0   90.0   16.666666666666668
-150.0   120.0   16.666666666666668
-200.0   120.0   16.666666666666668
-150.0   120.0   33.333333333333336
-200.0   90.0   33.333333333333336
-200.0   120.0   33.333333333333336
-150.0   120.0   33.333333333333336
-200.0   120.0   16.666666666666668
-200.0   90.0   33.333333333333336
-150.0   120.0   33.333333333333336
-150.0   90.0   33.333333333333336
-150.0   90.0   16.666666666666668
-200.0   90.0   33.333333333333336
-150.0   120.0   33.333333333333336
-150.0   90.0   16.666666666666668
-200.0   120.0   16.666666666666668
-200.0   90.0   33.333333333333336
-150.0   90.0   33.333333333333336
-200.0   120.0   33.333333333333336
-200.0   90.0   50.0
-150.0   90.0   33.333333333333336
-150.0   120.0   33.333333333333336
-200.0   120.0   33.333333333333336
-150.0   120.0   50.0
-200.0   90.0   50.0
-200.0   120.0   50.0
-150.0   120.0   50.0
-200.0   120.0   33.333333333333336
-200.0   90.0   50.0
-150.0   120.0   50.0
-150.0   90.0   50.0
-150.0   90.0   33.333333333333336
-200.0   90.0   50.0
-150.0   120.0   50.0
-150.0   90.0   33.333333333333336
-200.0   120.0   33.333333333333336
-200.0   120.0   0.0
-150.0   120.0   0.0
-200.0   150.0   0.0
-200.0   120.0   16.666666666666668
-150.0   120.0   0.0
-150.0   150.0   0.0
-200.0   150.0   0.0
-150.0   150.0   16.666666666666668
-200.0   120.0   16.666666666666668
-200.0   150.0   16.666666666666668
-150.0   150.0   16.666666666666668
-200.0   150.0   0.0
-200.0   120.0   16.666666666666668
-150.0   150.0   16.666666666666668
-150.0   120.0   16.666666666666668
-150.0   120.0   0.0
-200.0   120.0   16.666666666666668
-150.0   150.0   16.666666666666668
-150.0   120.0   0.0
-200.0   150.0   0.0
-200.0   120.0   16.666666666666668
-150.0   120.0   16.666666666666668
-200.0   150.0   16.666666666666668
-200.0   120.0   33.333333333333336
-150.0   120.0   16.666666666666668
-150.0   150.0   16.666666666666668
-200.0   150.0   16.666666666666668
-150.0   150.0   33.333333333333336
-200.0   120.0   33.333333333333336
-200.0   150.0   33.333333333333336
-150.0   150.0   33.333333333333336
-200.0   150.0   16.666666666666668
-200.0   120.0   33.333333333333336
-150.0   150.0   33.333333333333336
-150.0   120.0   33.333333333333336
-150.0   120.0   16.666666666666668
-200.0   120.0   33.333333333333336
-150.0   150.0   33.333333333333336
-150.0   120.0   16.666666666666668
-200.0   150.0   16.666666666666668
-200.0   120.0   33.333333333333336
-150.0   120.0   33.333333333333336
-200.0   150.0   33.333333333333336
-200.0   120.0   50.0
-150.0   120.0   33.333333333333336
-150.0   150.0   33.333333333333336
-200.0   150.0   33.333333333333336
-150.0   150.0   50.0
-200.0   120.0   50.0
-200.0   150.0   50.0
-150.0   150.0   50.0
-200.0   150.0   33.333333333333336
-200.0   120.0   50.0
-150.0   150.0   50.0
-150.0   120.0   50.0
-150.0   120.0   33.333333333333336
-200.0   120.0   50.0
-150.0   150.0   50.0
-150.0   120.0   33.333333333333336
-200.0   150.0   33.333333333333336
-150.0   0.0   0.0
-100.0   0.0   0.0
-150.0   30.0   0.0
-150.0   0.0   16.666666666666668
-100.0   0.0   0.0
-100.0   30.0   0.0
-150.0   30.0   0.0
-100.0   30.0   16.666666666666668
-150.0   0.0   16.666666666666668
-150.0   30.0   16.666666666666668
-100.0   30.0   16.666666666666668
-150.0   30.0   0.0
-150.0   0.0   16.666666666666668
-100.0   30.0   16.666666666666668
-100.0   0.0   16.666666666666668
-100.0   0.0   0.0
-150.0   0.0   16.666666666666668
-100.0   30.0   16.666666666666668
-100.0   0.0   0.0
-150.0   30.0   0.0
-150.0   0.0   16.666666666666668
-100.0   0.0   16.666666666666668
-150.0   30.0   16.666666666666668
-150.0   0.0   33.333333333333336
-100.0   0.0   16.666666666666668
-100.0   30.0   16.666666666666668
-150.0   30.0   16.666666666666668
-100.0   30.0   33.333333333333336
-150.0   0.0   33.333333333333336
-150.0   30.0   33.333333333333336
-100.0   30.0   33.333333333333336
-150.0   30.0   16.666666666666668
-150.0   0.0   33.333333333333336
-100.0   30.0   33.333333333333336
-100.0   0.0   33.333333333333336
-100.0   0.0   16.666666666666668
-150.0   0.0   33.333333333333336
-100.0   30.0   33.333333333333336
-100.0   0.0   16.666666666666668
-150.0   30.0   16.666666666666668
-150.0   0.0   33.333333333333336
-100.0   0.0   33.333333333333336
-150.0   30.0   33.333333333333336
-150.0   0.0   50.0
-100.0   0.0   33.333333333333336
-100.0   30.0   33.333333333333336
-150.0   30.0   33.333333333333336
-100.0   30.0   50.0
-150.0   0.0   50.0
-150.0   30.0   50.0
-100.0   30.0   50.0
-150.0   30.0   33.333333333333336
-150.0   0.0   50.0
-100.0   30.0   50.0
-100.0   0.0   50.0
-100.0   0.0   33.333333333333336
-150.0   0.0   50.0
-100.0   30.0   50.0
-100.0   0.0   33.333333333333336
-150.0   30.0   33.333333333333336
-150.0   30.0   0.0
-100.0   30.0   0.0
-150.0   60.0   0.0
-150.0   30.0   16.666666666666668
-100.0   30.0   0.0
-100.0   60.0   0.0
-150.0   60.0   0.0
-100.0   60.0   16.666666666666668
-150.0   30.0   16.666666666666668
-150.0   60.0   16.666666666666668
-100.0   60.0   16.666666666666668
-150.0   60.0   0.0
-150.0   30.0   16.666666666666668
-100.0   60.0   16.666666666666668
-100.0   30.0   16.666666666666668
-100.0   30.0   0.0
-150.0   30.0   16.666666666666668
-100.0   60.0   16.666666666666668
-100.0   30.0   0.0
-150.0   60.0   0.0
-150.0   30.0   16.666666666666668
-100.0   30.0   16.666666666666668
-150.0   60.0   16.666666666666668
-150.0   30.0   33.333333333333336
-100.0   30.0   16.666666666666668
-100.0   60.0   16.666666666666668
-150.0   60.0   16.666666666666668
-100.0   60.0   33.333333333333336
-150.0   30.0   33.333333333333336
-150.0   60.0   33.333333333333336
-100.0   60.0   33.333333333333336
-150.0   60.0   16.666666666666668
-150.0   30.0   33.333333333333336
-100.0   60.0   33.333333333333336
-100.0   30.0   33.333333333333336
-100.0   30.0   16.666666666666668
-150.0   30.0   33.333333333333336
-100.0   60.0   33.333333333333336
-100.0   30.0   16.666666666666668
-150.0   60.0   16.666666666666668
-150.0   30.0   33.333333333333336
-100.0   30.0   33.333333333333336
-150.0   60.0   33.333333333333336
-150.0   30.0   50.0
-100.0   30.0   33.333333333333336
-100.0   60.0   33.333333333333336
-150.0   60.0   33.333333333333336
-100.0   60.0   50.0
-150.0   30.0   50.0
-150.0   60.0   50.0
-100.0   60.0   50.0
-150.0   60.0   33.333333333333336
-150.0   30.0   50.0
-100.0   60.0   50.0
-100.0   30.0   50.0
-100.0   30.0   33.333333333333336
-150.0   30.0   50.0
-100.0   60.0   50.0
-100.0   30.0   33.333333333333336
-150.0   60.0   33.333333333333336
-150.0   60.0   0.0
-100.0   60.0   0.0
-150.0   90.0   0.0
-150.0   60.0   16.666666666666668
-100.0   60.0   0.0
-100.0   90.0   0.0
-150.0   90.0   0.0
-100.0   90.0   16.666666666666668
-150.0   60.0   16.666666666666668
-150.0   90.0   16.666666666666668
-100.0   90.0   16.666666666666668
-150.0   90.0   0.0
-150.0   60.0   16.666666666666668
-100.0   90.0   16.666666666666668
-100.0   60.0   16.666666666666668
-100.0   60.0   0.0
-150.0   60.0   16.666666666666668
-100.0   90.0   16.666666666666668
-100.0   60.0   0.0
-150.0   90.0   0.0
-150.0   60.0   16.666666666666668
-100.0   60.0   16.666666666666668
-150.0   90.0   16.666666666666668
-150.0   60.0   33.333333333333336
-100.0   60.0   16.666666666666668
-100.0   90.0   16.666666666666668
-150.0   90.0   16.666666666666668
-100.0   90.0   33.333333333333336
-150.0   60.0   33.333333333333336
-150.0   90.0   33.333333333333336
-100.0   90.0   33.333333333333336
-150.0   90.0   16.666666666666668
-150.0   60.0   33.333333333333336
-100.0   90.0   33.333333333333336
-100.0   60.0   33.333333333333336
-100.0   60.0   16.666666666666668
-150.0   60.0   33.333333333333336
-100.0   90.0   33.333333333333336
-100.0   60.0   16.666666666666668
-150.0   90.0   16.666666666666668
-150.0   60.0   33.333333333333336
-100.0   60.0   33.333333333333336
-150.0   90.0   33.333333333333336
-150.0   60.0   50.0
-100.0   60.0   33.333333333333336
-100.0   90.0   33.333333333333336
-150.0   90.0   33.333333333333336
-100.0   90.0   50.0
-150.0   60.0   50.0
-150.0   90.0   50.0
-100.0   90.0   50.0
-150.0   90.0   33.333333333333336
-150.0   60.0   50.0
-100.0   90.0   50.0
-100.0   60.0   50.0
-100.0   60.0   33.333333333333336
-150.0   60.0   50.0
-100.0   90.0   50.0
-100.0   60.0   33.333333333333336
-150.0   90.0   33.333333333333336
-150.0   90.0   0.0
-100.0   90.0   0.0
-150.0   120.0   0.0
-150.0   90.0   16.666666666666668
-100.0   90.0   0.0
-100.0   120.0   0.0
-150.0   120.0   0.0
-100.0   120.0   16.666666666666668
-150.0   90.0   16.666666666666668
-150.0   120.0   16.666666666666668
-100.0   120.0   16.666666666666668
-150.0   120.0   0.0
-150.0   90.0   16.666666666666668
-100.0   120.0   16.666666666666668
-100.0   90.0   16.666666666666668
-100.0   90.0   0.0
-150.0   90.0   16.666666666666668
-100.0   120.0   16.666666666666668
-100.0   90.0   0.0
-150.0   120.0   0.0
-150.0   90.0   16.666666666666668
-100.0   90.0   16.666666666666668
-150.0   120.0   16.666666666666668
-150.0   90.0   33.333333333333336
-100.0   90.0   16.666666666666668
-100.0   120.0   16.666666666666668
-150.0   120.0   16.666666666666668
-100.0   120.0   33.333333333333336
-150.0   90.0   33.333333333333336
-150.0   120.0   33.333333333333336
-100.0   120.0   33.333333333333336
-150.0   120.0   16.666666666666668
-150.0   90.0   33.333333333333336
-100.0   120.0   33.333333333333336
-100.0   90.0   33.333333333333336
-100.0   90.0   16.666666666666668
-150.0   90.0   33.333333333333336
-100.0   120.0   33.333333333333336
-100.0   90.0   16.666666666666668
-150.0   120.0   16.666666666666668
-150.0   90.0   33.333333333333336
-100.0   90.0   33.333333333333336
-150.0   120.0   33.333333333333336
-150.0   90.0   50.0
-100.0   90.0   33.333333333333336
-100.0   120.0   33.333333333333336
-150.0   120.0   33.333333333333336
-100.0   120.0   50.0
-150.0   90.0   50.0
-150.0   120.0   50.0
-100.0   120.0   50.0
-150.0   120.0   33.333333333333336
-150.0   90.0   50.0
-100.0   120.0   50.0
-100.0   90.0   50.0
-100.0   90.0   33.333333333333336
-150.0   90.0   50.0
-100.0   120.0   50.0
-100.0   90.0   33.333333333333336
-150.0   120.0   33.333333333333336
-150.0   120.0   0.0
-100.0   120.0   0.0
-150.0   150.0   0.0
-150.0   120.0   16.666666666666668
-100.0   120.0   0.0
-100.0   150.0   0.0
-150.0   150.0   0.0
-100.0   150.0   16.666666666666668
-150.0   120.0   16.666666666666668
-150.0   150.0   16.666666666666668
-100.0   150.0   16.666666666666668
-150.0   150.0   0.0
-150.0   120.0   16.666666666666668
-100.0   150.0   16.666666666666668
-100.0   120.0   16.666666666666668
-100.0   120.0   0.0
-150.0   120.0   16.666666666666668
-100.0   150.0   16.666666666666668
-100.0   120.0   0.0
-150.0   150.0   0.0
-150.0   120.0   16.666666666666668
-100.0   120.0   16.666666666666668
-150.0   150.0   16.666666666666668
-150.0   120.0   33.333333333333336
-100.0   120.0   16.666666666666668
-100.0   150.0   16.666666666666668
-150.0   150.0   16.666666666666668
-100.0   150.0   33.333333333333336
-150.0   120.0   33.333333333333336
-150.0   150.0   33.333333333333336
-100.0   150.0   33.333333333333336
-150.0   150.0   16.666666666666668
-150.0   120.0   33.333333333333336
-100.0   150.0   33.333333333333336
-100.0   120.0   33.333333333333336
-100.0   120.0   16.666666666666668
-150.0   120.0   33.333333333333336
-100.0   150.0   33.333333333333336
-100.0   120.0   16.666666666666668
-150.0   150.0   16.666666666666668
-150.0   120.0   33.333333333333336
-100.0   120.0   33.333333333333336
-150.0   150.0   33.333333333333336
-150.0   120.0   50.0
-100.0   120.0   33.333333333333336
-100.0   150.0   33.333333333333336
-150.0   150.0   33.333333333333336
-100.0   150.0   50.0
-150.0   120.0   50.0
-150.0   150.0   50.0
-100.0   150.0   50.0
-150.0   150.0   33.333333333333336
-150.0   120.0   50.0
-100.0   150.0   50.0
-100.0   120.0   50.0
-100.0   120.0   33.333333333333336
-150.0   120.0   50.0
-100.0   150.0   50.0
-100.0   120.0   33.333333333333336
-150.0   150.0   33.333333333333336
-100.0   0.0   0.0
-50.0   0.0   0.0
-100.0   30.0   0.0
-100.0   0.0   16.666666666666668
-50.0   0.0   0.0
-50.0   30.0   0.0
-100.0   30.0   0.0
-50.0   30.0   16.666666666666668
-100.0   0.0   16.666666666666668
-100.0   30.0   16.666666666666668
-50.0   30.0   16.666666666666668
-100.0   30.0   0.0
-100.0   0.0   16.666666666666668
-50.0   30.0   16.666666666666668
-50.0   0.0   16.666666666666668
-50.0   0.0   0.0
-100.0   0.0   16.666666666666668
-50.0   30.0   16.666666666666668
-50.0   0.0   0.0
-100.0   30.0   0.0
-100.0   0.0   16.666666666666668
-50.0   0.0   16.666666666666668
-100.0   30.0   16.666666666666668
-100.0   0.0   33.333333333333336
-50.0   0.0   16.666666666666668
-50.0   30.0   16.666666666666668
-100.0   30.0   16.666666666666668
-50.0   30.0   33.333333333333336
-100.0   0.0   33.333333333333336
-100.0   30.0   33.333333333333336
-50.0   30.0   33.333333333333336
-100.0   30.0   16.666666666666668
-100.0   0.0   33.333333333333336
-50.0   30.0   33.333333333333336
-50.0   0.0   33.333333333333336
-50.0   0.0   16.666666666666668
-100.0   0.0   33.333333333333336
-50.0   30.0   33.333333333333336
-50.0   0.0   16.666666666666668
-100.0   30.0   16.666666666666668
-100.0   0.0   33.333333333333336
-50.0   0.0   33.333333333333336
-100.0   30.0   33.333333333333336
-100.0   0.0   50.0
-50.0   0.0   33.333333333333336
-50.0   30.0   33.333333333333336
-100.0   30.0   33.333333333333336
-50.0   30.0   50.0
-100.0   0.0   50.0
-100.0   30.0   50.0
-50.0   30.0   50.0
-100.0   30.0   33.333333333333336
-100.0   0.0   50.0
-50.0   30.0   50.0
-50.0   0.0   50.0
-50.0   0.0   33.333333333333336
-100.0   0.0   50.0
-50.0   30.0   50.0
-50.0   0.0   33.333333333333336
-100.0   30.0   33.333333333333336
-100.0   30.0   0.0
-50.0   30.0   0.0
-100.0   60.0   0.0
-100.0   30.0   16.666666666666668
-50.0   30.0   0.0
-50.0   60.0   0.0
-100.0   60.0   0.0
-50.0   60.0   16.666666666666668
-100.0   30.0   16.666666666666668
-100.0   60.0   16.666666666666668
-50.0   60.0   16.666666666666668
-100.0   60.0   0.0
-100.0   30.0   16.666666666666668
-50.0   60.0   16.666666666666668
-50.0   30.0   16.666666666666668
-50.0   30.0   0.0
-100.0   30.0   16.666666666666668
-50.0   60.0   16.666666666666668
-50.0   30.0   0.0
-100.0   60.0   0.0
-100.0   30.0   16.666666666666668
-50.0   30.0   16.666666666666668
-100.0   60.0   16.666666666666668
-100.0   30.0   33.333333333333336
-50.0   30.0   16.666666666666668
-50.0   60.0   16.666666666666668
-100.0   60.0   16.666666666666668
-50.0   60.0   33.333333333333336
-100.0   30.0   33.333333333333336
-100.0   60.0   33.333333333333336
-50.0   60.0   33.333333333333336
-100.0   60.0   16.666666666666668
-100.0   30.0   33.333333333333336
-50.0   60.0   33.333333333333336
-50.0   30.0   33.333333333333336
-50.0   30.0   16.666666666666668
-100.0   30.0   33.333333333333336
-50.0   60.0   33.333333333333336
-50.0   30.0   16.666666666666668
-100.0   60.0   16.666666666666668
-100.0   30.0   33.333333333333336
-50.0   30.0   33.333333333333336
-100.0   60.0   33.333333333333336
-100.0   30.0   50.0
-50.0   30.0   33.333333333333336
-50.0   60.0   33.333333333333336
-100.0   60.0   33.333333333333336
-50.0   60.0   50.0
-100.0   30.0   50.0
-100.0   60.0   50.0
-50.0   60.0   50.0
-100.0   60.0   33.333333333333336
-100.0   30.0   50.0
-50.0   60.0   50.0
-50.0   30.0   50.0
-50.0   30.0   33.333333333333336
-100.0   30.0   50.0
-50.0   60.0   50.0
-50.0   30.0   33.333333333333336
-100.0   60.0   33.333333333333336
-100.0   60.0   0.0
-50.0   60.0   0.0
-100.0   90.0   0.0
-100.0   60.0   16.666666666666668
-50.0   60.0   0.0
-50.0   90.0   0.0
-100.0   90.0   0.0
-50.0   90.0   16.666666666666668
-100.0   60.0   16.666666666666668
-100.0   90.0   16.666666666666668
-50.0   90.0   16.666666666666668
-100.0   90.0   0.0
-100.0   60.0   16.666666666666668
-50.0   90.0   16.666666666666668
-50.0   60.0   16.666666666666668
-50.0   60.0   0.0
-100.0   60.0   16.666666666666668
-50.0   90.0   16.666666666666668
-50.0   60.0   0.0
-100.0   90.0   0.0
-100.0   60.0   16.666666666666668
-50.0   60.0   16.666666666666668
-100.0   90.0   16.666666666666668
-100.0   60.0   33.333333333333336
-50.0   60.0   16.666666666666668
-50.0   90.0   16.666666666666668
-100.0   90.0   16.666666666666668
-50.0   90.0   33.333333333333336
-100.0   60.0   33.333333333333336
-100.0   90.0   33.333333333333336
-50.0   90.0   33.333333333333336
-100.0   90.0   16.666666666666668
-100.0   60.0   33.333333333333336
-50.0   90.0   33.333333333333336
-50.0   60.0   33.333333333333336
-50.0   60.0   16.666666666666668
-100.0   60.0   33.333333333333336
-50.0   90.0   33.333333333333336
-50.0   60.0   16.666666666666668
-100.0   90.0   16.666666666666668
-100.0   60.0   33.333333333333336
-50.0   60.0   33.333333333333336
-100.0   90.0   33.333333333333336
-100.0   60.0   50.0
-50.0   60.0   33.333333333333336
-50.0   90.0   33.333333333333336
-100.0   90.0   33.333333333333336
-50.0   90.0   50.0
-100.0   60.0   50.0
-100.0   90.0   50.0
-50.0   90.0   50.0
-100.0   90.0   33.333333333333336
-100.0   60.0   50.0
-50.0   90.0   50.0
-50.0   60.0   50.0
-50.0   60.0   33.333333333333336
-100.0   60.0   50.0
-50.0   90.0   50.0
-50.0   60.0   33.333333333333336
-100.0   90.0   33.333333333333336
-100.0   90.0   0.0
-50.0   90.0   0.0
-100.0   120.0   0.0
-100.0   90.0   16.666666666666668
-50.0   90.0   0.0
-50.0   120.0   0.0
-100.0   120.0   0.0
-50.0   120.0   16.666666666666668
-100.0   90.0   16.666666666666668
-100.0   120.0   16.666666666666668
-50.0   120.0   16.666666666666668
-100.0   120.0   0.0
-100.0   90.0   16.666666666666668
-50.0   120.0   16.666666666666668
-50.0   90.0   16.666666666666668
-50.0   90.0   0.0
-100.0   90.0   16.666666666666668
-50.0   120.0   16.666666666666668
-50.0   90.0   0.0
-100.0   120.0   0.0
-100.0   90.0   16.666666666666668
-50.0   90.0   16.666666666666668
-100.0   120.0   16.666666666666668
-100.0   90.0   33.333333333333336
-50.0   90.0   16.666666666666668
-50.0   120.0   16.666666666666668
-100.0   120.0   16.666666666666668
-50.0   120.0   33.333333333333336
-100.0   90.0   33.333333333333336
-100.0   120.0   33.333333333333336
-50.0   120.0   33.333333333333336
-100.0   120.0   16.666666666666668
-100.0   90.0   33.333333333333336
-50.0   120.0   33.333333333333336
-50.0   90.0   33.333333333333336
-50.0   90.0   16.666666666666668
-100.0   90.0   33.333333333333336
-50.0   120.0   33.333333333333336
-50.0   90.0   16.666666666666668
-100.0   120.0   16.666666666666668
-100.0   90.0   33.333333333333336
-50.0   90.0   33.333333333333336
-100.0   120.0   33.333333333333336
-100.0   90.0   50.0
-50.0   90.0   33.333333333333336
-50.0   120.0   33.333333333333336
-100.0   120.0   33.333333333333336
-50.0   120.0   50.0
-100.0   90.0   50.0
-100.0   120.0   50.0
-50.0   120.0   50.0
-100.0   120.0   33.333333333333336
-100.0   90.0   50.0
-50.0   120.0   50.0
-50.0   90.0   50.0
-50.0   90.0   33.333333333333336
-100.0   90.0   50.0
-50.0   120.0   50.0
-50.0   90.0   33.333333333333336
-100.0   120.0   33.333333333333336
-100.0   120.0   0.0
-50.0   120.0   0.0
-100.0   150.0   0.0
-100.0   120.0   16.666666666666668
-50.0   120.0   0.0
-50.0   150.0   0.0
-100.0   150.0   0.0
-50.0   150.0   16.666666666666668
-100.0   120.0   16.666666666666668
-100.0   150.0   16.666666666666668
-50.0   150.0   16.666666666666668
-100.0   150.0   0.0
-100.0   120.0   16.666666666666668
-50.0   150.0   16.666666666666668
-50.0   120.0   16.666666666666668
-50.0   120.0   0.0
-100.0   120.0   16.666666666666668
-50.0   150.0   16.666666666666668
-50.0   120.0   0.0
-100.0   150.0   0.0
-100.0   120.0   16.666666666666668
-50.0   120.0   16.666666666666668
-100.0   150.0   16.666666666666668
-100.0   120.0   33.333333333333336
-50.0   120.0   16.666666666666668
-50.0   150.0   16.666666666666668
-100.0   150.0   16.666666666666668
-50.0   150.0   33.333333333333336
-100.0   120.0   33.333333333333336
-100.0   150.0   33.333333333333336
-50.0   150.0   33.333333333333336
-100.0   150.0   16.666666666666668
-100.0   120.0   33.333333333333336
-50.0   150.0   33.333333333333336
-50.0   120.0   33.333333333333336
-50.0   120.0   16.666666666666668
-100.0   120.0   33.333333333333336
-50.0   150.0   33.333333333333336
-50.0   120.0   16.666666666666668
-100.0   150.0   16.666666666666668
-100.0   120.0   33.333333333333336
-50.0   120.0   33.333333333333336
-100.0   150.0   33.333333333333336
-100.0   120.0   50.0
-50.0   120.0   33.333333333333336
-50.0   150.0   33.333333333333336
-100.0   150.0   33.333333333333336
-50.0   150.0   50.0
-100.0   120.0   50.0
-100.0   150.0   50.0
-50.0   150.0   50.0
-100.0   150.0   33.333333333333336
-100.0   120.0   50.0
-50.0   150.0   50.0
-50.0   120.0   50.0
-50.0   120.0   33.333333333333336
-100.0   120.0   50.0
-50.0   150.0   50.0
-50.0   120.0   33.333333333333336
-100.0   150.0   33.333333333333336
-50.0   0.0   0.0
0.0   0.0   0.0
-50.0   30.0   0.0
-50.0   0.0   16.666666666666668
0.0   0.0   0.0
0.0   30.0   0.0
-50.0   30.0   0.0
0.0   30.0   16.666666666666668
-50.0   0.0   16.666666666666668
-50.0   30.0   16.666666666666668
0.0   30.0   16.666666666666668
-50.0   30.0   0.0
-50.0   0.0   16.666666666666668
0.0   30.0   16.666666666666668
0.0   0.0   16.666666666666668
0.0   0.0   0.0
-50.0   0.0   16.666666666666668
0.0   30.0   16.666666666666668
0.0   0.0   0.0
-50.0   30.0   0.0
-50.0   0.0   16.666666666666668
0.0   0.0   16.666666666666668
-50.0   30.0   16.666666666666668
-50.0   0.0   33.333333333333336
0.0   0.0   16.666666666666668
0.0   30.0   16.666666666666668
-50.0   30.0   16.666666666666668
0.0   30.0   33.333333333333336
-50.0   0.0   33.333333333333336
-50.0   30.0   33.333333333333336
0.0   30.0   33.333333333333336
-50.0   30.0   16.666666666666668
-50.0   0.0   33.333333333333336
0.0   30.0   33.333333333333336
0.0   0.0   33.333333333333336
0.0   0.0   16.666666666666668
-50.0   0.0   33.333333333333336
0.0   30.0   33.333333333333336
0.0   0.0   16.666666666666668
-50.0   30.0   16.666666666666668
-50.0   0.0   33.333333333333336
0.0   0.0   33.333333333333336
-50.0   30.0   33.333333333333336
-50.0   0.0   50.0
0.0   0.0   33.333333333333336
0.0   30.0   33.333333333333336
-50.0   30.0   33.333333333333336
0.0   30.0   50.0
-50.0   0.0   50.0
-50.0   30.0   50.0
0.0   30.0   50.0
-50.0   30.0   33.333333333333336
-50.0   0.0   50.0
0.0   30.0   50.0
0.0   0.0   50.0
0.0   0.0   33.333333333333336
-50.0   0.0   50.0
0.0   30.0   50.0
0.0   0.0   33.333333333333336
-50.0   30.0   33.333333333333336
-50.0   30.0   0.0
0.0   30.0   0.0
-50.0   60.0   0.0
-50.0   30.0   16.666666666666668
0.0   30.0   0.0
0.0   60.0   0.0
-50.0   60.0   0.0
0.0   60.0   16.666666666666668
-50.0   30.0   16.666666666666668
-50.0   60.0   16.666666666666668
0.0   60.0   16.666666666666668
-50.0   60.0   0.0
-50.0   30.0   16.666666666666668
0.0   60.0   16.666666666666668
0.0   30.0   16.666666666666668
0.0   30.0   0.0
-50.0   30.0   16.666666666666668
0.0   60.0   16.666666666666668
0.0   30.0   0.0
-50.0   60.0   0.0
-50.0   30.0   16.666666666666668
0.0   30.0   16.666666666666668
-50.0   60.0   16.666666666666668
-50.0   30.0   33.333333333333336
0.0   30.0   16.666666666666668
0.0   60.0   16.666666666666668
-50.0   60.0   16.666666666666668
0.0   60.0   33.333333333333336
-50.0   30.0   33.333333333333336
-50.0   60.0   33.333333333333336
0.0   60.0   33.333333333333336
-50.0   60.0   16.666666666666668
-50.0   30.0   33.333333333333336
0.0   60.0   33.333333333333336
0.0   30.0   33.333333333333336
0.0   30.0   16.666666666666668
-50.0   30.0   33.333333333333336
0.0   60.0   33.333333333333336
0.0   30.0   16.666666666666668
-50.0   60.0   16.666666666666668
-50.0   30.0   33.333333333333336
0.0   30.0   33.333333333333336
-50.0   60.0   33.333333333333336
-50.0   30.0   50.0
0.0   30.0   33.333333333333336
0.0   60.0   33.333333333333336
-50.0   60.0   33.333333333333336
0.0   60.0   50.0
-50.0   30.0   50.0
-50.0   60.0   50.0
0.0   60.0   50.0
-50.0   60.0   33.333333333333336
-50.0   30.0   50.0
0.0   60.0   50.0
0.0   30.0   50.0
0.0   30.0   33.333333333333336
-50.0   30.0   50.0
0.0   60.0   50.0
0.0   30.0   33.333333333333336
-50.0   60.0   33.333333333333336
-50.0   60.0   0.0
0.0   60.0   0.0
-50.0   90.0   0.0
-50.0   60.0   16.666666666666668
0.0   60.0   0.0
0.0   90.0   0.0
-50.0   90.0   0.0
0.0   90.0   16.666666666666668
-50.0   60.0   16.666666666666668
-50.0   90.0   16.666666666666668
0.0   90.0   16.666666666666668
-50.0   90.0   0.0
-50.0   60.0   16.666666666666668
0.0   90.0   16.666666666666668
0.0   60.0   16.666666666666668
0.0   60.0   0.0
-50.0   60.0   16.666666666666668
0.0   90.0   16.666666666666668
0.0   60.0   0.0
-50.0   90.0   0.0
-50.0   60.0   16.666666666666668
0.0   60.0   16.666666666666668
-50.0   90.0   16.666666666666668
-50.0   60.0   33.333333333333336
0.0   60.0   16.666666666666668
0.0   90.0   16.666666666666668
-50.0   90.0   16.666666666666668
0.0   90.0   33.333333333333336
-50.0   60.0   33.333333333333336
-50.0   90.0   33.333333333333336
0.0   90.0   33.333333333333336
-50.0   90.0   16.666666666666668
-50.0   60.0   33.333333333333336
0.0   90.0   33.333333333333336
0.0   60.0   33.333333333333336
0.0   60.0   16.666666666666668
-50.0   60.0   33.333333333333336
0.0   90.0   33.333333333333336
0.0   60.0   16.666666666666668
-50.0   90.0   16.666666666666668
-50.0   60.0   33.333333333333336
0.0   60.0   33.333333333333336
-50.0   90.0   33.333333333333336
-50.0   60.0   50.0
0.0   60.0   33.333333333333336
0.0   90.0   33.333333333333336
-50.0   90.0   33.333333333333336
0.0   90.0   50.0
-50.0   60.0   50.0
-50.0   90.0   50.0
0.0   90.0   50.0
-50.0   90.0   33.333333333333336
-50.0   60.0   50.0
0.0   90.0   50.0
0.0   60.0   50.0
0.0   60.0   33.333333333333336
-50.0   60.0   50.0
0.0   90.0   50.0
0.0   60.0   33.333333333333336
-50.0   90.0   33.333333333333336
-50.0   90.0   0.0
0.0   90.0   0.0
-50.0   120.0   0.0
-50.0   90.0   16.666666666666668
0.0   90.0   0.0
0.0   120.0   0.0
-50.0   120.0   0.0
0.0   120.0   16.666666666666668
-50.0   90.0   16.666666666666668
-50.0   120.0   16.666666666666668
0.0   120.0   16.666666666666668
-50.0   120.0   0.0
-50.0   90.0   16.666666666666668
0.0   120.0   16.666666666666668
0.0   90.0   16.666666666666668
0.0   90.0   0.0
-50.0   90.0   16.666666666666668
0.0   120.0   16.666666666666668
0.0   90.0   0.0
-50.0   120.0   0.0
-50.0   90.0   16.666666666666668
0.0   90.0   16.666666666666668
-50.0   120.0   16.666666666666668
-50.0   90.0   33.333333333333336
0.0   90.0   16.666666666666668
0.0   120.0   16.666666666666668
-50.0   120.0   16.666666666666668
0.0   120.0   33.333333333333336
-50.0   90.0   33.333333333333336
-50.0   120.0   33.333333333333336
0.0   120.0   33.333333333333336
-50.0   120.0   16.666666666666668
-50.0   90.0   33.333333333333336
0.0   120.0   33.333333333333336
0.0   90.0   33.333333333333336
0.0   90.0   16.666666666666668
-50.0   90.0   33.333333333333336
0.0   120.0   33.333333333333336
0.0   90.0   16.666666666666668
-50.0   120.0   16.666666666666668
-50.0   90.0   33.333333333333336
0.0   90.0   33.333333333333336
-50.0   120.0   33.333333333333336
-50.0   90.0   50.0
0.0   90.0   33.333333333333336
0.0   120.0   33.333333333333336
-50.0   120.0   33.333333333333336
0.0   120.0   50.0
-50.0   90.0   50.0
-50.0   120.0   50.0
0.0   120.0   50.0
-50.0   120.0   33.333333333333336
-50.0   90.0   50.0
0.0   120.0   50.0
0.0   90.0   50.0
0.0   90.0   33.333333333333336
-50.0   90.0   50.0
0.0   120.0   50.0
0.0   90.0   33.333333333333336
-50.0   120.0   33.333333333333336
-50.0   120.0   0.0
0.0   120.0   0.0
-50.0   150.0   0.0
-50.0   120.0   16.666666666666668
0.0   120.0   0.0
0.0   150.0   0.0
-50.0   150.0   0.0
0.0   150.0   16.666666666666668
-50.0   120.0   16.666666666666668
-50.0   150.0   16.666666666666668
0.0   150.0   16.666666666666668
-50.0   150.0   0.0
-50.0   120.0   16.666666666666668
0.0   150.0   16.666666666666668
0.0   120.0   16.666666666666668
0.0   120.0   0.0
-50.0   120.0   16.666666666666668
0.0   150.0   16.666666666666668
0.0   120.0   0.0
-50.0   150.0   0.0
-50.0   120.0   16.666666666666668
0.0   120.0   16.666666666666668
-50.0   150.0   16.666666666666668
-50.0   120.0   33.333333333333336
0.0   120.0   16.666666666666668
0.0   150.0   16.666666666666668
-50.0   150.0   16.666666666666668
0.0   150.0   33.333333333333336
-50.0   120.0   33.333333333333336
-50.0   150.0   33.333333333333336
0.0   150.0   33.333333333333336
-50.0   150.0   16.666666666666668
-50.0   120.0   33.333333333333336
0.0   150.0   33.333333333333336
0.0   120.0   33.333333333333336
0.0   120.0   16.666666666666668
-50.0   120.0   33.333333333333336
0.0   150.0   33.333333333333336
0.0   120.0   16.666666666666668
-50.0   150.0   16.666666666666668
-50.0   120.0   33.333333333333336
0.0   120.0   33.333333333333336
-50.0   150.0   33.333333333333336
-50.0   120.0   50.0
0.0   120.0   33.333333333333336
0.0   150.0   33.333333333333336
-50.0   150.0   33.333333333333336
0.0   150.0   50.0
-50.0   120.0   50.0
-50.0   150.0   50.0
0.0   150.0   50.0
-50.0   150.0   33.333333333333336
-50.0   120.0   50.0
0.0   150.0   50.0
0.0   120.0   50.0
0.0   120.0   33.333333333333336
-50.0   120.0   50.0
0.0   150.0   50.0
0.0   120.0   33.333333333333336
-50.0   150.0   33.333333333333336
0.0   0.0   0.0
50.0   0.0   0.0
0.0   30.0   0.0
0.0   0.0   16.666666666666668
50.0   0.0   0.0
50.0   30.0   0.0
0.0   30.0   0.0
50.0   30.0   16.666666666666668
0.0   0.0   16.666666666666668
0.0   30.0   16.666666666666668
50.0   30.0   16.666666666666668
0.0   30.0   0.0
0.0   0.0   16.666666666666668
50.0   30.0   16.666666666666668
50.0   0.0   16.666666666666668
50.0   0.0   0.0
0.0   0.0   16.666666666666668
50.0   30.0   16.666666666666668
50.0   0.0   0.0
0.0   30.0   0.0
0.0   0.0   16.666666666666668
50.0   0.0   16.666666666666668
0.0   30.0   16.666666666666668
0.0   0.0   33.333333333333336
50.0   0.0   16.666666666666668
50.0   30.0   16.666666666666668
0.0   30.0   16.666666666666668
50.0   30.0   33.333333333333336
0.0   0.0   33.333333333333336
0.0   30.0   33.333333333333336
50.0   30.0   33.333333333333336
0.0   30.0   16.666666666666668
0.0   0.0   33.333333333333336
50.0   30.0   33.333333333333336
50.0   0.0   33.333333333333336
50.0   0.0   16.666666666666668
0.0   0.0   33.333333333333336
50.0   30.0   33.333333333333336
50.0   0.0   16.666666666666668
0.0   30.0   16.666666666666668
0.0   0.0   33.333333333333336
50.0   0.0   33.333333333333336
0.0   30.0   33.333333333333336
0.0   0.0   50.0
50.0   0.0   33.333333333333336
50.0   30.0   33.333333333333336
0.0   30.0   33.333333333333336
50.0   30.0   50.0
0.0   0.0   50.0
0.0   30.0   50.0
50.0   30.0   50.0
0.0   30.0   33.333333333333336
0.0   0.0   50.0
50.0   30.0   50.0
50.0   0.0   50.0
50.0   0.0   33.333333333333336
0.0   0.0   50.0
50.0   30.0   50.0
50.0   0.0   33.333333333333336
0.0   30.0   33.333333333333336
0.0   30.0   0.0
50.0   30.0   0.0
0.0   60.0   0.0
0.0   30.0   16.666666666666668
50.0   30.0   0.0
50.0   60.0   0.0
0.0   60.0   0.0
50.0   60.0   16.666666666666668
0.0   30.0   16.666666666666668
0.0   60.0   16.666666666666668
50.0   60.0   16.666666666666668
0.0   60.0   0.0
0.0   30.0   16.666666666666668
50.0   60.0   16.666666666666668
50.0   30.0   16.666666666666668
50.0   30.0   0.0
0.0   30.0   16.666666666666668
50.0   60.0   16.666666666666668
50.0   30.0   0.0
0.0   60.0   0.0
0.0   30.0   16.666666666666668
50.0   30.0   16.666666666666668
0.0   60.0   16.666666666666668
0.0   30.0   33.333333333333336
50.0   30.0   16.666666666666668
50.0   60.0   16.666666666666668
0.0   60.0   16.666666666666668
50.0   60.0   33.333333333333336
0.0   30.0   33.333333333333336
0.0   60.0   33.333333333333336
50.0   60.0   33.333333333333336
0.0   60.0   16.666666666666668
0.0   30.0   33.333333333333336
50.0   60.0   33.333333333333336
50.0   30.0   33.333333333333336
50.0   30.0   16.666666666666668
0.0   30.0   33.333333333333336
50.0   60.0   33.333333333333336
50.0   30.0   16.666666666666668
0.0   60.0   16.666666666666668
0.0   30.0   33.333333333333336
50.0   30.0   33.333333333333336
0.0   60.0   33.333333333333336
0.0   30.0   50.0
50.0   30.0   33.333333333333336
50.0   60.0   33.333333333333336
0.0   60.0   33.333333333333336
50.0   60.0   50.0
0.0   30.0   50.0
0.0   60.0   50.0
50.0   60.0   50.0
0.0   60.0   33.333333333333336
0.0   30.0   50.0
50.0   60.0   50.0
50.0   30.0   50.0
50.0   30.0   33.333333333333336
0.0   30.0   50.0
50.0   60.0   50.0
50.0   30.0   33.333333333333336
0.0   60.0   33.333333333333336
0.0   60.0   0.0
50.0   60.0   0.0
0.0   90.0   0.0
0.0   60.0   16.666666666666668
50.0   60.0   0.0
50.0   90.0   0.0
0.0   90.0   0.0
50.0   90.0   16.666666666666668
0.0   60.0   16.666666666666668
0.0   90.0   16.666666666666668
50.0   90.0   16.666666666666668
0.0   90.0   0.0
0.0   60.0   16.666666666666668
50.0   90.0   16.666666666666668
50.0   60.0   16.666666666666668
50.0   60.0   0.0
0.0   60.0   16.666666666666668
50.0   90.0   16.666666666666668
50.0   60.0   0.0
0.0   90.0   0.0
0.0   60.0   16.666666666666668
50.0   60.0   16.666666666666668
0.0   90.0   16.666666666666668
0.0   60.0   33.333333333333336
50.0   60.0   16.666666666666668
50.0   90.0   16.666666666666668
0.0   90.0   16.666666666666668
50.0   90.0   33.333333333333336
0.0   60.0   33.333333333333336
0.0   90.0   33.333333333333336
50.0   90.0   33.333333333333336
0.0   90.0   16.666666666666668
0.0   60.0   33.333333333333336
50.0   90.0   33.333333333333336
50.0   60.0   33.333333333333336
50.0   60.0   16.666666666666668
0.0   60.0   33.333333333333336
50.0   90.0   33.333333333333336
50.0   60.0   16.666666666666668
0.0   90.0   16.666666666666668
0.0   60.0   33.333333333333336
50.0   60.0   33.333333333333336
0.0   90.0   33.333333333333336
0.0   60.0   50.0
50.0   60.0   33.333333333333336
50.0   90.0   33.333333333333336
0.0   90.0   33.333333333333336
50.0   90.0   50.0
0.0   60.0   50.0
0.0   90.0   50.0
50.0   90.0   50.0
0.0   90.0   33.333333333333336
0.0   60.0   50.0
50.0   90.0   50.0
50.0   60.0   50.0
50.0   60.0   33.333333333333336
0.0   60.0   50.0
50.0   90.0   50.0
50.0   60.0   33.333333333333336
0.0   90.0   33.333333333333336
0.0   90.0   0.0
50.0   90.0   0.0
0.0   120.0   0.0
0.0   90.0   16.666666666666668
50.0   90.0   0.0
50.0   120.0   0.0
0.0   120.0   0.0
50.0   120.0   16.666666666666668
0.0   90.0   16.666666666666668
0.0   120.0   16.666666666666668
50.0   120.0   16.666666666666668
0.0   120.0   0.0
0.0   90.0   16.666666666666668
50.0   120.0   16.666666666666668
50.0   90.0   16.666666666666668
50.0   90.0   0.0
0.0   90.0   16.666666666666668
50.0   120.0   16.666666666666668
50.0   90.0   0.0
0.0   120.0   0.0
0.0   90.0   16.666666666666668
50.0   90.0   16.666666666666668
0.0   120.0   16.666666666666668
0.0   90.0   33.333333333333336
50.0   90.0   16.666666666666668
50.0   120.0   16.666666666666668
0.0   120.0   16.666666666666668
50.0   120.0   33.333333333333336
0.0   90.0   33.333333333333336
0.0   120.0   33.333333333333336
50.0   120.0   33.333333333333336
0.0   120.0   16.666666666666668
0.0   90.0   33.333333333333336
50.0   120.0   33.333333333333336
50.0   90.0   33.333333333333336
50.0   90.0   16.666666666666668
0.0   90.0   33.333333333333336
50.0   120.0   33.333333333333336
50.0   90.0   16.666666666666668
0.0   120.0   16.666666666666668
0.0   90.0   33.333333333333336
50.0   90.0   33.333333333333336
0.0   120.0   33.333333333333336
0.0   90.0   50.0
50.0   90.0   33.333333333333336
50.0   120.0   33.333333333333336
0.0   120.0   33.333333333333336
50.0   120.0   50.0
0.0   90.0   50.0
0.0   120.0   50.0
50.0   120.0   50.0
0.0   120.0   33.333333333333336
0.0   90.0   50.0
50.0   120.0   50.0
50.0   90.0   50.0
50.0   90.0   33.333333333333336
0.0   90.0   50.0
50.0   120.0   50.0
50.0   90.0   33.333333333333336
0.0   120.0   33.333333333333336
0.0   120.0   0.0
50.0   120.0   0.0
0.0   150.0   0.0
0.0   120.0   16.666666666666668
50.0   120.0   0.0
50.0   150.0   0.0
0.0   150.0   0.0
50.0   150.0   16.666666666666668
0.0   120.0   16.666666666666668
0.0   150.0   16.666666666666668
50.0   150.0   16.666666666666668
0.0   150.0   0.0
0.0   120.0   16.666666666666668
50.0   150.0   16.666666666666668
50.0   120.0   16.666666666666668
50.0   120.0   0.0
0.0   120.0   16.666666666666668
50.0   150.0   16.666666666666668
50.0   120.0   0.0
0.0   150.0   0.0
0.0   120.0   16.666666666666668
50.0   120.0   16.666666666666668
0.0   150.0   16.666666666666668
0.0   120.0   33.333333333333336
50.0   120.0   16.666666666666668
50.0   150.0   16.666666666666668
0.0   150.0   16.666666666666668
50.0   150.0   33.333333333333336
0.0   120.0   33.333333333333336
0.0   150.0   33.333333333333336
50.0   150.0   33.333333333333336
0.0   150.0   16.666666666666668
0.0   120.0   33.333333333333336
50.0   150.0   33.333333333333336
50.0   120.0   33.333333333333336
50.0   120.0   16.666666666666668
0.0   120.0   33.333333333333336
50.0   150.0   33.333333333333336
50.0   120.0   16.666666666666668
0.0   150.0   16.666666666666668
0.0   120.0   33.333333333333336
50.0   120.0   33.333333333333336
0.0   150.0   33.333333333333336
0.0   120.0   50.0
50.0   120.0   33.333333333333336
50.0   150.0   33.333333333333336
0.0   150.0   33.333333333333336
50.0   150.0   50.0
0.0   120.0   50.0
0.0   150.0   50.0
50.0   150.0   50.0
0.0   150.0   33.333333333333336
0.0   120.0   50.0
50.0   150.0   50.0
50.0   120.0   50.0
50.0   120.0   33.333333333333336
0.0   120.0   50.0
50.0   150.0   50.0
50.0   120.0   33.333333333333336
0.0   150.0   33.333333333333336
50.0   0.0   0.0
100.0   0.0   0.0
50.0   30.0   0.0
50.0   0.0   16.666666666666668
100.0   0.0   0.0
100.0   30.0   0.0
50.0   30.0   0.0
100.0   30.0   16.666666666666668
50.0   0.0   16.666666666666668
50.0   30.0   16.666666666666668
100.0   30.0   16.666666666666668
50.0   30.0   0.0
50.0   0.0   16.666666666666668
100.0   30.0   16.666666666666668
100.0   0.0   16.666666666666668
100.0   0.0   0.0
50.0   0.0   16.666666666666668
100.0   30.0   16.666666666666668
100.0   0.0   0.0
50.0   30.0   0.0
50.0   0.0   16.666666666666668
100.0   0.0   16.666666666666668
50.0   30.0   16.666666666666668
50.0   0.0   33.333333333333336
100.0   0.0   16.666666666666668
100.0   30.0   16.666666666666668
50.0   30.0   16.666666666666668
100.0   30.0   33.333333333333336
50.0   0.0   33.333333333333336
50.0   30.0   33.333333333333336
100.0   30.0   33.333333333333336
50.0   30.0   16.666666666666668
50.0   0.0   33.333333333333336
100.0   30.0   33.333333333333336
100.0   0.0   33.333333333333336
100.0   0.0   16.666666666666668
50.0   0.0   33.333333333333336
100.0   30.0   33.333333333333336
100.0   0.0   16.666666666666668
50.0   30.0   16.666666666666668
50.0   0.0   33.333333333333336
100.0   0.0   33.333333333333336
50.0   30.0   33.333333333333336
50.0   0.0   50.0
100.0   0.0   33.333333333333336
100.0   30.0   33.333333333333336
50.0   30.0   33.333333333333336
100.0   30.0   50.0
50.0   0.0   50.0
50.0   30.0   50.0
100.0   30.0   50.0
50.0   30.0   33.333333333333336
50.0   0.0   50.0
100.0   30.0   50.0
100.0   0.0   50.0
100.0   0.0   33.333333333333336
50.0   0.0   50.0
100.0   30.0   50.0
100.0   0.0   33.333333333333336
50.0   30.0   33.333333333333336
50.0   30.0   0.0
100.0   30.0   0.0
50.0   60.0   0.0
50.0   30.0   16.666666666666668
100.0   30.0   0.0
100.0   60.0   0.0
50.0   60.0   0.0
100.0   60.0   16.666666666666668
50.0   30.0   16.666666666666668
50.0   60.0   16.666666666666668
100.0   60.0   16.666666666666668
50.0   60.0   0.0
50.0   30.0   16.666666666666668
100.0   60.0   16.666666666666668
100.0   30.0   16.666666666666668
100.0   30.0   0.0
50.0   30.0   16.666666666666668
100.0   60.0   16.666666666666668
100.0   30.0   0.0
50.0   60.0   0.0
50.0   30.0   16.666666666666668
100.0   30.0   16.666666666666668
50.0   60.0   16.666666666666668
50.0   30.0   33.333333333333336
100.0   30.0   16.666666666666668
100.0   60.0   16.666666666666668
50.0   60.0   16.666666666666668
100.0   60.0   33.333333333333336
50.0   30.0   33.333333333333336
50.0   60.0   33.333333333333336
100.0   60.0   33.333333333333336
50.0   60.0   16.666666666666668
50.0   30.0   33.333333333333336
100.0   60.0   33.333333333333336
100.0   30.0   33.333333333333336
100.0   30.0   16.666666666666668
50.0   30.0   33.333333333333336
100.0   60.0   33.333333333333336
100.0   30.0   16.666666666666668
50.0   60.0   16.666666666666668
50.0   30.0   33.333333333333336
100.0   30.0   33.333333333333336
50.0   60.0   33.333333333333336
50.0   30.0   50.0
100.0   30.0   33.333333333333336
100.0   60.0   33.333333333333336
50.0   60.0   33.333333333333336
100.0   60.0   50.0
50.0   30.0   50.0
50.0   60.0   50.0
100.0   60.0   50.0
50.0   60.0   33.333333333333336
50.0   30.0   50.0
100.0   60.0   50.0
100.0   30.0   50.0
100.0   30.0   33.333333333333336
50.0   30.0   50.0
100.0   60.0   50.0
100.0   30.0   33.333333333333336
50.0   60.0   33.333333333333336
50.0   60.0   0.0
100.0   60.0   0.0
50.0   90.0   0.0
50.0   60.0   16.666666666666668
100.0   60.0   0.0
100.0   90.0   0.0
50.0   90.0   0.0
100.0   90.0   16.666666666666668
50.0   60.0   16.666666666666668
50.0   90.0   16.666666666666668
100.0   90.0   16.666666666666668
50.0   90.0   0.0
50.0   60.0   16.666666666666668
100.0   90.0   16.666666666666668
100.0   60.0   16.666666666666668
100.0   60.0   0.0
50.0   60.0   16.666666666666668
100.0   90.0   16.666666666666668
100.0   60.0   0.0
50.0   90.0   0.0
50.0   60.0   16.666666666666668
100.0   60.0   16.666666666666668
50.0   90.0   16.666666666666668
50.0   60.0   33.333333333333336
100.0   60.0   16.666666666666668
100.0   90.0   16.666666666666668
50.0   90.0   16.666666666666668
100.0   90.0   33.333333333333336
50.0   60.0   33.333333333333336
50.0   90.0   33.333333333333336
100.0   90.0   33.333333333333336
50.0   90.0   16.666666666666668
50.0   60.0   33.333333333333336
100.0   90.0   33.333333333333336
100.0   60.0   33.333333333333336
100.0   60.0   16.666666666666668
50.0   60.0   33.333333333333336
100.0   90.0   33.333333333333336
100.0   60.0   16.666666666666668
50.0   90.0   16.666666666666668
50.0   60.0   33.333333333333336
100.0   60.0   33.333333333333336
50.0   90.0   33.333333333333336
50.0   60.0   50.0
100.0   60.0   33.333333333333336
100.0   90.0   33.333333333333336
50.0   90.0   33.333333333333336
100.0   90.0   50.0
50.0   60.0   50.0
50.0   90.0   50.0
100.0   90.0   50.0
50.0   90.0   33.333333333333336
50.0   60.0   50.0
100.0   90.0   50.0
100.0   60.0   50.0
100.0   60.0   33.333333333333336
50.0   60.0   50.0
100.0   90.0   50.0
100.0   60.0   33.333333333333336
50.0   90.0   33.333333333333336
50.0   90.0   0.0
100.0   90.0   0.0
50.0   120.0   0.0
50.0   90.0   16.666666666666668
100.0   90.0   0.0
100.0   120.0   0.0
50.0   120.0   0.0
100.0   120.0   16.666666666666668
50.0   90.0   16.666666666666668
50.0   120.0   16.666666666666668
100.0   120.0   16.666666666666668
50.0   120.0   0.0
50.0   90.0   16.666666666666668
100.0   120.0   16.666666666666668
100.0   90.0   16.666666666666668
100.0   90.0   0.0
50.0   90.0   16.666666666666668
100.0   120.0   16.666666666666668
100.0   90.0   0.0
50.0   120.0   0.0
50.0   90.0   16.666666666666668
100.0   90.0   16.666666666666668
50.0   120.0   16.666666666666668
50.0   90.0   33.333333333333336
100.0   90.0   16.666666666666668
100.0   120.0   16.666666666666668
50.0   120.0   16.666666666666668
100.0   120.0   33.333333333333336
50.0   90.0   33.333333333333336
50.0   120.0   33.333333333333336
100.0   120.0   33.333333333333336
50.0   120.0   16.666666666666668
50.0   90.0   33.333333333333336
100.0   120.0   33.333333333333336
100.0   90.0   33.333333333333336
100.0   90.0   16.666666666666668
50.0   90.0   33.333333333333336
100.0   120.0   33.333333333333336
100.0   90.0   16.666666666666668
50.0   120.0   16.666666666666668
50.0   90.0   33.333333333333336
100.0   90.0   33.333333333333336
50.0   120.0   33.333333333333336
50.0   90.0   50.0
100.0   90.0   33.333333333333336
100.0   120.0   33.333333333333336
50.0   120.0   33.333333333333336
100.0   120.0   50.0
50.0   90.0   50.0
50.0   120.0   50.0
100.0   120.0   50.0
50.0   120.0   33.333333333333336
50.0   90.0   50.0
100.0   120.0   50.0
100.0   90.0   50.0
100.0   90.0   33.333333333333336
50.0   90.0   50.0
100.0   120.0   50.0
100.0   90.0   33.333333333333336
50.0   120.0   33.333333333333336
50.0   120.0   0.0
100.0   120.0   0.0
50.0   150.0   0.0
50.0   120.0   16.666666666666668
100.0   120.0   0.0
100.0   150.0   0.0
50.0   150.0   0.0
100.0   150.0   16.666666666666668
50.0   120.0   16.666666666666668
50.0   150.0   16.666666666666668
100.0   150.0   16.666666666666668
50.0   150.0   0.0
50.0   120.0   16.666666666666668
100.0   150.0   16.666666666666668
100.0   120.0   16.666666666666668
100.0   120.0   0.0
50.0   120.0   16.666666666666668
100.0   150.0   16.666666666666668
100.0   120.0   0.0
50.0   150.0   0.0
50.0   120.0   16.666666666666668
100.0   120.0   16.666666666666668
50.0   150.0   16.666666666666668
50.0   120.0   33.333333333333336
100.0   120.0   16.666666666666668
100.0   150.0   16.666666666666668
50.0   150.0   16.666666666666668
100.0   150.0   33.333333333333336
50.0   120.0   33.333333333333336
50.0   150.0   33.333333333333336
100.0   150.0   33.333333333333336
50.0   150.0   16.666666666666668
50.0   120.0   33.333333333333336
100.0   150.0   33.333333333333336
100.0   120.0   33.333333333333336
100.0   120.0   16.666666666666668
50.0   120.0   33.333333333333336
100.0   150.0   33.333333333333336
100.0   120.0   16.666666666666668
50.0   150.0   16.666666666666668
50.0   120.0   33.333333333333336
100.0   120.0   33.333333333333336
50.0   150.0   33.333333333333336
50.0   120.0   50.0
100.0   120.0   33.333333333333336
100.0   150.0   33.333333333333336
50.0   150.0   33.333333333333336
100.0   150.0   50.0
50.0   120.0   50.0
50.0   150.0   50.0
100.0   150.0   50.0
50.0   150.0   33.333333333333336
50.0   120.0   50.0
100.0   150.0   50.0
100.0   120.0   50.0
100.0   120.0   33.333333333333336
50.0   120.0   50.0
100.0   150.0   50.0
100.0   120.0   33.333333333333336
50.0   150.0   33.333333333333336
100.0   0.0   0.0
150.0   0.0   0.0
100.0   30.0   0.0
100.0   0.0   16.666666666666668
150.0   0.0   0.0
150.0   30.0   0.0
100.0   30.0   0.0
150.0   30.0   16.666666666666668
100.0   0.0   16.666666666666668
100.0   30.0   16.666666666666668
150.0   30.0   16.666666666666668
100.0   30.0   0.0
100.0   0.0   16.666666666666668
150.0   30.0   16.666666666666668
150.0   0.0   16.666666666666668
150.0   0.0   0.0
100.0   0.0   16.666666666666668
150.0   30.0   16.666666666666668
150.0   0.0   0.0
100.0   30.0   0.0
100.0   0.0   16.666666666666668
150.0   0.0   16.666666666666668
100.0   30.0   16.666666666666668
100.0   0.0   33.333333333333336
150.0   0.0   16.666666666666668
150.0   30.0   16.666666666666668
100.0   30.0   16.666666666666668
150.0   30.0   33.333333333333336
100.0   0.0   33.333333333333336
100.0   30.0   33.333333333333336
150.0   30.0   33.333333333333336
100.0   30.0   16.666666666666668
100.0   0.0   33.333333333333336
150.0   30.0   33.333333333333336
150.0   0.0   33.333333333333336
150.0   0.0   16.666666666666668
100.0   0.0   33.333333333333336
150.0   30.0   33.333333333333336
150.0   0.0   16.666666666666668
100.0   30.0   16.666666666666668
100.0   0.0   33.333333333333336
150.0   0.0   33.333333333333336
100.0   30.0   33.333333333333336
100.0   0.0   50.0
150.0   0.0   33.333333333333336
150.0   30.0   33.333333333333336
100.0   30.0   33.333333333333336
150.0   30.0   50.0
100.0   0.0   50.0
100.0   30.0   50.0
150.0   30.0   50.0
100.0   30.0   33.333333333333336
100.0   0.0   50.0
150.0   30.0   50.0
150.0   0.0   50.0
150.0   0.0   33.333333333333336
100.0   0.0   50.0
150.0   30.0   50.0
150.0   0.0   33.333333333333336
100.0   30.0   33.333333333333336
100.0   30.0   0.0
150.0   30.0   0.0
100.0   60.0   0.0
100.0   30.0   16.666666666666668
150.0   30.0   0.0
150.0   60.0   0.0
100.0   60.0   0.0
150.0   60.0   16.666666666666668
100.0   30.0   16.666666666666668
100.0   60.0   16.666666666666668
150.0   60.0   16.666666666666668
100.0   60.0   0.0
100.0   30.0   16.666666666666668
150.0   60.0   16.666666666666668
150.0   30.0   16.666666666666668
150.0   30.0   0.0
100.0   30.0   16.666666666666668
150.0   60.0   16.666666666666668
150.0   30.0   0.0
100.0   60.0   0.0
100.0   30.0   16.666666666666668
150.0   30.0   16.666666666666668
100.0   60.0   16.666666666666668
100.0   30.0   33.333333333333336
150.0   30.0   16.666666666666668
150.0   60.0   16.666666666666668
100.0   60.0   16.666666666666668
150.0   60.0   33.333333333333336
100.0   30.0   33.333333333333336
100.0   60.0   33.333333333333336
150.0   60.0   33.333333333333336
100.0   60.0   16.666666666666668
100.0   30.0   33.333333333333336
150.0   60.0   33.333333333333336
150.0   30.0   33.333333333333336
150.0   30.0   16.666666666666668
100.0   30.0   33.333333333333336
150.0   60.0   33.333333333333336
150.0   30.0   16.666666666666668
100.0   60.0   16.666666666666668
100.0   30.0   33.333333333333336
150.0   30.0   33.333333333333336
100.0   60.0   33.333333333333336
100.0   30.0   50.0
150.0   30.0   33.333333333333336
150.0   60.0   33.333333333333336
100.0   60.0   33.333333333333336
150.0   60.0   50.0
100.0   30.0   50.0
100.0   60.0   50.0
150.0   60.0   50.0
100.0   60.0   33.333333333333336
100.0   30.0   50.0
150.0   60.0   50.0
150.0   30.0   50.0
150.0   30.0   33.333333333333336
100.0   30.0   50.0
150.0   60.0   50.0
150.0   30.0   33.333333333333336
100.0   60.0   33.333333333333336
100.0   60.0   0.0
150.0   60.0   0.0
100.0   90.0   0.0
100.0   60.0   16.666666666666668
150.0   60.0   0.0
150.0   90.0   0.0
100.0   90.0   0.0
150.0   90.0   16.666666666666668
100.0   60.0   16.666666666666668
100.0   90.0   16.666666666666668
150.0   90.0   16.666666666666668
100.0   90.0   0.0
100.0   60.0   16.666666666666668
150.0   90.0   16.666666666666668
150.0   60.0   16.666666666666668
150.0   60.0   0.0
100.0   60.0   16.666666666666668
150.0   90.0   16.666666666666668
150.0   60.0   0.0
100.0   90.0   0.0
100.0   60.0   16.666666666666668
150.0   60.0   16.666666666666668
100.0   90.0   16.666666666666668
100.0   60.0   33.333333333333336
150.0   60.0   16.666666666666668
150.0   90.0   16.666666666666668
100.0   90.0   16.666666666666668
150.0   90.0   33.333333333333336
100.0   60.0   33.333333333333336
100.0   90.0   33.333333333333336
150.0   90.0   33.333333333333336
100.0   90.0   16.666666666666668
100.0   60.0   33.333333333333336
150.0   90.0   33.333333333333336
150.0   60.0   33.333333333333336
150.0   60.0   16.666666666666668
100.0   60.0   33.333333333333336
150.0   90.0   33.333333333333336
150.0   60.0   16.666666666666668
100.0   90.0   16.666666666666668
100.0   60.0   33.333333333333336
150.0   60.0   33.333333333333336
100.0   90.0   33.333333333333336
100.0   60.0   50.0
150.0   60.0   33.333333333333336
150.0   90.0   33.333333333333336
100.0   90.0   33.333333333333336
150.0   90.0   50.0
100.0   60.0   50.0
100.0   90.0   50.0
150.0   90.0   50.0
100.0   90.0   33.333333333333336
100.0   60.0   50.0
150.0   90.0   50.0
150.0   60.0   50.0
150.0   60.0   33.333333333333336
100.0   60.0   50.0
150.0   90.0   50.0
150.0   60.0   33.333333333333336
100.0   90.0   33.333333333333336
100.0   90.0   0.0
150.0   90.0   0.0
100.0   120.0   0.0
100.0   90.0   16.666666666666668
150.0   90.0   0.0
150.0   120.0   0.0
100.0   120.0   0.0
150.0   120.0   16.666666666666668
100.0   90.0   16.666666666666668
100.0   120.0   16.666666666666668
150.0   120.0   16.666666666666668
100.0   120.0   0.0
100.0   90.0   16.666666666666668
150.0   120.0   16.666666666666668
150.0   90.0   16.666666666666668
150.0   90.0   0.0
100.0   90.0   16.666666666666668
150.0   120.0   16.666666666666668
150.0   90.0   0.0
100.0   120.0   0.0
100.0   90.0   16.666666666666668
150.0   90.0   16.666666666666668
100.0   120.0   16.666666666666668
100.0   90.0   33.333333333333336
150.0   90.0   16.666666666666668
150.0   120.0   16.666666666666668
100.0   120.0   16.666666666666668
150.0   120.0   33.333333333333336
100.0   90.0   33.333333333333336
100.0   120.0   33.333333333333336
150.0   120.0   33.333333333333336
100.0   120.0   16.666666666666668
100.0   90.0   33.333333333333336
150.0   120.0   33.333333333333336
150.0   90.0   33.333333333333336
150.0   90.0   16.666666666666668
100.0   90.0   33.333333333333336
150.0   120.0   33.333333333333336
150.0   90.0   16.666666666666668
100.0   120.0   16.666666666666668
100.0   90.0   33.333333333333336
150.0   90.0   33.333333333333336
100.0   120.0   33.333333333333336
100.0   90.0   50.0
150.0   90.0   33.333333333333336
150.0   120.0   33.333333333333336
100.0   120.0   33.333333333333336
150.0   120.0   50.0
100.0   90.0   50.0
100.0   120.0   50.0
150.0   120.0   50.0
100.0   120.0   33.333333333333336
100.0   90.0   50.0
150.0   120.0   50.0
150.0   90.0   50.0
150.0   90.0   33.333333333333336
100.0   90.0   50.0
150.0   120.0   50.0
150.0   90.0   33.333333333333336
100.0   120.0   33.333333333333336
100.0   120.0   0.0
150.0   120.0   0.0
100.0   150.0   0.0
100.0   120.0   16.666666666666668
150.0   120.0   0.0
150.0   150.0   0.0
100.0   150.0   0.0
150.0   150.0   16.666666666666668
100.0   120.0   16.666666666666668
100.0   150.0   16.666666666666668
150.0   150.0   16.666666666666668
100.0   150.0   0.0
100.0   120.0   16.666666666666668
150.0   150.0   16.666666666666668
150.0   120.0   16.666666666666668
150.0   120.0   0.0
100.0   120.0   16.666666666666668
150.0   150.0   16.666666666666668
150.0   120.0   0.0
100.0   150.0   0.0
100.0   120.0   16.666666666666668
150.0   120.0   16.666666666666668
100.0   150.0   16.666666666666668
100.0   120.0   33.333333333333336
150.0   120.0   16.666666666666668
150.0   150.0   16.666666666666668
100.0   150.0   16.666666666666668
150.0   150.0   33.333333333333336
100.0   120.0   33.333333333333336
100.0   150.0   33.333333333333336
150.0   150.0   33.333333333333336
100.0   150.0   16.666666666666668
100.0   120.0   33.333333333333336
150.0   150.0   33.333333333333336
150.0   120.0   33.333333333333336
150.0   120.0   16.666666666666668
100.0   120.0   33.333333333333336
150.0   150.0   33.333333333333336
150.0   120.0   16.666666666666668
100.0   150.0   16.666666666666668
100.0   120.0   33.333333333333336
150.0   120.0   33.333333333333336
100.0   150.0   33.333333333333336
100.0   120.0   50.0
150.0   120.0   33.333333333333336
150.0   150.0   33.333333333333336
100.0   150.0   33.333333333333336
150.0   150.0   50.0
100.0   120.0   50.0
100.0   150.0   50.0
150.0   150.0   50.0
100.0   150.0   33.333333333333336
100.0   120.0   50.0
150.0   150.0   50.0
150.0   120.0   50.0
150.0   120.0   33.333333333333336
100.0   120.0   50.0
150.0   150.0   50.0
150.0   120.0   33.333333333333336
100.0   150.0   33.333333333333336
150.0   0.0   0.0
200.0   0.0   0.0
150.0   30.0   0.0
150.0   0.0   16.666666666666668
200.0   0.0   0.0
200.0   30.0   0.0
150.0   30.0   0.0
200.0   30.0   16.666666666666668
150.0   0.0   16.666666666666668
150.0   30.0   16.666666666666668
200.0   30.0   16.666666666666668
150.0   30.0   0.0
150.0   0.0   16.666666666666668
200.0   30.0   16.666666666666668
200.0   0.0   16.666666666666668
200.0   0.0   0.0
150.0   0.0   16.666666666666668
200.0   30.0   16.666666666666668
200.0   0.0   0.0
150.0   30.0   0.0
150.0   0.0   16.666666666666668
200.0   0.0   16.666666666666668
150.0   30.0   16.666666666666668
150.0   0.0   33.333333333333336
200.0   0.0   16.666666666666668
200.0   30.0   16.666666666666668
150.0   30.0   16.666666666666668
200.0   30.0   33.333333333333336
150.0   0.0   33.333333333333336
150.0   30.0   33.333333333333336
200.0   30.0   33.333333333333336
150.0   30.0   16.666666666666668
150.0   0.0   33.333333333333336
200.0   30.0   33.333333333333336
200.0   0.0   33.333333333333336
200.0   0.0   16.666666666666668
150.0   0.0   33.333333333333336
200.0   30.0   33.333333333333336
200.0   0.0   16.666666666666668
150.0   30.0   16.666666666666668
150.0   0.0   33.333333333333336
200.0   0.0   33.333333333333336
150.0   30.0   33.333333333333336
150.0   0.0   50.0
200.0   0.0   33.333333333333336
200.0   30.0   33.333333333333336
150.0   30.0   33.333333333333336
200.0   30.0   50.0
150.0   0.0   50.0
150.0   30.0   50.0
200.0   30.0   50.0
150.0   30.0   33.333333333333336
150.0   0.0   50.0
200.0   30.0   50.0
200.0   0.0   50.0
200.0   0.0   33.333333333333336
150.0   0.0   50.0
200.0   30.0   50.0
200.0   0.0   33.333333333333336
150.0   30.0   33.333333333333336
150.0   30.0   0.0
200.0   30.0   0.0
150.0   60.0   0.0
150.0   30.0   16.666666666666668
200.0   30.0   0.0
200.0   60.0   0.0
150.0   60.0   0.0
200.0   60.0   16.666666666666668
150.0   30.0   16.666666666666668
150.0   60.0   16.666666666666668
200.0   60.0   16.666666666666668
150.0   60.0   0.0
150.0   30.0   16.666666666666668
200.0   60.0   16.666666666666668
200.0   30.0   16.666666666666668
200.0   30.0   0.0
150.0   30.0   16.666666666666668
200.0   60.0   16.666666666666668
200.0   30.0   0.0
150.0   60.0   0.0
150.0   30.0   16.666666666666668
200.0   30.0   16.666666666666668
150.0   60.0   16.666666666666668
150.0   30.0   33.333333333333336
200.0   30.0   16.666666666666668
200.0   60.0   16.666666666666668
150.0   60.0   16.666666666666668
200.0   60.0   33.333333333333336
150.0   30.0   33.333333333333336
150.0   60.0   33.333333333333336
200.0   60.0   33.333333333333336
150.0   60.0   16.666666666666668
150.0   30.0   33.333333333333336
200.0   60.0   33.333333333333336
200.0   30.0   33.333333333333336
200.0   30.0   16.666666666666668
150.0   30.0   33.333333333333336
200.0   60.0   33.333333333333336
200.0   30.0   16.666666666666668
150.0   60.0   16.666666666666668
150.0   30.0   33.333333333333336
200.0   30.0   33.333333333333336
150.0   60.0   33.333333333333336
150.0   30.0   50.0
200.0   30.0   33.333333333333336
200.0   60.0   33.333333333333336
150.0   60.0   33.333333333333336
200.0   60.0   50.0
150.0   30.0   50.0
150.0   60.0   50.0
200.0   60.0   50.0
150.0   60.0   33.333333333333336
150.0   30.0   50.0
200.0   60.0   50.0
200.0   30.0   50.0
200.0   30.0   33.333333333333336
150.0   30.0   50.0
200.0   60.0   50.0
200.0   30.0   33.333333333333336
150.0   60.0   33.333333333333336
150.0   60.0   0.0
200.0   60.0   0.0
150.0   90.0   0.0
150.0   60.0   16.666666666666668
200.0   60.0   0.0
200.0   90.0   0.0
150.0   90.0   0.0
200.0   90.0   16.666666666666668
150.0   60.0   16.666666666666668
150.0   90.0   16.666666666666668
200.0   90.0   16.666666666666668
150.0   90.0   0.0
150.0   60.0   16.666666666666668
200.0   90.0   16.666666666666668
200.0   60.0   16.666666666666668
200.0   60.0   0.0
150.0   60.0   16.666666666666668
200.0   90.0   16.666666666666668
200.0   60.0   0.0
150.0   90.0   0.0
150.0   60.0   16.666666666666668
200.0   60.0   16.666666666666668
150.0   90.0   16.666666666666668
150.0   60.0   33.333333333333336
200.0   60.0   16.666666666666668
200.0   90.0   16.666666666666668
150.0   90.0   16.666666666666668
200.0   90.0   33.333333333333336
150.0   60.0   33.333333333333336
150.0   90.0   33.333333333333336
200.0   90.0   33.333333333333336
150.0   90.0   16.666666666666668
150.0   60.0   33.333333333333336
200.0   90.0   33.333333333333336
200.0   60.0   33.333333333333336
200.0   60.0   16.666666666666668
150.0   60.0   33.333333333333336
200.0   90.0   33.333333333333336
200.0   60.0   16.666666666666668
150.0   90.0   16.666666666666668
150.0   60.0   33.333333333333336
200.0   60.0   33.333333333333336
150.0   90.0   33.333333333333336
150.0   60.0   50.0
200.0   60.0   33.333333333333336
200.0   90.0   33.333333333333336
150.0   90.0   33.333333333333336
200.0   90.0   50.0
150.0   60.0   50.0
150.0   90.0   50.0
200.0   90.0   50.0
150.0   90.0   33.333333333333336
150.0   60.0   50.0
200.0   90.0   50.0
200.0   60.0   50.0
200.0   60.0   33.333333333333336
150.0   60.0   50.0
200.0   90.0   50.0
200.0   60.0   33.333333333333336
150.0   90.0   33.333333333333336
150.0   90.0   0.0
200.0   90.0   0.0
150.0   120.0   0.0
150.0   90.0   16.666666666666668
200.0   90.0   0.0
200.0   120.0   0.0
150.0   120.0   0.0
200.0   120.0   16.666666666666668
150.0   90.0   16.666666666666668
150.0   120.0   16.666666666666668
200.0   120.0   16.666666666666668
150.0   120.0   0.0
150.0   90.0   16.666666666666668
200.0   120.0   16.666666666666668
200.0   90.0   16.666666666666668
200.0   90.0   0.0
150.0   90.0   16.666666666666668
200.0   120.0   16.666666666666668
200.0   90.0   0.0
150.0   120.0   0.0
150.0   90.0   16.666666666666668
200.0   90.0   16.666666666666668
150.0   120.0   16.666666666666668
150.0   90.0   33.333333333333336
200.0   90.0   16.666666666666668
200.0   120.0   16.666666666666668
150.0   120.0   16.666666666666668
200.0   120.0   33.333333333333336
150.0   90.0   33.333333333333336
150.0   120.0   33.333333333333336
200.0   120.0   33.333333333333336
150.0   120.0   16.666666666666668
150.0   90.0   33.333333333333336
200.0   120.0   33.333333333333336
200.0   90.0   33.333333333333336
200.0   90.0   16.666666666666668
150.0   90.0   33.333333333333336
200.0   120.0   33.333333333333336
200.0   90.0   16.666666666666668
150.0   120.0   16.666666666666668
150.0   90.0   33.333333333333336
200.0   90.0   33.333333333333336
150.0   120.0   33.333333333333336
150.0   90.0   50.0
200.0   90.0   33.333333333333336
200.0   120.0   33.333333333333336
150.0   120.0   33.333333333333336
200.0   120.0   50.0
150.0   90.0   50.0
150.0   120.0   50.0
200.0   120.0   50.0
150.0   120.0   33.333333333333336
150.0   90.0   50.0
200.0   120.0   50.0
200.0   90.0   50.0
200.0   90.0   33.333333333333336
150.0   90.0   50.0
200.0   120.0   50.0
200.0   90.0   33.333333333333336
150.0   120.0   33.333333333333336
150.0   120.0   0.0
200.0   120.0   0.0
150.0   150.0   0.0
150.0   120.0   16.666666666666668
200.0   120.0   0.0
200.0   150.0   0.0
150.0   150.0   0.0
200.0   150.0   16.666666666666668
150.0   120.0   16.666666666666668
150.0   150.0   16.666666666666668
200.0   150.0   16.666666666666668
150.0   150.0   0.0
150.0   120.0   16.666666666666668
200.0   150.0   16.666666666666668
200.0   120.0   16.666666666666668
200.0   120.0   0.0
150.0   120.0   16.666666666666668
200.0   150.0   16.666666666666668
200.0   120.0   0.0
150.0   150.0   0.0
150.0   120.0   16.666666666666668
200.0   120.0   16.666666666666668
150.0   150.0   16.666666666666668
150.0   120.0   33.333333333333336
200.0   120.0   16.666666666666668
200.0   150.0   16.666666666666668
150.0   150.0   16.666666666666668
200.0   150.0   33.333333333333336
150.0   120.0   33.333333333333336
150.0   150.0   33.333333333333336
200.0   150.0   33.333333333333336
150.0   150.0   16.666666666666668
150.0   120.0   33.333333333333336
200.0   150.0   33.333333333333336
200.0   120.0   33.333333333333336
200.0   120.0   16.666666666666668
150.0   120.0   33.333333333333336
200.0   150.0   33.333333333333336
200.0   120.0   16.666666666666668
150.0   150.0   16.666666666666668
150.0   120.0   33.333333333333336
200.0   120.0   33.333333333333336
150.0   150.0   33.333333333333336
150.0   120.0   50.0
200.0   120.0   33.333333333333336
200.0   150.0   33.333333333333336
150.0   150.0   33.333333333333336
200.0   150.0   50.0
150.0   120.0   50.0
150.0   150.0   50.0
200.0   150.0   50.0
150.0   150.0   33.333333333333336
150.0   120.0   50.0
200.0   150.0   50.0
200.0   120.0   50.0
200.0   120.0   33.333333333333336
150.0   120.0   50.0
200.0   150.0   50.0
200.0   120.0   33.333333333333336
150.0   150.0   33.333333333333336
200.0   0.0   0.0
250.0   0.0   0.0
200.0   30.0   0.0
200.0   0.0   16.666666666666668
250.0   0.0   0.0
250.0   30.0   0.0
200.0   30.0   0.0
250.0   30.0   16.666666666666668
200.0   0.0   16.666666666666668
200.0   30.0   16.666666666666668
250.0   30.0   16.666666666666668
200.0   30.0   0.0
200.0   0.0   16.666666666666668
250.0   30.0   16.666666666666668
250.0   0.0   16.666666666666668
250.0   0.0   0.0
200.0   0.0   16.666666666666668
250.0   30.0   16.666666666666668
250.0   0.0   0.0
200.0   30.0   0.0
200.0   0.0   16.666666666666668
250.0   0.0   16.666666666666668
200.0   30.0   16.666666666666668
200.0   0.0   33.333333333333336
250.0   0.0   16.666666666666668
250.0   30.0   16.666666666666668
200.0   30.0   16.666666666666668
250.0   30.0   33.333333333333336
200.0   0.0   33.333333333333336
200.0   30.0   33.333333333333336
250.0   30.0   33.333333333333336
200.0   30.0   16.666666666666668
200.0   0.0   33.333333333333336
250.0   30.0   33.333333333333336
250.0   0.0   33.333333333333336
250.0   0.0   16.666666666666668
200.0   0.0   33.333333333333336
250.0   30.0   33.333333333333336
250.0   0.0   16.666666666666668
200.0   30.0   16.666666666666668
200.0   0.0   33.333333333333336
250.0   0.0   33.333333333333336
200.0   30.0   33.333333333333336
200.0   0.0   50.0
250.0   0.0   33.333333333333336
250.0   30.0   33.333333333333336
200.0   30.0   33.333333333333336
250.0   30.0   50.0
200.0   0.0   50.0
200.0   30.0   50.0
250.0   30.0   50.0
200.0   30.0   33.333333333333336
200.0   0.0   50.0
250.0   30.0   50.0
250.0   0.0   50.0
250.0   0.0   33.333333333333336
200.0   0.0   50.0
250.0   30.0   50.0
250.0   0.0   33.333333333333336
200.0   30.0   33.333333333333336
200.0   30.0   0.0
250.0   30.0   0.0
200.0   60.0   0.0
200.0   30.0   16.666666666666668
250.0   30.0   0.0
250.0   60.0   0.0
200.0   60.0   0.0
250.0   60.0   16.666666666666668
200.0   30.0   16.666666666666668
200.0   60.0   16.666666666666668
250.0   60.0   16.666666666666668
200.0   60.0   0.0
200.0   30.0   16.666666666666668
250.0   60.0   16.666666666666668
250.0   30.0   16.666666666666668
250.0   30.0   0.0
200.0   30.0   16.666666666666668
250.0   60.0   16.666666666666668
250.0   30.0   0.0
200.0   60.0   0.0
200.0   30.0   16.666666666666668
250.0   30.0   16.666666666666668
200.0   60.0   16.666666666666668
200.0   30.0   33.333333333333336
250.0   30.0   16.666666666666668
250.0   60.0   16.666666666666668
200.0   60.0   16.666666666666668
250.0   60.0   33.333333333333336
200.0   30.0   33.333333333333336
200.0   60.0   33.333333333333336
250.0   60.0   33.333333333333336
200.0   60.0   16.666666666666668
200.0   30.0   33.333333333333336
250.0   60.0   33.333333333333336
250.0   30.0   33.333333333333336
250.0   30.0   16.666666666666668
200.0   30.0   33.333333333333336
250.0   60.0   33.333333333333336
250.0   30.0   16.666666666666668
200.0   60.0   16.666666666666668
200.0   30.0   33.333333333333336
250.0   30.0   33.333333333333336
200.0   60.0   33.333333333333336
200.0   30.0   50.0
250.0   30.0   33.333333333333336
250.0   60.0   33.333333333333336
200.0   60.0   33.333333333333336
250.0   60.0   50.0
200.0   30.0   50.0
200.0   60.0   50.0
250.0   60.0   50.0
200.0   60.0   33.333333333333336
200.0   30.0   50.0
250.0   60.0   50.0
250.0   30.0   50.0
250.0   30.0   33.333333333333336
200.0   30.0   50.0
250.0   60.0   50.0
250.0   30.0   33.333333333333336
200.0   60.0   33.333333333333336
200.0   60.0   0.0
250.0   60.0   0.0
200.0   90.0   0.0
200.0   60.0   16.666666666666668
250.0   60.0   0.0
250.0   90.0   0.0
200.0   90.0   0.0
250.0   90.0   16.666666666666668
200.0   60.0   16.666666666666668
200.0   90.0   16.666666666666668
250.0   90.0   16.666666666666668
200.0   90.0   0.0
200.0   60.0   16.666666666666668
250.0   90.0   16.666666666666668
250.0   60.0   16.666666666666668
250.0   60.0   0.0
200.0   60.0   16.666666666666668
250.0   90.0   16.666666666666668
250.0   60.0   0.0
200.0   90.0   0.0
200.0   60.0   16.666666666666668
250.0   60.0   16.666666666666668
200.0   90.0   16.666666666666668
200.0   60.0   33.333333333333336
250.0   60.0   16.666666666666668
250.0   90.0   16.666666666666668
200.0   90.0   16.666666666666668
250.0   90.0   33.333333333333336
200.0   60.0   33.333333333333336
200.0   90.0   33.333333333333336
250.0   90.0   33.333333333333336
200.0   90.0   16.666666666666668
200.0   60.0   33.333333333333336
250.0   90.0   33.333333333333336
250.0   60.0   33.333333333333336
250.0   60.0   16.666666666666668
200.0   60.0   33.333333333333336
250.0   90.0   33.333333333333336
250.0   60.0   16.666666666666668
200.0   90.0   16.666666666666668
200.0   60.0   33.333333333333336
250.0   60.0   33.333333333333336
200.0   90.0   33.333333333333336
200.0   60.0   50.0
250.0   60.0   33.333333333333336
250.0   90.0   33.333333333333336
200.0   90.0   33.333333333333336
250.0   90.0   50.0
200.0   60.0   50.0
200.0   90.0   50.0
250.0   90.0   50.0
200.0   90.0   33.333333333333336
200.0   60.0   50.0
250.0   90.0   50.0
250.0   60.0   50.0
250.0   60.0   33.333333333333336
200.0   60.0   50.0
250.0   90.0   50.0
250.0   60.0   33.333333333333336
200.0   90.0   33.333333333333336
200.0   90.0   0.0
250.0   90.0   0.0
200.0   120.0   0.0
200.0   90.0   16.666666666666668
250.0   90.0   0.0
250.0   120.0   0.0
200.0   120.0   0.0
250.0   120.0   16.666666666666668
200.0   90.0   16.666666666666668
200.0   120.0   16.666666666666668
250.0   120.0   16.666666666666668
200.0   120.0   0.0
200.0   90.0   16.666666666666668
250.0   120.0   16.666666666666668
250.0   90.0   16.666666666666668
250.0   90.0   0.0
200.0   90.0   16.666666666666668
250.0   120.0   16.666666666666668
250.0   90.0   0.0
200.0   120.0   0.0
200.0   90.0   16.666666666666668
250.0   90.0   16.666666666666668
200.0   120.0   16.666666666666668
200.0   90.0   33.333333333333336
250.0   90.0   16.666666666666668
250.0   120.0   16.666666666666668
200.0   120.0   16.666666666666668
250.0   120.0   33.333333333333336
200.0   90.0   33.333333333333336
200.0   120.0   33.333333333333336
250.0   120.0   33.333333333333336
200.0   120.0   16.666666666666668
200.0   90.0   33.333333333333336
250.0   120.0   33.333333333333336
250.0   90.0   33.333333333333336
250.0   90.0   16.666666666666668
200.0   90.0   33.333333333333336
250.0   120.0   33.333333333333336
250.0   90.0   16.666666666666668
200.0   120.0   16.666666666666668
200.0   90.0   33.333333333333336
250.0   90.0   33.333333333333336
200.0   120.0   33.333333333333336
200.0   90.0   50.0
250.0   90.0   33.333333333333336
250.0   120.0   33.333333333333336
200.0   120.0   33.333333333333336
250.0   120.0   50.0
200.0   90.0   50.0
200.0   120.0   50.0
250.0   120.0   50.0
200.0   120.0   33.333333333333336
200.0   90.0   50.0
250.0   120.0   50.0
250.0   90.0   50.0
250.0   90.0   33.333333333333336
200.0   90.0   50.0
250.0   120.0   50.0
250.0   90.0   33.333333333333336
200.0   120.0   33.333333333333336
200.0   120.0   0.0
250.0   120.0   0.0
200.0   150.0   0.0
200.0   120.0   16.666666666666668
250.0   120.0   0.0
250.0   150.0   0.0
200.0   150.0   0.0
250.0   150.0   16.666666666666668
200.0   120.0   16.666666666666668
200.0   150.0   16.666666666666668
250.0   150.0   16.666666666666668
200.0   150.0   0.0
200.0   120.0   16.666666666666668
250.0   150.0   16.666666666666668
250.0   120.0   16.666666666666668
250.0   120.0   0.0
200.0   120.0   16.666666666666668
250.0   150.0   16.666666666666668
250.0   120.0   0.0
200.0   150.0   0.0
200.0   120.0   16.666666666666668
250.0   120.0   16.666666666666668
200.0   150.0   16.666666666666668
200.0   120.0   33.333333333333336
250.0   120.0   16.666666666666668
250.0   150.0   16.666666666666668
200.0   150.0   16.666666666666668
250.0   150.0   33.333333333333336
200.0   120.0   33.333333333333336
200.0   150.0   33.333333333333336
250.0   150.0   33.333333333333336
200.0   150.0   16.666666666666668
200.0   120.0   33.333333333333336
250.0   150.0   33.333333333333336
250.0   120.0   33.333333333333336
250.0   120.0   16.666666666666668
200.0   120.0   33.333333333333336
250.0   150.0   33.333333333333336
250.0   120.0   16.666666666666668
200.0   150.0   16.666666666666668
200.0   120.0   33.333333333333336
250.0   120.0   33.333333333333336
200.0   150.0   33.333333333333336
200.0   120.0   50.0
250.0   120.0   33.333333333333336
250.0   150.0   33.333333333333336
200.0   150.0   33.333333333333336
250.0   150.0   50.0
200.0   120.0   50.0
200.0   150.0   50.0
250.0   150.0   50.0
200.0   150.0   33.333333333333336
200.0   120.0   50.0
250.0   150.0   50.0
250.0   120.0   50.0
250.0   120.0   33.333333333333336
200.0   120.0   50.0
250.0   150.0   50.0
250.0   120.0   33.333333333333336
200.0   150.0   33.333333333333336
250.0   0.0   0.0
300.0   0.0   0.0
250.0   30.0   0.0
250.0   0.0   16.666666666666668
300.0   0.0   0.0
300.0   30.0   0.0
250.0   30.0   0.0
300.0   30.0   16.666666666666668
250.0   0.0   16.666666666666668
250.0   30.0   16.666666666666668
300.0   30.0   16.666666666666668
250.0   30.0   0.0
250.0   0.0   16.666666666666668
300.0   30.0   16.666666666666668
300.0   0.0   16.666666666666668
300.0   0.0   0.0
250.0   0.0   16.666666666666668
300.0   30.0   16.666666666666668
300.0   0.0   0.0
250.0   30.0   0.0
250.0   0.0   16.666666666666668
300.0   0.0   16.666666666666668
250.0   30.0   16.666666666666668
250.0   0.0   33.333333333333336
300.0   0.0   16.666666666666668
300.0   30.0   16.666666666666668
250.0   30.0   16.666666666666668
300.0   30.0   33.333333333333336
250.0   0.0   33.333333333333336
250.0   30.0   33.333333333333336
300.0   30.0   33.333333333333336
250.0   30.0   16.666666666666668
250.0   0.0   33.333333333333336
300.0   30.0   33.333333333333336
300.0   0.0   33.333333333333336
300.0   0.0   16.666666666666668
250.0   0.0   33.333333333333336
300.0   30.0   33.333333333333336
300.0   0.0   16.666666666666668
250.0   30.0   16.666666666666668
250.0   0.0   33.333333333333336
300.0   0.0   33.333333333333336
250.0   30.0   33.333333333333336
250.0   0.0   50.0
300.0   0.0   33.333333333333336
300.0   30.0   33.333333333333336
250.0   30.0   33.333333333333336
300.0   30.0   50.0
250.0   0.0   50.0
250.0   30.0   50.0
300.0   30.0   50.0
250.0   30.0   33.333333333333336
250.0   0.0   50.0
300.0   30.0   50.0
300.0   0.0   50.0
300.0   0.0   33.333333333333336
250.0   0.0   50.0
300.0   30.0   50.0
300.0   0.0   33.333333333333336
250.0   30.0   33.333333333333336
250.0   30.0   0.0
300.0   30.0   0.0
250.0   60.0   0.0
250.0   30.0   16.666666666666668
300.0   30.0   0.0
300.0   60.0   0.0
250.0   60.0   0.0
300.0   60.0   16.666666666666668
250.0   30.0   16.666666666666668
250.0   60.0   16.666666666666668
300.0   60.0   16.666666666666668
250.0   60.0   0.0
250.0   30.0   16.666666666666668
300.0   60.0   16.666666666666668
300.0   30.0   16.666666666666668
300.0   30.0   0.0
250.0   30.0   16.666666666666668
300.0   60.0   16.666666666666668
300.0   30.0   0.0
250.0   60.0   0.0
250.0   30.0   16.666666666666668
300.0   30.0   16.666666666666668
250.0   60.0   16.666666666666668
250.0   30.0   33.333333333333336
300.0   30.0   16.666666666666668
300.0   60.0   16.666666666666668
250.0   60.0   16.666666666666668
300.0   60.0   33.333333333333336
250.0   30.0   33.333333333333336
250.0   60.0   33.333333333333336
300.0   60.0   33.333333333333336
250.0   60.0   16.666666666666668
250.0   30.0   33.333333333333336
300.0   60.0   33.333333333333336
300.0   30.0   33.333333333333336
300.0   30.0   16.666666666666668
250.0   30.0   33.333333333333336
300.0   60.0   33.333333333333336
300.0   30.0   16.666666666666668
250.0   60.0   16.666666666666668
250.0   30.0   33.333333333333336
300.0   30.0   33.333333333333336
250.0   60.0   33.333333333333336
250.0   30.0   50.0
300.0   30.0   33.333333333333336
300.0   60.0   33.333333333333336
250.0   60.0   33.333333333333336
300.0   60.0   50.0
250.0   30.0   50.0
250.0   60.0   50.0
300.0   60.0   50.0
250.0   60.0   33.333333333333336
250.0   30.0   50.0
300.0   60.0   50.0
300.0   30.0   50.0
300.0   30.0   33.333333333333336
250.0   30.0   50.0
300.0   60.0   50.0
300.0   30.0   33.333333333333336
250.0   60.0   33.333333333333336
250.0   60.0   0.0
300.0   60.0   0.0
250.0   90.0   0.0
250.0   60.0   16.666666666666668
300.0   60.0   0.0
300.0   90.0   0.0
250.0   90.0   0.0
300.0   90.0   16.666666666666668
250.0   60.0   16.666666666666668
250.0   90.0   16.666666666666668
300.0   90.0   16.666666666666668
250.0   90.0   0.0
250.0   60.0   16.666666666666668
300.0   90.0   16.666666666666668
300.0   60.0   16.666666666666668
300.0   60.0   0.0
250.0   60.0   16.666666666666668
300.0   90.0   16.666666666666668
300.0   60.0   0.0
250.0   90.0   0.0
250.0   60.0   16.666666666666668
300.0   60.0   16.666666666666668
250.0   90.0   16.666666666666668
250.0   60.0   33.333333333333336
300.0   60.0   16.666666666666668
300.0   90.0   16.666666666666668
250.0   90.0   16.666666666666668
300.0   90.0   33.333333333333336
250.0   60.0   33.333333333333336
250.0   90.0   33.333333333333336
300.0   90.0   33.333333333333336
250.0   90.0   16.666666666666668
250.0   60.0   33.333333333333336
300.0   90.0   33.333333333333336
300.0   60.0   33.333333333333336
300.0   60.0   16.666666666666668
250.0   60.0   33.333333333333336
300.0   90.0   33.333333333333336
300.0   60.0   16.666666666666668
250.0   90.0   16.666666666666668
250.0   60.0   33.333333333333336
300.0   60.0   33.333333333333336
250.0   90.0   33.333333333333336
250.0   60.0   50.0
300.0   60.0   33.333333333333336
300.0   90.0   33.333333333333336
250.0   90.0   33.333333333333336
300.0   90.0   50.0
250.0   60.0   50.0
250.0   90.0   50.0
300.0   90.0   50.0
250.0   90.0   33.333333333333336
250.0   60.0   50.0
300.0   90.0   50.0
300.0   60.0   50.0
300.0   60.0   33.333333333333336
250.0   60.0   50.0
300.0   90.0   50.0
300.0   60.0   33.333333333333336
250.0   90.0   33.333333333333336
250.0   90.0   0.0
300.0   90.0   0.0
250.0   120.0   0.0
250.0   90.0   16.666666666666668
300.0   90.0   0.0
300.0   120.0   0.0
250.0   120.0   0.0
300.0   120.0   16.666666666666668
250.0   90.0   16.666666666666668
250.0   120.0   16.666666666666668
300.0   120.0   16.666666666666668
250.0   120.0   0.0
250.0   90.0   16.666666666666668
300.0   120.0   16.666666666666668
300.0   90.0   16.666666666666668
300.0   90.0   0.0
250.0   90.0   16.666666666666668
300.0   120.0   16.666666666666668
300.0   90.0   0.0
250.0   120.0   0.0
250.0   90.0   16.666666666666668
300.0   90.0   16.666666666666668
250.0   120.0   16.666666666666668
250.0   90.0   33.333333333333336
300.0   90.0   16.666666666666668
300.0   120.0   16.666666666666668
250.0   120.0   16.666666666666668
300.0   120.0   33.333333333333336
250.0   90.0   33.333333333333336
250.0   120.0   33.333333333333336
300.0   120.0   33.333333333333336
250.0   120.0   16.666666666666668
250.0   90.0   33.333333333333336
300.0   120.0   33.333333333333336
300.0   90.0   33.333333333333336
300.0   90.0   16.666666666666668
250.0   90.0   33.333333333333336
300.0   120.0   33.333333333333336
300.0   90.0   16.666666666666668
250.0   120.0   16.666666666666668
250.0   90.0   33.333333333333336
300.0   90.0   33.333333333333336
250.0   120.0   33.333333333333336
250.0   90.0   50.0
300.0   90.0   33.333333333333336
300.0   120.0   33.333333333333336
250.0   120.0   33.333333333333336
300.0   120.0   50.0
250.0   90.0   50.0
250.0   120.0   50.0
300.0   120.0   50.0
250.0   120.0   33.333333333333336
250.0   90.0   50.0
300.0   120.0   50.0
300.0   90.0   50.0
300.0   90.0   33.333333333333336
250.0   90.0   50.0
300.0   120.0   50.0
300.0   90.0   33.333333333333336
250.0   120.0   33.333333333333336
250.0   120.0   0.0
300.0   120.0   0.0
250.0   150.0   0.0
250.0   120.0   16.666666666666668
300.0   120.0   0.0
300.0   150.0   0.0
250.0   150.0   0.0
300.0   150.0   16.666666666666668
250.0   120.0   16.666666666666668
250.0   150.0   16.666666666666668
300.0   150.0   16.666666666666668
250.0   150.0   0.0
250.0   120.0   16.666666666666668
300.0   150.0   16.666666666666668
300.0   120.0   16.666666666666668
300.0   120.0   0.0
250.0   120.0   16.666666666666668
300.0   150.0   16.666666666666668
300.0   120.0   0.0
250.0   150.0   0.0
250.0   120.0   16.666666666666668
300.0   120.0   16.666666666666668
250.0   150.0   16.666666666666668
250.0   120.0   33.333333333333336
300.0   120.0   16.666666666666668
300.0   150.0   16.666666666666668
250.0   150.0   16.666666666666668
300.0   150.0   33.333333333333336
250.0   120.0   33.333333333333336
250.0   150.0   33.333333333333336
300.0   150.0   33.333333333333336
250.0   150.0   16.666666666666668
250.0   120.0   33.333333333333336
300.0   150.0   33.333333333333336
300.0   120.0   33.333333333333336
300.0   120.0   16.666666666666668
250.0   120.0   33.333333333333336
300.0   150.0   33.333333333333336
300.0   120.0   16.666666666666668
250.0   150.0   16.666666666666668
250.0   120.0   33.333333333333336
300.0   120.0   33.333333333333336
250.0   150.0   33.333333333333336
250.0   120.0   50.0
300.0   120.0   33.333333333333336
300.0   150.0   33.333333333333336
250.0   150.0   33.333333333333336
300.0   150.0   50.0
250.0   120.0   50.0
250.0   150.0   50.0
300.0   150.0   50.0
250.0   150.0   33.333333333333336
250.0   120.0   50.0
300.0   150.0   50.0
300.0   120.0   50.0
300.0   120.0   33.333333333333336
250.0   120.0   50.0
300.0   150.0   50.0
300.0   120.0   33.333333333333336
250.0   150.0   33.333333333333336
300.0   0.0   0.0
350.0   0.0   0.0
300.0   30.0   0.0
300.0   0.0   16.666666666666668
350.0   0.0   0.0
350.0   30.0   0.0
300.0   30.0   0.0
350.0   30.0   16.666666666666668
300.0   0.0   16.666666666666668
300.0   30.0   16.666666666666668
350.0   30.0   16.666666666666668
300.0   30.0   0.0
300.0   0.0   16.666666666666668
350.0   30.0   16.666666666666668
350.0   0.0   16.666666666666668
350.0   0.0   0.0
300.0   0.0   16.666666666666668
350.0   30.0   16.666666666666668
350.0   0.0   0.0
300.0   30.0   0.0
300.0   0.0   16.666666666666668
350.0   0.0   16.666666666666668
300.0   30.0   16.666666666666668
300.0   0.0   33.333333333333336
350.0   0.0   16.666666666666668
350.0   30.0   16.666666666666668
300.0   30.0   16.666666666666668
350.0   30.0   33.333333333333336
300.0   0.0   33.333333333333336
300.0   30.0   33.333333333333336
350.0   30.0   33.333333333333336
300.0   30.0   16.666666666666668
300.0   0.0   33.333333333333336
350.0   30.0   33.333333333333336
350.0   0.0   33.333333333333336
350.0   0.0   16.666666666666668
300.0   0.0   33.333333333333336
350.0   30.0   33.333333333333336
350.0   0.0   16.666666666666668
300.0   30.0   16.666666666666668
300.0   0.0   33.333333333333336
350.0   0.0   33.333333333333336
300.0   30.0   33.333333333333336
300.0   0.0   50.0
350.0   0.0   33.333333333333336
350.0   30.0   33.333333333333336
300.0   30.0   33.333333333333336
350.0   30.0   50.0
300.0   0.0   50.0
300.0   30.0   50.0
350.0   30.0   50.0
300.0   30.0   33.333333333333336
300.0   0.0   50.0
350.0   30.0   50.0
350.0   0.0   50.0
350.0   0.0   33.333333333333336
300.0   0.0   50.0
350.0   30.0   50.0
350.0   0.0   33.333333333333336
300.0   30.0   33.333333333333336
300.0   30.0   0.0
350.0   30.0   0.0
300.0   60.0   0.0
300.0   30.0   16.666666666666668
350.0   30.0   0.0
350.0   60.0   0.0
300.0   60.0   0.0
350.0   60.0   16.666666666666668
300.0   30.0   16.666666666666668
300.0   60.0   16.666666666666668
350.0   60.0   16.666666666666668
300.0   60.0   0.0
300.0   30.0   16.666666666666668
350.0   60.0   16.666666666666668
350.0   30.0   16.666666666666668
350.0   30.0   0.0
300.0   30.0   16.666666666666668
350.0   60.0   16.666666666666668
350.0   30.0   0.0
300.0   60.0   0.0
300.0   30.0   16.666666666666668
350.0   30.0   16.666666666666668
300.0   60.0   16.666666666666668
300.0   30.0   33.333333333333336
350.0   30.0   16.666666666666668
350.0   60.0   16.666666666666668
300.0   60.0   16.666666666666668
350.0   60.0   33.333333333333336
300.0   30.0   33.333333333333336
300.0   60.0   33.333333333333336
350.0   60.0   33.333333333333336
300.0   60.0   16.666666666666668
300.0   30.0   33.333333333333336
350.0   60.0   33.333333333333336
350.0   30.0   33.333333333333336
350.0   30.0   16.666666666666668
300.0   30.0   33.333333333333336
350.0   60.0   33.333333333333336
350.0   30.0   16.666666666666668
300.0   60.0   16.666666666666668
300.0   30.0   33.333333333333336
350.0   30.0   33.333333333333336
300.0   60.0   33.333333333333336
300.0   30.0   50.0
350.0   30.0   33.333333333333336
350.0   60.0   33.333333333333336
300.0   60.0   33.333333333333336
350.0   60.0   50.0
300.0   30.0   50.0
300.0   60.0   50.0
350.0   60.0   50.0
300.0   60.0   33.333333333333336
300.0   30.0   50.0
350.0   60.0   50.0
350.0   30.0   50.0
350.0   30.0   33.333333333333336
300.0   30.0   50.0
350.0   60.0   50.0
350.0   30.0   33.333333333333336
300.0   60.0   33.333333333333336
300.0   60.0   0.0
350.0   60.0   0.0
300.0   90.0   0.0
300.0   60.0   16.666666666666668
350.0   60.0   0.0
350.0   90.0   0.0
300.0   90.0   0.0
350.0   90.0   16.666666666666668
300.0   60.0   16.666666666666668
300.0   90.0   16.666666666666668
350.0   90.0   16.666666666666668
300.0   90.0   0.0
300.0   60.0   16.666666666666668
350.0   90.0   16.666666666666668
350.0   60.0   16.666666666666668
350.0   60.0   0.0
300.0   60.0   16.666666666666668
350.0   90.0   16.666666666666668
350.0   60.0   0.0
300.0   90.0   0.0
300.0   60.0   16.666666666666668
350.0   60.0   16.666666666666668
300.0   90.0   16.666666666666668
300.0   60.0   33.333333333333336
350.0   60.0   16.666666666666668
350.0   90.0   16.666666666666668
300.0   90.0   16.666666666666668
350.0   90.0   33.333333333333336
300.0   60.0   33.333333333333336
300.0   90.0   33.333333333333336
350.0   90.0   33.333333333333336
300.0   90.0   16.666666666666668
300.0   60.0   33.333333333333336
350.0   90.0   33.333333333333336
350.0   60.0   33.333333333333336
350.0   60.0   16.666666666666668
300.0   60.0   33.333333333333336
350.0   90.0   33.333333333333336
350.0   60.0   16.666666666666668
300.0   90.0   16.666666666666668
300.0   60.0   33.333333333333336
350.0   60.0   33.333333333333336
300.0   90.0   33.333333333333336
300.0   60.0   50.0
350.0   60.0   33.333333333333336
350.0   90.0   33.333333333333336
300.0   90.0   33.333333333333336
350.0   90.0   50.0
300.0   60.0   50.0
300.0   90.0   50.0
350.0   90.0   50.0
300.0   90.0   33.333333333333336
300.0   60.0   50.0
350.0   90.0   50.0
350.0   60.0   50.0
350.0   60.0   33.333333333333336
300.0   60.0   50.0
350.0   90.0   50.0
350.0   60.0   33.333333333333336
300.0   90.0   33.333333333333336
300.0   90.0   0.0
350.0   90.0   0.0
300.0   120.0   0.0
300.0   90.0   16.666666666666668
350.0   90.0   0.0
350.0   120.0   0.0
300.0   120.0   0.0
350.0   120.0   16.666666666666668
300.0   90.0   16.666666666666668
300.0   120.0   16.666666666666668
350.0   120.0   16.666666666666668
300.0   120.0   0.0
300.0   90.0   16.666666666666668
350.0   120.0   16.666666666666668
350.0   90.0   16.666666666666668
350.0   90.0   0.0
300.0   90.0   16.666666666666668
350.0   120.0   16.666666666666668
350.0   90.0   0.0
300.0   120.0   0.0
300.0   90.0   16.666666666666668
350.0   90.0   16.666666666666668
300.0   120.0   16.666666666666668
300.0   90.0   33.333333333333336
350.0   90.0   16.666666666666668
350.0   120.0   16.666666666666668
300.0   120.0   16.666666666666668
350.0   120.0   33.333333333333336
300.0   90.0   33.333333333333336
300.0   120.0   33.333333333333336
350.0   120.0   33.333333333333336
300.0   120.0   16.666666666666668
300.0   90.0   33.333333333333336
350.0   120.0   33.333333333333336
350.0   90.0   33.333333333333336
350.0   90.0   16.666666666666668
300.0   90.0   33.333333333333336
350.0   120.0   33.333333333333336
350.0   90.0   16.666666666666668
300.0   120.0   16.666666666666668
300.0   90.0   33.333333333333336
350.0   90.0   33.333333333333336
300.0   120.0   33.333333333333336
300.0   90.0   50.0
350.0   90.0   33.333333333333336
350.0   120.0   33.333333333333336
300.0   120.0   33.333333333333336
350.0   120.0   50.0
300.0   90.0   50.0
300.0   120.0   50.0
350.0   120.0   50.0
300.0   120.0   33.333333333333336
300.0   90.0   50.0
350.0   120.0   50.0
350.0   90.0   50.0
350.0   90.0   33.333333333333336
300.0   90.0   50.0
350.0   120.0   50.0
350.0   90.0   33.333333333333336
300.0   120.0   33.333333333333336
300.0   120.0   0.0
350.0   120.0   0.0
300.0   150.0   0.0
300.0   120.0   16.666666666666668
350.0   120.0   0.0
350.0   150.0   0.0
300.0   150.0   0.0
350.0   150.0   16.666666666666668
300.0   120.0   16.666666666666668
300.0   150.0   16.666666666666668
350.0   150.0   16.666666666666668
300.0   150.0   0.0
300.0   120.0   16.666666666666668
350.0   150.0   16.666666666666668
350.0   120.0   16.666666666666668
350.0   120.0   0.0
300.0   120.0   16.666666666666668
350.0   150.0   16.666666666666668
350.0   120.0   0.0
300.0   150.0   0.0
300.0   120.0   16.666666666666668
350.0   120.0   16.666666666666668
300.0   150.0   16.666666666666668
300.0   120.0   33.333333333333336
350.0   120.0   16.666666666666668
350.0   150.0   16.666666666666668
300.0   150.0   16.666666666666668
350.0   150.0   33.333333333333336
300.0   120.0   33.333333333333336
300.0   150.0   33.333333333333336
350.0   150.0   33.333333333333336
300.0   150.0   16.666666666666668
300.0   120.0   33.333333333333336
350.0   150.0   33.333333333333336
350.0   120.0   33.333333333333336
350.0   120.0   16.666666666666668
300.0   120.0   33.333333333333336
350.0   150.0   33.333333333333336
350.0   120.0   16.666666666666668
300.0   150.0   16.666666666666668
300.0   120.0   33.333333333333336
350.0   120.0   33.333333333333336
300.0   150.0   33.333333333333336
300.0   120.0   50.0
350.0   120.0   33.333333333333336
350.0   150.0   33.333333333333336
300.0   150.0   33.333333333333336
350.0   150.0   50.0
300.0   120.0   50.0
300.0   150.0   50.0
350.0   150.0   50.0
300.0   150.0   33.333333333333336
300.0   120.0   50.0
350.0   150.0   50.0
350.0   120.0   50.0
350.0   120.0   33.333333333333336
300.0   120.0   50.0
350.0   150.0   50.0
350.0   120.0   33.333333333333336
300.0   150.0   33.333333333333336
350.0   0.0   0.0
400.0   0.0   0.0
350.0   30.0   0.0
350.0   0.0   16.666666666666668
400.0   0.0   0.0
400.0   30.0   0.0
350.0   30.0   0.0
400.0   30.0   16.666666666666668
350.0   0.0   16.666666666666668
350.0   30.0   16.666666666666668
400.0   30.0   16.666666666666668
350.0   30.0   0.0
350.0   0.0   16.666666666666668
400.0   30.0   16.666666666666668
400.0   0.0   16.666666666666668
400.0   0.0   0.0
350.0   0.0   16.666666666666668
400.0   30.0   16.666666666666668
400.0   0.0   0.0
350.0   30.0   0.0
350.0   0.0   16.666666666666668
400.0   0.0   16.666666666666668
350.0   30.0   16.666666666666668
350.0   0.0   33.333333333333336
400.0   0.0   16.666666666666668
400.0   30.0   16.666666666666668
350.0   30.0   16.666666666666668
400.0   30.0   33.333333333333336
350.0   0.0   33.333333333333336
350.0   30.0   33.333333333333336
400.0   30.0   33.333333333333336
350.0   30.0   16.666666666666668
350.0   0.0   33.333333333333336
400.0   30.0   33.333333333333336
400.0   0.0   33.333333333333336
400.0   0.0   16.666666666666668
350.0   0.0   33.333333333333336
400.0   30.0   33.333333333333336
400.0   0.0   16.666666666666668
350.0   30.0   16.666666666666668
350.0   0.0   33.333333333333336
400.0   0.0   33.333333333333336
350.0   30.0   33.333333333333336
350.0   0.0   50.0
400.0   0.0   33.333333333333336
400.0   30.0   33.333333333333336
350.0   30.0   33.333333333333336
400.0   30.0   50.0
350.0   0.0   50.0
350.0   30.0   50.0
400.0   30.0   50.0
350.0   30.0   33.333333333333336
350.0   0.0   50.0
400.0   30.0   50.0
400.0   0.0   50.0
400.0   0.0   33.333333333333336
350.0   0.0   50.0
400.0   30.0   50.0
400.0   0.0   33.333333333333336
350.0   30.0   33.333333333333336
350.0   30.0   0.0
400.0   30.0   0.0
350.0   60.0   0.0
350.0   30.0   16.666666666666668
400.0   30.0   0.0
400.0   60.0   0.0
350.0   60.0   0.0
400.0   60.0   16.666666666666668
350.0   30.0   16.666666666666668
350.0   60.0   16.666666666666668
400.0   60.0   16.666666666666668
350.0   60.0   0.0
350.0   30.0   16.666666666666668
400.0   60.0   16.666666666666668
400.0   30.0   16.666666666666668
400.0   30.0   0.0
350.0   30.0   16.666666666666668
400.0   60.0   16.666666666666668
400.0   30.0   0.0
350.0   60.0   0.0
350.0   30.0   16.666666666666668
400.0   30.0   16.666666666666668
350.0   60.0   16.666666666666668
350.0   30.0   33.333333333333336
400.0   30.0   16.666666666666668
400.0   60.0   16.666666666666668
350.0   60.0   16.666666666666668
400.0   60.0   33.333333333333336
350.0   30.0   33.333333333333336
350.0   60.0   33.333333333333336
400.0   60.0   33.333333333333336
350.0   60.0   16.666666666666668
350.0   30.0   33.333333333333336
400.0   60.0   33.333333333333336
400.0   30.0   33.333333333333336
400.0   30.0   16.666666666666668
350.0   30.0   33.333333333333336
400.0   60.0   33.333333333333336
400.0   30.0   16.666666666666668
350.0   60.0   16.666666666666668
350.0   30.0   33.333333333333336
400.0   30.0   33.333333333333336
350.0   60.0   33.333333333333336
350.0   30.0   50.0
400.0   30.0   33.333333333333336
400.0   60.0   33.333333333333336
350.0   60.0   33.333333333333336
400.0   60.0   50.0
350.0   30.0   50.0
350.0   60.0   50.0
400.0   60.0   50.0
350.0   60.0   33.333333333333336
350.0   30.0   50.0
400.0   60.0   50.0
400.0   30.0   50.0
400.0   30.0   33.333333333333336
350.0   30.0   50.0
400.0   60.0   50.0
400.0   30.0   33.333333333333336
350.0   60.0   33.333333333333336
350.0   60.0   0.0
400.0   60.0   0.0
350.0   90.0   0.0
350.0   60.0   16.666666666666668
400.0   60.0   0.0
400.0   90.0   0.0
350.0   90.0   0.0
400.0   90.0   16.666666666666668
350.0   60.0   16.666666666666668
350.0   90.0   16.666666666666668
400.0   90.0   16.666666666666668
350.0   90.0   0.0
350.0   60.0   16.666666666666668
400.0   90.0   16.666666666666668
400.0   60.0   16.666666666666668
400.0   60.0   0.0
350.0   60.0   16.666666666666668
400.0   90.0   16.666666666666668
400.0   60.0   0.0
350.0   90.0   0.0
350.0   60.0   16.666666666666668
400.0   60.0   16.666666666666668
350.0   90.0   16.666666666666668
350.0   60.0   33.333333333333336
400.0   60.0   16.666666666666668
400.0   90.0   16.666666666666668
350.0   90.0   16.666666666666668
400.0   90.0   33.333333333333336
350.0   60.0   33.333333333333336
350.0   90.0   33.333333333333336
400.0   90.0   33.333333333333336
350.0   90.0   16.666666666666668
350.0   60.0   33.333333333333336
400.0   90.0   33.333333333333336
400.0   60.0   33.333333333333336
400.0   60.0   16.666666666666668
350.0   60.0   33.333333333333336
400.0   90.0   33.333333333333336
400.0   60.0   16.666666666666668
350.0   90.0   16.666666666666668
350.0   60.0   33.333333333333336
400.0   60.0   33.333333333333336
350.0   90.0   33.333333333333336
350.0   60.0   50.0
400.0   60.0   33.333333333333336
400.0   90.0   33.333333333333336
350.0   90.0   33.333333333333336
400.0   90.0   50.0
350.0   60.0   50.0
350.0   90.0   50.0
400.0   90.0   50.0
350.0   90.0   33.333333333333336
350.0   60.0   50.0
400.0   90.0   50.0
400.0   60.0   50.0
400.0   60.0   33.333333333333336
350.0   60.0   50.0
400.0   90.0   50.0
400.0   60.0   33.333333333333336
350.0   90.0   33.333333333333336
350.0   90.0   0.0
400.0   90.0   0.0
350.0   120.0   0.0
350.0   90.0   16.666666666666668
400.0   90.0   0.0
400.0   120.0   0.0
350.0   120.0   0.0
400.0   120.0   16.666666666666668
350.0   90.0   16.666666666666668
350.0   120.0   16.666666666666668
400.0   120.0   16.666666666666668
350.0   120.0   0.0
350.0   90.0   16.666666666666668
400.0   120.0   16.666666666666668
400.0   90.0   16.666666666666668
400.0   90.0   0.0
350.0   90.0   16.666666666666668
400.0   120.0   16.666666666666668
400.0   90.0   0.0
350.0   120.0   0.0
350.0   90.0   16.666666666666668
400.0   90.0   16.666666666666668
350.0   120.0   16.666666666666668
350.0   90.0   33.333333333333336
400.0   90.0   16.666666666666668
400.0   120.0   16.666666666666668
350.0   120.0   16.666666666666668
400.0   120.0   33.333333333333336
350.0   90.0   33.333333333333336
350.0   120.0   33.333333333333336
400.0   120.0   33.333333333333336
350.0   120.0   16.666666666666668
350.0   90.0   33.333333333333336
400.0   120.0   33.333333333333336
400.0   90.0   33.333333333333336
400.0   90.0   16.666666666666668
350.0   90.0   33.333333333333336
400.0   120.0   33.333333333333336
400.0   90.0   16.666666666666668
350.0   120.0   16.666666666666668
350.0   90.0   33.333333333333336
400.0   90.0   33.333333333333336
350.0   120.0   33.333333333333336
350.0   90.0   50.0
400.0   90.0   33.333333333333336
400.0   120.0   33.333333333333336
350.0   120.0   33.333333333333336
400.0   120.0   50.0
350.0   90.0   50.0
350.0   120.0   50.0
400.0   120.0   50.0
350.0   120.0   33.333333333333336
350.0   90.0   50.0
400.0   120.0   50.0
400.0   90.0   50.0
400.0   90.0   33.333333333333336
350.0   90.0   50.0
400.0   120.0   50.0
400.0   90.0   33.333333333333336
350.0   120.0   33.333333333333336
350.0   120.0   0.0
400.0   120.0   0.0
350.0   150.0   0.0
350.0   120.0   16.666666666666668
400.0   120.0   0.0
400.0   150.0   0.0
350.0   150.0   0.0
400.0   150.0   16.666666666666668
350.0   120.0   16.666666666666668
350.0   150.0   16.666666666666668
400.0   150.0   16.666666666666668
350.0   150.0   0.0
350.0   120.0   16.666666666666668
400.0   150.0   16.666666666666668
400.0   120.0   16.666666666666668
400.0   120.0   0.0
350.0   120.0   16.666666666666668
400.0   150.0   16.666666666666668
400.0   120.0   0.0
350.0   150.0   0.0
350.0   120.0   16.666666666666668
400.0   120.0   16.666666666666668
350.0   150.0   16.666666666666668
350.0   120.0   33.333333333333336
400.0   120.0   16.666666666666668
400.0   150.0   16.666666666666668
350.0   150.0   16.666666666666668
400.0   150.0   33.333333333333336
350.0   120.0   33.333333333333336
350.0   150.0   33.333333333333336
400.0   150.0   33.333333333333336
350.0   150.0   16.666666666666668
350.0   120.0   33.333333333333336
400.0   150.0   33.333333333333336
400.0   120.0   33.333333333333336
400.0   120.0   16.666666666666668
350.0   120.0   33.333333333333336
400.0   150.0   33.333333333333336
400.0   120.0   16.666666666666668
350.0   150.0   16.666666666666668
350.0   120.0   33.333333333333336
400.0   120.0   33.333333333333336
350.0   150.0   33.333333333333336
350.0   120.0   50.0
400.0   120.0   33.333333333333336
400.0   150.0   33.333333333333336
350.0   150.0   33.333333333333336
400.0   150.0   50.0
350.0   120.0   50.0
350.0   150.0   50.0
400.0   150.0   50.0
350.0   150.0   33.333333333333336
350.0   120.0   50.0
400.0   150.0   50.0
400.0   120.0   50.0
400.0   120.0   33.333333333333336
350.0   120.0   50.0
400.0   150.0   50.0
400.0   120.0   33.333333333333336
350.0   150.0   33.333333333333336
400.0   0.0   0.0
450.0   0.0   0.0
400.0   30.0   0.0
400.0   0.0   16.666666666666668
450.0   0.0   0.0
450.0   30.0   0.0
400.0   30.0   0.0
450.0   30.0   16.666666666666668
400.0   0.0   16.666666666666668
400.0   30.0   16.666666666666668
450.0   30.0   16.666666666666668
400.0   30.0   0.0
400.0   0.0   16.666666666666668
450.0   30.0   16.666666666666668
450.0   0.0   16.666666666666668
450.0   0.0   0.0
400.0   0.0   16.666666666666668
450.0   30.0   16.666666666666668
450.0   0.0   0.0
400.0   30.0   0.0
400.0   0.0   16.666666666666668
450.0   0.0   16.666666666666668
400.0   30.0   16.666666666666668
400.0   0.0   33.333333333333336
450.0   0.0   16.666666666666668
450.0   30.0   16.666666666666668
400.0   30.0   16.666666666666668
450.0   30.0   33.333333333333336
400.0   0.0   33.333333333333336
400.0   30.0   33.333333333333336
450.0   30.0   33.333333333333336
400.0   30.0   16.666666666666668
400.0   0.0   33.333333333333336
450.0   30.0   33.333333333333336
450.0   0.0   33.333333333333336
450.0   0.0   16.666666666666668
400.0   0.0   33.333333333333336
450.0   30.0   33.333333333333336
450.0   0.0   16.666666666666668
400.0   30.0   16.666666666666668
400.0   0.0   33.333333333333336
450.0   0.0   33.333333333333336
400.0   30.0   33.333333333333336
400.0   0.0   50.0
450.0   0.0   33.333333333333336
450.0   30.0   33.333333333333336
400.0   30.0   33.333333333333336
450.0   30.0   50.0
400.0   0.0   50.0
400.0   30.0   50.0
450.0   30.0   50.0
400.0   30.0   33.333333333333336
400.0   0.0   50.0
450.0   30.0   50.0
450.0   0.0   50.0
450.0   0.0   33.333333333333336
400.0   0.0   50.0
450.0   30.0   50.0
450.0   0.0   33.333333333333336
400.0   30.0   33.333333333333336
400.0   30.0   0.0
450.0   30.0   0.0
400.0   60.0   0.0
400.0   30.0   16.666666666666668
450.0   30.0   0.0
450.0   60.0   0.0
400.0   60.0   0.0
450.0   60.0   16.666666666666668
400.0   30.0   16.666666666666668
400.0   60.0   16.666666666666668
450.0   60.0   16.666666666666668
400.0   60.0   0.0
400.0   30.0   16.666666666666668
450.0   60.0   16.666666666666668
450.0   30.0   16.666666666666668
450.0   30.0   0.0
400.0   30.0   16.666666666666668
450.0   60.0   16.666666666666668
450.0   30.0   0.0
400.0   60.0   0.0
400.0   30.0   16.666666666666668
450.0   30.0   16.666666666666668
400.0   60.0   16.666666666666668
400.0   30.0   33.333333333333336
450.0   30.0   16.666666666666668
450.0   60.0   16.666666666666668
400.0   60.0   16.666666666666668
450.0   60.0   33.333333333333336
400.0   30.0   33.333333333333336
400.0   60.0   33.333333333333336
450.0   60.0   33.333333333333336
400.0   60.0   16.666666666666668
400.0   30.0   33.333333333333336
450.0   60.0   33.333333333333336
450.0   30.0   33.333333333333336
450.0   30.0   16.666666666666668
400.0   30.0   33.333333333333336
450.0   60.0   33.333333333333336
450.0   30.0   16.666666666666668
400.0   60.0   16.666666666666668
400.0   30.0   33.333333333333336
450.0   30.0   33.333333333333336
400.0   60.0   33.333333333333336
400.0   30.0   50.0
450.0   30.0   33.333333333333336
450.0   60.0   33.333333333333336
400.0   60.0   33.333333333333336
450.0   60.0   50.0
400.0   30.0   50.0
400.0   60.0   50.0
450.0   60.0   50.0
400.0   60.0   33.333333333333336
400.0   30.0   50.0
450.0   60.0   50.0
450.0   30.0   50.0
450.0   30.0   33.333333333333336
400.0   30.0   50.0
450.0   60.0   50.0
450.0   30.0   33.333333333333336
400.0   60.0   33.333333333333336
400.0   60.0   0.0
450.0   60.0   0.0
400.0   90.0   0.0
400.0   60.0   16.666666666666668
450.0   60.0   0.0
450.0   90.0   0.0
400.0   90.0   0.0
450.0   90.0   16.666666666666668
400.0   60.0   16.666666666666668
400.0   90.0   16.666666666666668
450.0   90.0   16.666666666666668
400.0   90.0   0.0
400.0   60.0   16.666666666666668
450.0   90.0   16.666666666666668
450.0   60.0   16.666666666666668
450.0   60.0   0.0
400.0   60.0   16.666666666666668
450.0   90.0   16.666666666666668
450.0   60.0   0.0
400.0   90.0   0.0
400.0   60.0   16.666666666666668
450.0   60.0   16.666666666666668
400.0   90.0   16.666666666666668
400.0   60.0   33.333333333333336
450.0   60.0   16.666666666666668
450.0   90.0   16.666666666666668
400.0   90.0   16.666666666666668
450.0   90.0   33.333333333333336
400.0   60.0   33.333333333333336
400.0   90.0   33.333333333333336
450.0   90.0   33.333333333333336
400.0   90.0   16.666666666666668
400.0   60.0   33.333333333333336
450.0   90.0   33.333333333333336
450.0   60.0   33.333333333333336
450.0   60.0   16.666666666666668
400.0   60.0   33.333333333333336
450.0   90.0   33.333333333333336
450.0   60.0   16.666666666666668
400.0   90.0   16.666666666666668
400.0   60.0   33.333333333333336
450.0   60.0   33.333333333333336
400.0   90.0   33.333333333333336
400.0   60.0   50.0
450.0   60.0   33.333333333333336
450.0   90.0   33.333333333333336
400.0   90.0   33.333333333333336
450.0   90.0   50.0
400.0   60.0   50.0
400.0   90.0   50.0
450.0   90.0   50.0
400.0   90.0   33.333333333333336
400.0   60.0   50.0
450.0   90.0   50.0
450.0   60.0   50.0
450.0   60.0   33.333333333333336
400.0   60.0   50.0
450.0   90.0   50.0
450.0   60.0   33.333333333333336
400.0   90.0   33.333333333333336
400.0   90.0   0.0
450.0   90.0   0.0
400.0   120.0   0.0
400.0   90.0   16.666666666666668
450.0   90.0   0.0
450.0   120.0   0.0
400.0   120.0   0.0
450.0   120.0   16.666666666666668
400.0   90.0   16.666666666666668
400.0   120.0   16.666666666666668
450.0   120.0   16.666666666666668
400.0   120.0   0.0
400.0   90.0   16.666666666666668
450.0   120.0   16.666666666666668
450.0   90.0   16.666666666666668
450.0   90.0   0.0
400.0   90.0   16.666666666666668
450.0   120.0   16.666666666666668
450.0   90.0   0.0
400.0   120.0   0.0
400.0   90.0   16.666666666666668
450.0   90.0   16.666666666666668
400.0   120.0   16.666666666666668
400.0   90.0   33.333333333333336
450.0   90.0   16.666666666666668
450.0   120.0   16.666666666666668
400.0   120.0   16.666666666666668
450.0   120.0   33.333333333333336
400.0   90.0   33.333333333333336
400.0   120.0   33.333333333333336
450.0   120.0   33.333333333333336
400.0   120.0   16.666666666666668
400.0   90.0   33.333333333333336
450.0   120.0   33.333333333333336
450.0   90.0   33.333333333333336
450.0   90.0   16.666666666666668
400.0   90.0   33.333333333333336
450.0   120.0   33.333333333333336
450.0   90.0   16.666666666666668
400.0   120.0   16.666666666666668
400.0   90.0   33.333333333333336
450.0   90.0   33.333333333333336
400.0   120.0   33.333333333333336
400.0   90.0   50.0
450.0   90.0   33.333333333333336
450.0   120.0   33.333333333333336
400.0   120.0   33.333333333333336
450.0   120.0   50.0
400.0   90.0   50.0
400.0   120.0   50.0
450.0   120.0   50.0
400.0   120.0   33.333333333333336
400.0   90.0   50.0
450.0   120.0   50.0
450.0   90.0   50.0
450.0   90.0   33.333333333333336
400.0   90.0   50.0
450.0   120.0   50.0
450.0   90.0   33.333333333333336
400.0   120.0   33.333333333333336
400.0   120.0   0.0
450.0   120.0   0.0
400.0   150.0   0.0
400.0   120.0   16.666666666666668
450.0   120.0   0.0
450.0   150.0   0.0
400.0   150.0   0.0
450.0   150.0   16.666666666666668
400.0   120.0   16.666666666666668
400.0   150.0   16.666666666666668
450.0   150.0   16.666666666666668
400.0   150.0   0.0
400.0   120.0   16.666666666666668
450.0   150.0   16.666666666666668
450.0   120.0   16.666666666666668
450.0   120.0   0.0
400.0   120.0   16.666666666666668
450.0   150.0   16.666666666666668
450.0   120.0   0.0
400.0   150.0   0.0
400.0   120.0   16.666666666666668
450.0   120.0   16.666666666666668
400.0   150.0   16.666666666666668
400.0   120.0   33.333333333333336
450.0   120.0   16.666666666666668
450.0   150.0   16.666666666666668
400.0   150.0   16.666666666666668
450.0   150.0   33.333333333333336
400.0   120.0   33.333333333333336
400.0   150.0   33.333333333333336
450.0   150.0   33.333333333333336
400.0   150.0   16.666666666666668
400.0   120.0   33.333333333333336
450.0   150.0   33.333333333333336
450.0   120.0   33.333333333333336
450.0   120.0   16.666666666666668
400.0   120.0   33.333333333333336
450.0   150.0   33.333333333333336
450.0   120.0   16.666666666666668
400.0   150.0   16.666666666666668
400.0   120.0   33.333333333333336
450.0   120.0   33.333333333333336
400.0   150.0   33.333333333333336
400.0   120.0   50.0
450.0   120.0   33.333333333333336
450.0   150.0   33.333333333333336
400.0   150.0   33.333333333333336
450.0   150.0   50.0
400.0   120.0   50.0
400.0   150.0   50.0
450.0   150.0   50.0
400.0   150.0   33.333333333333336
400.0   120.0   50.0
450.0   150.0   50.0
450.0   120.0   50.0
450.0   120.0   33.333333333333336
400.0   120.0   50.0
450.0   150.0   50.0
450.0   120.0   33.333333333333336
400.0   150.0   33.333333333333336
450.0   0.0   0.0
500.0   0.0   0.0
450.0   30.0   0.0
450.0   0.0   16.666666666666668
500.0   0.0   0.0
500.0   30.0   0.0
450.0   30.0   0.0
500.0   30.0   16.666666666666668
450.0   0.0   16.666666666666668
450.0   30.0   16.666666666666668
500.0   30.0   16.666666666666668
450.0   30.0   0.0
450.0   0.0   16.666666666666668
500.0   30.0   16.666666666666668
500.0   0.0   16.666666666666668
500.0   0.0   0.0
450.0   0.0   16.666666666666668
500.0   30.0   16.666666666666668
500.0   0.0   0.0
450.0   30.0   0.0
450.0   0.0   16.666666666666668
500.0   0.0   16.666666666666668
450.0   30.0   16.666666666666668
450.0   0.0   33.333333333333336
500.0   0.0   16.666666666666668
500.0   30.0   16.666666666666668
450.0   30.0   16.666666666666668
500.0   30.0   33.333333333333336
450.0   0.0   33.333333333333336
450.0   30.0   33.333333333333336
500.0   30.0   33.333333333333336
450.0   30.0   16.666666666666668
450.0   0.0   33.333333333333336
500.0   30.0   33.333333333333336
500.0   0.0   33.333333333333336
500.0   0.0   16.666666666666668
450.0   0.0   33.333333333333336
500.0   30.0   33.333333333333336
500.0   0.0   16.666666666666668
450.0   30.0   16.666666666666668
450.0   0.0   33.333333333333336
500.0   0.0   33.333333333333336
450.0   30.0   33.333333333333336
450.0   0.0   50.0
500.0   0.0   33.333333333333336
500.0   30.0   33.333333333333336
450.0   30.0   33.333333333333336
500.0   30.0   50.0
450.0   0.0   50.0
450.0   30.0   50.0
500.0   30.0   50.0
450.0   30.0   33.333333333333336
450.0   0.0   50.0
500.0   30.0   50.0
500.0   0.0   50.0
500.0   0.0   33.333333333333336
450.0   0.0   50.0
500.0   30.0   50.0
500.0   0.0   33.333333333333336
450.0   30.0   33.333333333333336
450.0   30.0   0.0
500.0   30.0   0.0
450.0   60.0   0.0
450.0   30.0   16.666666666666668
500.0   30.0   0.0
500.0   60.0   0.0
450.0   60.0   0.0
500.0   60.0   16.666666666666668
450.0   30.0   16.666666666666668
450.0   60.0   16.666666666666668
500.0   60.0   16.666666666666668
450.0   60.0   0.0
450.0   30.0   16.666666666666668
500.0   60.0   16.666666666666668
500.0   30.0   16.666666666666668
500.0   30.0   0.0
450.0   30.0   16.666666666666668
500.0   60.0   16.666666666666668
500.0   30.0   0.0
450.0   60.0   0.0
450.0   30.0   16.666666666666668
500.0   30.0   16.666666666666668
450.0   60.0   16.666666666666668
450.0   30.0   33.333333333333336
500.0   30.0   16.666666666666668
500.0   60.0   16.666666666666668
450.0   60.0   16.666666666666668
500.0   60.0   33.333333333333336
450.0   30.0   33.333333333333336
450.0   60.0   33.333333333333336
500.0   60.0   33.333333333333336
450.0   60.0   16.666666666666668
450.0   30.0   33.333333333333336
500.0   60.0   33.333333333333336
500.0   30.0   33.333333333333336
500.0   30.0   16.666666666666668
450.0   30.0   33.333333333333336
500.0   60.0   33.333333333333336
500.0   30.0   16.666666666666668
450.0   60.0   16.666666666666668
450.0   30.0   33.333333333333336
500.0   30.0   33.333333333333336
450.0   60.0   33.333333333333336
450.0   30.0   50.0
500.0   30.0   33.333333333333336
500.0   60.0   33.333333333333336
450.0   60.0   33.333333333333336
500.0   60.0   50.0
450.0   30.0   50.0
450.0   60.0   50.0
500.0   60.0   50.0
450.0   60.0   33.333333333333336
450.0   30.0   50.0
500.0   60.0   50.0
500.0   30.0   50.0
500.0   30.0   33.333333333333336
450.0   30.0   50.0
500.0   60.0   50.0
500.0   30.0   33.333333333333336
450.0   60.0   33.333333333333336
450.0   60.0   0.0
500.0   60.0   0.0
450.0   90.0   0.0
450.0   60.0   16.666666666666668
500.0   60.0   0.0
500.0   90.0   0.0
450.0   90.0   0.0
500.0   90.0   16.666666666666668
450.0   60.0   16.666666666666668
450.0   90.0   16.666666666666668
500.0   90.0   16.666666666666668
450.0   90.0   0.0
450.0   60.0   16.666666666666668
500.0   90.0   16.666666666666668
500.0   60.0   16.666666666666668
500.0   60.0   0.0
450.0   60.0   16.666666666666668
500.0   90.0   16.666666666666668
500.0   60.0   0.0
450.0   90.0   0.0
450.0   60.0   16.666666666666668
500.0   60.0   16.666666666666668
450.0   90.0   16.666666666666668
450.0   60.0   33.333333333333336
500.0   60.0   16.666666666666668
500.0   90.0   16.666666666666668
450.0   90.0   16.666666666666668
500.0   90.0   33.333333333333336
450.0   60.0   33.333333333333336
450.0   90.0   33.333333333333336
500.0   90.0   33.333333333333336
450.0   90.0   16.666666666666668
450.0   60.0   33.333333333333336
500.0   90.0   33.333333333333336
500.0   60.0   33.333333333333336
500.0   60.0   16.666666666666668
450.0   60.0   33.333333333333336
500.0   90.0   33.333333333333336
500.0   60.0   16.666666666666668
450.0   90.0   16.666666666666668
450.0   60.0   33.333333333333336
500.0   60.0   33.333333333333336
450.0   90.0   33.333333333333336
450.0   60.0   50.0
500.0   60.0   33.333333333333336
500.0   90.0   33.333333333333336
450.0   90.0   33.333333333333336
500.0   90.0   50.0
450.0   60.0   50.0
450.0   90.0   50.0
500.0   90.0   50.0
450.0   90.0   33.333333333333336
450.0   60.0   50.0
500.0   90.0   50.0
500.0   60.0   50.0
500.0   60.0   33.333333333333336
450.0   60.0   50.0
500.0   90.0   50.0
500.0   60.0   33.333333333333336
450.0   90.0   33.333333333333336
450.0   90.0   0.0
500.0   90.0   0.0
450.0   120.0   0.0
450.0   90.0   16.666666666666668
500.0   90.0   0.0
500.0   120.0   0.0
450.0   120.0   0.0
500.0   120.0   16.666666666666668
450.0   90.0   16.666666666666668
450.0   120.0   16.666666666666668
500.0   120.0   16.666666666666668
450.0   120.0   0.0
450.0   90.0   16.666666666666668
500.0   120.0   16.666666666666668
500.0   90.0   16.666666666666668
500.0   90.0   0.0
450.0   90.0   16.666666666666668
500.0   120.0   16.666666666666668
500.0   90.0   0.0
450.0   120.0   0.0
450.0   90.0   16.666666666666668
500.0   90.0   16.666666666666668
450.0   120.0   16.666666666666668
450.0   90.0   33.333333333333336
500.0   90.0   16.666666666666668
500.0   120.0   16.666666666666668
450.0   120.0   16.666666666666668
500.0   120.0   33.333333333333336
450.0   90.0   33.333333333333336
450.0   120.0   33.333333333333336
500.0   120.0   33.333333333333336
450.0   120.0   16.666666666666668
450.0   90.0   33.333333333333336
500.0   120.0   33.333333333333336
500.0   90.0   33.333333333333336
500.0   90.0   16.666666666666668
450.0   90.0   33.333333333333336
500.0   120.0   33.333333333333336
500.0   90.0   16.666666666666668
450.0   120.0   16.666666666666668
450.0   90.0   33.333333333333336
500.0   90.0   33.333333333333336
450.0   120.0   33.333333333333336
450.0   90.0   50.0
500.0   90.0   33.333333333333336
500.0   120.0   33.333333333333336
450.0   120.0   33.333333333333336
500.0   120.0   50.0
450.0   90.0   50.0
450.0   120.0   50.0
500.0   120.0   50.0
450.0   120.0   33.333333333333336
450.0   90.0   50.0
500.0   120.0   50.0
500.0   90.0   50.0
500.0   90.0   33.333333333333336
450.0   90.0   50.0
500.0   120.0   50.0
500.0   90.0   33.333333333333336
450.0   120.0   33.333333333333336
450.0   120.0   0.0
500.0   120.0   0.0
450.0   150.0   0.0
450.0   120.0   16.666666666666668
500.0   120.0   0.0
500.0   150.0   0.0
450.0   150.0   0.0
500.0   150.0   16.666666666666668
450.0   120.0   16.666666666666668
450.0   150.0   16.666666666666668
500.0   150.0   16.666666666666668
450.0   150.0   0.0
450.0   120.0   16.666666666666668
500.0   150.0   16.666666666666668
500.0   120.0   16.666666666666668
500.0   120.0   0.0
450.0   120.0   16.666666666666668
500.0   150.0   16.666666666666668
500.0   120.0   0.0
450.0   150.0   0.0
450.0   120.0   16.666666666666668
500.0   120.0   16.666666666666668
450.0   150.0   16.666666666666668
450.0   120.0   33.333333333333336
500.0   120.0   16.666666666666668
500.0   150.0   16.666666666666668
450.0   150.0   16.666666666666668
500.0   150.0   33.333333333333336
450.0   120.0   33.333333333333336
450.0   150.0   33.333333333333336
500.0   150.0   33.333333333333336
450.0   150.0   16.666666666666668
450.0   120.0   33.333333333333336
500.0   150.0   33.333333333333336
500.0   120.0   33.333333333333336
500.0   120.0   16.666666666666668
450.0   120.0   33.333333333333336
500.0   150.0   33.333333333333336
500.0   120.0   16.666666666666668
450.0   150.0   16.666666666666668
450.0   120.0   33.333333333333336
500.0   120.0   33.333333333333336
450.0   150.0   33.333333333333336
450.0   120.0   50.0
500.0   120.0   33.333333333333336
500.0   150.0   33.333333333333336
450.0   150.0   33.333333333333336
500.0   150.0   50.0
450.0   120.0   50.0
450.0   150.0   50.0
500.0   150.0   50.0
450.0   150.0   33.333333333333336
450.0   120.0   50.0
500.0   150.0   50.0
500.0   120.0   50.0
500.0   120.0   33.333333333333336
450.0   120.0   50.0
500.0   150.0   50.0
500.0   120.0   33.333333333333336
450.0   150.0   33.333333333333336
             </DataArray>   
          </Points>  
          <Cells>  
             <DataArray type="Int32" Name="connectivity" format="ascii">   
0   1   2   3
4   5   6   7
8   9   10   11
12   13   14   15
16   17   18   19
20   21   22   23
24   25   26   27
28   29   30   31
32   33   34   35
36   37   38   39
40   41   42   43
44   45   46   47
48   49   50   51
52   53   54   55
56   57   58   59
60   61   62   63
64   65   66   67
68   69   70   71
72   73   74   75
76   77   78   79
80   81   82   83
84   85   86   87
88   89   90   91
92   93   94   95
96   97   98   99
100   101   102   103
104   105   106   107
108   109   110   111
112   113   114   115
116   117   118   119
120   121   122   123
124   125   126   127
128   129   130   131
132   133   134   135
136   137   138   139
140   141   142   143
144   145   146   147
148   149   150   151
152   153   154   155
156   157   158   159
160   161   162   163
164   165   166   167
168   169   170   171
172   173   174   175
176   177   178   179
180   181   182   183
184   185   186   187
188   189   190   191
192   193   194   195
196   197   198   199
200   201   202   203
204   205   206   207
208   209   210   211
212   213   214   215
216   217   218   219
220   221   222   223
224   225   226   227
228   229   230   231
232   233   234   235
236   237   238   239
240   241   242   243
244   245   246   247
248   249   250   251
252   253   254   255
256   257   258   259
260   261   262   263
264   265   266   267
268   269   270   271
272   273   274   275
276   277   278   279
280   281   282   283
284   285   286   287
288   289   290   291
292   293   294   295
296   297   298   299
300   301   302   303
304   305   306   307
308   309   310   311
312   313   314   315
316   317   318   319
320   321   322   323
324   325   326   327
328   329   330   331
332   333   334   335
336   337   338   339
340   341   342   343
344   345   346   347
348   349   350   351
352   353   354   355
356   357   358   359
360   361   362   363
364   365   366   367
368   369   370   371
372   373   374   375
376   377   378   379
380   381   382   383
384   385   386   387
388   389   390   391
392   393   394   395
396   397   398   399
400   401   402   403
404   405   406   407
408   409   410   411
412   413   414   415
416   417   418   419
420   421   422   423
424   425   426   427
428   429   430   431
432   433   434   435
436   437   438   439
440   441   442   443
444   445   446   447
448   449   450   451
452   453   454   455
456   457   458   459
460   461   462   463
464   465   466   467
468   469   470   471
472   473   474   475
476   477   478   479
480   481   482   483
484   485   486   487
488   489   490   491
492   493   494   495
496   497   498   499
500   501   502   503
504   505   506   507
508   509   510   511
512   513   514   515
516   517   518   519
520   521   522   523
524   525   526   527
528   529   530   531
532   533   534   535
536   537   538   539
540   541   542   543
544   545   546   547
548   549   550   551
552   553   554   555
556   557   558   559
560   561   562   563
564   565   566   567
568   569   570   571
572   573   574   575
576   577   578   579
580   581   582   583
584   585   586   587
588   589   590   591
592   593   594   595
596   597   598   599
600   601   602   603
604   605   606   607
608   609   610   611
612   613   614   615
616   617   618   619
620   621   622   623
624   625   626   627
628   629   630   631
632   633   634   635
636   637   638   639
640   641   642   643
644   645   646   647
648   649   650   651
652   653   654   655
656   657   658   659
660   661   662   663
664   665   666   667
668   669   670   671
672   673   674   675
676   677   678   679
680   681   682   683
684   685   686   687
688   689   690   691
692   693   694   695
696   697   698   699
700   701   702   703
704   705   706   707
708   709   710   711
712   713   714   715
716   717   718   719
720   721   722   723
724   725   726   727
728   729   730   731
732   733   734   735
736   737   738   739
740   741   742   743
744   745   746   747
748   749   750   751
752   753   754   755
756   757   758   759
760   761   762   763
764   765   766   767
768   769   770   771
772   773   774   775
776   777   778   779
780   781   782   783
784   785   786   787
788   789   790   791
792   793   794   795
796   797   798   799
800   801   802   803
804   805   806   807
808   809   810   811
812   813   814   815
816   817   818   819
820   821   822   823
824   825   826   827
828   829   830   831
832   833   834   835
836   837   838   839
840   841   842   843
844   845   846   847
848   849   850   851
852   853   854   855
856   857   858   859
860   861   862   863
864   865   866   867
868   869   870   871
872   873   874   875
876   877   878   879
880   881   882   883
884   885   886   887
888   889   890   891
892   893   894   895
896   897   898   899
900   901   902   903
904   905   906   907
908   909   910   911
912   913   914   915
916   917   918   919
920   921   922   923
924   925   926   927
928   929   930   931
932   933   934   935
936   937   938   939
940   941   942   943
944   945   946   947
948   949   950   951
952   953   954   955
956   957   958   959
960   961   962   963
964   965   966   967
968   969   970   971
972   973   974   975
976   977   978   979
980   981   982   983
984   985   986   987
988   989   990   991
992   993   994   995
996   997   998   999
1000   1001   1002   1003
1004   1005   1006   1007
1008   1009   1010   1011
1012   1013   1014   1015
1016   1017   1018   1019
1020   1021   1022   1023
1024   1025   1026   1027
1028   1029   1030   1031
1032   1033   1034   1035
1036   1037   1038   1039
1040   1041   1042   1043
1044   1045   1046   1047
1048   1049   1050   1051
1052   1053   1054   1055
1056   1057   1058   1059
1060   1061   1062   1063
1064   1065   1066   1067
1068   1069   1070   1071
1072   1073   1074   1075
1076   1077   1078   1079
1080   1081   1082   1083
1084   1085   1086   1087
1088   1089   1090   1091
1092   1093   1094   1095
1096   1097   1098   1099
1100   1101   1102   1103
1104   1105   1106   1107
1108   1109   1110   1111
1112   1113   1114   1115
1116   1117   1118   1119
1120   1121   1122   1123
1124   1125   1126   1127
1128   1129   1130   1131
1132   1133   1134   1135
1136   1137   1138   1139
1140   1141   1142   1143
1144   1145   1146   1147
1148   1149   1150   1151
1152   1153   1154   1155
1156   1157   1158   1159
1160   1161   1162   1163
1164   1165   1166   1167
1168   1169   1170   1171
1172   1173   1174   1175
1176   1177   1178   1179
1180   1181   1182   1183
1184   1185   1186   1187
1188   1189   1190   1191
1192   1193   1194   1195
1196   1197   1198   1199
1200   1201   1202   1203
1204   1205   1206   1207
1208   1209   1210   1211
1212   1213   1214   1215
1216   1217   1218   1219
1220   1221   1222   1223
1224   1225   1226   1227
1228   1229   1230   1231
1232   1233   1234   1235
1236   1237   1238   1239
1240   1241   1242   1243
1244   1245   1246   1247
1248   1249   1250   1251
1252   1253   1254   1255
1256   1257   1258   1259
1260   1261   1262   1263
1264   1265   1266   1267
1268   1269   1270   1271
1272   1273   1274   1275
1276   1277   1278   1279
1280   1281   1282   1283
1284   1285   1286   1287
1288   1289   1290   1291
1292   1293   1294   1295
1296   1297   1298   1299
1300   1301   1302   1303
1304   1305   1306   1307
1308   1309   1310   1311
1312   1313   1314   1315
1316   1317   1318   1319
1320   1321   1322   1323
1324   1325   1326   1327
1328   1329   1330   1331
1332   1333   1334   1335
1336   1337   1338   1339
1340   1341   1342   1343
1344   1345   1346   1347
1348   1349   1350   1351
1352   1353   1354   1355
1356   1357   1358   1359
1360   1361   1362   1363
1364   1365   1366   1367
1368   1369   1370   1371
1372   1373   1374   1375
1376   1377   1378   1379
1380   1381   1382   1383
1384   1385   1386   1387
1388   1389   1390   1391
1392   1393   1394   1395
1396   1397   1398   1399
1400   1401   1402   1403
1404   1405   1406   1407
1408   1409   1410   1411
1412   1413   1414   1415
1416   1417   1418   1419
1420   1421   1422   1423
1424   1425   1426   1427
1428   1429   1430   1431
1432   1433   1434   1435
1436   1437   1438   1439
1440   1441   1442   1443
1444   1445   1446   1447
1448   1449   1450   1451
1452   1453   1454   1455
1456   1457   1458   1459
1460   1461   1462   1463
1464   1465   1466   1467
1468   1469   1470   1471
1472   1473   1474   1475
1476   1477   1478   1479
1480   1481   1482   1483
1484   1485   1486   1487
1488   1489   1490   1491
1492   1493   1494   1495
1496   1497   1498   1499
1500   1501   1502   1503
1504   1505   1506   1507
1508   1509   1510   1511
1512   1513   1514   1515
1516   1517   1518   1519
1520   1521   1522   1523
1524   1525   1526   1527
1528   1529   1530   1531
1532   1533   1534   1535
1536   1537   1538   1539
1540   1541   1542   1543
1544   1545   1546   1547
1548   1549   1550   1551
1552   1553   1554   1555
1556   1557   1558   1559
1560   1561   1562   1563
1564   1565   1566   1567
1568   1569   1570   1571
1572   1573   1574   1575
1576   1577   1578   1579
1580   1581   1582   1583
1584   1585   1586   1587
1588   1589   1590   1591
1592   1593   1594   1595
1596   1597   1598   1599
1600   1601   1602   1603
1604   1605   1606   1607
1608   1609   1610   1611
1612   1613   1614   1615
1616   1617   1618   1619
1620   1621   1622   1623
1624   1625   1626   1627
1628   1629   1630   1631
1632   1633   1634   1635
1636   1637   1638   1639
1640   1641   1642   1643
1644   1645   1646   1647
1648   1649   1650   1651
1652   1653   1654   1655
1656   1657   1658   1659
1660   1661   1662   1663
1664   1665   1666   1667
1668   1669   1670   1671
1672   1673   1674   1675
1676   1677   1678   1679
1680   1681   1682   1683
1684   1685   1686   1687
1688   1689   1690   1691
1692   1693   1694   1695
1696   1697   1698   1699
1700   1701   1702   1703
1704   1705   1706   1707
1708   1709   1710   1711
1712   1713   1714   1715
1716   1717   1718   1719
1720   1721   1722   1723
1724   1725   1726   1727
1728   1729   1730   1731
1732   1733   1734   1735
1736   1737   1738   1739
1740   1741   1742   1743
1744   1745   1746   1747
1748   1749   1750   1751
1752   1753   1754   1755
1756   1757   1758   1759
1760   1761   1762   1763
1764   1765   1766   1767
1768   1769   1770   1771
1772   1773   1774   1775
1776   1777   1778   1779
1780   1781   1782   1783
1784   1785   1786   1787
1788   1789   1790   1791
1792   1793   1794   1795
1796   1797   1798   1799
1800   1801   1802   1803
1804   1805   1806   1807
1808   1809   1810   1811
1812   1813   1814   1815
1816   1817   1818   1819
1820   1821   1822   1823
1824   1825   1826   1827
1828   1829   1830   1831
1832   1833   1834   1835
1836   1837   1838   1839
1840   1841   1842   1843
1844   1845   1846   1847
1848   1849   1850   1851
1852   1853   1854   1855
1856   1857   1858   1859
1860   1861   1862   1863
1864   1865   1866   1867
1868   1869   1870   1871
1872   1873   1874   1875
1876   1877   1878   1879
1880   1881   1882   1883
1884   1885   1886   1887
1888   1889   1890   1891
1892   1893   1894   1895
1896   1897   1898   1899
1900   1901   1902   1903
1904   1905   1906   1907
1908   1909   1910   1911
1912   1913   1914   1915
1916   1917   1918   1919
1920   1921   1922   1923
1924   1925   1926   1927
1928   1929   1930   1931
1932   1933   1934   1935
1936   1937   1938   1939
1940   1941   1942   1943
1944   1945   1946   1947
1948   1949   1950   1951
1952   1953   1954   1955
1956   1957   1958   1959
1960   1961   1962   1963
1964   1965   1966   1967
1968   1969   1970   1971
1972   1973   1974   1975
1976   1977   1978   1979
1980   1981   1982   1983
1984   1985   1986   1987
1988   1989   1990   1991
1992   1993   1994   1995
1996   1997   1998   1999
2000   2001   2002   2003
2004   2005   2006   2007
2008   2009   2010   2011
2012   2013   2014   2015
2016   2017   2018   2019
2020   2021   2022   2023
2024   2025   2026   2027
2028   2029   2030   2031
2032   2033   2034   2035
2036   2037   2038   2039
2040   2041   2042   2043
2044   2045   2046   2047
2048   2049   2050   2051
2052   2053   2054   2055
2056   2057   2058   2059
2060   2061   2062   2063
2064   2065   2066   2067
2068   2069   2070   2071
2072   2073   2074   2075
2076   2077   2078   2079
2080   2081   2082   2083
2084   2085   2086   2087
2088   2089   2090   2091
2092   2093   2094   2095
2096   2097   2098   2099
2100   2101   2102   2103
2104   2105   2106   2107
2108   2109   2110   2111
2112   2113   2114   2115
2116   2117   2118   2119
2120   2121   2122   2123
2124   2125   2126   2127
2128   2129   2130   2131
2132   2133   2134   2135
2136   2137   2138   2139
2140   2141   2142   2143
2144   2145   2146   2147
2148   2149   2150   2151
2152   2153   2154   2155
2156   2157   2158   2159
2160   2161   2162   2163
2164   2165   2166   2167
2168   2169   2170   2171
2172   2173   2174   2175
2176   2177   2178   2179
2180   2181   2182   2183
2184   2185   2186   2187
2188   2189   2190   2191
2192   2193   2194   2195
2196   2197   2198   2199
2200   2201   2202   2203
2204   2205   2206   2207
2208   2209   2210   2211
2212   2213   2214   2215
2216   2217   2218   2219
2220   2221   2222   2223
2224   2225   2226   2227
2228   2229   2230   2231
2232   2233   2234   2235
2236   2237   2238   2239
2240   2241   2242   2243
2244   2245   2246   2247
2248   2249   2250   2251
2252   2253   2254   2255
2256   2257   2258   2259
2260   2261   2262   2263
2264   2265   2266   2267
2268   2269   2270   2271
2272   2273   2274   2275
2276   2277   2278   2279
2280   2281   2282   2283
2284   2285   2286   2287
2288   2289   2290   2291
2292   2293   2294   2295
2296   2297   2298   2299
2300   2301   2302   2303
2304   2305   2306   2307
2308   2309   2310   2311
2312   2313   2314   2315
2316   2317   2318   2319
2320   2321   2322   2323
2324   2325   2326   2327
2328   2329   2330   2331
2332   2333   2334   2335
2336   2337   2338   2339
2340   2341   2342   2343
2344   2345   2346   2347
2348   2349   2350   2351
2352   2353   2354   2355
2356   2357   2358   2359
2360   2361   2362   2363
2364   2365   2366   2367
2368   2369   2370   2371
2372   2373   2374   2375
2376   2377   2378   2379
2380   2381   2382   2383
2384   2385   2386   2387
2388   2389   2390   2391
2392   2393   2394   2395
2396   2397   2398   2399
2400   2401   2402   2403
2404   2405   2406   2407
2408   2409   2410   2411
2412   2413   2414   2415
2416   2417   2418   2419
2420   2421   2422   2423
2424   2425   2426   2427
2428   2429   2430   2431
2432   2433   2434   2435
2436   2437   2438   2439
2440   2441   2442   2443
2444   2445   2446   2447
2448   2449   2450   2451
2452   2453   2454   2455
2456   2457   2458   2459
2460   2461   2462   2463
2464   2465   2466   2467
2468   2469   2470   2471
2472   2473   2474   2475
2476   2477   2478   2479
2480   2481   2482   2483
2484   2485   2486   2487
2488   2489   2490   2491
2492   2493   2494   2495
2496   2497   2498   2499
2500   2501   2502   2503
2504   2505   2506   2507
2508   2509   2510   2511
2512   2513   2514   2515
2516   2517   2518   2519
2520   2521   2522   2523
2524   2525   2526   2527
2528   2529   2530   2531
2532   2533   2534   2535
2536   2537   2538   2539
2540   2541   2542   2543
2544   2545   2546   2547
2548   2549   2550   2551
2552   2553   2554   2555
2556   2557   2558   2559
2560   2561   2562   2563
2564   2565   2566   2567
2568   2569   2570   2571
2572   2573   2574   2575
2576   2577   2578   2579
2580   2581   2582   2583
2584   2585   2586   2587
2588   2589   2590   2591
2592   2593   2594   2595
2596   2597   2598   2599
2600   2601   2602   2603
2604   2605   2606   2607
2608   2609   2610   2611
2612   2613   2614   2615
2616   2617   2618   2619
2620   2621   2622   2623
2624   2625   2626   2627
2628   2629   2630   2631
2632   2633   2634   2635
2636   2637   2638   2639
2640   2641   2642   2643
2644   2645   2646   2647
2648   2649   2650   2651
2652   2653   2654   2655
2656   2657   2658   2659
2660   2661   2662   2663
2664   2665   2666   2667
2668   2669   2670   2671
2672   2673   2674   2675
2676   2677   2678   2679
2680   2681   2682   2683
2684   2685   2686   2687
2688   2689   2690   2691
2692   2693   2694   2695
2696   2697   2698   2699
2700   2701   2702   2703
2704   2705   2706   2707
2708   2709   2710   2711
2712   2713   2714   2715
2716   2717   2718   2719
2720   2721   2722   2723
2724   2725   2726   2727
2728   2729   2730   2731
2732   2733   2734   2735
2736   2737   2738   2739
2740   2741   2742   2743
2744   2745   2746   2747
2748   2749   2750   2751
2752   2753   2754   2755
2756   2757   2758   2759
2760   2761   2762   2763
2764   2765   2766   2767
2768   2769   2770   2771
2772   2773   2774   2775
2776   2777   2778   2779
2780   2781   2782   2783
2784   2785   2786   2787
2788   2789   2790   2791
2792   2793   2794   2795
2796   2797   2798   2799
2800   2801   2802   2803
2804   2805   2806   2807
2808   2809   2810   2811
2812   2813   2814   2815
2816   2817   2818   2819
2820   2821   2822   2823
2824   2825   2826   2827
2828   2829   2830   2831
2832   2833   2834   2835
2836   2837   2838   2839
2840   2841   2842   2843
2844   2845   2846   2847
2848   2849   2850   2851
2852   2853   2854   2855
2856   2857   2858   2859
2860   2861   2862   2863
2864   2865   2866   2867
2868   2869   2870   2871
2872   2873   2874   2875
2876   2877   2878   2879
2880   2881   2882   2883
2884   2885   2886   2887
2888   2889   2890   2891
2892   2893   2894   2895
2896   2897   2898   2899
2900   2901   2902   2903
2904   2905   2906   2907
2908   2909   2910   2911
2912   2913   2914   2915
2916   2917   2918   2919
2920   2921   2922   2923
2924   2925   2926   2927
2928   2929   2930   2931
2932   2933   2934   2935
2936   2937   2938   2939
2940   2941   2942   2943
2944   2945   2946   2947
2948   2949   2950   2951
2952   2953   2954   2955
2956   2957   2958   2959
2960   2961   2962   2963
2964   2965   2966   2967
2968   2969   2970   2971
2972   2973   2974   2975
2976   2977   2978   2979
2980   2981   2982   2983
2984   2985   2986   2987
2988   2989   2990   2991
2992   2993   2994   2995
2996   2997   2998   2999
3000   3001   3002   3003
3004   3005   3006   3007
3008   3009   3010   3011
3012   3013   3014   3015
3016   3017   3018   3019
3020   3021   3022   3023
3024   3025   3026   3027
3028   3029   3030   3031
3032   3033   3034   3035
3036   3037   3038   3039
3040   3041   3042   3043
3044   3045   3046   3047
3048   3049   3050   3051
3052   3053   3054   3055
3056   3057   3058   3059
3060   3061   3062   3063
3064   3065   3066   3067
3068   3069   3070   3071
3072   3073   3074   3075
3076   3077   3078   3079
3080   3081   3082   3083
3084   3085   3086   3087
3088   3089   3090   3091
3092   3093   3094   3095
3096   3097   3098   3099
3100   3101   3102   3103
3104   3105   3106   3107
3108   3109   3110   3111
3112   3113   3114   3115
3116   3117   3118   3119
3120   3121   3122   3123
3124   3125   3126   3127
3128   3129   3130   3131
3132   3133   3134   3135
3136   3137   3138   3139
3140   3141   3142   3143
3144   3145   3146   3147
3148   3149   3150   3151
3152   3153   3154   3155
3156   3157   3158   3159
3160   3161   3162   3163
3164   3165   3166   3167
3168   3169   3170   3171
3172   3173   3174   3175
3176   3177   3178   3179
3180   3181   3182   3183
3184   3185   3186   3187
3188   3189   3190   3191
3192   3193   3194   3195
3196   3197   3198   3199
3200   3201   3202   3203
3204   3205   3206   3207
3208   3209   3210   3211
3212   3213   3214   3215
3216   3217   3218   3219
3220   3221   3222   3223
3224   3225   3226   3227
3228   3229   3230   3231
3232   3233   3234   3235
3236   3237   3238   3239
3240   3241   3242   3243
3244   3245   3246   3247
3248   3249   3250   3251
3252   3253   3254   3255
3256   3257   3258   3259
3260   3261   3262   3263
3264   3265   3266   3267
3268   3269   3270   3271
3272   3273   3274   3275
3276   3277   3278   3279
3280   3281   3282   3283
3284   3285   3286   3287
3288   3289   3290   3291
3292   3293   3294   3295
3296   3297   3298   3299
3300   3301   3302   3303
3304   3305   3306   3307
3308   3309   3310   3311
3312   3313   3314   3315
3316   3317   3318   3319
3320   3321   3322   3323
3324   3325   3326   3327
3328   3329   3330   3331
3332   3333   3334   3335
3336   3337   3338   3339
3340   3341   3342   3343
3344   3345   3346   3347
3348   3349   3350   3351
3352   3353   3354   3355
3356   3357   3358   3359
3360   3361   3362   3363
3364   3365   3366   3367
3368   3369   3370   3371
3372   3373   3374   3375
3376   3377   3378   3379
3380   3381   3382   3383
3384   3385   3386   3387
3388   3389   3390   3391
3392   3393   3394   3395
3396   3397   3398   3399
3400   3401   3402   3403
3404   3405   3406   3407
3408   3409   3410   3411
3412   3413   3414   3415
3416   3417   3418   3419
3420   3421   3422   3423
3424   3425   3426   3427
3428   3429   3430   3431
3432   3433   3434   3435
3436   3437   3438   3439
3440   3441   3442   3443
3444   3445   3446   3447
3448   3449   3450   3451
3452   3453   3454   3455
3456   3457   3458   3459
3460   3461   3462   3463
3464   3465   3466   3467
3468   3469   3470   3471
3472   3473   3474   3475
3476   3477   3478   3479
3480   3481   3482   3483
3484   3485   3486   3487
3488   3489   3490   3491
3492   3493   3494   3495
3496   3497   3498   3499
3500   3501   3502   3503
3504   3505   3506   3507
3508   3509   3510   3511
3512   3513   3514   3515
3516   3517   3518   3519
3520   3521   3522   3523
3524   3525   3526   3527
3528   3529   3530   3531
3532   3533   3534   3535
3536   3537   3538   3539
3540   3541   3542   3543
3544   3545   3546   3547
3548   3549   3550   3551
3552   3553   3554   3555
3556   3557   3558   3559
3560   3561   3562   3563
3564   3565   3566   3567
3568   3569   3570   3571
3572   3573   3574   3575
3576   3577   3578   3579
3580   3581   3582   3583
3584   3585   3586   3587
3588   3589   3590   3591
3592   3593   3594   3595
3596   3597   3598   3599
3600   3601   3602   3603
3604   3605   3606   3607
3608   3609   3610   3611
3612   3613   3614   3615
3616   3617   3618   3619
3620   3621   3622   3623
3624   3625   3626   3627
3628   3629   3630   3631
3632   3633   3634   3635
3636   3637   3638   3639
3640   3641   3642   3643
3644   3645   3646   3647
3648   3649   3650   3651
3652   3653   3654   3655
3656   3657   3658   3659
3660   3661   3662   3663
3664   3665   3666   3667
3668   3669   3670   3671
3672   3673   3674   3675
3676   3677   3678   3679
3680   3681   3682   3683
3684   3685   3686   3687
3688   3689   3690   3691
3692   3693   3694   3695
3696   3697   3698   3699
3700   3701   3702   3703
3704   3705   3706   3707
3708   3709   3710   3711
3712   3713   3714   3715
3716   3717   3718   3719
3720   3721   3722   3723
3724   3725   3726   3727
3728   3729   3730   3731
3732   3733   3734   3735
3736   3737   3738   3739
3740   3741   3742   3743
3744   3745   3746   3747
3748   3749   3750   3751
3752   3753   3754   3755
3756   3757   3758   3759
3760   3761   3762   3763
3764   3765   3766   3767
3768   3769   3770   3771
3772   3773   3774   3775
3776   3777   3778   3779
3780   3781   3782   3783
3784   3785   3786   3787
3788   3789   3790   3791
3792   3793   3794   3795
3796   3797   3798   3799
3800   3801   3802   3803
3804   3805   3806   3807
3808   3809   3810   3811
3812   3813   3814   3815
3816   3817   3818   3819
3820   3821   3822   3823
3824   3825   3826   3827
3828   3829   3830   3831
3832   3833   3834   3835
3836   3837   3838   3839
3840   3841   3842   3843
3844   3845   3846   3847
3848   3849   3850   3851
3852   3853   3854   3855
3856   3857   3858   3859
3860   3861   3862   3863
3864   3865   3866   3867
3868   3869   3870   3871
3872   3873   3874   3875
3876   3877   3878   3879
3880   3881   3882   3883
3884   3885   3886   3887
3888   3889   3890   3891
3892   3893   3894   3895
3896   3897   3898   3899
3900   3901   3902   3903
3904   3905   3906   3907
3908   3909   3910   3911
3912   3913   3914   3915
3916   3917   3918   3919
3920   3921   3922   3923
3924   3925   3926   3927
3928   3929   3930   3931
3932   3933   3934   3935
3936   3937   3938   3939
3940   3941   3942   3943
3944   3945   3946   3947
3948   3949   3950   3951
3952   3953   3954   3955
3956   3957   3958   3959
3960   3961   3962   3963
3964   3965   3966   3967
3968   3969   3970   3971
3972   3973   3974   3975
3976   3977   3978   3979
3980   3981   3982   3983
3984   3985   3986   3987
3988   3989   3990   3991
3992   3993   3994   3995
3996   3997   3998   3999
4000   4001   4002   4003
4004   4005   4006   4007
4008   4009   4010   4011
4012   4013   4014   4015
4016   4017   4018   4019
4020   4021   4022   4023
4024   4025   4026   4027
4028   4029   4030   4031
4032   4033   4034   4035
4036   4037   4038   4039
4040   4041   4042   4043
4044   4045   4046   4047
4048   4049   4050   4051
4052   4053   4054   4055
4056   4057   4058   4059
4060   4061   4062   4063
4064   4065   4066   4067
4068   4069   4070   4071
4072   4073   4074   4075
4076   4077   4078   4079
4080   4081   4082   4083
4084   4085   4086   4087
4088   4089   4090   4091
4092   4093   4094   4095
4096   4097   4098   4099
4100   4101   4102   4103
4104   4105   4106   4107
4108   4109   4110   4111
4112   4113   4114   4115
4116   4117   4118   4119
4120   4121   4122   4123
4124   4125   4126   4127
4128   4129   4130   4131
4132   4133   4134   4135
4136   4137   4138   4139
4140   4141   4142   4143
4144   4145   4146   4147
4148   4149   4150   4151
4152   4153   4154   4155
4156   4157   4158   4159
4160   4161   4162   4163
4164   4165   4166   4167
4168   4169   4170   4171
4172   4173   4174   4175
4176   4177   4178   4179
4180   4181   4182   4183
4184   4185   4186   4187
4188   4189   4190   4191
4192   4193   4194   4195
4196   4197   4198   4199
4200   4201   4202   4203
4204   4205   4206   4207
4208   4209   4210   4211
4212   4213   4214   4215
4216   4217   4218   4219
4220   4221   4222   4223
4224   4225   4226   4227
4228   4229   4230   4231
4232   4233   4234   4235
4236   4237   4238   4239
4240   4241   4242   4243
4244   4245   4246   4247
4248   4249   4250   4251
4252   4253   4254   4255
4256   4257   4258   4259
4260   4261   4262   4263
4264   4265   4266   4267
4268   4269   4270   4271
4272   4273   4274   4275
4276   4277   4278   4279
4280   4281   4282   4283
4284   4285   4286   4287
4288   4289   4290   4291
4292   4293   4294   4295
4296   4297   4298   4299
4300   4301   4302   4303
4304   4305   4306   4307
4308   4309   4310   4311
4312   4313   4314   4315
4316   4317   4318   4319
4320   4321   4322   4323
4324   4325   4326   4327
4328   4329   4330   4331
4332   4333   4334   4335
4336   4337   4338   4339
4340   4341   4342   4343
4344   4345   4346   4347
4348   4349   4350   4351
4352   4353   4354   4355
4356   4357   4358   4359
4360   4361   4362   4363
4364   4365   4366   4367
4368   4369   4370   4371
4372   4373   4374   4375
4376   4377   4378   4379
4380   4381   4382   4383
4384   4385   4386   4387
4388   4389   4390   4391
4392   4393   4394   4395
4396   4397   4398   4399
4400   4401   4402   4403
4404   4405   4406   4407
4408   4409   4410   4411
4412   4413   4414   4415
4416   4417   4418   4419
4420   4421   4422   4423
4424   4425   4426   4427
4428   4429   4430   4431
4432   4433   4434   4435
4436   4437   4438   4439
4440   4441   4442   4443
4444   4445   4446   4447
4448   4449   4450   4451
4452   4453   4454   4455
4456   4457   4458   4459
4460   4461   4462   4463
4464   4465   4466   4467
4468   4469   4470   4471
4472   4473   4474   4475
4476   4477   4478   4479
4480   4481   4482   4483
4484   4485   4486   4487
4488   4489   4490   4491
4492   4493   4494   4495
4496   4497   4498   4499
4500   4501   4502   4503
4504   4505   4506   4507
4508   4509   4510   4511
4512   4513   4514   4515
4516   4517   4518   4519
4520   4521   4522   4523
4524   4525   4526   4527
4528   4529   4530   4531
4532   4533   4534   4535
4536   4537   4538   4539
4540   4541   4542   4543
4544   4545   4546   4547
4548   4549   4550   4551
4552   4553   4554   4555
4556   4557   4558   4559
4560   4561   4562   4563
4564   4565   4566   4567
4568   4569   4570   4571
4572   4573   4574   4575
4576   4577   4578   4579
4580   4581   4582   4583
4584   4585   4586   4587
4588   4589   4590   4591
4592   4593   4594   4595
4596   4597   4598   4599
4600   4601   4602   4603
4604   4605   4606   4607
4608   4609   4610   4611
4612   4613   4614   4615
4616   4617   4618   4619
4620   4621   4622   4623
4624   4625   4626   4627
4628   4629   4630   4631
4632   4633   4634   4635
4636   4637   4638   4639
4640   4641   4642   4643
4644   4645   4646   4647
4648   4649   4650   4651
4652   4653   4654   4655
4656   4657   4658   4659
4660   4661   4662   4663
4664   4665   4666   4667
4668   4669   4670   4671
4672   4673   4674   4675
4676   4677   4678   4679
4680   4681   4682   4683
4684   4685   4686   4687
4688   4689   4690   4691
4692   4693   4694   4695
4696   4697   4698   4699
4700   4701   4702   4703
4704   4705   4706   4707
4708   4709   4710   4711
4712   4713   4714   4715
4716   4717   4718   4719
4720   4721   4722   4723
4724   4725   4726   4727
4728   4729   4730   4731
4732   4733   4734   4735
4736   4737   4738   4739
4740   4741   4742   4743
4744   4745   4746   4747
4748   4749   4750   4751
4752   4753   4754   4755
4756   4757   4758   4759
4760   4761   4762   4763
4764   4765   4766   4767
4768   4769   4770   4771
4772   4773   4774   4775
4776   4777   4778   4779
4780   4781   4782   4783
4784   4785   4786   4787
4788   4789   4790   4791
4792   4793   4794   4795
4796   4797   4798   4799
4800   4801   4802   4803
4804   4805   4806   4807
4808   4809   4810   4811
4812   4813   4814   4815
4816   4817   4818   4819
4820   4821   4822   4823
4824   4825   4826   4827
4828   4829   4830   4831
4832   4833   4834   4835
4836   4837   4838   4839
4840   4841   4842   4843
4844   4845   4846   4847
4848   4849   4850   4851
4852   4853   4854   4855
4856   4857   4858   4859
4860   4861   4862   4863
4864   4865   4866   4867
4868   4869   4870   4871
4872   4873   4874   4875
4876   4877   4878   4879
4880   4881   4882   4883
4884   4885   4886   4887
4888   4889   4890   4891
4892   4893   4894   4895
4896   4897   4898   4899
4900   4901   4902   4903
4904   4905   4906   4907
4908   4909   4910   4911
4912   4913   4914   4915
4916   4917   4918   4919
4920   4921   4922   4923
4924   4925   4926   4927
4928   4929   4930   4931
4932   4933   4934   4935
4936   4937   4938   4939
4940   4941   4942   4943
4944   4945   4946   4947
4948   4949   4950   4951
4952   4953   4954   4955
4956   4957   4958   4959
4960   4961   4962   4963
4964   4965   4966   4967
4968   4969   4970   4971
4972   4973   4974   4975
4976   4977   4978   4979
4980   4981   4982   4983
4984   4985   4986   4987
4988   4989   4990   4991
4992   4993   4994   4995
4996   4997   4998   4999
5000   5001   5002   5003
5004   5005   5006   5007
5008   5009   5010   5011
5012   5013   5014   5015
5016   5017   5018   5019
5020   5021   5022   5023
5024   5025   5026   5027
5028   5029   5030   5031
5032   5033   5034   5035
5036   5037   5038   5039
5040   5041   5042   5043
5044   5045   5046   5047
5048   5049   5050   5051
5052   5053   5054   5055
5056   5057   5058   5059
5060   5061   5062   5063
5064   5065   5066   5067
5068   5069   5070   5071
5072   5073   5074   5075
5076   5077   5078   5079
5080   5081   5082   5083
5084   5085   5086   5087
5088   5089   5090   5091
5092   5093   5094   5095
5096   5097   5098   5099
5100   5101   5102   5103
5104   5105   5106   5107
5108   5109   5110   5111
5112   5113   5114   5115
5116   5117   5118   5119
5120   5121   5122   5123
5124   5125   5126   5127
5128   5129   5130   5131
5132   5133   5134   5135
5136   5137   5138   5139
5140   5141   5142   5143
5144   5145   5146   5147
5148   5149   5150   5151
5152   5153   5154   5155
5156   5157   5158   5159
5160   5161   5162   5163
5164   5165   5166   5167
5168   5169   5170   5171
5172   5173   5174   5175
5176   5177   5178   5179
5180   5181   5182   5183
5184   5185   5186   5187
5188   5189   5190   5191
5192   5193   5194   5195
5196   5197   5198   5199
5200   5201   5202   5203
5204   5205   5206   5207
5208   5209   5210   5211
5212   5213   5214   5215
5216   5217   5218   5219
5220   5221   5222   5223
5224   5225   5226   5227
5228   5229   5230   5231
5232   5233   5234   5235
5236   5237   5238   5239
5240   5241   5242   5243
5244   5245   5246   5247
5248   5249   5250   5251
5252   5253   5254   5255
5256   5257   5258   5259
5260   5261   5262   5263
5264   5265   5266   5267
5268   5269   5270   5271
5272   5273   5274   5275
5276   5277   5278   5279
5280   5281   5282   5283
5284   5285   5286   5287
5288   5289   5290   5291
5292   5293   5294   5295
5296   5297   5298   5299
5300   5301   5302   5303
5304   5305   5306   5307
5308   5309   5310   5311
5312   5313   5314   5315
5316   5317   5318   5319
5320   5321   5322   5323
5324   5325   5326   5327
5328   5329   5330   5331
5332   5333   5334   5335
5336   5337   5338   5339
5340   5341   5342   5343
5344   5345   5346   5347
5348   5349   5350   5351
5352   5353   5354   5355
5356   5357   5358   5359
5360   5361   5362   5363
5364   5365   5366   5367
5368   5369   5370   5371
5372   5373   5374   5375
5376   5377   5378   5379
5380   5381   5382   5383
5384   5385   5386   5387
5388   5389   5390   5391
5392   5393   5394   5395
5396   5397   5398   5399
5400   5401   5402   5403
5404   5405   5406   5407
5408   5409   5410   5411
5412   5413   5414   5415
5416   5417   5418   5419
5420   5421   5422   5423
5424   5425   5426   5427
5428   5429   5430   5431
5432   5433   5434   5435
5436   5437   5438   5439
5440   5441   5442   5443
5444   5445   5446   5447
5448   5449   5450   5451
5452   5453   5454   5455
5456   5457   5458   5459
5460   5461   5462   5463
5464   5465   5466   5467
5468   5469   5470   5471
5472   5473   5474   5475
5476   5477   5478   5479
5480   5481   5482   5483
5484   5485   5486   5487
5488   5489   5490   5491
5492   5493   5494   5495
5496   5497   5498   5499
5500   5501   5502   5503
5504   5505   5506   5507
5508   5509   5510   5511
5512   5513   5514   5515
5516   5517   5518   5519
5520   5521   5522   5523
5524   5525   5526   5527
5528   5529   5530   5531
5532   5533   5534   5535
5536   5537   5538   5539
5540   5541   5542   5543
5544   5545   5546   5547
5548   5549   5550   5551
5552   5553   5554   5555
5556   5557   5558   5559
5560   5561   5562   5563
5564   5565   5566   5567
5568   5569   5570   5571
5572   5573   5574   5575
5576   5577   5578   5579
5580   5581   5582   5583
5584   5585   5586   5587
5588   5589   5590   5591
5592   5593   5594   5595
5596   5597   5598   5599
5600   5601   5602   5603
5604   5605   5606   5607
5608   5609   5610   5611
5612   5613   5614   5615
5616   5617   5618   5619
5620   5621   5622   5623
5624   5625   5626   5627
5628   5629   5630   5631
5632   5633   5634   5635
5636   5637   5638   5639
5640   5641   5642   5643
5644   5645   5646   5647
5648   5649   5650   5651
5652   5653   5654   5655
5656   5657   5658   5659
5660   5661   5662   5663
5664   5665   5666   5667
5668   5669   5670   5671
5672   5673   5674   5675
5676   5677   5678   5679
5680   5681   5682   5683
5684   5685   5686   5687
5688   5689   5690   5691
5692   5693   5694   5695
5696   5697   5698   5699
5700   5701   5702   5703
5704   5705   5706   5707
5708   5709   5710   5711
5712   5713   5714   5715
5716   5717   5718   5719
5720   5721   5722   5723
5724   5725   5726   5727
5728   5729   5730   5731
5732   5733   5734   5735
5736   5737   5738   5739
5740   5741   5742   5743
5744   5745   5746   5747
5748   5749   5750   5751
5752   5753   5754   5755
5756   5757   5758   5759
5760   5761   5762   5763
5764   5765   5766   5767
5768   5769   5770   5771
5772   5773   5774   5775
5776   5777   5778   5779
5780   5781   5782   5783
5784   5785   5786   5787
5788   5789   5790   5791
5792   5793   5794   5795
5796   5797   5798   5799
5800   5801   5802   5803
5804   5805   5806   5807
5808   5809   5810   5811
5812   5813   5814   5815
5816   5817   5818   5819
5820   5821   5822   5823
5824   5825   5826   5827
5828   5829   5830   5831
5832   5833   5834   5835
5836   5837   5838   5839
5840   5841   5842   5843
5844   5845   5846   5847
5848   5849   5850   5851
5852   5853   5854   5855
5856   5857   5858   5859
5860   5861   5862   5863
5864   5865   5866   5867
5868   5869   5870   5871
5872   5873   5874   5875
5876   5877   5878   5879
5880   5881   5882   5883
5884   5885   5886   5887
5888   5889   5890   5891
5892   5893   5894   5895
5896   5897   5898   5899
5900   5901   5902   5903
5904   5905   5906   5907
5908   5909   5910   5911
5912   5913   5914   5915
5916   5917   5918   5919
5920   5921   5922   5923
5924   5925   5926   5927
5928   5929   5930   5931
5932   5933   5934   5935
5936   5937   5938   5939
5940   5941   5942   5943
5944   5945   5946   5947
5948   5949   5950   5951
5952   5953   5954   5955
5956   5957   5958   5959
5960   5961   5962   5963
5964   5965   5966   5967
5968   5969   5970   5971
5972   5973   5974   5975
5976   5977   5978   5979
5980   5981   5982   5983
5984   5985   5986   5987
5988   5989   5990   5991
5992   5993   5994   5995
5996   5997   5998   5999
              </DataArray>   
              <DataArray type="Int32" Name="offsets" format="ascii">   
4
8
12
16
20
24
28
32
36
40
44
48
52
56
60
64
68
72
76
80
84
88
92
96
100
104
108
112
116
120
124
128
132
136
140
144
148
152
156
160
164
168
172
176
180
184
188
192
196
200
204
208
212
216
220
224
228
232
236
240
244
248
252
256
260
264
268
272
276
280
284
288
292
296
300
304
308
312
316
320
324
328
332
336
340
344
348
352
356
360
364
368
372
376
380
384
388
392
396
400
404
408
412
416
420
424
428
432
436
440
444
448
452
456
460
464
468
472
476
480
484
488
492
496
500
504
508
512
516
520
524
528
532
536
540
544
548
552
556
560
564
568
572
576
580
584
588
592
596
600
604
608
612
616
620
624
628
632
636
640
644
648
652
656
660
664
668
672
676
680
684
688
692
696
700
704
708
712
716
720
724
728
732
736
740
744
748
752
756
760
764
768
772
776
780
784
788
792
796
800
804
808
812
816
820
824
828
832
836
840
844
848
852
856
860
864
868
872
876
880
884
888
892
896
900
904
908
912
916
920
924
928
932
936
940
944
948
952
956
960
964
968
972
976
980
984
988
992
996
1000
1004
1008
1012
1016
1020
1024
1028
1032
1036
1040
1044
1048
1052
1056
1060
1064
1068
1072
1076
1080
1084
1088
1092
1096
1100
1104
1108
1112
1116
1120
1124
1128
1132
1136
1140
1144
1148
1152
1156
1160
1164
1168
1172
1176
1180
1184
1188
1192
1196
1200
1204
1208
1212
1216
1220
1224
1228
1232
1236
1240
1244
1248
1252
1256
1260
1264
1268
1272
1276
1280
1284
1288
1292
1296
1300
1304
1308
1312
1316
1320
1324
1328
1332
1336
1340
1344
1348
1352
1356
1360
1364
1368
1372
1376
1380
1384
1388
1392
1396
1400
1404
1408
1412
1416
1420
1424
1428
1432
1436
1440
1444
1448
1452
1456
1460
1464
1468
1472
1476
1480
1484
1488
1492
1496
1500
1504
1508
1512
1516
1520
1524
1528
1532
1536
1540
1544
1548
1552
1556
1560
1564
1568
1572
1576
1580
1584
1588
1592
1596
1600
1604
1608
1612
1616
1620
1624
1628
1632
1636
1640
1644
1648
1652
1656
1660
1664
1668
1672
1676
1680
1684
1688
1692
1696
1700
1704
1708
1712
1716
1720
1724
1728
1732
1736
1740
1744
1748
1752
1756
1760
1764
1768
1772
1776
1780
1784
1788
1792
1796
1800
1804
1808
1812
1816
1820
1824
1828
1832
1836
1840
1844
1848
1852
1856
1860
1864
1868
1872
1876
1880
1884
1888
1892
1896
1900
1904
1908
1912
1916
1920
1924
1928
1932
1936
1940
1944
1948
1952
1956
1960
1964
1968
1972
1976
1980
1984
1988
1992
1996
2000
2004
2008
2012
2016
2020
2024
2028
2032
2036
2040
2044
2048
2052
2056
2060
2064
2068
2072
2076
2080
2084
2088
2092
2096
2100
2104
2108
2112
2116
2120
2124
2128
2132
2136
2140
2144
2148
2152
2156
2160
2164
2168
2172
2176
2180
2184
2188
2192
2196
2200
2204
2208
2212
2216
2220
2224
2228
2232
2236
2240
2244
2248
2252
2256
2260
2264
2268
2272
2276
2280
2284
2288
2292
2296
2300
2304
2308
2312
2316
2320
2324
2328
2332
2336
2340
2344
2348
2352
2356
2360
2364
2368
2372
2376
2380
2384
2388
2392
2396
2400
2404
2408
2412
2416
2420
2424
2428
2432
2436
2440
2444
2448
2452
2456
2460
2464
2468
2472
2476
2480
2484
2488
2492
2496
2500
2504
2508
2512
2516
2520
2524
2528
2532
2536
2540
2544
2548
2552
2556
2560
2564
2568
2572
2576
2580
2584
2588
2592
2596
2600
2604
2608
2612
2616
2620
2624
2628
2632
2636
2640
2644
2648
2652
2656
2660
2664
2668
2672
2676
2680
2684
2688
2692
2696
2700
2704
2708
2712
2716
2720
2724
2728
2732
2736
2740
2744
2748
2752
2756
2760
2764
2768
2772
2776
2780
2784
2788
2792
2796
2800
2804
2808
2812
2816
2820
2824
2828
2832
2836
2840
2844
2848
2852
2856
2860
2864
2868
2872
2876
2880
2884
2888
2892
2896
2900
2904
2908
2912
2916
2920
2924
2928
2932
2936
2940
2944
2948
2952
2956
2960
2964
2968
2972
2976
2980
2984
2988
2992
2996
3000
3004
3008
3012
3016
3020
3024
3028
3032
3036
3040
3044
3048
3052
3056
3060
3064
3068
3072
3076
3080
3084
3088
3092
3096
3100
3104
3108
3112
3116
3120
3124
3128
3132
3136
3140
3144
3148
3152
3156
3160
3164
3168
3172
3176
3180
3184
3188
3192
3196
3200
3204
3208
3212
3216
3220
3224
3228
3232
3236
3240
3244
3248
3252
3256
3260
3264
3268
3272
3276
3280
3284
3288
3292
3296
3300
3304
3308
3312
3316
3320
3324
3328
3332
3336
3340
3344
3348
3352
3356
3360
3364
3368
3372
3376
3380
3384
3388
3392
3396
3400
3404
3408
3412
3416
3420
3424
3428
3432
3436
3440
3444
3448
3452
3456
3460
3464
3468
3472
3476
3480
3484
3488
3492
3496
3500
3504
3508
3512
3516
3520
3524
3528
3532
3536
3540
3544
3548
3552
3556
3560
3564
3568
3572
3576
3580
3584
3588
3592
3596
3600
3604
3608
3612
3616
3620
3624
3628
3632
3636
3640
3644
3648
3652
3656
3660
3664
3668
3672
3676
3680
3684
3688
3692
3696
3700
3704
3708
3712
3716
3720
3724
3728
3732
3736
3740
3744
3748
3752
3756
3760
3764
3768
3772
3776
3780
3784
3788
3792
3796
3800
3804
3808
3812
3816
3820
3824
3828
3832
3836
3840
3844
3848
3852
3856
3860
3864
3868
3872
3876
3880
3884
3888
3892
3896
3900
3904
3908
3912
3916
3920
3924
3928
3932
3936
3940
3944
3948
3952
3956
3960
3964
3968
3972
3976
3980
3984
3988
3992
3996
4000
4004
4008
4012
4016
4020
4024
4028
4032
4036
4040
4044
4048
4052
4056
4060
4064
4068
4072
4076
4080
4084
4088
4092
4096
4100
4104
4108
4112
4116
4120
4124
4128
4132
4136
4140
4144
4148
4152
4156
4160
4164
4168
4172
4176
4180
4184
4188
4192
4196
4200
4204
4208
4212
4216
4220
4224
4228
4232
4236
4240
4244
4248
4252
4256
4260
4264
4268
4272
4276
4280
4284
4288
4292
4296
4300
4304
4308
4312
4316
4320
4324
4328
4332
4336
4340
4344
4348
4352
4356
4360
4364
4368
4372
4376
4380
4384
4388
4392
4396
4400
4404
4408
4412
4416
4420
4424
4428
4432
4436
4440
4444
4448
4452
4456
4460
4464
4468
4472
4476
4480
4484
4488
4492
4496
4500
4504
4508
4512
4516
4520
4524
4528
4532
4536
4540
4544
4548
4552
4556
4560
4564
4568
4572
4576
4580
4584
4588
4592
4596
4600
4604
4608
4612
4616
4620
4624
4628
4632
4636
4640
4644
4648
4652
4656
4660
4664
4668
4672
4676
4680
4684
4688
4692
4696
4700
4704
4708
4712
4716
4720
4724
4728
4732
4736
4740
4744
4748
4752
4756
4760
4764
4768
4772
4776
4780
4784
4788
4792
4796
4800
4804
4808
4812
4816
4820
4824
4828
4832
4836
4840
4844
4848
4852
4856
4860
4864
4868
4872
4876
4880
4884
4888
4892
4896
4900
4904
4908
4912
4916
4920
4924
4928
4932
4936
4940
4944
4948
4952
4956
4960
4964
4968
4972
4976
4980
4984
4988
4992
4996
5000
5004
5008
5012
5016
5020
5024
5028
5032
5036
5040
5044
5048
5052
5056
5060
5064
5068
5072
5076
5080
5084
5088
5092
5096
5100
5104
5108
5112
5116
5120
5124
5128
5132
5136
5140
5144
5148
5152
5156
5160
5164
5168
5172
5176
5180
5184
5188
5192
5196
5200
5204
5208
5212
5216
5220
5224
5228
5232
5236
5240
5244
5248
5252
5256
5260
5264
5268
5272
5276
5280
5284
5288
5292
5296
5300
5304
5308
5312
5316
5320
5324
5328
5332
5336
5340
5344
5348
5352
5356
5360
5364
5368
5372
5376
5380
5384
5388
5392
5396
5400
5404
5408
5412
5416
5420
5424
5428
5432
5436
5440
5444
5448
5452
5456
5460
5464
5468
5472
5476
5480
5484
5488
5492
5496
5500
5504
5508
5512
5516
5520
5524
5528
5532
5536
5540
5544
5548
5552
5556
5560
5564
5568
5572
5576
5580
5584
5588
5592
5596
5600
5604
5608
5612
5616
5620
5624
5628
5632
5636
5640
5644
5648
5652
5656
5660
5664
5668
5672
5676
5680
5684
5688
5692
5696
5700
5704
5708
5712
5716
5720
5724
5728
5732
5736
5740
5744
5748
5752
5756
5760
5764
5768
5772
5776
5780
5784
5788
5792
5796
5800
5804
5808
5812
5816
5820
5824
5828
5832
5836
5840
5844
5848
5852
5856
5860
5864
5868
5872
5876
5880
5884
5888
5892
5896
5900
5904
5908
5912
5916
5920
5924
5928
5932
5936
5940
5944
5948
5952
5956
5960
5964
5968
5972
5976
5980
5984
5988
5992
5996
6000
              </DataArray>   
              <DataArray type="UInt8" Name="types" format="ascii">   
10
10
10
10
10
10
10
10
10
10
10
10
10
10
10
10
10
10
10
10
10
10
10
10
10
10
10
10
10
10
10
10
10
10
10
10
10
10
10
10
10
10
10
10
10
10
10
10
10
10
10
10
10
10
10
10
10
10
10
10
10
10
10
10
10
10
10
10
10
10
10
10
10
10
10
10
10
10
10
10
10
10
10
10
10
10
10
10
10
10
10
10
10
10
10
10
10
10
10
10
10
10
10
10
10
10
10
10
10
10
10
10
10
10
10
10
10
10
10
10
10
10
10
10
10
10
10
10
10
10
10
10
10
10
10
10
10
10
10
10
10
10
10
10
10
10
10
10
10
10
10
10
10
10
10
10
10
10
10
10
10
10
10
10
10
10
10
10
10
10
10
10
10
10
10
10
10
10
10
10
10
10
10
10
10
10
10
10
10
10
10
10
10
10
10
10
10
10
10
10
10
10
10
10
10
10
10
10
10
10
10
10
10
10
10
10
10
10
10
10
10
10
10
10
10
10
10
10
10
10
10
10
10
10
10
10
10
10
10
10
10
10
10
10
10
10
10
10
10
10
10
10
10
10
10
10
10
10
10
10
10
10
10
10
10
10
10
10
10
10
10
10
10
10
10
10
10
10
10
10
10
10
10
10
10
10
10
10
10
10
10
10
10
10
10
10
10
10
10
10
10
10
10
10
10
10
10
10
10
10
10
10
10
10
10
10
10
10
10
10
10
10
10
10
10
10
10
10
10
10
10
10
10
10
10
10
10
10
10
10
10
10
10
10
10
10
10
10
10
10
10
10
10
10
10
10
10
10
10
10
10
10
10
10
10
10
10
10
10
10
10
10
10
10
10
10
10
10
10
10
10
10
10
10
10
10
10
10
10
10
10
10
10
10
10
10
10
10
10
10
10
10
10
10
10
10
10
10
10
10
10
10
10
10
10
10
10
10
10
10
10
10
10
10
10
10
10
10
10
10
10
10
10
10
10
10
10
10
10
10
10
10
10
10
10
10
10
10
10
10
10
10
10
10
10
10
10
10
10
10
10
10
10
10
10
10
10
10
10
10
10
10
10
10
10
10
10
10
10
10
10
10
10
10
10
10
10
10
10
10
10
10
10
10
10
10
10
10
10
10
10
10
10
10
10
10
10
10
10
10
10
10
10
10
10
10
10
10
10
10
10
10
10
10
10
10
10
10
10
10
10
10
10
10
10
10
10
10
10
10
10
10
10
10
10
10
10
10
10
10
10
10
10
10
10
10
10
10
10
10
10
10
10
10
10
10
10
10
10
10
10
10
10
10
10
10
10
10
10
10
10
10
10
10
10
10
10
10
10
10
10
10
10
10
10
10
10
10
10
10
10
10
10
10
10
10
10
10
10
10
10
10
10
10
10
10
10
10
10
10
10
10
10
10
10
10
10
10
10
10
10
10
10
10
10
10
10
10
10
10
10
10
10
10
10
10
10
10
10
10
10
10
10
10
10
10
10
10
10
10
10
10
10
10
10
10
10
10
10
10
10
10
10
10
10
10
10
10
10
10
10
10
10
10
10
10
10
10
10
10
10
10
10
10
10
10
10
10
10
10
10
10
10
10
10
10
10
10
10
10
10
10
10
10
10
10
10
10
10
10
10
10
10
10
10
10
10
10
10
10
10
10
10
10
10
10
10
10
10
10
10
10
10
10
10
10
10
10
10
10
10
10
10
10
10
10
10
10
10
10
10
10
10
10
10
10
10
10
10
10
10
10
10
10
10
10
10
10
10
10
10
10
10
10
10
10
10
10
10
10
10
10
10
10
10
10
10
10
10
10
10
10
10
10
10
10
10
10
10
10
10
10
10
10
10
10
10
10
10
10
10
10
10
10
10
10
10
10
10
10
10
10
10
10
10
10
10
10
10
10
10
10
10
10
10
10
10
10
10
10
10
10
10
10
10
10
10
10
10
10
10
10
10
10
10
10
10
10
10
10
10
10
10
10
10
10
10
10
10
10
10
10
10
10
10
10
10
10
10
10
10
10
10
10
10
10
10
10
10
10
10
10
10
10
10
10
10
10
10
10
10
10
10
10
10
10
10
10
10
10
10
10
10
10
10
10
10
10
10
10
10
10
10
10
10
10
10
10
10
10
10
10
10
10
10
10
10
10
10
10
10
10
10
10
10
10
10
10
10
10
10
10
10
10
10
10
10
10
10
10
10
10
10
10
10
10
10
10
10
10
10
10
10
10
10
10
10
10
10
10
10
10
10
10
10
10
10
10
10
10
10
10
10
10
10
10
10
10
10
10
10
10
10
10
10
10
10
10
10
10
10
10
10
10
10
10
10
10
10
10
10
10
10
10
10
10
10
10
10
10
10
10
10
10
10
10
10
10
10
10
10
10
10
10
10
10
10
10
10
10
10
10
10
10
10
10
10
10
10
10
10
10
10
10
10
10
10
10
10
10
10
10
10
10
10
10
10
10
10
10
10
10
10
10
10
10
10
10
10
10
10
10
10
10
10
10
10
10
10
10
10
10
10
10
10
10
10
10
10
10
10
10
10
10
10
10
10
10
10
10
10
10
10
10
10
10
10
10
10
10
10
10
10
10
10
10
10
10
10
10
10
10
10
10
10
10
10
10
10
10
10
10
10
10
10
10
10
10
10
10
10
10
10
10
10
10
10
10
10
10
10
10
10
10
10
10
10
10
10
10
10
10
10
10
10
10
10
10
10
10
10
10
10
10
10
10
10
10
10
10
10
10
10
10
10
10
10
10
10
10
10
10
10
10
10
10
10
10
10
10
10
10
10
10
10
10
10
10
10
10
10
10
10
10
10
10
10
10
10
10
10
10
10
10
10
10
10
10
10
10
10
10
10
10
10
10
10
10
10
10
10
10
10
10
10
10
10
10
10
10
10
10
10
10
10
10
10
10
10
10
10
10
10
10
10
10
10
10
10
10
10
10
10
10
10
10
10
10
10
10
10
10
10
10
10
10
10
10
10
10
10
10
10
10
10
10
10
10
10
10
10
10
10
10
10
10
10
10
10
10
10
10
10
10
10
10
10
10
10
10
10
10
10
10
10
10
10
10
10
10
10
10
10
10
10
10
10
10
10
10
10
10
10
10
10
10
10
10
10
10
10
10
10
10
10
10
10
10
10
10
10
10
10
10
10
10
10
10
10
10
10
10
10
10
10
10
10
10
10
10
10
10
10
10
10
10
10
10
10
10
10
10
10
10
10
10
10
10
10
10
10
10
10
10
10
10
10
10
10
10
10
10
10
10
10
10
10
10
10
10
10
10
10
10
10
10
10
10
10
10
10
10
10
10
10
10
10
10
10
10
10
10
10
10
10
10
10
10
10
10
10
10
10
10
10
10
10
10
10
10
10
10
10
10
10
10
10
10
10
10
              </DataArray>   
          </Cells>  
          <PointData>  
             <DataArray type="Float64" NumberOfComponents="3" Name="Strains" format="ascii">   
-7.559751794597597e-05   0.0   -4.966725020005451e-05
-7.559751794597597e-05   0.0   -4.966725020005451e-05
-7.559751794597597e-05   0.0   -4.966725020005451e-05
-7.559751794597597e-05   0.0   -4.966725020005451e-05
-4.8098975547872585e-05   8.367793695234803e-06   1.1843300139252388e-06
-4.8098975547872585e-05   8.367793695234803e-06   1.1843300139252388e-06
-4.8098975547872585e-05   8.367793695234803e-06   1.1843300139252388e-06
-4.8098975547872585e-05   8.367793695234803e-06   1.1843300139252388e-06
-4.7144280926733625e-05   0.0   -4.688299571181343e-05
-4.7144280926733625e-05   0.0   -4.688299571181343e-05
-4.7144280926733625e-05   0.0   -4.688299571181343e-05
-4.7144280926733625e-05   0.0   -4.688299571181343e-05
-7.911211086392154e-05   1.0045100136218087e-05   3.696607684357993e-07
-7.911211086392154e-05   1.0045100136218087e-05   3.696607684357993e-07
-7.911211086392154e-05   1.0045100136218087e-05   3.696607684357993e-07
-7.911211086392154e-05   1.0045100136218087e-05   3.696607684357993e-07
-6.137089943635469e-05   2.320212073534235e-06   -2.4564092106565292e-05
-6.137089943635469e-05   2.320212073534235e-06   -2.4564092106565292e-05
-6.137089943635469e-05   2.320212073534235e-06   -2.4564092106565292e-05
-6.137089943635469e-05   2.320212073534235e-06   -2.4564092106565292e-05
-7.911211086392168e-05   0.0   -5.291005579354429e-05
-7.911211086392168e-05   0.0   -5.291005579354429e-05
-7.911211086392168e-05   0.0   -5.291005579354429e-05
-7.911211086392168e-05   0.0   -5.291005579354429e-05
-4.7144280926733625e-05   1.00451001362181e-05   6.396720850166651e-06
-4.7144280926733625e-05   1.00451001362181e-05   6.396720850166651e-06
-4.7144280926733625e-05   1.00451001362181e-05   6.396720850166651e-06
-4.7144280926733625e-05   1.00451001362181e-05   6.396720850166651e-06
-4.7273502812164856e-05   0.0   -4.8029521847662654e-05
-4.7273502812164856e-05   0.0   -4.8029521847662654e-05
-4.7273502812164856e-05   0.0   -4.8029521847662654e-05
-4.7273502812164856e-05   0.0   -4.8029521847662654e-05
-8.157866113598649e-05   1.0762715138610185e-05   2.688112942207492e-06
-8.157866113598649e-05   1.0762715138610185e-05   2.688112942207492e-06
-8.157866113598649e-05   1.0762715138610185e-05   2.688112942207492e-06
-8.157866113598649e-05   1.0762715138610185e-05   2.688112942207492e-06
-6.319280683804316e-05   4.06711162156802e-06   -2.393761544413939e-05
-6.319280683804316e-05   4.06711162156802e-06   -2.393761544413939e-05
-6.319280683804316e-05   4.06711162156802e-06   -2.393761544413939e-05
-6.319280683804316e-05   4.06711162156802e-06   -2.393761544413939e-05
-8.157866113598663e-05   0.0   -5.448715093082878e-05
-8.157866113598663e-05   0.0   -5.448715093082878e-05
-8.157866113598663e-05   0.0   -5.448715093082878e-05
-8.157866113598663e-05   0.0   -5.448715093082878e-05
-4.7273502812164774e-05   1.0762715138610185e-05   9.145742025373608e-06
-4.7273502812164774e-05   1.0762715138610185e-05   9.145742025373608e-06
-4.7273502812164774e-05   1.0762715138610185e-05   9.145742025373608e-06
-4.7273502812164774e-05   1.0762715138610185e-05   9.145742025373608e-06
-4.7244446310250744e-05   0.0   -4.8324722044895255e-05
-4.7244446310250744e-05   0.0   -4.8324722044895255e-05
-4.7244446310250744e-05   0.0   -4.8324722044895255e-05
-4.7244446310250744e-05   0.0   -4.8324722044895255e-05
-8.689599485992868e-05   1.2263762306800408e-05   1.0402934820487932e-05
-8.689599485992868e-05   1.2263762306800408e-05   1.0402934820487932e-05
-8.689599485992868e-05   1.2263762306800408e-05   1.0402934820487932e-05
-8.689599485992868e-05   1.2263762306800408e-05   1.0402934820487932e-05
-6.441155372311858e-05   5.1353574049445926e-06   -2.279409079974871e-05
-6.441155372311858e-05   5.1353574049445926e-06   -2.279409079974871e-05
-6.441155372311858e-05   5.1353574049445926e-06   -2.279409079974871e-05
-6.441155372311858e-05   5.1353574049445926e-06   -2.279409079974871e-05
-4.809897554787267e-05   0.0   -4.4646573982913634e-05
-4.809897554787267e-05   0.0   -4.4646573982913634e-05
-4.809897554787267e-05   0.0   -4.4646573982913634e-05
-4.809897554787267e-05   0.0   -4.4646573982913634e-05
-2.1908850886840548e-05   3.0676345000515422e-06   8.442144855041331e-07
-2.1908850886840548e-05   3.0676345000515422e-06   8.442144855041331e-07
-2.1908850886840548e-05   3.0676345000515422e-06   8.442144855041331e-07
-2.1908850886840548e-05   3.0676345000515422e-06   8.442144855041331e-07
-2.1067984187189587e-05   0.0   -4.42612029423565e-05
-2.1067984187189587e-05   0.0   -4.42612029423565e-05
-2.1067984187189587e-05   0.0   -4.42612029423565e-05
-2.1067984187189587e-05   0.0   -4.42612029423565e-05
-4.7144280926733625e-05   4.36965461576143e-06   -3.4225011459067776e-06
-4.7144280926733625e-05   4.36965461576143e-06   -3.4225011459067776e-06
-4.7144280926733625e-05   4.36965461576143e-06   -3.4225011459067776e-06
-4.7144280926733625e-05   4.36965461576143e-06   -3.4225011459067776e-06
-3.4583479867531085e-05   3.2114253379754865e-07   -2.192806232873251e-05
-3.4583479867531085e-05   3.2114253379754865e-07   -2.192806232873251e-05
-3.4583479867531085e-05   3.2114253379754865e-07   -2.192806232873251e-05
-3.4583479867531085e-05   3.2114253379754865e-07   -2.192806232873251e-05
-4.7144280926733585e-05   0.0   -4.688299571181339e-05
-4.7144280926733585e-05   0.0   -4.688299571181339e-05
-4.7144280926733585e-05   0.0   -4.688299571181339e-05
-4.7144280926733585e-05   0.0   -4.688299571181339e-05
-2.1067984187189587e-05   4.369654615761417e-06   -8.007083764499114e-07
-2.1067984187189587e-05   4.369654615761417e-06   -8.007083764499114e-07
-2.1067984187189587e-05   4.369654615761417e-06   -8.007083764499114e-07
-2.1067984187189587e-05   4.369654615761417e-06   -8.007083764499114e-07
-2.0594201467593378e-05   0.0   -4.481602839127114e-05
-2.0594201467593378e-05   0.0   -4.481602839127114e-05
-2.0594201467593378e-05   0.0   -4.481602839127114e-05
-2.0594201467593378e-05   0.0   -4.481602839127114e-05
-4.7273502812164856e-05   5.355822427319056e-06   -3.5640196067102527e-06
-4.7273502812164856e-05   5.355822427319056e-06   -3.5640196067102527e-06
-4.7273502812164856e-05   5.355822427319056e-06   -3.5640196067102527e-06
-4.7273502812164856e-05   5.355822427319056e-06   -3.5640196067102527e-06
-3.386924119716345e-05   1.7224727671185118e-06   -2.3724445835592072e-05
-3.386924119716345e-05   1.7224727671185118e-06   -2.3724445835592072e-05
-3.386924119716345e-05   1.7224727671185118e-06   -2.3724445835592072e-05
-3.386924119716345e-05   1.7224727671185118e-06   -2.3724445835592072e-05
-4.7273502812164856e-05   0.0   -4.8029521847662654e-05
-4.7273502812164856e-05   0.0   -4.8029521847662654e-05
-4.7273502812164856e-05   0.0   -4.8029521847662654e-05
-4.7273502812164856e-05   0.0   -4.8029521847662654e-05
-2.059420146759341e-05   5.355822427319056e-06   -3.5052615031881776e-07
-2.059420146759341e-05   5.355822427319056e-06   -3.5052615031881776e-07
-2.059420146759341e-05   5.355822427319056e-06   -3.5052615031881776e-07
-2.059420146759341e-05   5.355822427319056e-06   -3.5052615031881776e-07
-2.0162168465863185e-05   0.0   -4.4584916035515716e-05
-2.0162168465863185e-05   0.0   -4.4584916035515716e-05
-2.0162168465863185e-05   0.0   -4.4584916035515716e-05
-2.0162168465863185e-05   0.0   -4.4584916035515716e-05
-4.724444631025062e-05   6.233010015632495e-06   -3.1875923042493163e-06
-4.724444631025062e-05   6.233010015632495e-06   -3.1875923042493163e-06
-4.724444631025062e-05   6.233010015632495e-06   -3.1875923042493163e-06
-4.724444631025062e-05   6.233010015632495e-06   -3.1875923042493163e-06
-3.371783563901401e-05   2.8705048434557475e-06   -2.3714440319671123e-05
-3.371783563901401e-05   2.8705048434557475e-06   -2.3714440319671123e-05
-3.371783563901401e-05   2.8705048434557475e-06   -2.3714440319671123e-05
-3.371783563901401e-05   2.8705048434557475e-06   -2.3714440319671123e-05
-2.1908850886840585e-05   0.0   -4.28059932828827e-05
-2.1908850886840585e-05   0.0   -4.28059932828827e-05
-2.1908850886840585e-05   0.0   -4.28059932828827e-05
-2.1908850886840585e-05   0.0   -4.28059932828827e-05
2.8327063272867945e-06   -3.940200081491732e-07   -1.8064765975598669e-06
2.8327063272867945e-06   -3.940200081491732e-07   -1.8064765975598669e-06
2.8327063272867945e-06   -3.940200081491732e-07   -1.8064765975598669e-06
2.8327063272867945e-06   -3.940200081491732e-07   -1.8064765975598669e-06
3.371160761882476e-06   0.0   -4.379613021914456e-05
3.371160761882476e-06   0.0   -4.379613021914456e-05
3.371160761882476e-06   0.0   -4.379613021914456e-05
3.371160761882476e-06   0.0   -4.379613021914456e-05
-2.1067984187189587e-05   7.751212053531053e-07   -3.5292946939030552e-06
-2.1067984187189587e-05   7.751212053531053e-07   -3.5292946939030552e-06
-2.1067984187189587e-05   7.751212053531053e-07   -3.5292946939030552e-06
-2.1067984187189587e-05   7.751212053531053e-07   -3.5292946939030552e-06
-9.268845062479032e-06   -8.251141135516766e-07   -2.223438537707776e-05
-9.268845062479032e-06   -8.251141135516766e-07   -2.223438537707776e-05
-9.268845062479032e-06   -8.251141135516766e-07   -2.223438537707776e-05
-9.268845062479032e-06   -8.251141135516766e-07   -2.223438537707776e-05
-2.106798418718962e-05   0.0   -4.426120294235657e-05
-2.106798418718962e-05   0.0   -4.426120294235657e-05
-2.106798418718962e-05   0.0   -4.426120294235657e-05
-2.106798418718962e-05   0.0   -4.426120294235657e-05
3.371160761882482e-06   7.751212053531053e-07   -3.064221970691195e-06
3.371160761882482e-06   7.751212053531053e-07   -3.064221970691195e-06
3.371160761882482e-06   7.751212053531053e-07   -3.064221970691195e-06
3.371160761882482e-06   7.751212053531053e-07   -3.064221970691195e-06
3.796636583591151e-06   0.0   -4.373318655434802e-05
3.796636583591151e-06   0.0   -4.373318655434802e-05
3.796636583591151e-06   0.0   -4.373318655434802e-05
3.796636583591151e-06   0.0   -4.373318655434802e-05
-2.059420146759334e-05   1.8047363948718505e-06   -4.164631639296933e-06
-2.059420146759334e-05   1.8047363948718505e-06   -4.164631639296933e-06
-2.059420146759334e-05   1.8047363948718505e-06   -4.164631639296933e-06
-2.059420146759334e-05   1.8047363948718505e-06   -4.164631639296933e-06
-8.635673801799218e-06   4.4001365667372197e-07   -2.3276677439368296e-05
-8.635673801799218e-06   4.4001365667372197e-07   -2.3276677439368296e-05
-8.635673801799218e-06   4.4001365667372197e-07   -2.3276677439368296e-05
-8.635673801799218e-06   4.4001365667372197e-07   -2.3276677439368296e-05
-2.059420146759341e-05   0.0   -4.481602839127122e-05
-2.059420146759341e-05   0.0   -4.481602839127122e-05
-2.059420146759341e-05   0.0   -4.481602839127122e-05
-2.059420146759341e-05   0.0   -4.481602839127122e-05
3.796636583591158e-06   1.804736394871864e-06   -3.08178980237382e-06
3.796636583591158e-06   1.804736394871864e-06   -3.08178980237382e-06
3.796636583591158e-06   1.804736394871864e-06   -3.08178980237382e-06
3.796636583591158e-06   1.804736394871864e-06   -3.08178980237382e-06
4.3678770330933415e-06   0.0   -4.27866733020386e-05
4.3678770330933415e-06   0.0   -4.27866733020386e-05
4.3678770330933415e-06   0.0   -4.27866733020386e-05
4.3678770330933415e-06   0.0   -4.27866733020386e-05
-2.0162168465863168e-05   2.997071222461792e-06   -3.7015068705881625e-06
-2.0162168465863168e-05   2.997071222461792e-06   -3.7015068705881625e-06
-2.0162168465863168e-05   2.997071222461792e-06   -3.7015068705881625e-06
-2.0162168465863168e-05   2.997071222461792e-06   -3.7015068705881625e-06
-8.113162217250017e-06   1.6911292410271155e-06   -2.2999618762749254e-05
-8.113162217250017e-06   1.6911292410271155e-06   -2.2999618762749254e-05
-8.113162217250017e-06   1.6911292410271155e-06   -2.2999618762749254e-05
-8.113162217250017e-06   1.6911292410271155e-06   -2.2999618762749254e-05
2.832706327286799e-06   0.0   -4.304240528777221e-05
2.832706327286799e-06   0.0   -4.304240528777221e-05
2.832706327286799e-06   0.0   -4.304240528777221e-05
2.832706327286799e-06   0.0   -4.304240528777221e-05
2.969246854814332e-05   -3.4826429502914552e-06   -3.65720689852679e-07
2.969246854814332e-05   -3.4826429502914552e-06   -3.65720689852679e-07
2.969246854814332e-05   -3.4826429502914552e-06   -3.65720689852679e-07
2.969246854814332e-05   -3.4826429502914552e-06   -3.65720689852679e-07
2.974950275252186e-05   0.0   -4.537076997999562e-05
2.974950275252186e-05   0.0   -4.537076997999562e-05
2.974950275252186e-05   0.0   -4.537076997999562e-05
2.974950275252186e-05   0.0   -4.537076997999562e-05
3.371160761882482e-06   -2.624399601418179e-06   1.6777309858756975e-07
3.371160761882482e-06   -2.624399601418179e-06   1.6777309858756975e-07
3.371160761882482e-06   -2.624399601418179e-06   1.6777309858756975e-07
3.371160761882482e-06   -2.624399601418179e-06   1.6777309858756975e-07
1.629110453990433e-05   -1.9403039101861794e-06   -2.1775923946188012e-05
1.629110453990433e-05   -1.9403039101861794e-06   -2.1775923946188012e-05
1.629110453990433e-05   -1.9403039101861794e-06   -2.1775923946188012e-05
1.629110453990433e-05   -1.9403039101861794e-06   -2.1775923946188012e-05
3.371160761882488e-06   0.0   -4.379613021914471e-05
3.371160761882488e-06   0.0   -4.379613021914471e-05
3.371160761882488e-06   0.0   -4.379613021914471e-05
3.371160761882488e-06   0.0   -4.379613021914471e-05
2.974950275252181e-05   -2.624399601418179e-06   -1.406866662263337e-06
2.974950275252181e-05   -2.624399601418179e-06   -1.406866662263337e-06
2.974950275252181e-05   -2.624399601418179e-06   -1.406866662263337e-06
2.974950275252181e-05   -2.624399601418179e-06   -1.406866662263337e-06
2.96257404508098e-05   0.0   -4.4722922862456786e-05
2.96257404508098e-05   0.0   -4.4722922862456786e-05
2.96257404508098e-05   0.0   -4.4722922862456786e-05
2.96257404508098e-05   0.0   -4.4722922862456786e-05
3.796636583591158e-06   -1.649560513514479e-06   -6.846801089837007e-07
3.796636583591158e-06   -1.649560513514479e-06   -6.846801089837007e-07
3.796636583591158e-06   -1.649560513514479e-06   -6.846801089837007e-07
3.796636583591158e-06   -1.649560513514479e-06   -6.846801089837007e-07
1.6498450606346145e-05   -7.723272027600566e-07   -2.2380710133361307e-05
1.6498450606346145e-05   -7.723272027600566e-07   -2.2380710133361307e-05
1.6498450606346145e-05   -7.723272027600566e-07   -2.2380710133361307e-05
1.6498450606346145e-05   -7.723272027600566e-07   -2.2380710133361307e-05
3.796636583591158e-06   0.0   -4.37331865543481e-05
3.796636583591158e-06   0.0   -4.37331865543481e-05
3.796636583591158e-06   0.0   -4.37331865543481e-05
3.796636583591158e-06   0.0   -4.37331865543481e-05
2.9625740450809748e-05   -1.649560513514479e-06   -1.6744164170923886e-06
2.9625740450809748e-05   -1.649560513514479e-06   -1.6744164170923886e-06
2.9625740450809748e-05   -1.649560513514479e-06   -1.6744164170923886e-06
2.9625740450809748e-05   -1.649560513514479e-06   -1.6744164170923886e-06
3.020300954799334e-05   0.0   -4.2990563441199825e-05
3.020300954799334e-05   0.0   -4.2990563441199825e-05
3.020300954799334e-05   0.0   -4.2990563441199825e-05
3.020300954799334e-05   0.0   -4.2990563441199825e-05
4.367877033093349e-06   -3.3981689860190225e-07   2.7188088946129787e-07
4.367877033093349e-06   -3.3981689860190225e-07   2.7188088946129787e-07
4.367877033093349e-06   -3.3981689860190225e-07   2.7188088946129787e-07
4.367877033093349e-06   -3.3981689860190225e-07   2.7188088946129787e-07
1.699982306579225e-05   6.188525942902323e-07   -2.1356564194105463e-05
1.699982306579225e-05   6.188525942902323e-07   -2.1356564194105463e-05
1.699982306579225e-05   6.188525942902323e-07   -2.1356564194105463e-05
1.699982306579225e-05   6.188525942902323e-07   -2.1356564194105463e-05
2.9692468548143426e-05   0.0   -4.5131991057947085e-05
2.9692468548143426e-05   0.0   -4.5131991057947085e-05
2.9692468548143426e-05   0.0   -4.5131991057947085e-05
2.9692468548143426e-05   0.0   -4.5131991057947085e-05
6.705738513660466e-05   -8.831333522783133e-06   1.1844069809151966e-05
6.705738513660466e-05   -8.831333522783133e-06   1.1844069809151966e-05
6.705738513660466e-05   -8.831333522783133e-06   1.1844069809151966e-05
6.705738513660466e-05   -8.831333522783133e-06   1.1844069809151966e-05
6.298320852316053e-05   0.0   -4.9877863288274786e-05
6.298320852316053e-05   0.0   -4.9877863288274786e-05
6.298320852316053e-05   0.0   -4.9877863288274786e-05
6.298320852316053e-05   0.0   -4.9877863288274786e-05
2.974950275252181e-05   -7.51182218046526e-06   1.0018739637735483e-05
2.974950275252181e-05   -7.51182218046526e-06   1.0018739637735483e-05
2.974950275252181e-05   -7.51182218046526e-06   1.0018739637735483e-05
2.974950275252181e-05   -7.51182218046526e-06   1.0018739637735483e-05
4.633783853565198e-05   -3.954893525273089e-06   -1.976264386059666e-05
4.633783853565198e-05   -3.954893525273089e-06   -1.976264386059666e-05
4.633783853565198e-05   -3.954893525273089e-06   -1.976264386059666e-05
4.633783853565198e-05   -3.954893525273089e-06   -1.976264386059666e-05
2.9749502752521833e-05   0.0   -4.537076997999558e-05
2.9749502752521833e-05   0.0   -4.537076997999558e-05
2.9749502752521833e-05   0.0   -4.537076997999558e-05
2.9749502752521833e-05   0.0   -4.537076997999558e-05
6.298320852316053e-05   -7.511822180465274e-06   5.511646329456327e-06
6.298320852316053e-05   -7.511822180465274e-06   5.511646329456327e-06
6.298320852316053e-05   -7.511822180465274e-06   5.511646329456327e-06
6.298320852316053e-05   -7.511822180465274e-06   5.511646329456327e-06
6.110609167844532e-05   0.0   -4.884091523118448e-05
6.110609167844532e-05   0.0   -4.884091523118448e-05
6.110609167844532e-05   0.0   -4.884091523118448e-05
6.110609167844532e-05   0.0   -4.884091523118448e-05
2.9625740450809748e-05   -6.863320614546134e-06   7.744329183602393e-06
2.9625740450809748e-05   -6.863320614546134e-06   7.744329183602393e-06
2.9625740450809748e-05   -6.863320614546134e-06   7.744329183602393e-06
2.9625740450809748e-05   -6.863320614546134e-06   7.744329183602393e-06
4.5427797215483566e-05   -2.891787709324048e-06   -2.0975351833987127e-05
4.5427797215483566e-05   -2.891787709324048e-06   -2.0975351833987127e-05
4.5427797215483566e-05   -2.891787709324048e-06   -2.0975351833987127e-05
4.5427797215483566e-05   -2.891787709324048e-06   -2.0975351833987127e-05
2.96257404508098e-05   0.0   -4.4722922862456786e-05
2.96257404508098e-05   0.0   -4.4722922862456786e-05
2.96257404508098e-05   0.0   -4.4722922862456786e-05
2.96257404508098e-05   0.0   -4.4722922862456786e-05
6.110609167844521e-05   -6.863320614546134e-06   3.6263368148747193e-06
6.110609167844521e-05   -6.863320614546134e-06   3.6263368148747193e-06
6.110609167844521e-05   -6.863320614546134e-06   3.6263368148747193e-06
6.110609167844521e-05   -6.863320614546134e-06   3.6263368148747193e-06
5.830904119643018e-05   0.0   -4.6189588486467626e-05
5.830904119643018e-05   0.0   -4.6189588486467626e-05
5.830904119643018e-05   0.0   -4.6189588486467626e-05
5.830904119643018e-05   0.0   -4.6189588486467626e-05
3.0203009547993257e-05   -5.331708408779656e-06   3.852822639528271e-06
3.0203009547993257e-05   -5.331708408779656e-06   3.852822639528271e-06
3.0203009547993257e-05   -5.331708408779656e-06   3.852822639528271e-06
3.0203009547993257e-05   -5.331708408779656e-06   3.852822639528271e-06
4.3967390823619914e-05   -1.2222213533423696e-06   -2.155350505311184e-05
4.3967390823619914e-05   -1.2222213533423696e-06   -2.155350505311184e-05
4.3967390823619914e-05   -1.2222213533423696e-06   -2.155350505311184e-05
4.3967390823619914e-05   -1.2222213533423696e-06   -2.155350505311184e-05
-6.555275043412665e-05   8.367793695234776e-06   -4.30459642123533e-05
-6.555275043412665e-05   8.367793695234776e-06   -4.30459642123533e-05
-6.555275043412665e-05   8.367793695234776e-06   -4.30459642123533e-05
-6.555275043412665e-05   8.367793695234776e-06   -4.30459642123533e-05
-4.1989494194992675e-05   7.5226617664800885e-06   -4.280949637716153e-06
-4.1989494194992675e-05   7.5226617664800885e-06   -4.280949637716153e-06
-4.1989494194992675e-05   7.5226617664800885e-06   -4.280949637716153e-06
-4.1989494194992675e-05   7.5226617664800885e-06   -4.280949637716153e-06
-4.304410396756541e-05   1.0045100136218073e-05   -3.615500753588013e-05
-4.304410396756541e-05   1.0045100136218073e-05   -3.615500753588013e-05
-4.304410396756541e-05   1.0045100136218073e-05   -3.615500753588013e-05
-4.304410396756541e-05   1.0045100136218073e-05   -3.615500753588013e-05
-6.625846277543209e-05   9.031043934157285e-06   3.144024198467485e-06
-6.625846277543209e-05   9.031043934157285e-06   3.144024198467485e-06
-6.625846277543209e-05   9.031043934157285e-06   3.144024198467485e-06
-6.625846277543209e-05   9.031043934157285e-06   3.144024198467485e-06
-5.206378343130375e-05   8.741567008503073e-06   -2.034008855302071e-05
-5.206378343130375e-05   8.741567008503073e-06   -2.034008855302071e-05
-5.206378343130375e-05   8.741567008503073e-06   -2.034008855302071e-05
-5.206378343130375e-05   8.741567008503073e-06   -2.034008855302071e-05
-6.625846277543209e-05   1.0045100136218073e-05   -3.554657381464364e-05
-6.625846277543209e-05   1.0045100136218073e-05   -3.554657381464364e-05
-6.625846277543209e-05   1.0045100136218073e-05   -3.554657381464364e-05
-6.625846277543209e-05   1.0045100136218073e-05   -3.554657381464364e-05
-4.304410396756556e-05   9.03104393415734e-06   2.5355904772311587e-06
-4.304410396756556e-05   9.03104393415734e-06   2.5355904772311587e-06
-4.304410396756556e-05   9.03104393415734e-06   2.5355904772311587e-06
-4.304410396756556e-05   9.03104393415734e-06   2.5355904772311587e-06
-4.3263075769528e-05   1.0762715138610171e-05   -3.2507833066395116e-05
-4.3263075769528e-05   1.0762715138610171e-05   -3.2507833066395116e-05
-4.3263075769528e-05   1.0762715138610171e-05   -3.2507833066395116e-05
-4.3263075769528e-05   1.0762715138610171e-05   -3.2507833066395116e-05
-6.672139760512658e-05   9.711900971846123e-06   7.219858492994175e-06
-6.672139760512658e-05   9.711900971846123e-06   7.219858492994175e-06
-6.672139760512658e-05   9.711900971846123e-06   7.219858492994175e-06
-6.672139760512658e-05   9.711900971846123e-06   7.219858492994175e-06
-5.3592105079163264e-05   9.689902168407804e-06   -1.4649096434881615e-05
-5.3592105079163264e-05   9.689902168407804e-06   -1.4649096434881615e-05
-5.3592105079163264e-05   9.689902168407804e-06   -1.4649096434881615e-05
-5.3592105079163264e-05   9.689902168407804e-06   -1.4649096434881615e-05
-6.672139760512649e-05   1.0762715138610171e-05   -3.187734456633668e-05
-6.672139760512649e-05   1.0762715138610171e-05   -3.187734456633668e-05
-6.672139760512649e-05   1.0762715138610171e-05   -3.187734456633668e-05
-6.672139760512649e-05   1.0762715138610171e-05   -3.187734456633668e-05
-4.3263075769528065e-05   9.711900971846096e-06   6.589369992935677e-06
-4.3263075769528065e-05   9.711900971846096e-06   6.589369992935677e-06
-4.3263075769528065e-05   9.711900971846096e-06   6.589369992935677e-06
-4.3263075769528065e-05   9.711900971846096e-06   6.589369992935677e-06
-4.3015133012325405e-05   1.2263762306800394e-05   -2.4026846677520537e-05
-4.3015133012325405e-05   1.2263762306800394e-05   -2.4026846677520537e-05
-4.3015133012325405e-05   1.2263762306800394e-05   -2.4026846677520537e-05
-4.3015133012325405e-05   1.2263762306800394e-05   -2.4026846677520537e-05
-6.486629999496405e-05   1.0254447128944588e-05   1.3597354066923803e-05
-6.486629999496405e-05   1.0254447128944588e-05   1.3597354066923803e-05
-6.486629999496405e-05   1.0254447128944588e-05   1.3597354066923803e-05
-6.486629999496405e-05   1.0254447128944588e-05   1.3597354066923803e-05
-5.219507019579789e-05   1.0629778316362785e-05   -7.746560977470653e-06
-5.219507019579789e-05   1.0629778316362785e-05   -7.746560977470653e-06
-5.219507019579789e-05   1.0629778316362785e-05   -7.746560977470653e-06
-5.219507019579789e-05   1.0629778316362785e-05   -7.746560977470653e-06
-4.1989494194992675e-05   3.0676345000515422e-06   -4.5733739598058155e-05
-4.1989494194992675e-05   3.0676345000515422e-06   -4.5733739598058155e-05
-4.1989494194992675e-05   3.0676345000515422e-06   -4.5733739598058155e-05
-4.1989494194992675e-05   3.0676345000515422e-06   -4.5733739598058155e-05
-1.990323554418349e-05   3.5004841840353984e-06   -8.663598702985776e-06
-1.990323554418349e-05   3.5004841840353984e-06   -8.663598702985776e-06
-1.990323554418349e-05   3.5004841840353984e-06   -8.663598702985776e-06
-1.990323554418349e-05   3.5004841840353984e-06   -8.663598702985776e-06
-2.037677661482613e-05   4.36965461576143e-06   -4.5663528774417115e-05
-2.037677661482613e-05   4.36965461576143e-06   -4.5663528774417115e-05
-2.037677661482613e-05   4.36965461576143e-06   -4.5663528774417115e-05
-2.037677661482613e-05   4.36965461576143e-06   -4.5663528774417115e-05
-4.304410396756541e-05   4.887489211655529e-06   -8.195350610721281e-06
-4.304410396756541e-05   4.887489211655529e-06   -8.195350610721281e-06
-4.304410396756541e-05   4.887489211655529e-06   -8.195350610721281e-06
-4.304410396756541e-05   4.887489211655529e-06   -8.195350610721281e-06
-3.124004936565347e-05   3.935247913007528e-06   -2.729743016805251e-05
-3.124004936565347e-05   3.935247913007528e-06   -2.729743016805251e-05
-3.124004936565347e-05   3.935247913007528e-06   -2.729743016805251e-05
-3.124004936565347e-05   3.935247913007528e-06   -2.729743016805251e-05
-4.3044103967565375e-05   4.369654615761417e-06   -4.597422953195344e-05
-4.3044103967565375e-05   4.369654615761417e-06   -4.597422953195344e-05
-4.3044103967565375e-05   4.369654615761417e-06   -4.597422953195344e-05
-4.3044103967565375e-05   4.369654615761417e-06   -4.597422953195344e-05
-2.0376776614826094e-05   4.887489211655556e-06   -7.88464985318475e-06
-2.0376776614826094e-05   4.887489211655556e-06   -7.88464985318475e-06
-2.0376776614826094e-05   4.887489211655556e-06   -7.88464985318475e-06
-2.0376776614826094e-05   4.887489211655556e-06   -7.88464985318475e-06
-2.052430624477254e-05   5.3558224273190694e-06   -4.480960054981006e-05
-2.052430624477254e-05   5.3558224273190694e-06   -4.480960054981006e-05
-2.052430624477254e-05   5.3558224273190694e-06   -4.480960054981006e-05
-2.052430624477254e-05   5.3558224273190694e-06   -4.480960054981006e-05
-4.3263075769528e-05   6.035812675100655e-06   -7.319645490553087e-06
-4.3263075769528e-05   6.035812675100655e-06   -7.319645490553087e-06
-4.3263075769528e-05   6.035812675100655e-06   -7.319645490553087e-06
-4.3263075769528e-05   6.035812675100655e-06   -7.319645490553087e-06
-3.1482702803655273e-05   4.995756277455105e-06   -2.632956659508697e-05
-3.1482702803655273e-05   4.995756277455105e-06   -2.632956659508697e-05
-3.1482702803655273e-05   4.995756277455105e-06   -2.632956659508697e-05
-3.1482702803655273e-05   4.995756277455105e-06   -2.632956659508697e-05
-4.3263075769528e-05   5.355822427319056e-06   -4.521759469847894e-05
-4.3263075769528e-05   5.355822427319056e-06   -4.521759469847894e-05
-4.3263075769528e-05   5.355822427319056e-06   -4.521759469847894e-05
-4.3263075769528e-05   5.355822427319056e-06   -4.521759469847894e-05
-2.0524306244772575e-05   6.035812675100682e-06   -6.9116513418842455e-06
-2.0524306244772575e-05   6.035812675100682e-06   -6.9116513418842455e-06
-2.0524306244772575e-05   6.035812675100682e-06   -6.9116513418842455e-06
-2.0524306244772575e-05   6.035812675100682e-06   -6.9116513418842455e-06
-2.0472550502338755e-05   6.233010015632508e-06   -4.4352491685838527e-05
-2.0472550502338755e-05   6.233010015632508e-06   -4.4352491685838527e-05
-2.0472550502338755e-05   6.233010015632508e-06   -4.4352491685838527e-05
-2.0472550502338755e-05   6.233010015632508e-06   -4.4352491685838527e-05
-4.3015133012325445e-05   7.271575849798393e-06   -7.404660336360237e-06
-4.3015133012325445e-05   7.271575849798393e-06   -7.404660336360237e-06
-4.3015133012325445e-05   7.271575849798393e-06   -7.404660336360237e-06
-4.3015133012325445e-05   7.271575849798393e-06   -7.404660336360237e-06
-3.166632488602533e-05   5.955645815598244e-06   -2.5529782526340342e-05
-3.166632488602533e-05   5.955645815598244e-06   -2.5529782526340342e-05
-3.166632488602533e-05   5.955645815598244e-06   -2.5529782526340342e-05
-3.166632488602533e-05   5.955645815598244e-06   -2.5529782526340342e-05
-1.9903235544183454e-05   -3.940200081491732e-07   -4.7888308865842326e-05
-1.9903235544183454e-05   -3.940200081491732e-07   -4.7888308865842326e-05
-1.9903235544183454e-05   -3.940200081491732e-07   -4.7888308865842326e-05
-1.9903235544183454e-05   -3.940200081491732e-07   -4.7888308865842326e-05
1.9040803651918406e-06   -1.0488253995486439e-07   -1.1369299869300207e-05
1.9040803651918406e-06   -1.0488253995486439e-07   -1.1369299869300207e-05
1.9040803651918406e-06   -1.0488253995486439e-07   -1.1369299869300207e-05
1.9040803651918406e-06   -1.0488253995486439e-07   -1.1369299869300207e-05
1.8159731047581465e-06   7.751212053530918e-07   -4.815329156524921e-05
1.8159731047581465e-06   7.751212053530918e-07   -4.815329156524921e-05
1.8159731047581465e-06   7.751212053530918e-07   -4.815329156524921e-05
1.8159731047581465e-06   7.751212053530918e-07   -4.815329156524921e-05
-2.0376776614826094e-05   1.1731604163880559e-06   -1.1404198892563106e-05
-2.0376776614826094e-05   1.1731604163880559e-06   -1.1404198892563106e-05
-2.0376776614826094e-05   1.1731604163880559e-06   -1.1404198892563106e-05
-2.0376776614826094e-05   1.1731604163880559e-06   -1.1404198892563106e-05
-9.194837352240291e-06   3.897487172285416e-07   -2.9570717310710412e-05
-9.194837352240291e-06   3.897487172285416e-07   -2.9570717310710412e-05
-9.194837352240291e-06   3.897487172285416e-07   -2.9570717310710412e-05
-9.194837352240291e-06   3.897487172285416e-07   -2.9570717310710412e-05
-2.0376776614826094e-05   7.751212053530918e-07   -4.839211509187019e-05
-2.0376776614826094e-05   7.751212053530918e-07   -4.839211509187019e-05
-2.0376776614826094e-05   7.751212053530918e-07   -4.839211509187019e-05
-2.0376776614826094e-05   7.751212053530918e-07   -4.839211509187019e-05
1.8159731047581499e-06   1.1731604163880559e-06   -1.1165375365942057e-05
1.8159731047581499e-06   1.1731604163880559e-06   -1.1165375365942057e-05
1.8159731047581499e-06   1.1731604163880559e-06   -1.1165375365942057e-05
1.8159731047581499e-06   1.1731604163880559e-06   -1.1165375365942057e-05
1.6956100947140292e-06   1.8047363948718505e-06   -4.8253362874590714e-05
1.6956100947140292e-06   1.8047363948718505e-06   -4.8253362874590714e-05
1.6956100947140292e-06   1.8047363948718505e-06   -4.8253362874590714e-05
1.6956100947140292e-06   1.8047363948718505e-06   -4.8253362874590714e-05
-2.0524306244772504e-05   2.421975001867528e-06   -1.1590512139643847e-05
-2.0524306244772504e-05   2.421975001867528e-06   -1.1590512139643847e-05
-2.0524306244772504e-05   2.421975001867528e-06   -1.1590512139643847e-05
-2.0524306244772504e-05   2.421975001867528e-06   -1.1590512139643847e-05
-9.364736708999801e-06   1.4726485615781156e-06   -2.9620198835091347e-05
-9.364736708999801e-06   1.4726485615781156e-06   -2.9620198835091347e-05
-9.364736708999801e-06   1.4726485615781156e-06   -2.9620198835091347e-05
-9.364736708999801e-06   1.4726485615781156e-06   -2.9620198835091347e-05
-2.0524306244772504e-05   1.8047363948718505e-06   -4.862370603878811e-05
-2.0524306244772504e-05   1.8047363948718505e-06   -4.862370603878811e-05
-2.0524306244772504e-05   1.8047363948718505e-06   -4.862370603878811e-05
-2.0524306244772504e-05   1.8047363948718505e-06   -4.862370603878811e-05
1.6956100947140292e-06   2.4219750018675008e-06   -1.1220168975446534e-05
1.6956100947140292e-06   2.4219750018675008e-06   -1.1220168975446534e-05
1.6956100947140292e-06   2.4219750018675008e-06   -1.1220168975446534e-05
1.6956100947140292e-06   2.4219750018675008e-06   -1.1220168975446534e-05
1.4512185198260821e-06   2.997071222461792e-06   -4.817063495760239e-05
1.4512185198260821e-06   2.997071222461792e-06   -4.817063495760239e-05
1.4512185198260821e-06   2.997071222461792e-06   -4.817063495760239e-05
1.4512185198260821e-06   2.997071222461792e-06   -4.817063495760239e-05
-2.047255050233873e-05   3.7230333957191783e-06   -1.2066597224615474e-05
-2.047255050233873e-05   3.7230333957191783e-06   -1.2066597224615474e-05
-2.047255050233873e-05   3.7230333957191783e-06   -1.2066597224615474e-05
-2.047255050233873e-05   3.7230333957191783e-06   -1.2066597224615474e-05
-9.466940138587218e-06   2.585119365527177e-06   -2.972653274608612e-05
-9.466940138587218e-06   2.585119365527177e-06   -2.972653274608612e-05
-9.466940138587218e-06   2.585119365527177e-06   -2.972653274608612e-05
-9.466940138587218e-06   2.585119365527177e-06   -2.972653274608612e-05
1.9040803651918406e-06   -3.4826429502914552e-06   -4.418448470704366e-05
1.9040803651918406e-06   -3.4826429502914552e-06   -4.418448470704366e-05
1.9040803651918406e-06   -3.4826429502914552e-06   -4.418448470704366e-05
1.9040803651918406e-06   -3.4826429502914552e-06   -4.418448470704366e-05
2.4376758342130657e-05   -3.5803255267531935e-06   -6.788630958022676e-06
2.4376758342130657e-05   -3.5803255267531935e-06   -6.788630958022676e-06
2.4376758342130657e-05   -3.5803255267531935e-06   -6.788630958022676e-06
2.4376758342130657e-05   -3.5803255267531935e-06   -6.788630958022676e-06
2.457852853359784e-05   -2.6243996014181653e-06   -4.4797844812132236e-05
2.457852853359784e-05   -2.6243996014181653e-06   -4.4797844812132236e-05
2.457852853359784e-05   -2.6243996014181653e-06   -4.4797844812132236e-05
2.457852853359784e-05   -2.6243996014181653e-06   -4.4797844812132236e-05
1.8159731047581499e-06   -2.418646795021123e-06   -6.983704114570947e-06
1.8159731047581499e-06   -2.418646795021123e-06   -6.983704114570947e-06
1.8159731047581499e-06   -2.418646795021123e-06   -6.983704114570947e-06
1.8159731047581499e-06   -2.418646795021123e-06   -6.983704114570947e-06
1.3000594334286217e-05   -2.8960154881268747e-06   -2.53383182812543e-05
1.3000594334286217e-05   -2.8960154881268747e-06   -2.53383182812543e-05
1.3000594334286217e-05   -2.8960154881268747e-06   -2.53383182812543e-05
1.3000594334286217e-05   -2.8960154881268747e-06   -2.53383182812543e-05
1.8159731047581465e-06   -2.6243996014181653e-06   -4.4921296495970475e-05
1.8159731047581465e-06   -2.6243996014181653e-06   -4.4921296495970475e-05
1.8159731047581465e-06   -2.6243996014181653e-06   -4.4921296495970475e-05
1.8159731047581465e-06   -2.6243996014181653e-06   -4.4921296495970475e-05
2.457852853359784e-05   -2.418646795021123e-06   -6.860252430732647e-06
2.457852853359784e-05   -2.418646795021123e-06   -6.860252430732647e-06
2.457852853359784e-05   -2.418646795021123e-06   -6.860252430732647e-06
2.457852853359784e-05   -2.418646795021123e-06   -6.860252430732647e-06
2.4459080374046042e-05   -1.6495605135144654e-06   -4.563512085101314e-05
2.4459080374046042e-05   -1.6495605135144654e-06   -4.563512085101314e-05
2.4459080374046042e-05   -1.6495605135144654e-06   -4.563512085101314e-05
2.4459080374046042e-05   -1.6495605135144654e-06   -4.563512085101314e-05
1.6956100947140292e-06   -1.281006629868614e-06   -7.91713604898062e-06
1.6956100947140292e-06   -1.281006629868614e-06   -7.91713604898062e-06
1.6956100947140292e-06   -1.281006629868614e-06   -7.91713604898062e-06
1.6956100947140292e-06   -1.281006629868614e-06   -7.91713604898062e-06
1.2862907677691733e-05   -1.9690029596952543e-06   -2.6116500889380806e-05
1.2862907677691733e-05   -1.9690029596952543e-06   -2.6116500889380806e-05
1.2862907677691733e-05   -1.9690029596952543e-06   -2.6116500889380806e-05
1.2862907677691733e-05   -1.9690029596952543e-06   -2.6116500889380806e-05
1.6956100947140292e-06   -1.6495605135144654e-06   -4.585625318120059e-05
1.6956100947140292e-06   -1.6495605135144654e-06   -4.585625318120059e-05
1.6956100947140292e-06   -1.6495605135144654e-06   -4.585625318120059e-05
1.6956100947140292e-06   -1.6495605135144654e-06   -4.585625318120059e-05
2.4459080374046042e-05   -1.281006629868614e-06   -7.696003718793166e-06
2.4459080374046042e-05   -1.281006629868614e-06   -7.696003718793166e-06
2.4459080374046042e-05   -1.281006629868614e-06   -7.696003718793166e-06
2.4459080374046042e-05   -1.281006629868614e-06   -7.696003718793166e-06
2.3745279737532987e-05   -3.398168986019158e-07   -4.571614220880106e-05
2.3745279737532987e-05   -3.398168986019158e-07   -4.571614220880106e-05
2.3745279737532987e-05   -3.398168986019158e-07   -4.571614220880106e-05
2.3745279737532987e-05   -3.398168986019158e-07   -4.571614220880106e-05
1.4512185198260821e-06   1.2576263844644303e-07   -8.838721234851944e-06
1.4512185198260821e-06   1.2576263844644303e-07   -8.838721234851944e-06
1.4512185198260821e-06   1.2576263844644303e-07   -8.838721234851944e-06
1.4512185198260821e-06   1.2576263844644303e-07   -8.838721234851944e-06
1.2723459239964182e-05   -8.863026841715008e-07   -2.7018549908177972e-05
1.2723459239964182e-05   -8.863026841715008e-07   -2.7018549908177972e-05
1.2723459239964182e-05   -8.863026841715008e-07   -2.7018549908177972e-05
1.2723459239964182e-05   -8.863026841715008e-07   -2.7018549908177972e-05
2.4376758342130657e-05   -8.831333522783119e-06   -2.673450364024624e-05
2.4376758342130657e-05   -8.831333522783119e-06   -2.673450364024624e-05
2.4376758342130657e-05   -8.831333522783119e-06   -2.673450364024624e-05
2.4376758342130657e-05   -8.831333522783119e-06   -2.673450364024624e-05
4.6552211015748926e-05   -6.652621116498461e-06   1.153181159288839e-05
4.6552211015748926e-05   -6.652621116498461e-06   1.153181159288839e-05
4.6552211015748926e-05   -6.652621116498461e-06   1.153181159288839e-05
4.6552211015748926e-05   -6.652621116498461e-06   1.153181159288839e-05
4.832683589124446e-05   -7.51182218046526e-06   -3.2485110928196795e-05
4.832683589124446e-05   -7.51182218046526e-06   -3.2485110928196795e-05
4.832683589124446e-05   -7.51182218046526e-06   -3.2485110928196795e-05
4.832683589124446e-05   -7.51182218046526e-06   -3.2485110928196795e-05
2.457852853359788e-05   -6.033276207237462e-06   6.208273750610822e-06
2.457852853359788e-05   -6.033276207237462e-06   6.208273750610822e-06
2.457852853359788e-05   -6.033276207237462e-06   6.208273750610822e-06
2.457852853359788e-05   -6.033276207237462e-06   6.208273750610822e-06
3.428619170777624e-05   -7.225957789051479e-06   -9.255555923931359e-06
3.428619170777624e-05   -7.225957789051479e-06   -9.255555923931359e-06
3.428619170777624e-05   -7.225957789051479e-06   -9.255555923931359e-06
3.428619170777624e-05   -7.225957789051479e-06   -9.255555923931359e-06
2.4578528533597816e-05   -7.51182218046526e-06   -3.337223851213335e-05
2.4578528533597816e-05   -7.51182218046526e-06   -3.337223851213335e-05
2.4578528533597816e-05   -7.51182218046526e-06   -3.337223851213335e-05
2.4578528533597816e-05   -7.51182218046526e-06   -3.337223851213335e-05
4.8326835891244376e-05   -6.033276207237462e-06   7.095401334547585e-06
4.8326835891244376e-05   -6.033276207237462e-06   7.095401334547585e-06
4.8326835891244376e-05   -6.033276207237462e-06   7.095401334547585e-06
4.8326835891244376e-05   -6.033276207237462e-06   7.095401334547585e-06
4.8147877014397436e-05   -6.863320614546148e-06   -3.532557135452236e-05
4.8147877014397436e-05   -6.863320614546148e-06   -3.532557135452236e-05
4.8147877014397436e-05   -6.863320614546148e-06   -3.532557135452236e-05
4.8147877014397436e-05   -6.863320614546148e-06   -3.532557135452236e-05
2.4459080374046042e-05   -5.37864745488612e-06   3.2649524836006596e-06
2.4459080374046042e-05   -5.37864745488612e-06   3.2649524836006596e-06
2.4459080374046042e-05   -5.37864745488612e-06   3.2649524836006596e-06
2.4459080374046042e-05   -5.37864745488612e-06   3.2649524836006596e-06
3.548652550249604e-05   -6.3801341231031435e-06   -1.4513230729552504e-05
3.548652550249604e-05   -6.3801341231031435e-06   -1.4513230729552504e-05
3.548652550249604e-05   -6.3801341231031435e-06   -1.4513230729552504e-05
3.548652550249604e-05   -6.3801341231031435e-06   -1.4513230729552504e-05
2.4459080374046e-05   -6.863320614546134e-06   -3.621637525031832e-05
2.4459080374046e-05   -6.863320614546134e-06   -3.621637525031832e-05
2.4459080374046e-05   -6.863320614546134e-06   -3.621637525031832e-05
2.4459080374046e-05   -6.863320614546134e-06   -3.621637525031832e-05
4.8147877014397355e-05   -5.37864745488612e-06   4.155756379396579e-06
4.8147877014397355e-05   -5.37864745488612e-06   4.155756379396579e-06
4.8147877014397355e-05   -5.37864745488612e-06   4.155756379396579e-06
4.8147877014397355e-05   -5.37864745488612e-06   4.155756379396579e-06
4.785895363929063e-05   -5.331708408779669e-06   -4.111433982099961e-05
4.785895363929063e-05   -5.331708408779669e-06   -4.111433982099961e-05
4.785895363929063e-05   -5.331708408779669e-06   -4.111433982099961e-05
4.785895363929063e-05   -5.331708408779669e-06   -4.111433982099961e-05
2.3745279737532967e-05   -3.970090911157404e-06   -1.7418538166435354e-06
2.3745279737532967e-05   -3.970090911157404e-06   -1.7418538166435354e-06
2.3745279737532967e-05   -3.970090911157404e-06   -1.7418538166435354e-06
2.3745279737532967e-05   -3.970090911157404e-06   -1.7418538166435354e-06
3.447185721706903e-05   -5.492596682788012e-06   -1.870597948622525e-05
3.447185721706903e-05   -5.492596682788012e-06   -1.870597948622525e-05
3.447185721706903e-05   -5.492596682788012e-06   -1.870597948622525e-05
3.447185721706903e-05   -5.492596682788012e-06   -1.870597948622525e-05
-5.218675469575399e-05   7.5226617664800885e-06   -3.604509916304958e-05
-5.218675469575399e-05   7.5226617664800885e-06   -3.604509916304958e-05
-5.218675469575399e-05   7.5226617664800885e-06   -3.604509916304958e-05
-5.218675469575399e-05   7.5226617664800885e-06   -3.604509916304958e-05
-3.422090207380836e-05   5.745292388466608e-06   -7.16843308661492e-06
-3.422090207380836e-05   5.745292388466608e-06   -7.16843308661492e-06
-3.422090207380836e-05   5.745292388466608e-06   -7.16843308661492e-06
-3.422090207380836e-05   5.745292388466608e-06   -7.16843308661492e-06
-3.43853678476557e-05   9.031043934157285e-06   -2.9929771476100496e-05
-3.43853678476557e-05   9.031043934157285e-06   -2.9929771476100496e-05
-3.43853678476557e-05   9.031043934157285e-06   -2.9929771476100496e-05
-3.43853678476557e-05   9.031043934157285e-06   -2.9929771476100496e-05
-5.139314525185476e-05   6.951663086679472e-06   -3.3584729394877744e-07
-5.139314525185476e-05   6.951663086679472e-06   -3.3584729394877744e-07
-5.139314525185476e-05   6.951663086679472e-06   -3.3584729394877744e-07
-5.139314525185476e-05   6.951663086679472e-06   -3.3584729394877744e-07
-4.122586621779621e-05   7.650195217474249e-06   -1.770043162919002e-05
-4.122586621779621e-05   7.650195217474249e-06   -1.770043162919002e-05
-4.122586621779621e-05   7.650195217474249e-06   -1.770043162919002e-05
-4.122586621779621e-05   7.650195217474249e-06   -1.770043162919002e-05
-5.139314525185476e-05   9.031043934157285e-06   -2.868214296761383e-05
-5.139314525185476e-05   9.031043934157285e-06   -2.868214296761383e-05
-5.139314525185476e-05   9.031043934157285e-06   -2.868214296761383e-05
-5.139314525185476e-05   9.031043934157285e-06   -2.868214296761383e-05
-3.43853678476557e-05   6.951663086679472e-06   -1.5834758024354574e-06
-3.43853678476557e-05   6.951663086679472e-06   -1.5834758024354574e-06
-3.43853678476557e-05   6.951663086679472e-06   -1.5834758024354574e-06
-3.43853678476557e-05   6.951663086679472e-06   -1.5834758024354574e-06
-3.434950064201898e-05   9.711900971846096e-06   -2.5606340815694797e-05
-3.434950064201898e-05   9.711900971846096e-06   -2.5606340815694797e-05
-3.434950064201898e-05   9.711900971846096e-06   -2.5606340815694797e-05
-3.434950064201898e-05   9.711900971846096e-06   -2.5606340815694797e-05
-5.0620139709330584e-05   7.4819572449721906e-06   2.8493571992822234e-06
-5.0620139709330584e-05   7.4819572449721906e-06   2.8493571992822234e-06
-5.0620139709330584e-05   7.4819572449721906e-06   2.8493571992822234e-06
-5.0620139709330584e-05   7.4819572449721906e-06   2.8493571992822234e-06
-4.1580677239754096e-05   8.349513948537683e-06   -1.2736947605484542e-05
-4.1580677239754096e-05   8.349513948537683e-06   -1.2736947605484542e-05
-4.1580677239754096e-05   8.349513948537683e-06   -1.2736947605484542e-05
-4.1580677239754096e-05   8.349513948537683e-06   -1.2736947605484542e-05
-5.0620139709330584e-05   9.711900971846096e-06   -2.4268374579570438e-05
-5.0620139709330584e-05   9.711900971846096e-06   -2.4268374579570438e-05
-5.0620139709330584e-05   9.711900971846096e-06   -2.4268374579570438e-05
-5.0620139709330584e-05   9.711900971846096e-06   -2.4268374579570438e-05
-3.434950064201903e-05   7.4819572449721906e-06   1.5113909631579454e-06
-3.434950064201903e-05   7.4819572449721906e-06   1.5113909631579454e-06
-3.434950064201903e-05   7.4819572449721906e-06   1.5113909631579454e-06
-3.434950064201903e-05   7.4819572449721906e-06   1.5113909631579454e-06
-3.438374624797445e-05   1.0254447128944588e-05   -1.9554281593832476e-05
-3.438374624797445e-05   1.0254447128944588e-05   -1.9554281593832476e-05
-3.438374624797445e-05   1.0254447128944588e-05   -1.9554281593832476e-05
-3.438374624797445e-05   1.0254447128944588e-05   -1.9554281593832476e-05
-4.9611533734121864e-05   8.004801392753197e-06   7.1751516581279216e-06
-4.9611533734121864e-05   8.004801392753197e-06   7.1751516581279216e-06
-4.9611533734121864e-05   8.004801392753197e-06   7.1751516581279216e-06
-4.9611533734121864e-05   8.004801392753197e-06   7.1751516581279216e-06
-4.0632325292204346e-05   8.71820240948786e-06   -8.2182363551083e-06
-4.0632325292204346e-05   8.71820240948786e-06   -8.2182363551083e-06
-4.0632325292204346e-05   8.71820240948786e-06   -8.2182363551083e-06
-4.0632325292204346e-05   8.71820240948786e-06   -8.2182363551083e-06
-3.422090207380836e-05   3.5004841840353984e-06   -4.175387966551764e-05
-3.422090207380836e-05   3.5004841840353984e-06   -4.175387966551764e-05
-3.422090207380836e-05   3.5004841840353984e-06   -4.175387966551764e-05
-3.422090207380836e-05   3.5004841840353984e-06   -4.175387966551764e-05
-1.7425598115548778e-05   2.865832721917253e-06   -1.414249727902256e-05
-1.7425598115548778e-05   2.865832721917253e-06   -1.414249727902256e-05
-1.7425598115548778e-05   2.865832721917253e-06   -1.414249727902256e-05
-1.7425598115548778e-05   2.865832721917253e-06   -1.414249727902256e-05
-1.7636486859113407e-05   4.887489211655556e-06   -4.1161698198964255e-05
-1.7636486859113407e-05   4.887489211655556e-06   -4.1161698198964255e-05
-1.7636486859113407e-05   4.887489211655556e-06   -4.1161698198964255e-05
-1.7636486859113407e-05   4.887489211655556e-06   -4.1161698198964255e-05
-3.43853678476557e-05   4.0525131534699605e-06   -1.2745910916482395e-05
-3.43853678476557e-05   4.0525131534699605e-06   -1.2745910916482395e-05
-3.43853678476557e-05   4.0525131534699605e-06   -1.2745910916482395e-05
-3.43853678476557e-05   4.0525131534699605e-06   -1.2745910916482395e-05
-2.569507407623987e-05   4.038525724914954e-06   -2.7221341411709094e-05
-2.569507407623987e-05   4.038525724914954e-06   -2.7221341411709094e-05
-2.569507407623987e-05   4.038525724914954e-06   -2.7221341411709094e-05
-2.569507407623987e-05   4.038525724914954e-06   -2.7221341411709094e-05
-3.438536784765567e-05   4.887489211655556e-06   -4.066071256405277e-05
-3.438536784765567e-05   4.887489211655556e-06   -4.066071256405277e-05
-3.438536784765567e-05   4.887489211655556e-06   -4.066071256405277e-05
-3.438536784765567e-05   4.887489211655556e-06   -4.066071256405277e-05
-1.763648685911344e-05   4.0525131534699605e-06   -1.3246896551393762e-05
-1.763648685911344e-05   4.0525131534699605e-06   -1.3246896551393762e-05
-1.763648685911344e-05   4.0525131534699605e-06   -1.3246896551393762e-05
-1.763648685911344e-05   4.0525131534699605e-06   -1.3246896551393762e-05
-1.7772982559210825e-05   6.035812675100682e-06   -4.0072572873884606e-05
-1.7772982559210825e-05   6.035812675100682e-06   -4.0072572873884606e-05
-1.7772982559210825e-05   6.035812675100682e-06   -4.0072572873884606e-05
-1.7772982559210825e-05   6.035812675100682e-06   -4.0072572873884606e-05
-3.434950064201898e-05   5.1071183839323945e-06   -1.188782616117005e-05
-3.434950064201898e-05   5.1071183839323945e-06   -1.188782616117005e-05
-3.434950064201898e-05   5.1071183839323945e-06   -1.188782616117005e-05
-3.434950064201898e-05   5.1071183839323945e-06   -1.188782616117005e-05
-2.574195181491143e-05   5.015035717068875e-06   -2.6178491272897694e-05
-2.574195181491143e-05   5.015035717068875e-06   -2.6178491272897694e-05
-2.574195181491143e-05   5.015035717068875e-06   -2.6178491272897694e-05
-2.574195181491143e-05   5.015035717068875e-06   -2.6178491272897694e-05
-3.434950064201898e-05   6.035812675100682e-06   -3.951535629918367e-05
-3.434950064201898e-05   6.035812675100682e-06   -3.951535629918367e-05
-3.434950064201898e-05   6.035812675100682e-06   -3.951535629918367e-05
-3.434950064201898e-05   6.035812675100682e-06   -3.951535629918367e-05
-1.777298255921086e-05   5.1071183839323945e-06   -1.2445042735870934e-05
-1.777298255921086e-05   5.1071183839323945e-06   -1.2445042735870934e-05
-1.777298255921086e-05   5.1071183839323945e-06   -1.2445042735870934e-05
-1.777298255921086e-05   5.1071183839323945e-06   -1.2445042735870934e-05
-1.7949887648581693e-05   7.271575849798393e-06   -3.9976064265490334e-05
-1.7949887648581693e-05   7.271575849798393e-06   -3.9976064265490334e-05
-1.7949887648581693e-05   7.271575849798393e-06   -3.9976064265490334e-05
-1.7949887648581693e-05   7.271575849798393e-06   -3.9976064265490334e-05
-3.4383746247974425e-05   6.229313557986065e-06   -1.1960942558081865e-05
-3.4383746247974425e-05   6.229313557986065e-06   -1.1960942558081865e-05
-3.4383746247974425e-05   6.229313557986065e-06   -1.1960942558081865e-05
-3.4383746247974425e-05   6.229313557986065e-06   -1.1960942558081865e-05
-2.604629940277666e-05   5.982563339072816e-06   -2.5708637168729852e-05
-2.604629940277666e-05   5.982563339072816e-06   -2.5708637168729852e-05
-2.604629940277666e-05   5.982563339072816e-06   -2.5708637168729852e-05
-2.604629940277666e-05   5.982563339072816e-06   -2.5708637168729852e-05
-1.742559811554875e-05   -1.0488253995483729e-07   -4.501385419001957e-05
-1.742559811554875e-05   -1.0488253995483729e-07   -4.501385419001957e-05
-1.742559811554875e-05   -1.0488253995483729e-07   -4.501385419001957e-05
-1.742559811554875e-05   -1.0488253995483729e-07   -4.501385419001957e-05
-8.173670624261983e-07   1.527838057881854e-07   -1.7178869294036105e-05
-8.173670624261983e-07   1.527838057881854e-07   -1.7178869294036105e-05
-8.173670624261983e-07   1.527838057881854e-07   -1.7178869294036105e-05
-8.173670624261983e-07   1.527838057881854e-07   -1.7178869294036105e-05
-9.864814028468854e-07   1.1731604163880288e-06   -4.459241757556601e-05
-9.864814028468854e-07   1.1731604163880288e-06   -4.459241757556601e-05
-9.864814028468854e-07   1.1731604163880288e-06   -4.459241757556601e-05
-9.864814028468854e-07   1.1731604163880288e-06   -4.459241757556601e-05
-1.763648685911338e-05   1.3212098543489417e-06   -1.6931238144564972e-05
-1.763648685911338e-05   1.3212098543489417e-06   -1.6931238144564972e-05
-1.763648685911338e-05   1.3212098543489417e-06   -1.6931238144564972e-05
-1.763648685911338e-05   1.3212098543489417e-06   -1.6931238144564972e-05
-9.164528986620982e-06   7.700284153255746e-07   -3.072045906863836e-05
-9.164528986620982e-06   7.700284153255746e-07   -3.072045906863836e-05
-9.164528986620982e-06   7.700284153255746e-07   -3.072045906863836e-05
-9.164528986620982e-06   7.700284153255746e-07   -3.072045906863836e-05
-1.7636486859113407e-05   1.1731604163880288e-06   -4.46812472383425e-05
-1.7636486859113407e-05   1.1731604163880288e-06   -4.46812472383425e-05
-1.7636486859113407e-05   1.1731604163880288e-06   -4.46812472383425e-05
-1.7636486859113407e-05   1.1731604163880288e-06   -4.46812472383425e-05
-9.864814028468854e-07   1.3212098543488875e-06   -1.6842408481788473e-05
-9.864814028468854e-07   1.3212098543488875e-06   -1.6842408481788473e-05
-9.864814028468854e-07   1.3212098543488875e-06   -1.6842408481788473e-05
-9.864814028468854e-07   1.3212098543488875e-06   -1.6842408481788473e-05
-1.108417130436296e-06   2.4219750018675008e-06   -4.471290724411951e-05
-1.108417130436296e-06   2.4219750018675008e-06   -4.471290724411951e-05
-1.108417130436296e-06   2.4219750018675008e-06   -4.471290724411951e-05
-1.108417130436296e-06   2.4219750018675008e-06   -4.471290724411951e-05
-1.7772982559210825e-05   2.486185714408915e-06   -1.69771579570201e-05
-1.7772982559210825e-05   2.486185714408915e-06   -1.69771579570201e-05
-1.7772982559210825e-05   2.486185714408915e-06   -1.69771579570201e-05
-1.7772982559210825e-05   2.486185714408915e-06   -1.69771579570201e-05
-9.383022133767477e-06   1.8005458681820256e-06   -3.0549041425022885e-05
-9.383022133767477e-06   1.8005458681820256e-06   -3.0549041425022885e-05
-9.383022133767477e-06   1.8005458681820256e-06   -3.0549041425022885e-05
-9.383022133767477e-06   1.8005458681820256e-06   -3.0549041425022885e-05
-1.7772982559210825e-05   2.4219750018675008e-06   -4.475143367164432e-05
-1.7772982559210825e-05   2.4219750018675008e-06   -4.475143367164432e-05
-1.7772982559210825e-05   2.4219750018675008e-06   -4.475143367164432e-05
-1.7772982559210825e-05   2.4219750018675008e-06   -4.475143367164432e-05
-1.108417130436296e-06   2.4861857144088608e-06   -1.693863152949518e-05
-1.108417130436296e-06   2.4861857144088608e-06   -1.693863152949518e-05
-1.108417130436296e-06   2.4861857144088608e-06   -1.693863152949518e-05
-1.108417130436296e-06   2.4861857144088608e-06   -1.693863152949518e-05
-1.3004347186407358e-06   3.7230333957191783e-06   -4.528803535673733e-05
-1.3004347186407358e-06   3.7230333957191783e-06   -4.528803535673733e-05
-1.3004347186407358e-06   3.7230333957191783e-06   -4.528803535673733e-05
-1.3004347186407358e-06   3.7230333957191783e-06   -4.528803535673733e-05
-1.7949887648581707e-05   3.6782088915655723e-06   -1.751205243767705e-05
-1.7949887648581707e-05   3.6782088915655723e-06   -1.751205243767705e-05
-1.7949887648581707e-05   3.6782088915655723e-06   -1.751205243767705e-05
-1.7949887648581707e-05   3.6782088915655723e-06   -1.751205243767705e-05
-9.615178573700649e-06   2.8433081689239727e-06   -3.090229379556024e-05
-9.615178573700649e-06   2.8433081689239727e-06   -3.090229379556024e-05
-9.615178573700649e-06   2.8433081689239727e-06   -3.090229379556024e-05
-9.615178573700649e-06   2.8433081689239727e-06   -3.090229379556024e-05
-8.173670624262e-07   -3.5803255267531935e-06   -4.021997592541916e-05
-8.173670624262e-07   -3.5803255267531935e-06   -4.021997592541916e-05
-8.173670624262e-07   -3.5803255267531935e-06   -4.021997592541916e-05
-8.173670624262e-07   -3.5803255267531935e-06   -4.021997592541916e-05
1.5705206773021244e-05   -2.3988715372846425e-06   -1.1973480472658976e-05
1.5705206773021244e-05   -2.3988715372846425e-06   -1.1973480472658976e-05
1.5705206773021244e-05   -2.3988715372846425e-06   -1.1973480472658976e-05
1.5705206773021244e-05   -2.3988715372846425e-06   -1.1973480472658976e-05
1.5693909895807842e-05   -2.418646795021123e-06   -3.97560040825371e-05
1.5693909895807842e-05   -2.418646795021123e-06   -3.97560040825371e-05
1.5693909895807842e-05   -2.418646795021123e-06   -3.97560040825371e-05
1.5693909895807842e-05   -2.418646795021123e-06   -3.97560040825371e-05
-9.864814028468854e-07   -1.3274097255916938e-06   -1.2610094159770289e-05
-9.864814028468854e-07   -1.3274097255916938e-06   -1.2610094159770289e-05
-9.864814028468854e-07   -1.3274097255916938e-06   -1.2610094159770289e-05
-9.864814028468854e-07   -1.3274097255916938e-06   -1.2610094159770289e-05
7.342500027532636e-06   -2.346811321934976e-06   -2.588008891926349e-05
7.342500027532636e-06   -2.346811321934976e-06   -2.588008891926349e-05
7.342500027532636e-06   -2.346811321934976e-06   -2.588008891926349e-05
7.342500027532636e-06   -2.346811321934976e-06   -2.588008891926349e-05
-9.864814028468854e-07   -2.418646795021123e-06   -4.0410746324194815e-05
-9.864814028468854e-07   -2.418646795021123e-06   -4.0410746324194815e-05
-9.864814028468854e-07   -2.418646795021123e-06   -4.0410746324194815e-05
-9.864814028468854e-07   -2.418646795021123e-06   -4.0410746324194815e-05
1.5693909895807856e-05   -1.3274097255916938e-06   -1.1955351918112615e-05
1.5693909895807856e-05   -1.3274097255916938e-06   -1.1955351918112615e-05
1.5693909895807856e-05   -1.3274097255916938e-06   -1.1955351918112615e-05
1.5693909895807856e-05   -1.3274097255916938e-06   -1.1955351918112615e-05
1.576929074540852e-05   -1.281006629868614e-06   -4.080623928575712e-05
1.576929074540852e-05   -1.281006629868614e-06   -4.080623928575712e-05
1.576929074540852e-05   -1.281006629868614e-06   -4.080623928575712e-05
1.576929074540852e-05   -1.281006629868614e-06   -4.080623928575712e-05
-1.1084171304362977e-06   -2.749482433744236e-07   -1.328036119124565e-05
-1.1084171304362977e-06   -2.749482433744236e-07   -1.328036119124565e-05
-1.1084171304362977e-06   -2.749482433744236e-07   -1.328036119124565e-05
-1.1084171304362977e-06   -2.749482433744236e-07   -1.328036119124565e-05
7.1172430348165925e-06   -1.417844079123969e-06   -2.6304057298550694e-05
7.1172430348165925e-06   -1.417844079123969e-06   -2.6304057298550694e-05
7.1172430348165925e-06   -1.417844079123969e-06   -2.6304057298550694e-05
7.1172430348165925e-06   -1.417844079123969e-06   -2.6304057298550694e-05
-1.108417130436296e-06   -1.281006629868614e-06   -4.140987431765362e-05
-1.108417130436296e-06   -1.281006629868614e-06   -4.140987431765362e-05
-1.108417130436296e-06   -1.281006629868614e-06   -4.140987431765362e-05
-1.108417130436296e-06   -1.281006629868614e-06   -4.140987431765362e-05
1.5769290745408547e-05   -2.749482433744236e-07   -1.2676726159349054e-05
1.5769290745408547e-05   -2.749482433744236e-07   -1.2676726159349054e-05
1.5769290745408547e-05   -2.749482433744236e-07   -1.2676726159349054e-05
1.5769290745408547e-05   -2.749482433744236e-07   -1.2676726159349054e-05
1.564908918565402e-05   1.2576263844644303e-07   -4.199806687179536e-05
1.564908918565402e-05   1.2576263844644303e-07   -4.199806687179536e-05
1.564908918565402e-05   1.2576263844644303e-07   -4.199806687179536e-05
1.564908918565402e-05   1.2576263844644303e-07   -4.199806687179536e-05
-1.3004347186407383e-06   9.55212303667993e-07   -1.4246530163770455e-05
-1.3004347186407383e-06   9.55212303667993e-07   -1.4246530163770455e-05
-1.3004347186407383e-06   9.55212303667993e-07   -1.4246530163770455e-05
-1.3004347186407383e-06   9.55212303667993e-07   -1.4246530163770455e-05
7.038645820636975e-06   -4.241985492403573e-07   -2.731735121748814e-05
7.038645820636975e-06   -4.241985492403573e-07   -2.731735121748814e-05
7.038645820636975e-06   -4.241985492403573e-07   -2.731735121748814e-05
7.038645820636975e-06   -4.241985492403573e-07   -2.731735121748814e-05
1.570520677302121e-05   -6.652621116498488e-06   -2.2497888424597736e-05
1.570520677302121e-05   -6.652621116498488e-06   -2.2497888424597736e-05
1.570520677302121e-05   -6.652621116498488e-06   -2.2497888424597736e-05
1.570520677302121e-05   -6.652621116498488e-06   -2.2497888424597736e-05
3.116877759954622e-05   -4.347846621528448e-06   4.657594316592663e-06
3.116877759954622e-05   -4.347846621528448e-06   4.657594316592663e-06
3.116877759954622e-05   -4.347846621528448e-06   4.657594316592663e-06
3.116877759954622e-05   -4.347846621528448e-06   4.657594316592663e-06
3.22232228903681e-05   -6.033276207237435e-06   -2.5305324938711804e-05
3.22232228903681e-05   -6.033276207237435e-06   -2.5305324938711804e-05
3.22232228903681e-05   -6.033276207237435e-06   -2.5305324938711804e-05
3.22232228903681e-05   -6.033276207237435e-06   -2.5305324938711804e-05
1.5693909895807842e-05   -3.7296879364344935e-06   8.61377089740351e-07
1.5693909895807842e-05   -3.7296879364344935e-06   8.61377089740351e-07
1.5693909895807842e-05   -3.7296879364344935e-06   8.61377089740351e-07
1.5693909895807842e-05   -3.7296879364344935e-06   8.61377089740351e-07
2.2685036764797455e-05   -5.1292066822485706e-06   -9.950789777754014e-06
2.2685036764797455e-05   -5.1292066822485706e-06   -9.950789777754014e-06
2.2685036764797455e-05   -5.1292066822485706e-06   -9.950789777754014e-06
2.2685036764797455e-05   -5.1292066822485706e-06   -9.950789777754014e-06
1.5693909895807822e-05   -6.033276207237462e-06   -2.6687477901193456e-05
1.5693909895807822e-05   -6.033276207237462e-06   -2.6687477901193456e-05
1.5693909895807822e-05   -6.033276207237462e-06   -2.6687477901193456e-05
1.5693909895807822e-05   -6.033276207237462e-06   -2.6687477901193456e-05
3.22232228903681e-05   -3.7296879364344935e-06   2.2435300522220293e-06
3.22232228903681e-05   -3.7296879364344935e-06   2.2435300522220293e-06
3.22232228903681e-05   -3.7296879364344935e-06   2.2435300522220293e-06
3.22232228903681e-05   -3.7296879364344935e-06   2.2435300522220293e-06
3.303440325529367e-05   -5.37864745488612e-06   -2.853831338299445e-05
3.303440325529367e-05   -5.37864745488612e-06   -2.853831338299445e-05
3.303440325529367e-05   -5.37864745488612e-06   -2.853831338299445e-05
3.303440325529367e-05   -5.37864745488612e-06   -2.853831338299445e-05
1.5769290745408493e-05   -3.200364620937904e-06   -1.0700955668881585e-06
1.5769290745408493e-05   -3.200364620937904e-06   -1.0700955668881585e-06
1.5769290745408493e-05   -3.200364620937904e-06   -1.0700955668881585e-06
1.5769290745408493e-05   -3.200364620937904e-06   -1.0700955668881585e-06
2.3457723945401513e-05   -4.730456315481498e-06   -1.2966095883483635e-05
2.3457723945401513e-05   -4.730456315481498e-06   -1.2966095883483635e-05
2.3457723945401513e-05   -4.730456315481498e-06   -1.2966095883483635e-05
2.3457723945401513e-05   -4.730456315481498e-06   -1.2966095883483635e-05
1.576929074540852e-05   -5.37864745488612e-06   -2.984528308336336e-05
1.576929074540852e-05   -5.37864745488612e-06   -2.984528308336336e-05
1.576929074540852e-05   -5.37864745488612e-06   -2.984528308336336e-05
1.576929074540852e-05   -5.37864745488612e-06   -2.984528308336336e-05
3.303440325529359e-05   -3.200364620937904e-06   2.3687413348085244e-07
3.303440325529359e-05   -3.200364620937904e-06   2.3687413348085244e-07
3.303440325529359e-05   -3.200364620937904e-06   2.3687413348085244e-07
3.303440325529359e-05   -3.200364620937904e-06   2.3687413348085244e-07
3.389944023041669e-05   -3.970090911157404e-06   -3.4040689518226864e-05
3.389944023041669e-05   -3.970090911157404e-06   -3.4040689518226864e-05
3.389944023041669e-05   -3.970090911157404e-06   -3.4040689518226864e-05
3.389944023041669e-05   -3.970090911157404e-06   -3.4040689518226864e-05
1.5649089185653985e-05   -2.0703281485088664e-06   -4.763295434544851e-06
1.5649089185653985e-05   -2.0703281485088664e-06   -4.763295434544851e-06
1.5649089185653985e-05   -2.0703281485088664e-06   -4.763295434544851e-06
1.5649089185653985e-05   -2.0703281485088664e-06   -4.763295434544851e-06
2.3359644329016443e-05   -4.07409354847386e-06   -1.641196143350324e-05
2.3359644329016443e-05   -4.07409354847386e-06   -1.641196143350324e-05
2.3359644329016443e-05   -4.07409354847386e-06   -1.641196143350324e-05
2.3359644329016443e-05   -4.07409354847386e-06   -1.641196143350324e-05
-3.7473840698076365e-05   5.745292388466608e-06   -2.852835855253995e-05
-3.7473840698076365e-05   5.745292388466608e-06   -2.852835855253995e-05
-3.7473840698076365e-05   5.745292388466608e-06   -2.852835855253995e-05
-3.7473840698076365e-05   5.745292388466608e-06   -2.852835855253995e-05
-2.552706224511419e-05   3.652075703354106e-06   -9.872991142003834e-06
-2.552706224511419e-05   3.652075703354106e-06   -9.872991142003834e-06
-2.552706224511419e-05   3.652075703354106e-06   -9.872991142003834e-06
-2.552706224511419e-05   3.652075703354106e-06   -9.872991142003834e-06
-2.5433921213981778e-05   6.951663086679472e-06   -2.423655651639337e-05
-2.5433921213981778e-05   6.951663086679472e-06   -2.423655651639337e-05
-2.5433921213981778e-05   6.951663086679472e-06   -2.423655651639337e-05
-2.5433921213981778e-05   6.951663086679472e-06   -2.423655651639337e-05
-3.635032337489402e-05   4.650013582768514e-06   -4.661563212526301e-06
-3.635032337489402e-05   4.650013582768514e-06   -4.661563212526301e-06
-3.635032337489402e-05   4.650013582768514e-06   -4.661563212526301e-06
-3.635032337489402e-05   4.650013582768514e-06   -4.661563212526301e-06
-2.9872723510993644e-05   5.532875420374606e-06   -1.598728008825727e-05
-2.9872723510993644e-05   5.532875420374606e-06   -1.598728008825727e-05
-2.9872723510993644e-05   5.532875420374606e-06   -1.598728008825727e-05
-2.9872723510993644e-05   5.532875420374606e-06   -1.598728008825727e-05
-3.635032337489402e-05   6.951663086679472e-06   -2.2855566814046745e-05
-3.635032337489402e-05   6.951663086679472e-06   -2.2855566814046745e-05
-3.635032337489402e-05   6.951663086679472e-06   -2.2855566814046745e-05
-3.635032337489402e-05   6.951663086679472e-06   -2.2855566814046745e-05
-2.5433921213981805e-05   4.650013582768514e-06   -6.042552914872969e-06
-2.5433921213981805e-05   4.650013582768514e-06   -6.042552914872969e-06
-2.5433921213981805e-05   4.650013582768514e-06   -6.042552914872969e-06
-2.5433921213981805e-05   4.650013582768514e-06   -6.042552914872969e-06
-2.5240886855749017e-05   7.4819572449721906e-06   -2.1134383339620373e-05
-2.5240886855749017e-05   7.4819572449721906e-06   -2.1134383339620373e-05
-2.5240886855749017e-05   7.4819572449721906e-06   -2.1134383339620373e-05
-2.5240886855749017e-05   7.4819572449721906e-06   -2.1134383339620373e-05
-3.5510943005996306e-05   5.115386373706881e-06   -2.5976805664490238e-06
-3.5510943005996306e-05   5.115386373706881e-06   -2.5976805664490238e-06
-3.5510943005996306e-05   5.115386373706881e-06   -2.5976805664490238e-06
-3.5510943005996306e-05   5.115386373706881e-06   -2.5976805664490238e-06
-2.987352857658249e-05   6.0898060091282575e-06   -1.2578023063391563e-05
-2.987352857658249e-05   6.0898060091282575e-06   -1.2578023063391563e-05
-2.987352857658249e-05   6.0898060091282575e-06   -1.2578023063391563e-05
-2.987352857658249e-05   6.0898060091282575e-06   -1.2578023063391563e-05
-3.5510943005996306e-05   7.4819572449721906e-06   -1.9714440816861252e-05
-3.5510943005996306e-05   7.4819572449721906e-06   -1.9714440816861252e-05
-3.5510943005996306e-05   7.4819572449721906e-06   -1.9714440816861252e-05
-3.5510943005996306e-05   7.4819572449721906e-06   -1.9714440816861252e-05
-2.524088685574907e-05   5.115386373706989e-06   -4.017623089208114e-06
-2.524088685574907e-05   5.115386373706989e-06   -4.017623089208114e-06
-2.524088685574907e-05   5.115386373706989e-06   -4.017623089208114e-06
-2.524088685574907e-05   5.115386373706989e-06   -4.017623089208114e-06
-2.5163927431260156e-05   8.004801392753197e-06   -1.6841691847186173e-05
-2.5163927431260156e-05   8.004801392753197e-06   -1.6841691847186173e-05
-2.5163927431260156e-05   8.004801392753197e-06   -1.6841691847186173e-05
-2.5163927431260156e-05   8.004801392753197e-06   -1.6841691847186173e-05
-3.4413240306000966e-05   5.7012113570118535e-06   -4.401636784001411e-08
-3.4413240306000966e-05   5.7012113570118535e-06   -4.401636784001411e-08
-3.4413240306000966e-05   5.7012113570118535e-06   -4.401636784001411e-08
-3.4413240306000966e-05   5.7012113570118535e-06   -4.401636784001411e-08
-2.8989243322762156e-05   6.392359305074953e-06   -9.498700108742623e-06
-2.8989243322762156e-05   6.392359305074953e-06   -9.498700108742623e-06
-2.8989243322762156e-05   6.392359305074953e-06   -9.498700108742623e-06
-2.8989243322762156e-05   6.392359305074953e-06   -9.498700108742623e-06
-2.5527062245114134e-05   2.865832721917253e-06   -3.6377561878744196e-05
-2.5527062245114134e-05   2.865832721917253e-06   -3.6377561878744196e-05
-2.5527062245114134e-05   2.865832721917253e-06   -3.6377561878744196e-05
-2.5527062245114134e-05   2.865832721917253e-06   -3.6377561878744196e-05
-1.4694912779072756e-05   1.8899969625819696e-06   -1.8909480890943038e-05
-1.4694912779072756e-05   1.8899969625819696e-06   -1.8909480890943038e-05
-1.4694912779072756e-05   1.8899969625819696e-06   -1.8909480890943038e-05
-1.4694912779072756e-05   1.8899969625819696e-06   -1.8909480890943038e-05
-1.4702159557883184e-05   4.052513153469906e-06   -3.606420251790055e-05
-1.4702159557883184e-05   4.052513153469906e-06   -3.606420251790055e-05
-1.4702159557883184e-05   4.052513153469906e-06   -3.606420251790055e-05
-1.4702159557883184e-05   4.052513153469906e-06   -3.606420251790055e-05
-2.5433921213981778e-05   2.943828341035997e-06   -1.751272220360938e-05
-2.5433921213981778e-05   2.943828341035997e-06   -1.751272220360938e-05
-2.5433921213981778e-05   2.943828341035997e-06   -1.751272220360938e-05
-2.5433921213981778e-05   2.943828341035997e-06   -1.751272220360938e-05
-1.990420199613632e-05   3.1358365568344957e-06   -2.6844125829497486e-05
-1.990420199613632e-05   3.1358365568344957e-06   -2.6844125829497486e-05
-1.990420199613632e-05   3.1358365568344957e-06   -2.6844125829497486e-05
-1.990420199613632e-05   3.1358365568344957e-06   -2.6844125829497486e-05
-2.543392121398175e-05   4.0525131534699605e-06   -3.539899163044017e-05
-2.543392121398175e-05   4.0525131534699605e-06   -3.539899163044017e-05
-2.543392121398175e-05   4.0525131534699605e-06   -3.539899163044017e-05
-2.543392121398175e-05   4.0525131534699605e-06   -3.539899163044017e-05
-1.4702159557883184e-05   2.9438283410361055e-06   -1.817793309106966e-05
-1.4702159557883184e-05   2.9438283410361055e-06   -1.817793309106966e-05
-1.4702159557883184e-05   2.9438283410361055e-06   -1.817793309106966e-05
-1.4702159557883184e-05   2.9438283410361055e-06   -1.817793309106966e-05
-1.4691435363489589e-05   5.1071183839323945e-06   -3.525598046996199e-05
-1.4691435363489589e-05   5.1071183839323945e-06   -3.525598046996199e-05
-1.4691435363489589e-05   5.1071183839323945e-06   -3.525598046996199e-05
-1.4691435363489589e-05   5.1071183839323945e-06   -3.525598046996199e-05
-2.5240886855749017e-05   3.903151707242885e-06   -1.69511813101826e-05
-2.5240886855749017e-05   3.903151707242885e-06   -1.69511813101826e-05
-2.5240886855749017e-05   3.903151707242885e-06   -1.69511813101826e-05
-2.5240886855749017e-05   3.903151707242885e-06   -1.69511813101826e-05
-1.9811636353080924e-05   4.001653025614328e-06   -2.6059032938985404e-05
-1.9811636353080924e-05   4.001653025614328e-06   -2.6059032938985404e-05
-1.9811636353080924e-05   4.001653025614328e-06   -2.6059032938985404e-05
-1.9811636353080924e-05   4.001653025614328e-06   -2.6059032938985404e-05
-2.5240886855749017e-05   5.1071183839323945e-06   -3.453360046394826e-05
-2.5240886855749017e-05   5.1071183839323945e-06   -3.453360046394826e-05
-2.5240886855749017e-05   5.1071183839323945e-06   -3.453360046394826e-05
-2.5240886855749017e-05   5.1071183839323945e-06   -3.453360046394826e-05
-1.4691435363489589e-05   3.903151707242885e-06   -1.7673561316196193e-05
-1.4691435363489589e-05   3.903151707242885e-06   -1.7673561316196193e-05
-1.4691435363489589e-05   3.903151707242885e-06   -1.7673561316196193e-05
-1.4691435363489589e-05   3.903151707242885e-06   -1.7673561316196193e-05
-1.4703404965153653e-05   6.229313557986065e-06   -3.539822772737636e-05
-1.4703404965153653e-05   6.229313557986065e-06   -3.539822772737636e-05
-1.4703404965153653e-05   6.229313557986065e-06   -3.539822772737636e-05
-1.4703404965153653e-05   6.229313557986065e-06   -3.539822772737636e-05
-2.516392743126013e-05   4.945598381827284e-06   -1.7193794511503608e-05
-2.516392743126013e-05   4.945598381827284e-06   -1.7193794511503608e-05
-2.516392743126013e-05   4.945598381827284e-06   -1.7193794511503608e-05
-2.516392743126013e-05   4.945598381827284e-06   -1.7193794511503608e-05
-1.994008090963537e-05   4.858623804724835e-06   -2.584802063461671e-05
-1.994008090963537e-05   4.858623804724835e-06   -2.584802063461671e-05
-1.994008090963537e-05   4.858623804724835e-06   -2.584802063461671e-05
-1.994008090963537e-05   4.858623804724835e-06   -2.584802063461671e-05
-1.4694912779072777e-05   1.527838057881854e-07   -4.01540351568048e-05
-1.4694912779072777e-05   1.527838057881854e-07   -4.01540351568048e-05
-1.4694912779072777e-05   1.527838057881854e-07   -4.01540351568048e-05
-1.4694912779072777e-05   1.527838057881854e-07   -4.01540351568048e-05
-4.011562768596217e-06   3.265518258550133e-07   -2.2244190993970462e-05
-4.011562768596217e-06   3.265518258550133e-07   -2.2244190993970462e-05
-4.011562768596217e-06   3.265518258550133e-07   -2.2244190993970462e-05
-4.011562768596217e-06   3.265518258550133e-07   -2.2244190993970462e-05
-4.01936217225546e-06   1.3212098543488875e-06   -3.970935358701955e-05
-4.01936217225546e-06   1.3212098543488875e-06   -3.970935358701955e-05
-4.01936217225546e-06   1.3212098543488875e-06   -3.970935358701955e-05
-4.01936217225546e-06   1.3212098543488875e-06   -3.970935358701955e-05
-1.4702159557883184e-05   1.3865273944359876e-06   -2.1943881801692175e-05
-1.4702159557883184e-05   1.3865273944359876e-06   -2.1943881801692175e-05
-1.4702159557883184e-05   1.3865273944359876e-06   -2.1943881801692175e-05
-1.4702159557883184e-05   1.3865273944359876e-06   -2.1943881801692175e-05
-9.294739501515297e-06   9.342370989206172e-07   -3.068487438499619e-05
-9.294739501515297e-06   9.342370989206172e-07   -3.068487438499619e-05
-9.294739501515297e-06   9.342370989206172e-07   -3.068487438499619e-05
-9.294739501515297e-06   9.342370989206172e-07   -3.068487438499619e-05
-1.4702159557883218e-05   1.3212098543488875e-06   -3.974854411107182e-05
-1.4702159557883218e-05   1.3212098543488875e-06   -3.974854411107182e-05
-1.4702159557883218e-05   1.3212098543488875e-06   -3.974854411107182e-05
-1.4702159557883218e-05   1.3212098543488875e-06   -3.974854411107182e-05
-4.01936217225546e-06   1.3865273944359876e-06   -2.1904691277639947e-05
-4.01936217225546e-06   1.3865273944359876e-06   -2.1904691277639947e-05
-4.01936217225546e-06   1.3865273944359876e-06   -2.1904691277639947e-05
-4.01936217225546e-06   1.3865273944359876e-06   -2.1904691277639947e-05
-4.005403813454287e-06   2.486185714408915e-06   -3.980986816026381e-05
-4.005403813454287e-06   2.486185714408915e-06   -3.980986816026381e-05
-4.005403813454287e-06   2.486185714408915e-06   -3.980986816026381e-05
-4.005403813454287e-06   2.486185714408915e-06   -3.980986816026381e-05
-1.4691435363489589e-05   2.4498982658209545e-06   -2.1978043107718918e-05
-1.4691435363489589e-05   2.4498982658209545e-06   -2.1978043107718918e-05
-1.4691435363489589e-05   2.4498982658209545e-06   -2.1978043107718918e-05
-1.4691435363489589e-05   2.4498982658209545e-06   -2.1978043107718918e-05
-9.357071838407373e-06   1.8617337232150531e-06   -3.0515750257292383e-05
-9.357071838407373e-06   1.8617337232150531e-06   -3.0515750257292383e-05
-9.357071838407373e-06   1.8617337232150531e-06   -3.0515750257292383e-05
-9.357071838407373e-06   1.8617337232150531e-06   -3.0515750257292383e-05
-1.4691435363489589e-05   2.486185714408915e-06   -3.97880956911111e-05
-1.4691435363489589e-05   2.486185714408915e-06   -3.97880956911111e-05
-1.4691435363489589e-05   2.486185714408915e-06   -3.97880956911111e-05
-1.4691435363489589e-05   2.486185714408915e-06   -3.97880956911111e-05
-4.005403813454287e-06   2.4498982658209545e-06   -2.199981557687153e-05
-4.005403813454287e-06   2.4498982658209545e-06   -2.199981557687153e-05
-4.005403813454287e-06   2.4498982658209545e-06   -2.199981557687153e-05
-4.005403813454287e-06   2.4498982658209545e-06   -2.199981557687153e-05
-4.011749798852729e-06   3.6782088915655723e-06   -4.041178904050092e-05
-4.011749798852729e-06   3.6782088915655723e-06   -4.041178904050092e-05
-4.011749798852729e-06   3.6782088915655723e-06   -4.041178904050092e-05
-4.011749798852729e-06   3.6782088915655723e-06   -4.041178904050092e-05
-1.4703404965153674e-05   3.531860877204569e-06   -2.250455495471593e-05
-1.4703404965153674e-05   3.531860877204569e-06   -2.250455495471593e-05
-1.4703404965153674e-05   3.531860877204569e-06   -2.250455495471593e-05
-1.4703404965153674e-05   3.531860877204569e-06   -2.250455495471593e-05
-9.437618765362808e-06   2.8014144679170208e-06   -3.0842597442128214e-05
-9.437618765362808e-06   2.8014144679170208e-06   -3.0842597442128214e-05
-9.437618765362808e-06   2.8014144679170208e-06   -3.0842597442128214e-05
-9.437618765362808e-06   2.8014144679170208e-06   -3.0842597442128214e-05
-4.01156276859621e-06   -2.3988715372846425e-06   -3.55532579170687e-05
-4.01156276859621e-06   -2.3988715372846425e-06   -3.55532579170687e-05
-4.01156276859621e-06   -2.3988715372846425e-06   -3.55532579170687e-05
-4.01156276859621e-06   -2.3988715372846425e-06   -3.55532579170687e-05
6.5136198616192104e-06   -1.1029633944237022e-06   -1.7233741980993156e-05
6.5136198616192104e-06   -1.1029633944237022e-06   -1.7233741980993156e-05
6.5136198616192104e-06   -1.1029633944237022e-06   -1.7233741980993156e-05
6.5136198616192104e-06   -1.1029633944237022e-06   -1.7233741980993156e-05
6.599460776302864e-06   -1.3274097255916938e-06   -3.4743079414854686e-05
6.599460776302864e-06   -1.3274097255916938e-06   -3.4743079414854686e-05
6.599460776302864e-06   -1.3274097255916938e-06   -3.4743079414854686e-05
6.599460776302864e-06   -1.3274097255916938e-06   -3.4743079414854686e-05
-4.019362172255453e-06   -1.0414330868047193e-07   -1.7779001017404145e-05
-4.019362172255453e-06   -1.0414330868047193e-07   -1.7779001017404145e-05
-4.019362172255453e-06   -1.0414330868047193e-07   -1.7779001017404145e-05
-4.019362172255453e-06   -1.0414330868047193e-07   -1.7779001017404145e-05
1.2770863462987987e-06   -1.1411511641638904e-06   -2.5984210501704582e-05
1.2770863462987987e-06   -1.1411511641638904e-06   -2.5984210501704582e-05
1.2770863462987987e-06   -1.1411511641638904e-06   -2.5984210501704582e-05
1.2770863462987987e-06   -1.1411511641638904e-06   -2.5984210501704582e-05
-4.01936217225546e-06   -1.3274097255916938e-06   -3.5477039265001365e-05
-4.01936217225546e-06   -1.3274097255916938e-06   -3.5477039265001365e-05
-4.01936217225546e-06   -1.3274097255916938e-06   -3.5477039265001365e-05
-4.01936217225546e-06   -1.3274097255916938e-06   -3.5477039265001365e-05
6.5994607763028915e-06   -1.0414330868047193e-07   -1.704504116725752e-05
6.5994607763028915e-06   -1.0414330868047193e-07   -1.704504116725752e-05
6.5994607763028915e-06   -1.0414330868047193e-07   -1.704504116725752e-05
6.5994607763028915e-06   -1.0414330868047193e-07   -1.704504116725752e-05
6.802456706307057e-06   -2.749482433744778e-07   -3.5472813012304874e-05
6.802456706307057e-06   -2.749482433744778e-07   -3.5472813012304874e-05
6.802456706307057e-06   -2.749482433744778e-07   -3.5472813012304874e-05
6.802456706307057e-06   -2.749482433744778e-07   -3.5472813012304874e-05
-4.00540381345428e-06   8.563597728079332e-07   -1.8138496955745335e-05
-4.00540381345428e-06   8.563597728079332e-07   -1.8138496955745335e-05
-4.00540381345428e-06   8.563597728079332e-07   -1.8138496955745335e-05
-4.00540381345428e-06   8.563597728079332e-07   -1.8138496955745335e-05
1.2160439191566177e-06   -3.1014780759933266e-07   -2.6141005295185845e-05
1.2160439191566177e-06   -3.1014780759933266e-07   -2.6141005295185845e-05
1.2160439191566177e-06   -3.1014780759933266e-07   -2.6141005295185845e-05
1.2160439191566177e-06   -3.1014780759933266e-07   -2.6141005295185845e-05
-4.005403813454287e-06   -2.749482433744778e-07   -3.615159782201418e-05
-4.005403813454287e-06   -2.749482433744778e-07   -3.615159782201418e-05
-4.005403813454287e-06   -2.749482433744778e-07   -3.615159782201418e-05
-4.005403813454287e-06   -2.749482433744778e-07   -3.615159782201418e-05
6.802456706307057e-06   8.563597728078248e-07   -1.7459712146035823e-05
6.802456706307057e-06   8.563597728078248e-07   -1.7459712146035823e-05
6.802456706307057e-06   8.563597728078248e-07   -1.7459712146035823e-05
6.802456706307057e-06   8.563597728078248e-07   -1.7459712146035823e-05
6.901980308449048e-06   9.55212303667993e-07   -3.651842741055544e-05
6.901980308449048e-06   9.55212303667993e-07   -3.651842741055544e-05
6.901980308449048e-06   9.55212303667993e-07   -3.651842741055544e-05
6.901980308449048e-06   9.55212303667993e-07   -3.651842741055544e-05
-4.011749798852729e-06   1.9567867262457878e-06   -1.8929821885265785e-05
-4.011749798852729e-06   1.9567867262457878e-06   -1.8929821885265785e-05
-4.011749798852729e-06   1.9567867262457878e-06   -1.8929821885265785e-05
-4.011749798852729e-06   1.9567867262457878e-06   -1.8929821885265785e-05
1.252506054750453e-06   5.782801306594395e-07   -2.6876477683919307e-05
1.252506054750453e-06   5.782801306594395e-07   -2.6876477683919307e-05
1.252506054750453e-06   5.782801306594395e-07   -2.6876477683919307e-05
1.252506054750453e-06   5.782801306594395e-07   -2.6876477683919307e-05
6.513619861619197e-06   -4.347846621528448e-06   -1.9527502939082394e-05
6.513619861619197e-06   -4.347846621528448e-06   -1.9527502939082394e-05
6.513619861619197e-06   -4.347846621528448e-06   -1.9527502939082394e-05
6.513619861619197e-06   -4.347846621528448e-06   -1.9527502939082394e-05
1.5851278065122815e-05   -2.0243154127047363e-06   -2.570620541282229e-06
1.5851278065122815e-05   -2.0243154127047363e-06   -2.570620541282229e-06
1.5851278065122815e-05   -2.0243154127047363e-06   -2.570620541282229e-06
1.5851278065122815e-05   -2.0243154127047363e-06   -2.570620541282229e-06
1.6963998382072456e-05   -3.7296879364344935e-06   -2.0496880804966996e-05
1.6963998382072456e-05   -3.7296879364344935e-06   -2.0496880804966996e-05
1.6963998382072456e-05   -3.7296879364344935e-06   -2.0496880804966996e-05
1.6963998382072456e-05   -3.7296879364344935e-06   -2.0496880804966996e-05
6.599460776302864e-06   -1.347238599709935e-06   -4.652121064052455e-06
6.599460776302864e-06   -1.347238599709935e-06   -4.652121064052455e-06
6.599460776302864e-06   -1.347238599709935e-06   -4.652121064052455e-06
6.599460776302864e-06   -1.347238599709935e-06   -4.652121064052455e-06
1.099250213896625e-05   -2.773507214775384e-06   -1.1118095499452175e-05
1.099250213896625e-05   -2.773507214775384e-06   -1.1118095499452175e-05
1.099250213896625e-05   -2.773507214775384e-06   -1.1118095499452175e-05
1.099250213896625e-05   -2.773507214775384e-06   -1.1118095499452175e-05
6.599460776302864e-06   -3.7296879364344935e-06   -2.1926350407001666e-05
6.599460776302864e-06   -3.7296879364344935e-06   -2.1926350407001666e-05
6.599460776302864e-06   -3.7296879364344935e-06   -2.1926350407001666e-05
6.599460776302864e-06   -3.7296879364344935e-06   -2.1926350407001666e-05
1.6963998382072456e-05   -1.347238599709935e-06   -3.2226514620176767e-06
1.6963998382072456e-05   -1.347238599709935e-06   -3.2226514620176767e-06
1.6963998382072456e-05   -1.347238599709935e-06   -3.2226514620176767e-06
1.6963998382072456e-05   -1.347238599709935e-06   -3.2226514620176767e-06
1.7820935991820958e-05   -3.200364620937904e-06   -2.2474143884529076e-05
1.7820935991820958e-05   -3.200364620937904e-06   -2.2474143884529076e-05
1.7820935991820958e-05   -3.200364620937904e-06   -2.2474143884529076e-05
1.7820935991820958e-05   -3.200364620937904e-06   -2.2474143884529076e-05
6.802456706307057e-06   -8.803003954132747e-07   -5.502050277320612e-06
6.802456706307057e-06   -8.803003954132747e-07   -5.502050277320612e-06
6.802456706307057e-06   -8.803003954132747e-07   -5.502050277320612e-06
6.802456706307057e-06   -8.803003954132747e-07   -5.502050277320612e-06
1.1671665511575079e-05   -2.425596197495742e-06   -1.2690220804851212e-05
1.1671665511575079e-05   -2.425596197495742e-06   -1.2690220804851212e-05
1.1671665511575079e-05   -2.425596197495742e-06   -1.2690220804851212e-05
1.1671665511575079e-05   -2.425596197495742e-06   -1.2690220804851212e-05
6.802456706307057e-06   -3.200364620937904e-06   -2.3866182419843924e-05
6.802456706307057e-06   -3.200364620937904e-06   -2.3866182419843924e-05
6.802456706307057e-06   -3.200364620937904e-06   -2.3866182419843924e-05
6.802456706307057e-06   -3.200364620937904e-06   -2.3866182419843924e-05
1.7820935991820958e-05   -8.803003954132747e-07   -4.110011742005791e-06
1.7820935991820958e-05   -8.803003954132747e-07   -4.110011742005791e-06
1.7820935991820958e-05   -8.803003954132747e-07   -4.110011742005791e-06
1.7820935991820958e-05   -8.803003954132747e-07   -4.110011742005791e-06
1.8960410648189547e-05   -2.0703281485088664e-06   -2.6268649007131863e-05
1.8960410648189547e-05   -2.0703281485088664e-06   -2.6268649007131863e-05
1.8960410648189547e-05   -2.0703281485088664e-06   -2.6268649007131863e-05
1.8960410648189547e-05   -2.0703281485088664e-06   -2.6268649007131863e-05
6.901980308449048e-06   3.669430704287321e-08   -7.435478580895155e-06
6.901980308449048e-06   3.669430704287321e-08   -7.435478580895155e-06
6.901980308449048e-06   3.669430704287321e-08   -7.435478580895155e-06
6.901980308449048e-06   3.669430704287321e-08   -7.435478580895155e-06
1.1899331785790942e-05   -1.909341064526012e-06   -1.4596776486857174e-05
1.1899331785790942e-05   -1.909341064526012e-06   -1.4596776486857174e-05
1.1899331785790942e-05   -1.909341064526012e-06   -1.4596776486857174e-05
1.1899331785790942e-05   -1.909341064526012e-06   -1.4596776486857174e-05
-2.2657656065810955e-05   3.6520757033539977e-06   -2.1251571457886047e-05
-2.2657656065810955e-05   3.6520757033539977e-06   -2.1251571457886047e-05
-2.2657656065810955e-05   3.6520757033539977e-06   -2.1251571457886047e-05
-2.2657656065810955e-05   3.6520757033539977e-06   -2.1251571457886047e-05
-1.674642571904028e-05   1.485221473619138e-06   -1.2699633417775853e-05
-1.674642571904028e-05   1.485221473619138e-06   -1.2699633417775853e-05
-1.674642571904028e-05   1.485221473619138e-06   -1.2699633417775853e-05
-1.674642571904028e-05   1.485221473619138e-06   -1.2699633417775853e-05
-1.6501035239427407e-05   4.650013582768405e-06   -1.8747833443682723e-05
-1.6501035239427407e-05   4.650013582768405e-06   -1.8747833443682723e-05
-1.6501035239427407e-05   4.650013582768405e-06   -1.8747833443682723e-05
-1.6501035239427407e-05   4.650013582768405e-06   -1.8747833443682723e-05
-2.1424470162125626e-05   2.315019162762652e-06   -9.141111920515335e-06
-2.1424470162125626e-05   2.315019162762652e-06   -9.141111920515335e-06
-2.1424470162125626e-05   2.315019162762652e-06   -9.141111920515335e-06
-2.1424470162125626e-05   2.315019162762652e-06   -9.141111920515335e-06
-1.851337635360879e-05   3.2764671576455484e-06   -1.456980373164072e-05
-1.851337635360879e-05   3.2764671576455484e-06   -1.456980373164072e-05
-1.851337635360879e-05   3.2764671576455484e-06   -1.456980373164072e-05
-1.851337635360879e-05   3.2764671576455484e-06   -1.456980373164072e-05
-2.1424470162125626e-05   4.650013582768405e-06   -1.7346836791679276e-05
-2.1424470162125626e-05   4.650013582768405e-06   -1.7346836791679276e-05
-2.1424470162125626e-05   4.650013582768405e-06   -1.7346836791679276e-05
-2.1424470162125626e-05   4.650013582768405e-06   -1.7346836791679276e-05
-1.6501035239427435e-05   2.315019162762652e-06   -1.0542108572518917e-05
-1.6501035239427435e-05   2.315019162762652e-06   -1.0542108572518917e-05
-1.6501035239427435e-05   2.315019162762652e-06   -1.0542108572518917e-05
-1.6501035239427435e-05   2.315019162762652e-06   -1.0542108572518917e-05
-1.6150524160994298e-05   5.115386373706989e-06   -1.674041269174233e-05
-1.6150524160994298e-05   5.115386373706989e-06   -1.674041269174233e-05
-1.6150524160994298e-05   5.115386373706989e-06   -1.674041269174233e-05
-1.6150524160994298e-05   5.115386373706989e-06   -1.674041269174233e-05
-2.0441624334314638e-05   2.734797588706565e-06   -8.160225798541543e-06
-2.0441624334314638e-05   2.734797588706565e-06   -8.160225798541543e-06
-2.0441624334314638e-05   2.734797588706565e-06   -8.160225798541543e-06
-2.0441624334314638e-05   2.734797588706565e-06   -8.160225798541543e-06
-1.8188593628153398e-05   3.7244324687224343e-06   -1.2509057903486434e-05
-1.8188593628153398e-05   3.7244324687224343e-06   -1.2509057903486434e-05
-1.8188593628153398e-05   3.7244324687224343e-06   -1.2509057903486434e-05
-1.8188593628153398e-05   3.7244324687224343e-06   -1.2509057903486434e-05
-2.044162433431461e-05   5.115386373706989e-06   -1.5312059420742163e-05
-2.044162433431461e-05   5.115386373706989e-06   -1.5312059420742163e-05
-2.044162433431461e-05   5.115386373706989e-06   -1.5312059420742163e-05
-2.044162433431461e-05   5.115386373706989e-06   -1.5312059420742163e-05
-1.6150524160994298e-05   2.734797588706565e-06   -9.588579069541684e-06
-1.6150524160994298e-05   2.734797588706565e-06   -9.588579069541684e-06
-1.6150524160994298e-05   2.734797588706565e-06   -9.588579069541684e-06
-1.6150524160994298e-05   2.734797588706565e-06   -9.588579069541684e-06
-1.5912464668024957e-05   5.7012113570118535e-06   -1.4166291237429382e-05
-1.5912464668024957e-05   5.7012113570118535e-06   -1.4166291237429382e-05
-1.5912464668024957e-05   5.7012113570118535e-06   -1.4166291237429382e-05
-1.5912464668024957e-05   5.7012113570118535e-06   -1.4166291237429382e-05
-1.9190311919654342e-05   3.4000028938313076e-06   -7.3224874068055445e-06
-1.9190311919654342e-05   3.4000028938313076e-06   -7.3224874068055445e-06
-1.9190311919654342e-05   3.4000028938313076e-06   -7.3224874068055445e-06
-1.9190311919654342e-05   3.4000028938313076e-06   -7.3224874068055445e-06
-1.7339224243057016e-05   4.03582719002882e-06   -1.078912811218626e-05
-1.7339224243057016e-05   4.03582719002882e-06   -1.078912811218626e-05
-1.7339224243057016e-05   4.03582719002882e-06   -1.078912811218626e-05
-1.7339224243057016e-05   4.03582719002882e-06   -1.078912811218626e-05
-1.674642571904028e-05   1.8899969625819696e-06   -3.100267228906505e-05
-1.674642571904028e-05   1.8899969625819696e-06   -3.100267228906505e-05
-1.674642571904028e-05   1.8899969625819696e-06   -3.100267228906505e-05
-1.674642571904028e-05   1.8899969625819696e-06   -3.100267228906505e-05
-1.1941431565353359e-05   8.555123955321636e-07   -2.3615039439816698e-05
-1.1941431565353359e-05   8.555123955321636e-07   -2.3615039439816698e-05
-1.1941431565353359e-05   8.555123955321636e-07   -2.3615039439816698e-05
-1.1941431565353359e-05   8.555123955321636e-07   -2.3615039439816698e-05
-1.1781393085528226e-05   2.9438283410361055e-06   -3.0899925614812584e-05
-1.1781393085528226e-05   2.9438283410361055e-06   -3.0899925614812584e-05
-1.1781393085528226e-05   2.9438283410361055e-06   -3.0899925614812584e-05
-1.1781393085528226e-05   2.9438283410361055e-06   -3.0899925614812584e-05
-1.6501035239427435e-05   1.8072902037136445e-06   -2.2351932475920308e-05
-1.6501035239427435e-05   1.8072902037136445e-06   -2.2351932475920308e-05
-1.6501035239427435e-05   1.8072902037136445e-06   -2.2351932475920308e-05
-1.6501035239427435e-05   1.8072902037136445e-06   -2.2351932475920308e-05
-1.4103694401893324e-05   2.0574932125995296e-06   -2.6497622343809354e-05
-1.4103694401893324e-05   2.0574932125995296e-06   -2.6497622343809354e-05
-1.4103694401893324e-05   2.0574932125995296e-06   -2.6497622343809354e-05
-1.4103694401893324e-05   2.0574932125995296e-06   -2.6497622343809354e-05
-1.6501035239427407e-05   2.9438283410361055e-06   -3.0218002732418934e-05
-1.6501035239427407e-05   2.9438283410361055e-06   -3.0218002732418934e-05
-1.6501035239427407e-05   2.9438283410361055e-06   -3.0218002732418934e-05
-1.6501035239427407e-05   2.9438283410361055e-06   -3.0218002732418934e-05
-1.1781393085528254e-05   1.8072902037136445e-06   -2.303385535831385e-05
-1.1781393085528254e-05   1.8072902037136445e-06   -2.303385535831385e-05
-1.1781393085528254e-05   1.8072902037136445e-06   -2.303385535831385e-05
-1.1781393085528254e-05   1.8072902037136445e-06   -2.303385535831385e-05
-1.1604558480266366e-05   3.903151707242885e-06   -3.040022203562988e-05
-1.1604558480266366e-05   3.903151707242885e-06   -3.040022203562988e-05
-1.1604558480266366e-05   3.903151707242885e-06   -3.040022203562988e-05
-1.1604558480266366e-05   3.903151707242885e-06   -3.040022203562988e-05
-1.6150524160994325e-05   2.6927331690543245e-06   -2.2097361444836682e-05
-1.6150524160994325e-05   2.6927331690543245e-06   -2.2097361444836682e-05
-1.6150524160994325e-05   2.6927331690543245e-06   -2.2097361444836682e-05
-1.6150524160994325e-05   2.6927331690543245e-06   -2.2097361444836682e-05
-1.389291000611172e-05   2.8275104555328286e-06   -2.5940918074861318e-05
-1.389291000611172e-05   2.8275104555328286e-06   -2.5940918074861318e-05
-1.389291000611172e-05   2.8275104555328286e-06   -2.5940918074861318e-05
-1.389291000611172e-05   2.8275104555328286e-06   -2.5940918074861318e-05
-1.6150524160994298e-05   3.903151707242885e-06   -2.967397091271668e-05
-1.6150524160994298e-05   3.903151707242885e-06   -2.967397091271668e-05
-1.6150524160994298e-05   3.903151707242885e-06   -2.967397091271668e-05
-1.6150524160994298e-05   3.903151707242885e-06   -2.967397091271668e-05
-1.1604558480266366e-05   2.6927331690543245e-06   -2.2823612567749883e-05
-1.1604558480266366e-05   2.6927331690543245e-06   -2.2823612567749883e-05
-1.1604558480266366e-05   2.6927331690543245e-06   -2.2823612567749883e-05
-1.1604558480266366e-05   2.6927331690543245e-06   -2.2823612567749883e-05
-1.1447543588386462e-05   4.9455983818273925e-06   -3.069504899979301e-05
-1.1447543588386462e-05   4.9455983818273925e-06   -3.069504899979301e-05
-1.1447543588386462e-05   4.9455983818273925e-06   -3.069504899979301e-05
-1.1447543588386462e-05   4.9455983818273925e-06   -3.069504899979301e-05
-1.5912464668024984e-05   3.6770423149196877e-06   -2.249238022691732e-05
-1.5912464668024984e-05   3.6770423149196877e-06   -2.249238022691732e-05
-1.5912464668024984e-05   3.6770423149196877e-06   -2.249238022691732e-05
-1.5912464668024984e-05   3.6770423149196877e-06   -2.249238022691732e-05
-1.3811433386950886e-05   3.6079197282508964e-06   -2.5952625476706193e-05
-1.3811433386950886e-05   3.6079197282508964e-06   -2.5952625476706193e-05
-1.3811433386950886e-05   3.6079197282508964e-06   -2.5952625476706193e-05
-1.3811433386950886e-05   3.6079197282508964e-06   -2.5952625476706193e-05
-1.1941431565353318e-05   3.2655182585490487e-07   -3.5062333944362334e-05
-1.1941431565353318e-05   3.2655182585490487e-07   -3.5062333944362334e-05
-1.1941431565353318e-05   3.2655182585490487e-07   -3.5062333944362334e-05
-1.1941431565353318e-05   3.2655182585490487e-07   -3.5062333944362334e-05
-7.2574544610336885e-06   4.921825622719892e-07   -2.715632699531285e-05
-7.2574544610336885e-06   4.921825622719892e-07   -2.715632699531285e-05
-7.2574544610336885e-06   4.921825622719892e-07   -2.715632699531285e-05
-7.2574544610336885e-06   4.921825622719892e-07   -2.715632699531285e-05
-7.101637603068325e-06   1.3865273944358792e-06   -3.4620543670628554e-05
-7.101637603068325e-06   1.3865273944358792e-06   -3.4620543670628554e-05
-7.101637603068325e-06   1.3865273944358792e-06   -3.4620543670628554e-05
-7.101637603068325e-06   1.3865273944358792e-06   -3.4620543670628554e-05
-1.1781393085528226e-05   1.4620784857804093e-06   -2.6866281854668304e-05
-1.1781393085528226e-05   1.4620784857804093e-06   -2.6866281854668304e-05
-1.1781393085528226e-05   1.4620784857804093e-06   -2.6866281854668304e-05
-1.1781393085528226e-05   1.4620784857804093e-06   -2.6866281854668304e-05
-9.459412922486431e-06   1.052138000132998e-06   -3.04902845016837e-05
-9.459412922486431e-06   1.052138000132998e-06   -3.04902845016837e-05
-9.459412922486431e-06   1.052138000132998e-06   -3.04902845016837e-05
-9.459412922486431e-06   1.052138000132998e-06   -3.04902845016837e-05
-1.1781393085528213e-05   1.3865273944359876e-06   -3.4665874325435064e-05
-1.1781393085528213e-05   1.3865273944359876e-06   -3.4665874325435064e-05
-1.1781393085528213e-05   1.3865273944359876e-06   -3.4665874325435064e-05
-1.1781393085528213e-05   1.3865273944359876e-06   -3.4665874325435064e-05
-7.1016376030683116e-06   1.4620784857803009e-06   -2.6820951199861922e-05
-7.1016376030683116e-06   1.4620784857803009e-06   -2.6820951199861922e-05
-7.1016376030683116e-06   1.4620784857803009e-06   -2.6820951199861922e-05
-7.1016376030683116e-06   1.4620784857803009e-06   -2.6820951199861922e-05
-6.926051195118808e-06   2.4498982658209545e-06   -3.471037363198654e-05
-6.926051195118808e-06   2.4498982658209545e-06   -3.471037363198654e-05
-6.926051195118808e-06   2.4498982658209545e-06   -3.471037363198654e-05
-6.926051195118808e-06   2.4498982658209545e-06   -3.471037363198654e-05
-1.1604558480266352e-05   2.440448591097574e-06   -2.6907191685239843e-05
-1.1604558480266352e-05   2.440448591097574e-06   -2.6907191685239843e-05
-1.1604558480266352e-05   2.440448591097574e-06   -2.6907191685239843e-05
-1.1604558480266352e-05   2.440448591097574e-06   -2.6907191685239843e-05
-9.355395210858364e-06   1.8857774928212907e-06   -3.0322994475287437e-05
-9.355395210858364e-06   1.8857774928212907e-06   -3.0322994475287437e-05
-9.355395210858364e-06   1.8857774928212907e-06   -3.0322994475287437e-05
-9.355395210858364e-06   1.8857774928212907e-06   -3.0322994475287437e-05
-1.1604558480266338e-05   2.4498982658209545e-06   -3.470470382715244e-05
-1.1604558480266338e-05   2.4498982658209545e-06   -3.470470382715244e-05
-1.1604558480266338e-05   2.4498982658209545e-06   -3.470470382715244e-05
-1.1604558480266338e-05   2.4498982658209545e-06   -3.470470382715244e-05
-6.926051195118795e-06   2.440448591097574e-06   -2.6912861490073806e-05
-6.926051195118795e-06   2.440448591097574e-06   -2.6912861490073806e-05
-6.926051195118795e-06   2.440448591097574e-06   -2.6912861490073806e-05
-6.926051195118795e-06   2.440448591097574e-06   -2.6912861490073806e-05
-6.768381117821303e-06   3.5318608772044605e-06   -3.529453085227474e-05
-6.768381117821303e-06   3.5318608772044605e-06   -3.529453085227474e-05
-6.768381117821303e-06   3.5318608772044605e-06   -3.529453085227474e-05
-6.768381117821303e-06   3.5318608772044605e-06   -3.529453085227474e-05
-1.144754358838649e-05   3.433610018929744e-06   -2.74369762197012e-05
-1.144754358838649e-05   3.433610018929744e-06   -2.74369762197012e-05
-1.144754358838649e-05   3.433610018929744e-06   -2.74369762197012e-05
-1.144754358838649e-05   3.433610018929744e-06   -2.74369762197012e-05
-9.269684175102656e-06   2.730508095185279e-06   -3.0644880754260946e-05
-9.269684175102656e-06   2.730508095185279e-06   -3.0644880754260946e-05
-9.269684175102656e-06   2.730508095185279e-06   -3.0644880754260946e-05
-9.269684175102656e-06   2.730508095185279e-06   -3.0644880754260946e-05
-7.257454461033664e-06   -1.1029633944235938e-06   -3.073005137525138e-05
-7.257454461033664e-06   -1.1029633944235938e-06   -3.073005137525138e-05
-7.257454461033664e-06   -1.1029633944235938e-06   -3.073005137525138e-05
-7.257454461033664e-06   -1.1029633944235938e-06   -3.073005137525138e-05
-2.718335102106203e-06   2.1375041834290932e-07   -2.2374824156045844e-05
-2.718335102106203e-06   2.1375041834290932e-07   -2.2374824156045844e-05
-2.718335102106203e-06   2.1375041834290932e-07   -2.2374824156045844e-05
-2.718335102106203e-06   2.1375041834290932e-07   -2.2374824156045844e-05
-2.484848633714596e-06   -1.0414330868047193e-07   -2.974018690678063e-05
-2.484848633714596e-06   -1.0414330868047193e-07   -2.974018690678063e-05
-2.484848633714596e-06   -1.0414330868047193e-07   -2.974018690678063e-05
-2.484848633714596e-06   -1.0414330868047193e-07   -2.974018690678063e-05
-7.1016376030683116e-06   1.1536341973398742e-06   -2.2800205128136277e-05
-7.1016376030683116e-06   1.1536341973398742e-06   -2.2800205128136277e-05
-7.1016376030683116e-06   1.1536341973398742e-06   -2.2800205128136277e-05
-7.1016376030683116e-06   1.1536341973398742e-06   -2.2800205128136277e-05
-4.841194045757208e-06   1.3811842323714976e-07   -2.5958301592527046e-05
-4.841194045757208e-06   1.3811842323714976e-07   -2.5958301592527046e-05
-4.841194045757208e-06   1.3811842323714976e-07   -2.5958301592527046e-05
-4.841194045757208e-06   1.3811842323714976e-07   -2.5958301592527046e-05
-7.1016376030683e-06   -1.0414330868047193e-07   -3.0494853410392697e-05
-7.1016376030683e-06   -1.0414330868047193e-07   -3.0494853410392697e-05
-7.1016376030683e-06   -1.0414330868047193e-07   -3.0494853410392697e-05
-7.1016376030683e-06   -1.0414330868047193e-07   -3.0494853410392697e-05
-2.484848633714596e-06   1.1536341973397658e-06   -2.2045538624524373e-05
-2.484848633714596e-06   1.1536341973397658e-06   -2.2045538624524373e-05
-2.484848633714596e-06   1.1536341973397658e-06   -2.2045538624524373e-05
-2.484848633714596e-06   1.1536341973397658e-06   -2.2045538624524373e-05
-2.13709206286861e-06   8.563597728079332e-07   -3.0139496542907584e-05
-2.13709206286861e-06   8.563597728079332e-07   -3.0139496542907584e-05
-2.13709206286861e-06   8.563597728079332e-07   -3.0139496542907584e-05
-2.13709206286861e-06   8.563597728079332e-07   -3.0139496542907584e-05
-6.926051195118795e-06   2.0389572193954325e-06   -2.2867456457109723e-05
-6.926051195118795e-06   2.0389572193954325e-06   -2.2867456457109723e-05
-6.926051195118795e-06   2.0389572193954325e-06   -2.2867456457109723e-05
-6.926051195118795e-06   2.0389572193954325e-06   -2.2867456457109723e-05
-4.700349395236131e-06   8.971960723781975e-07   -2.5891902768703868e-05
-4.700349395236131e-06   8.971960723781975e-07   -2.5891902768703868e-05
-4.700349395236131e-06   8.971960723781975e-07   -2.5891902768703868e-05
-4.700349395236131e-06   8.971960723781975e-07   -2.5891902768703868e-05
-6.926051195118783e-06   8.563597728078248e-07   -3.0849055010860046e-05
-6.926051195118783e-06   8.563597728078248e-07   -3.0849055010860046e-05
-6.926051195118783e-06   8.563597728078248e-07   -3.0849055010860046e-05
-6.926051195118783e-06   8.563597728078248e-07   -3.0849055010860046e-05
-2.13709206286861e-06   2.0389572193954325e-06   -2.215789798915718e-05
-2.13709206286861e-06   2.0389572193954325e-06   -2.215789798915718e-05
-2.13709206286861e-06   2.0389572193954325e-06   -2.215789798915718e-05
-2.13709206286861e-06   2.0389572193954325e-06   -2.215789798915718e-05
-1.894474959162121e-06   1.9567867262457878e-06   -3.098233541444994e-05
-1.894474959162121e-06   1.9567867262457878e-06   -3.098233541444994e-05
-1.894474959162121e-06   1.9567867262457878e-06   -3.098233541444994e-05
-1.894474959162121e-06   1.9567867262457878e-06   -3.098233541444994e-05
-6.768381117821303e-06   3.0395426591757696e-06   -2.3508812043109234e-05
-6.768381117821303e-06   3.0395426591757696e-06   -2.3508812043109234e-05
-6.768381117821303e-06   3.0395426591757696e-06   -2.3508812043109234e-05
-6.768381117821303e-06   3.0395426591757696e-06   -2.3508812043109234e-05
-4.5531104761171616e-06   1.692304577026113e-06   -2.639258692999308e-05
-4.5531104761171616e-06   1.692304577026113e-06   -2.639258692999308e-05
-4.5531104761171616e-06   1.692304577026113e-06   -2.639258692999308e-05
-4.5531104761171616e-06   1.692304577026113e-06   -2.639258692999308e-05
-2.718335102106176e-06   -2.0243154127047363e-06   -1.6671020373174722e-05
-2.718335102106176e-06   -2.0243154127047363e-06   -1.6671020373174722e-05
-2.718335102106176e-06   -2.0243154127047363e-06   -1.6671020373174722e-05
-2.718335102106176e-06   -2.0243154127047363e-06   -1.6671020373174722e-05
6.250994997053516e-07   3.00169880910724e-07   -9.703938193986162e-06
6.250994997053516e-07   3.00169880910724e-07   -9.703938193986162e-06
6.250994997053516e-07   3.00169880910724e-07   -9.703938193986162e-06
6.250994997053516e-07   3.00169880910724e-07   -9.703938193986162e-06
1.8641990861779575e-06   -1.347238599709935e-06   -1.5912813988990448e-05
1.8641990861779575e-06   -1.347238599709935e-06   -1.5912813988990448e-05
1.8641990861779575e-06   -1.347238599709935e-06   -1.5912813988990448e-05
1.8641990861779575e-06   -1.347238599709935e-06   -1.5912813988990448e-05
-2.484848633714596e-06   1.043516091265152e-06   -1.0098853937087705e-05
-2.484848633714596e-06   1.043516091265152e-06   -1.0098853937087705e-05
-2.484848633714596e-06   1.043516091265152e-06   -1.0098853937087705e-05
-2.484848633714596e-06   1.043516091265152e-06   -1.0098853937087705e-05
-6.599352897107189e-07   -4.0708479231380684e-07   -1.2270015646947133e-05
-6.599352897107189e-07   -4.0708479231380684e-07   -1.2270015646947133e-05
-6.599352897107189e-07   -4.0708479231380684e-07   -1.2270015646947133e-05
-6.599352897107189e-07   -4.0708479231380684e-07   -1.2270015646947133e-05
-2.4848486337145824e-06   -1.347238599709935e-06   -1.7347266803575403e-05
-2.4848486337145824e-06   -1.347238599709935e-06   -1.7347266803575403e-05
-2.4848486337145824e-06   -1.347238599709935e-06   -1.7347266803575403e-05
-2.4848486337145824e-06   -1.347238599709935e-06   -1.7347266803575403e-05
1.8641990861779575e-06   1.043516091265152e-06   -8.664401122502642e-06
1.8641990861779575e-06   1.043516091265152e-06   -8.664401122502642e-06
1.8641990861779575e-06   1.043516091265152e-06   -8.664401122502642e-06
1.8641990861779575e-06   1.043516091265152e-06   -8.664401122502642e-06
2.84275234037042e-06   -8.803003954132747e-07   -1.6776855214352328e-05
2.84275234037042e-06   -8.803003954132747e-07   -1.6776855214352328e-05
2.84275234037042e-06   -8.803003954132747e-07   -1.6776855214352328e-05
2.84275234037042e-06   -8.803003954132747e-07   -1.6776855214352328e-05
-2.13709206286861e-06   1.4613320376532504e-06   -9.882094002127112e-06
-2.13709206286861e-06   1.4613320376532504e-06   -9.882094002127112e-06
-2.13709206286861e-06   1.4613320376532504e-06   -9.882094002127112e-06
-2.13709206286861e-06   1.4613320376532504e-06   -9.882094002127112e-06
-3.261017928677919e-08   -5.075419372399439e-08   -1.248231206927051e-05
-3.261017928677919e-08   -5.075419372399439e-08   -1.248231206927051e-05
-3.261017928677919e-08   -5.075419372399439e-08   -1.248231206927051e-05
-3.261017928677919e-08   -5.075419372399439e-08   -1.248231206927051e-05
-2.13709206286861e-06   -8.803003954132747e-07   -1.8181834674192265e-05
-2.13709206286861e-06   -8.803003954132747e-07   -1.8181834674192265e-05
-2.13709206286861e-06   -8.803003954132747e-07   -1.8181834674192265e-05
-2.13709206286861e-06   -8.803003954132747e-07   -1.8181834674192265e-05
2.8427523403703927e-06   1.4613320376532504e-06   -8.47711454228712e-06
2.8427523403703927e-06   1.4613320376532504e-06   -8.47711454228712e-06
2.8427523403703927e-06   1.4613320376532504e-06   -8.47711454228712e-06
2.8427523403703927e-06   1.4613320376532504e-06   -8.47711454228712e-06
4.0784903258927595e-06   3.669430704287321e-08   -1.879026161796132e-05
4.0784903258927595e-06   3.669430704287321e-08   -1.879026161796132e-05
4.0784903258927595e-06   3.669430704287321e-08   -1.879026161796132e-05
4.0784903258927595e-06   3.669430704287321e-08   -1.879026161796132e-05
-1.894474959162121e-06   2.2011528831510866e-06   -1.0133994621867892e-05
-1.894474959162121e-06   2.2011528831510866e-06   -1.0133994621867892e-05
-1.894474959162121e-06   2.2011528831510866e-06   -1.0133994621867892e-05
-1.894474959162121e-06   2.2011528831510866e-06   -1.0133994621867892e-05
5.085727671679799e-07   3.5485884807435466e-07   -1.303129774470559e-05
5.085727671679799e-07   3.5485884807435466e-07   -1.303129774470559e-05
5.085727671679799e-07   3.5485884807435466e-07   -1.303129774470559e-05
5.085727671679799e-07   3.5485884807435466e-07   -1.303129774470559e-05
-7.864158554290145e-06   1.485221473619138e-06   -1.4142928335638533e-05
-7.864158554290145e-06   1.485221473619138e-06   -1.4142928335638533e-05
-7.864158554290145e-06   1.485221473619138e-06   -1.4142928335638533e-05
-7.864158554290145e-06   1.485221473619138e-06   -1.4142928335638533e-05
-7.998103743534732e-06   -6.950650458398006e-07   -1.56743422293883e-05
-7.998103743534732e-06   -6.950650458398006e-07   -1.56743422293883e-05
-7.998103743534732e-06   -6.950650458398006e-07   -1.56743422293883e-05
-7.998103743534732e-06   -6.950650458398006e-07   -1.56743422293883e-05
-7.59913584006487e-06   2.315019162762652e-06   -1.3289005529330562e-05
-7.59913584006487e-06   2.315019162762652e-06   -1.3289005529330562e-05
-7.59913584006487e-06   2.315019162762652e-06   -1.3289005529330562e-05
-7.59913584006487e-06   2.315019162762652e-06   -1.3289005529330562e-05
-6.485345444784407e-06   -2.4346520990665282e-08   -1.374170344454616e-05
-6.485345444784407e-06   -2.4346520990665282e-08   -1.374170344454616e-05
-6.485345444784407e-06   -2.4346520990665282e-08   -1.374170344454616e-05
-6.485345444784407e-06   -2.4346520990665282e-08   -1.374170344454616e-05
-7.159575610203291e-06   1.0226349151851969e-06   -1.324617536388738e-05
-7.159575610203291e-06   1.0226349151851969e-06   -1.324617536388738e-05
-7.159575610203291e-06   1.0226349151851969e-06   -1.324617536388738e-05
-7.159575610203291e-06   1.0226349151851969e-06   -1.324617536388738e-05
-6.485345444784353e-06   2.315019162762652e-06   -1.1885386119078604e-05
-6.485345444784353e-06   2.315019162762652e-06   -1.1885386119078604e-05
-6.485345444784353e-06   2.315019162762652e-06   -1.1885386119078604e-05
-6.485345444784353e-06   2.315019162762652e-06   -1.1885386119078604e-05
-7.59913584006487e-06   -2.4346520990665282e-08   -1.5145322854798172e-05
-7.59913584006487e-06   -2.4346520990665282e-08   -1.5145322854798172e-05
-7.59913584006487e-06   -2.4346520990665282e-08   -1.5145322854798172e-05
-7.59913584006487e-06   -2.4346520990665282e-08   -1.5145322854798172e-05
-7.095519414541338e-06   2.7347975887066734e-06   -1.2332036173305335e-05
-7.095519414541338e-06   2.7347975887066734e-06   -1.2332036173305335e-05
-7.095519414541338e-06   2.7347975887066734e-06   -1.2332036173305335e-05
-7.095519414541338e-06   2.7347975887066734e-06   -1.2332036173305335e-05
-5.346095735520408e-06   3.556725823678983e-07   -1.382026730120374e-05
-5.346095735520408e-06   3.556725823678983e-07   -1.382026730120374e-05
-5.346095735520408e-06   3.556725823678983e-07   -1.382026730120374e-05
-5.346095735520408e-06   3.556725823678983e-07   -1.382026730120374e-05
-6.507696270945248e-06   1.3673217785518856e-06   -1.2491255926539861e-05
-6.507696270945248e-06   1.3673217785518856e-06   -1.2491255926539861e-05
-6.507696270945248e-06   1.3673217785518856e-06   -1.2491255926539861e-05
-6.507696270945248e-06   1.3673217785518856e-06   -1.2491255926539861e-05
-5.346095735520354e-06   2.7347975887066734e-06   -1.0904561169502037e-05
-5.346095735520354e-06   2.7347975887066734e-06   -1.0904561169502037e-05
-5.346095735520354e-06   2.7347975887066734e-06   -1.0904561169502037e-05
-5.346095735520354e-06   2.7347975887066734e-06   -1.0904561169502037e-05
-7.0955194145413654e-06   3.556725823678983e-07   -1.524774230500693e-05
-7.0955194145413654e-06   3.556725823678983e-07   -1.524774230500693e-05
-7.0955194145413654e-06   3.556725823678983e-07   -1.524774230500693e-05
-7.0955194145413654e-06   3.556725823678983e-07   -1.524774230500693e-05
-6.703509935075387e-06   3.4000028938313076e-06   -1.1443377367740442e-05
-6.703509935075387e-06   3.4000028938313076e-06   -1.1443377367740442e-05
-6.703509935075387e-06   3.4000028938313076e-06   -1.1443377367740442e-05
-6.703509935075387e-06   3.4000028938313076e-06   -1.1443377367740442e-05
-3.939486952085213e-06   1.1133867770718106e-06   -1.4678112669335081e-05
-3.939486952085213e-06   1.1133867770718106e-06   -1.4678112669335081e-05
-3.939486952085213e-06   1.1133867770718106e-06   -1.4678112669335081e-05
-3.939486952085213e-06   1.1133867770718106e-06   -1.4678112669335081e-05
-5.69360903803054e-06   1.6984039725505165e-06   -1.2105586176712848e-05
-5.69360903803054e-06   1.6984039725505165e-06   -1.2105586176712848e-05
-5.69360903803054e-06   1.6984039725505165e-06   -1.2105586176712848e-05
-5.69360903803054e-06   1.6984039725505165e-06   -1.2105586176712848e-05
-7.998103743534732e-06   8.55512395532272e-07   -2.574581552912484e-05
-7.998103743534732e-06   8.55512395532272e-07   -2.574581552912484e-05
-7.998103743534732e-06   8.55512395532272e-07   -2.574581552912484e-05
-7.998103743534732e-06   8.55512395532272e-07   -2.574581552912484e-05
-9.237319285648491e-06   -1.4860071194042201e-07   -2.8413642630464875e-05
-9.237319285648491e-06   -1.4860071194042201e-07   -2.8413642630464875e-05
-9.237319285648491e-06   -1.4860071194042201e-07   -2.8413642630464875e-05
-9.237319285648491e-06   -1.4860071194042201e-07   -2.8413642630464875e-05
-8.915600680467936e-06   1.8072902037136445e-06   -2.5764362666829245e-05
-8.915600680467936e-06   1.8072902037136445e-06   -2.5764362666829245e-05
-8.915600680467936e-06   1.8072902037136445e-06   -2.5764362666829245e-05
-8.915600680467936e-06   1.8072902037136445e-06   -2.5764362666829245e-05
-7.59913584006487e-06   6.980681468854184e-07   -2.7292937500070463e-05
-7.59913584006487e-06   6.980681468854184e-07   -2.7292937500070463e-05
-7.59913584006487e-06   6.980681468854184e-07   -2.7292937500070463e-05
-7.59913584006487e-06   6.980681468854184e-07   -2.7292937500070463e-05
-8.339313211504261e-06   9.894481279326705e-07   -2.623413653630042e-05
-8.339313211504261e-06   9.894481279326705e-07   -2.623413653630042e-05
-8.339313211504261e-06   9.894481279326705e-07   -2.623413653630042e-05
-8.339313211504261e-06   9.894481279326705e-07   -2.623413653630042e-05
-7.599135840064843e-06   1.8072902037136445e-06   -2.509882943273206e-05
-7.599135840064843e-06   1.8072902037136445e-06   -2.509882943273206e-05
-7.599135840064843e-06   1.8072902037136445e-06   -2.509882943273206e-05
-7.599135840064843e-06   1.8072902037136445e-06   -2.509882943273206e-05
-8.915600680467923e-06   6.980681468854184e-07   -2.7958470734167757e-05
-8.915600680467923e-06   6.980681468854184e-07   -2.7958470734167757e-05
-8.915600680467923e-06   6.980681468854184e-07   -2.7958470734167757e-05
-8.915600680467923e-06   6.980681468854184e-07   -2.7958470734167757e-05
-8.580942343225048e-06   2.6927331690543245e-06   -2.5548287315835098e-05
-8.580942343225048e-06   2.6927331690543245e-06   -2.5548287315835098e-05
-8.580942343225048e-06   2.6927331690543245e-06   -2.5548287315835098e-05
-8.580942343225048e-06   2.6927331690543245e-06   -2.5548287315835098e-05
-7.0955194145413654e-06   1.5136185569965006e-06   -2.731652342973965e-05
-7.0955194145413654e-06   1.5136185569965006e-06   -2.731652342973965e-05
-7.0955194145413654e-06   1.5136185569965006e-06   -2.731652342973965e-05
-7.0955194145413654e-06   1.5136185569965006e-06   -2.731652342973965e-05
-8.016990474495376e-06   1.6725506250491167e-06   -2.587609757064802e-05
-8.016990474495376e-06   1.6725506250491167e-06   -2.587609757064802e-05
-8.016990474495376e-06   1.6725506250491167e-06   -2.587609757064802e-05
-8.016990474495376e-06   1.6725506250491167e-06   -2.587609757064802e-05
-7.095519414541338e-06   2.6927331690543245e-06   -2.4840818548600333e-05
-7.095519414541338e-06   2.6927331690543245e-06   -2.4840818548600333e-05
-7.095519414541338e-06   2.6927331690543245e-06   -2.4840818548600333e-05
-7.095519414541338e-06   2.6927331690543245e-06   -2.4840818548600333e-05
-8.58094234322502e-06   1.5136185569965006e-06   -2.8023992196974387e-05
-8.58094234322502e-06   1.5136185569965006e-06   -2.8023992196974387e-05
-8.58094234322502e-06   1.5136185569965006e-06   -2.8023992196974387e-05
-8.58094234322502e-06   1.5136185569965006e-06   -2.8023992196974387e-05
-8.265978181380937e-06   3.6770423149196877e-06   -2.597159202301011e-05
-8.265978181380937e-06   3.6770423149196877e-06   -2.597159202301011e-05
-8.265978181380937e-06   3.6770423149196877e-06   -2.597159202301011e-05
-8.265978181380937e-06   3.6770423149196877e-06   -2.597159202301011e-05
-6.703509935075414e-06   2.4452974598091794e-06   -2.7836658853786465e-05
-6.703509935075414e-06   2.4452974598091794e-06   -2.7836658853786465e-05
-6.703509935075414e-06   2.4452974598091794e-06   -2.7836658853786465e-05
-6.703509935075414e-06   2.4452974598091794e-06   -2.7836658853786465e-05
-7.73367061076641e-06   2.389581548882828e-06   -2.6086294847745158e-05
-7.73367061076641e-06   2.389581548882828e-06   -2.6086294847745158e-05
-7.73367061076641e-06   2.389581548882828e-06   -2.6086294847745158e-05
-7.73367061076641e-06   2.389581548882828e-06   -2.6086294847745158e-05
-9.237319285648464e-06   4.921825622719892e-07   -2.9988949390954814e-05
-9.237319285648464e-06   4.921825622719892e-07   -2.9988949390954814e-05
-9.237319285648464e-06   4.921825622719892e-07   -2.9988949390954814e-05
-9.237319285648464e-06   4.921825622719892e-07   -2.9988949390954814e-05
-1.0539238238452722e-05   7.048604609165201e-07   -3.203120757310862e-05
-1.0539238238452722e-05   7.048604609165201e-07   -3.203120757310862e-05
-1.0539238238452722e-05   7.048604609165201e-07   -3.203120757310862e-05
-1.0539238238452722e-05   7.048604609165201e-07   -3.203120757310862e-05
-1.0223216874911107e-05   1.4620784857803009e-06   -2.952575103138484e-05
-1.0223216874911107e-05   1.4620784857803009e-06   -2.952575103138484e-05
-1.0223216874911107e-05   1.4620784857803009e-06   -2.952575103138484e-05
-1.0223216874911107e-05   1.4620784857803009e-06   -2.952575103138484e-05
-8.915600680467923e-06   1.5804753721120578e-06   -3.177614948725576e-05
-8.915600680467923e-06   1.5804753721120578e-06   -3.177614948725576e-05
-8.915600680467923e-06   1.5804753721120578e-06   -3.177614948725576e-05
-8.915600680467923e-06   1.5804753721120578e-06   -3.177614948725576e-05
-9.670257229485251e-06   1.1964323492380286e-06   -3.0287962758502847e-05
-9.670257229485251e-06   1.1964323492380286e-06   -3.0287962758502847e-05
-9.670257229485251e-06   1.1964323492380286e-06   -3.0287962758502847e-05
-9.670257229485251e-06   1.1964323492380286e-06   -3.0287962758502847e-05
-8.91560068046791e-06   1.4620784857803009e-06   -2.9596789163183914e-05
-8.91560068046791e-06   1.4620784857803009e-06   -2.9596789163183914e-05
-8.91560068046791e-06   1.4620784857803009e-06   -2.9596789163183914e-05
-8.91560068046791e-06   1.4620784857803009e-06   -2.9596789163183914e-05
-1.0223216874911107e-05   1.5804753721120578e-06   -3.170511135545679e-05
-1.0223216874911107e-05   1.5804753721120578e-06   -3.170511135545679e-05
-1.0223216874911107e-05   1.5804753721120578e-06   -3.170511135545679e-05
-1.0223216874911107e-05   1.5804753721120578e-06   -3.170511135545679e-05
-9.890603817515719e-06   2.440448591097574e-06   -2.961098091482507e-05
-9.890603817515719e-06   2.440448591097574e-06   -2.961098091482507e-05
-9.890603817515719e-06   2.440448591097574e-06   -2.961098091482507e-05
-9.890603817515719e-06   2.440448591097574e-06   -2.961098091482507e-05
-8.58094234322502e-06   2.47525778859759e-06   -3.181463555714263e-05
-8.58094234322502e-06   2.47525778859759e-06   -3.181463555714263e-05
-8.58094234322502e-06   2.47525778859759e-06   -3.181463555714263e-05
-8.58094234322502e-06   2.47525778859759e-06   -3.181463555714263e-05
-9.405399418182863e-06   1.945818104268245e-06   -3.012287662161584e-05
-9.405399418182863e-06   1.945818104268245e-06   -3.012287662161584e-05
-9.405399418182863e-06   1.945818104268245e-06   -3.012287662161584e-05
-9.405399418182863e-06   1.945818104268245e-06   -3.012287662161584e-05
-8.580942343225007e-06   2.440448591097574e-06   -2.963186643332489e-05
-8.580942343225007e-06   2.440448591097574e-06   -2.963186643332489e-05
-8.580942343225007e-06   2.440448591097574e-06   -2.963186643332489e-05
-8.580942343225007e-06   2.440448591097574e-06   -2.963186643332489e-05
-9.8906038175157e-06   2.47525778859759e-06   -3.179375003864264e-05
-9.8906038175157e-06   2.47525778859759e-06   -3.179375003864264e-05
-9.8906038175157e-06   2.47525778859759e-06   -3.179375003864264e-05
-9.8906038175157e-06   2.47525778859759e-06   -3.179375003864264e-05
-9.576964608068424e-06   3.433610018929744e-06   -3.018574259169946e-05
-9.576964608068424e-06   3.433610018929744e-06   -3.018574259169946e-05
-9.576964608068424e-06   3.433610018929744e-06   -3.018574259169946e-05
-9.576964608068424e-06   3.433610018929744e-06   -3.018574259169946e-05
-8.265978181380937e-06   3.382462992179659e-06   -3.23400317534619e-05
-8.265978181380937e-06   3.382462992179659e-06   -3.23400317534619e-05
-8.265978181380937e-06   3.382462992179659e-06   -3.23400317534619e-05
-8.265978181380937e-06   3.382462992179659e-06   -3.23400317534619e-05
-9.161840258996736e-06   2.705706904563188e-06   -3.044087463819874e-05
-9.161840258996736e-06   2.705706904563188e-06   -3.044087463819874e-05
-9.161840258996736e-06   2.705706904563188e-06   -3.044087463819874e-05
-9.161840258996736e-06   2.705706904563188e-06   -3.044087463819874e-05
-1.0539238238452703e-05   2.1375041834290932e-07   -2.5869868100160935e-05
-1.0539238238452703e-05   2.1375041834290932e-07   -2.5869868100160935e-05
-1.0539238238452703e-05   2.1375041834290932e-07   -2.5869868100160935e-05
-1.0539238238452703e-05   2.1375041834290932e-07   -2.5869868100160935e-05
-1.1916106667703776e-05   1.5655425615480195e-06   -2.735357352965642e-05
-1.1916106667703776e-05   1.5655425615480195e-06   -2.735357352965642e-05
-1.1916106667703776e-05   1.5655425615480195e-06   -2.735357352965642e-05
-1.1916106667703776e-05   1.5655425615480195e-06   -2.735357352965642e-05
-1.1533275545790923e-05   1.1536341973397658e-06   -2.473055471879026e-05
-1.1533275545790923e-05   1.1536341973397658e-06   -2.473055471879026e-05
-1.1533275545790923e-05   1.1536341973397658e-06   -2.473055471879026e-05
-1.1533275545790923e-05   1.1536341973397658e-06   -2.473055471879026e-05
-1.0223216874911107e-05   2.444384598788681e-06   -2.7688436077792254e-05
-1.0223216874911107e-05   2.444384598788681e-06   -2.7688436077792254e-05
-1.0223216874911107e-05   2.444384598788681e-06   -2.7688436077792254e-05
-1.0223216874911107e-05   2.444384598788681e-06   -2.7688436077792254e-05
-1.0967464585291785e-05   1.4420303844553048e-06   -2.5846610698558343e-05
-1.0967464585291785e-05   1.4420303844553048e-06   -2.5846610698558343e-05
-1.0967464585291785e-05   1.4420303844553048e-06   -2.5846610698558343e-05
-1.0967464585291785e-05   1.4420303844553048e-06   -2.5846610698558343e-05
-1.0223216874911088e-05   1.1536341973398742e-06   -2.550500495965936e-05
-1.0223216874911088e-05   1.1536341973398742e-06   -2.550500495965936e-05
-1.0223216874911088e-05   1.1536341973398742e-06   -2.550500495965936e-05
-1.0223216874911088e-05   1.1536341973398742e-06   -2.550500495965936e-05
-1.1533275545790923e-05   2.444384598788464e-06   -2.691398583692321e-05
-1.1533275545790923e-05   2.444384598788464e-06   -2.691398583692321e-05
-1.1533275545790923e-05   2.444384598788464e-06   -2.691398583692321e-05
-1.1533275545790923e-05   2.444384598788464e-06   -2.691398583692321e-05
-1.1037500275797388e-05   2.038957219395541e-06   -2.48360685180263e-05
-1.1037500275797388e-05   2.038957219395541e-06   -2.48360685180263e-05
-1.1037500275797388e-05   2.038957219395541e-06   -2.48360685180263e-05
-1.1037500275797388e-05   2.038957219395541e-06   -2.48360685180263e-05
-9.8906038175157e-06   3.2548028257863796e-06   -2.7477069978997025e-05
-9.8906038175157e-06   3.2548028257863796e-06   -2.7477069978997025e-05
-9.8906038175157e-06   3.2548028257863796e-06   -2.7477069978997025e-05
-9.8906038175157e-06   3.2548028257863796e-06   -2.7477069978997025e-05
-1.062525805617368e-05   2.139574634226556e-06   -2.5583509332964614e-05
-1.062525805617368e-05   2.139574634226556e-06   -2.5583509332964614e-05
-1.062525805617368e-05   2.139574634226556e-06   -2.5583509332964614e-05
-1.062525805617368e-05   2.139574634226556e-06   -2.5583509332964614e-05
-9.890603817515683e-06   2.0389572193954325e-06   -2.5565575881860878e-05
-9.890603817515683e-06   2.0389572193954325e-06   -2.5565575881860878e-05
-9.890603817515683e-06   2.0389572193954325e-06   -2.5565575881860878e-05
-9.890603817515683e-06   2.0389572193954325e-06   -2.5565575881860878e-05
-1.1037500275797401e-05   3.2548028257863796e-06   -2.674756261516239e-05
-1.1037500275797401e-05   3.2548028257863796e-06   -2.674756261516239e-05
-1.1037500275797401e-05   3.2548028257863796e-06   -2.674756261516239e-05
-1.1037500275797401e-05   3.2548028257863796e-06   -2.674756261516239e-05
-1.0648286121603282e-05   3.0395426591757696e-06   -2.552484264197732e-05
-1.0648286121603282e-05   3.0395426591757696e-06   -2.552484264197732e-05
-1.0648286121603282e-05   3.0395426591757696e-06   -2.552484264197732e-05
-1.0648286121603282e-05   3.0395426591757696e-06   -2.552484264197732e-05
-9.576964608068424e-06   4.162518089451377e-06   -2.798416375603412e-05
-9.576964608068424e-06   4.162518089451377e-06   -2.798416375603412e-05
-9.576964608068424e-06   4.162518089451377e-06   -2.798416375603412e-05
-9.576964608068424e-06   4.162518089451377e-06   -2.798416375603412e-05
-1.0369818855331701e-05   2.8520106552231425e-06   -2.5876435550057915e-05
-1.0369818855331701e-05   2.8520106552231425e-06   -2.5876435550057915e-05
-1.0369818855331701e-05   2.8520106552231425e-06   -2.5876435550057915e-05
-1.0369818855331701e-05   2.8520106552231425e-06   -2.5876435550057915e-05
-1.1916106667703749e-05   3.00169880910724e-07   -1.3782598028347706e-05
-1.1916106667703749e-05   3.00169880910724e-07   -1.3782598028347706e-05
-1.1916106667703749e-05   3.00169880910724e-07   -1.3782598028347706e-05
-1.1916106667703749e-05   3.00169880910724e-07   -1.3782598028347706e-05
-1.445104404244554e-05   2.632808120248912e-06   -1.6607910709314573e-05
-1.445104404244554e-05   2.632808120248912e-06   -1.6607910709314573e-05
-1.445104404244554e-05   2.632808120248912e-06   -1.6607910709314573e-05
-1.445104404244554e-05   2.632808120248912e-06   -1.6607910709314573e-05
-1.3084642973458993e-05   1.0435160912652605e-06   -1.1351970551950325e-05
-1.3084642973458993e-05   1.0435160912652605e-06   -1.1351970551950325e-05
-1.3084642973458993e-05   1.0435160912652605e-06   -1.1351970551950325e-05
-1.3084642973458993e-05   1.0435160912652605e-06   -1.1351970551950325e-05
-1.1533275545790896e-05   3.430015223604291e-06   -1.536948241080043e-05
-1.1533275545790896e-05   3.430015223604291e-06   -1.536948241080043e-05
-1.1533275545790896e-05   3.430015223604291e-06   -1.536948241080043e-05
-1.1533275545790896e-05   3.430015223604291e-06   -1.536948241080043e-05
-1.223043554328744e-05   1.947534557269028e-06   -1.331806068183847e-05
-1.223043554328744e-05   1.947534557269028e-06   -1.331806068183847e-05
-1.223043554328744e-05   1.947534557269028e-06   -1.331806068183847e-05
-1.223043554328744e-05   1.947534557269028e-06   -1.331806068183847e-05
-1.1533275545790869e-05   1.043516091265152e-06   -1.2783870031353537e-05
-1.1533275545790869e-05   1.043516091265152e-06   -1.2783870031353537e-05
-1.1533275545790869e-05   1.043516091265152e-06   -1.2783870031353537e-05
-1.1533275545790869e-05   1.043516091265152e-06   -1.2783870031353537e-05
-1.3084642973458993e-05   3.430015223604508e-06   -1.3937582931397054e-05
-1.3084642973458993e-05   3.430015223604508e-06   -1.3937582931397054e-05
-1.3084642973458993e-05   3.430015223604508e-06   -1.3937582931397054e-05
-1.3084642973458993e-05   3.430015223604508e-06   -1.3937582931397054e-05
-1.197326759014842e-05   1.4613320376532504e-06   -1.116006860396937e-05
-1.197326759014842e-05   1.4613320376532504e-06   -1.116006860396937e-05
-1.197326759014842e-05   1.4613320376532504e-06   -1.116006860396937e-05
-1.197326759014842e-05   1.4613320376532504e-06   -1.116006860396937e-05
-1.1037500275797388e-05   3.79499191603184e-06   -1.411987672158123e-05
-1.1037500275797388e-05   3.79499191603184e-06   -1.411987672158123e-05
-1.1037500275797388e-05   3.79499191603184e-06   -1.411987672158123e-05
-1.1037500275797388e-05   3.79499191603184e-06   -1.411987672158123e-05
-1.164943525891109e-05   2.317157728782941e-06   -1.2213284570709214e-05
-1.164943525891109e-05   2.317157728782941e-06   -1.2213284570709214e-05
-1.164943525891109e-05   2.317157728782941e-06   -1.2213284570709214e-05
-1.164943525891109e-05   2.317157728782941e-06   -1.2213284570709214e-05
-1.103750027579736e-05   1.4613320376533588e-06   -1.2560264530996339e-05
-1.103750027579736e-05   1.4613320376533588e-06   -1.2560264530996339e-05
-1.103750027579736e-05   1.4613320376533588e-06   -1.2560264530996339e-05
-1.103750027579736e-05   1.4613320376533588e-06   -1.2560264530996339e-05
-1.197326759014842e-05   3.794991916031623e-06   -1.2719680794554314e-05
-1.197326759014842e-05   3.794991916031623e-06   -1.2719680794554314e-05
-1.197326759014842e-05   3.794991916031623e-06   -1.2719680794554314e-05
-1.197326759014842e-05   3.794991916031623e-06   -1.2719680794554314e-05
-1.0612865529885948e-05   2.2011528831510866e-06   -1.150480650056676e-05
-1.0612865529885948e-05   2.2011528831510866e-06   -1.150480650056676e-05
-1.0612865529885948e-05   2.2011528831510866e-06   -1.150480650056676e-05
-1.0612865529885948e-05   2.2011528831510866e-06   -1.150480650056676e-05
-1.0648286121603268e-05   4.359273349696397e-06   -1.2740644460964862e-05
-1.0648286121603268e-05   4.359273349696397e-06   -1.2740644460964862e-05
-1.0648286121603268e-05   4.359273349696397e-06   -1.2740644460964862e-05
-1.0648286121603268e-05   4.359273349696397e-06   -1.2740644460964862e-05
-1.079074882627781e-05   2.6151406064168917e-06   -1.1456726973872966e-05
-1.079074882627781e-05   2.6151406064168917e-06   -1.1456726973872966e-05
-1.079074882627781e-05   2.6151406064168917e-06   -1.1456726973872966e-05
-1.079074882627781e-05   2.6151406064168917e-06   -1.1456726973872966e-05
7.031903579122448e-06   -6.950650458400175e-07   -7.1345782602837355e-06
7.031903579122448e-06   -6.950650458400175e-07   -7.1345782602837355e-06
7.031903579122448e-06   -6.950650458400175e-07   -7.1345782602837355e-06
7.031903579122448e-06   -6.950650458400175e-07   -7.1345782602837355e-06
7.267089916652828e-07   -2.9116004788367657e-06   -1.897315716584369e-05
7.267089916652828e-07   -2.9116004788367657e-06   -1.897315716584369e-05
7.267089916652828e-07   -2.9116004788367657e-06   -1.897315716584369e-05
7.267089916652828e-07   -2.9116004788367657e-06   -1.897315716584369e-05
1.2732914085509216e-06   -2.4346520990882123e-08   -7.888401538940285e-06
1.2732914085509216e-06   -2.4346520990882123e-08   -7.888401538940285e-06
1.2732914085509216e-06   -2.4346520990882123e-08   -7.888401538940285e-06
1.2732914085509216e-06   -2.4346520990882123e-08   -7.888401538940285e-06
8.56421195215214e-06   -2.3934048972594404e-06   -1.8618500752514084e-05
8.56421195215214e-06   -2.3934048972594404e-06   -1.8618500752514084e-05
8.56421195215214e-06   -2.3934048972594404e-06   -1.8618500752514084e-05
8.56421195215214e-06   -2.3934048972594404e-06   -1.8618500752514084e-05
4.234746477792977e-06   -1.2160834710630251e-06   -1.2109117817633473e-05
4.234746477792977e-06   -1.2160834710630251e-06   -1.2109117817633473e-05
4.234746477792977e-06   -1.2160834710630251e-06   -1.2109117817633473e-05
4.234746477792977e-06   -1.2160834710630251e-06   -1.2109117817633473e-05
8.56421195215214e-06   -2.4346520990882123e-08   -6.466966513178954e-06
8.56421195215214e-06   -2.4346520990882123e-08   -6.466966513178954e-06
8.56421195215214e-06   -2.4346520990882123e-08   -6.466966513178954e-06
8.56421195215214e-06   -2.4346520990882123e-08   -6.466966513178954e-06
1.2732914085509216e-06   -2.3934048972594404e-06   -2.003993577827563e-05
1.2732914085509216e-06   -2.3934048972594404e-06   -2.003993577827563e-05
1.2732914085509216e-06   -2.3934048972594404e-06   -2.003993577827563e-05
1.2732914085509216e-06   -2.3934048972594404e-06   -2.003993577827563e-05
1.9179257675298173e-06   3.556725823678983e-07   -7.950915118488206e-06
1.9179257675298173e-06   3.556725823678983e-07   -7.950915118488206e-06
1.9179257675298173e-06   3.556725823678983e-07   -7.950915118488206e-06
1.9179257675298173e-06   3.556725823678983e-07   -7.950915118488206e-06
9.858393855894038e-06   -2.047239878544358e-06   -1.9743281122547893e-05
9.858393855894038e-06   -2.047239878544358e-06   -1.9743281122547893e-05
9.858393855894038e-06   -2.047239878544358e-06   -1.9743281122547893e-05
9.858393855894038e-06   -2.047239878544358e-06   -1.9743281122547893e-05
5.205988376688316e-06   -9.735150205346073e-07   -1.2633506905344725e-05
5.205988376688316e-06   -9.735150205346073e-07   -1.2633506905344725e-05
5.205988376688316e-06   -9.735150205346073e-07   -1.2633506905344725e-05
5.205988376688316e-06   -9.735150205346073e-07   -1.2633506905344725e-05
9.858393855894092e-06   3.556725823678983e-07   -6.509167641940777e-06
9.858393855894092e-06   3.556725823678983e-07   -6.509167641940777e-06
9.858393855894092e-06   3.556725823678983e-07   -6.509167641940777e-06
9.858393855894092e-06   3.556725823678983e-07   -6.509167641940777e-06
1.9179257675298173e-06   -2.0472398785441413e-06   -2.118502859909516e-05
1.9179257675298173e-06   -2.0472398785441413e-06   -2.118502859909516e-05
1.9179257675298173e-06   -2.0472398785441413e-06   -2.118502859909516e-05
1.9179257675298173e-06   -2.0472398785441413e-06   -2.118502859909516e-05
2.4478013431168753e-06   1.1133867770718106e-06   -8.71766345635224e-06
2.4478013431168753e-06   1.1133867770718106e-06   -8.71766345635224e-06
2.4478013431168753e-06   1.1133867770718106e-06   -8.71766345635224e-06
2.4478013431168753e-06   1.1133867770718106e-06   -8.71766345635224e-06
1.14131195428744e-05   -1.1756670501984583e-06   -2.2286428159585636e-05
1.14131195428744e-05   -1.1756670501984583e-06   -2.2286428159585636e-05
1.14131195428744e-05   -1.1756670501984583e-06   -2.2286428159585636e-05
1.14131195428744e-05   -1.1756670501984583e-06   -2.2286428159585636e-05
5.976991744788165e-06   -6.167005691859375e-07   -1.3561595051382938e-05
5.976991744788165e-06   -6.167005691859375e-07   -1.3561595051382938e-05
5.976991744788165e-06   -6.167005691859375e-07   -1.3561595051382938e-05
5.976991744788165e-06   -6.167005691859375e-07   -1.3561595051382938e-05
7.267089916652828e-07   -1.4860071194042201e-07   -2.0601332056674774e-05
7.267089916652828e-07   -1.4860071194042201e-07   -2.0601332056674774e-05
7.267089916652828e-07   -1.4860071194042201e-07   -2.0601332056674774e-05
7.267089916652828e-07   -1.4860071194042201e-07   -2.0601332056674774e-05
-6.618623261768784e-06   -1.1488324829875707e-06   -3.344369154169324e-05
-6.618623261768784e-06   -1.1488324829875707e-06   -3.344369154169324e-05
-6.618623261768784e-06   -1.1488324829875707e-06   -3.344369154169324e-05
-6.618623261768784e-06   -1.1488324829875707e-06   -3.344369154169324e-05
-6.139768045643364e-06   6.980681468852015e-07   -2.07174273548934e-05
-6.139768045643364e-06   6.980681468852015e-07   -2.07174273548934e-05
-6.139768045643364e-06   6.980681468852015e-07   -2.07174273548934e-05
-6.139768045643364e-06   6.980681468852015e-07   -2.07174273548934e-05
1.2732914085509216e-06   -4.376171375828405e-07   -3.239111527453633e-05
1.2732914085509216e-06   -4.376171375828405e-07   -3.239111527453633e-05
1.2732914085509216e-06   -4.376171375828405e-07   -3.239111527453633e-05
1.2732914085509216e-06   -4.376171375828405e-07   -3.239111527453633e-05
-2.6276151756366144e-06   -4.1218895910940904e-08   -2.612744324589363e-05
-2.6276151756366144e-06   -4.1218895910940904e-08   -2.612744324589363e-05
-2.6276151756366144e-06   -4.1218895910940904e-08   -2.612744324589363e-05
-2.6276151756366144e-06   -4.1218895910940904e-08   -2.612744324589363e-05
1.2732914085508945e-06   6.980681468854184e-07   -2.0036016184212468e-05
1.2732914085508945e-06   6.980681468854184e-07   -2.0036016184212468e-05
1.2732914085508945e-06   6.980681468854184e-07   -2.0036016184212468e-05
1.2732914085508945e-06   6.980681468854184e-07   -2.0036016184212468e-05
-6.139768045643364e-06   -4.376171375828405e-07   -3.3072526445217265e-05
-6.139768045643364e-06   -4.376171375828405e-07   -3.3072526445217265e-05
-6.139768045643364e-06   -4.376171375828405e-07   -3.3072526445217265e-05
-6.139768045643364e-06   -4.376171375828405e-07   -3.3072526445217265e-05
-5.658156739756393e-06   1.5136185569965006e-06   -2.074904403139878e-05
-5.658156739756393e-06   1.5136185569965006e-06   -2.074904403139878e-05
-5.658156739756393e-06   1.5136185569965006e-06   -2.074904403139878e-05
-5.658156739756393e-06   1.5136185569965006e-06   -2.074904403139878e-05
1.9179257675298173e-06   2.9803891003332e-07   -3.264650042203118e-05
1.9179257675298173e-06   2.9803891003332e-07   -3.264650042203118e-05
1.9179257675298173e-06   2.9803891003332e-07   -3.264650042203118e-05
1.9179257675298173e-06   2.9803891003332e-07   -3.264650042203118e-05
-2.203863092593454e-06   5.434046653704245e-07   -2.5924071775028173e-05
-2.203863092593454e-06   5.434046653704245e-07   -2.5924071775028173e-05
-2.203863092593454e-06   5.434046653704245e-07   -2.5924071775028173e-05
-2.203863092593454e-06   5.434046653704245e-07   -2.5924071775028173e-05
1.9179257675298173e-06   1.5136185569965006e-06   -2.0019696243221008e-05
1.9179257675298173e-06   1.5136185569965006e-06   -2.0019696243221008e-05
1.9179257675298173e-06   1.5136185569965006e-06   -2.0019696243221008e-05
1.9179257675298173e-06   1.5136185569965006e-06   -2.0019696243221008e-05
-5.658156739756393e-06   2.9803891003332e-07   -3.3375848210209194e-05
-5.658156739756393e-06   2.9803891003332e-07   -3.3375848210209194e-05
-5.658156739756393e-06   2.9803891003332e-07   -3.3375848210209194e-05
-5.658156739756393e-06   2.9803891003332e-07   -3.3375848210209194e-05
-5.1981979711567206e-06   2.445297459809396e-06   -2.1269648091832563e-05
-5.1981979711567206e-06   2.445297459809396e-06   -2.1269648091832563e-05
-5.1981979711567206e-06   2.445297459809396e-06   -2.1269648091832563e-05
-5.1981979711567206e-06   2.445297459809396e-06   -2.1269648091832563e-05
2.4478013431168753e-06   1.1696172580013056e-06   -3.3247572161203645e-05
2.4478013431168753e-06   1.1696172580013056e-06   -3.3247572161203645e-05
2.4478013431168753e-06   1.1696172580013056e-06   -3.3247572161203645e-05
2.4478013431168753e-06   1.1696172580013056e-06   -3.3247572161203645e-05
-1.7315805734296238e-06   1.1918438890492393e-06   -2.6295271612255004e-05
-1.7315805734296238e-06   1.1918438890492393e-06   -2.6295271612255004e-05
-1.7315805734296238e-06   1.1918438890492393e-06   -2.6295271612255004e-05
-1.7315805734296238e-06   1.1918438890492393e-06   -2.6295271612255004e-05
-6.618623261768798e-06   7.048604609165201e-07   -2.494664280113353e-05
-6.618623261768798e-06   7.048604609165201e-07   -2.494664280113353e-05
-6.618623261768798e-06   7.048604609165201e-07   -2.494664280113353e-05
-6.618623261768798e-06   7.048604609165201e-07   -2.494664280113353e-05
-1.3899078789405088e-05   8.883545884854141e-07   -3.6970638870652555e-05
-1.3899078789405088e-05   8.883545884854141e-07   -3.6970638870652555e-05
-1.3899078789405088e-05   8.883545884854141e-07   -3.6970638870652555e-05
-1.3899078789405088e-05   8.883545884854141e-07   -3.6970638870652555e-05
-1.341695532062309e-05   1.5804753721120578e-06   -2.449859762819202e-05
-1.341695532062309e-05   1.5804753721120578e-06   -2.449859762819202e-05
-1.341695532062309e-05   1.5804753721120578e-06   -2.449859762819202e-05
-1.341695532062309e-05   1.5804753721120578e-06   -2.449859762819202e-05
-6.1397680456433775e-06   1.641322838428225e-06   -3.666375156628125e-05
-6.1397680456433775e-06   1.641322838428225e-06   -3.666375156628125e-05
-6.1397680456433775e-06   1.641322838428225e-06   -3.666375156628125e-05
-6.1397680456433775e-06   1.641322838428225e-06   -3.666375156628125e-05
-9.960627061220873e-06   1.3572549218125078e-06   -3.0125212457015997e-05
-9.960627061220873e-06   1.3572549218125078e-06   -3.0125212457015997e-05
-9.960627061220873e-06   1.3572549218125078e-06   -3.0125212457015997e-05
-9.960627061220873e-06   1.3572549218125078e-06   -3.0125212457015997e-05
-6.1397680456433775e-06   1.5804753721120578e-06   -2.4535106107981744e-05
-6.1397680456433775e-06   1.5804753721120578e-06   -2.4535106107981744e-05
-6.1397680456433775e-06   1.5804753721120578e-06   -2.4535106107981744e-05
-6.1397680456433775e-06   1.5804753721120578e-06   -2.4535106107981744e-05
-1.3416955320623066e-05   1.6413228384284419e-06   -3.6627243086491705e-05
-1.3416955320623066e-05   1.6413228384284419e-06   -3.6627243086491705e-05
-1.3416955320623066e-05   1.6413228384284419e-06   -3.6627243086491705e-05
-1.3416955320623066e-05   1.6413228384284419e-06   -3.6627243086491705e-05
-1.2926894025466781e-05   2.47525778859759e-06   -2.4561870336973915e-05
-1.2926894025466781e-05   2.47525778859759e-06   -2.4561870336973915e-05
-1.2926894025466781e-05   2.47525778859759e-06   -2.4561870336973915e-05
-1.2926894025466781e-05   2.47525778859759e-06   -2.4561870336973915e-05
-5.6581567397564065e-06   2.438286212919907e-06   -3.6654249534417874e-05
-5.6581567397564065e-06   2.438286212919907e-06   -3.6654249534417874e-05
-5.6581567397564065e-06   2.438286212919907e-06   -3.6654249534417874e-05
-5.6581567397564065e-06   2.438286212919907e-06   -3.6654249534417874e-05
-9.536650844669864e-06   2.014784748179577e-06   -2.9935991814051763e-05
-9.536650844669864e-06   2.014784748179577e-06   -2.9935991814051763e-05
-9.536650844669864e-06   2.014784748179577e-06   -2.9935991814051763e-05
-9.536650844669864e-06   2.014784748179577e-06   -2.9935991814051763e-05
-5.6581567397564065e-06   2.47525778859759e-06   -2.453968739156733e-05
-5.6581567397564065e-06   2.47525778859759e-06   -2.453968739156733e-05
-5.6581567397564065e-06   2.47525778859759e-06   -2.453968739156733e-05
-5.6581567397564065e-06   2.47525778859759e-06   -2.453968739156733e-05
-1.292689402546676e-05   2.438286212919907e-06   -3.667643247982444e-05
-1.292689402546676e-05   2.438286212919907e-06   -3.667643247982444e-05
-1.292689402546676e-05   2.438286212919907e-06   -3.667643247982444e-05
-1.292689402546676e-05   2.438286212919907e-06   -3.667643247982444e-05
-1.2459627874652326e-05   3.382462992179442e-06   -2.511402207331704e-05
-1.2459627874652326e-05   3.382462992179442e-06   -2.511402207331704e-05
-1.2459627874652326e-05   3.382462992179442e-06   -2.511402207331704e-05
-1.2459627874652326e-05   3.382462992179442e-06   -2.511402207331704e-05
-5.1981979711567206e-06   3.2490496673874807e-06   -3.713635725093446e-05
-5.1981979711567206e-06   3.2490496673874807e-06   -3.713635725093446e-05
-5.1981979711567206e-06   3.2490496673874807e-06   -3.713635725093446e-05
-5.1981979711567206e-06   3.2490496673874807e-06   -3.713635725093446e-05
-9.142441566752789e-06   2.6823294321204165e-06   -3.0222585783780853e-05
-9.142441566752789e-06   2.6823294321204165e-06   -3.0222585783780853e-05
-9.142441566752789e-06   2.6823294321204165e-06   -3.0222585783780853e-05
-9.142441566752789e-06   2.6823294321204165e-06   -3.0222585783780853e-05
-1.3899078789405108e-05   1.5655425615480195e-06   -2.0969987567062966e-05
-1.3899078789405108e-05   1.5655425615480195e-06   -2.0969987567062966e-05
-1.3899078789405108e-05   1.5655425615480195e-06   -2.0969987567062966e-05
-1.3899078789405108e-05   1.5655425615480195e-06   -2.0969987567062966e-05
-2.1097164398704744e-05   2.8668663623360614e-06   -3.218600263542293e-05
-2.1097164398704744e-05   2.8668663623360614e-06   -3.218600263542293e-05
-2.1097164398704744e-05   2.8668663623360614e-06   -3.218600263542293e-05
-2.1097164398704744e-05   2.8668663623360614e-06   -3.218600263542293e-05
-2.0545953183331683e-05   2.444384598788681e-06   -1.9746177616989107e-05
-2.0545953183331683e-05   2.444384598788681e-06   -1.9746177616989107e-05
-2.0545953183331683e-05   2.444384598788681e-06   -1.9746177616989107e-05
-2.0545953183331683e-05   2.444384598788681e-06   -1.9746177616989107e-05
-1.3416955320623066e-05   3.670625821352311e-06   -3.2363585455041856e-05
-1.3416955320623066e-05   3.670625821352311e-06   -3.2363585455041856e-05
-1.3416955320623066e-05   3.670625821352311e-06   -3.2363585455041856e-05
-1.3416955320623066e-05   3.670625821352311e-06   -3.2363585455041856e-05
-1.7120318800352716e-05   2.740924132964154e-06   -2.5633491975792736e-05
-1.7120318800352716e-05   2.740924132964154e-06   -2.5633491975792736e-05
-1.7120318800352716e-05   2.740924132964154e-06   -2.5633491975792736e-05
-1.7120318800352716e-05   2.740924132964154e-06   -2.5633491975792736e-05
-1.341695532062309e-05   2.444384598788464e-06   -2.0481922350527493e-05
-1.341695532062309e-05   2.444384598788464e-06   -2.0481922350527493e-05
-1.341695532062309e-05   2.444384598788464e-06   -2.0481922350527493e-05
-1.341695532062309e-05   2.444384598788464e-06   -2.0481922350527493e-05
-2.0545953183331717e-05   3.670625821352528e-06   -3.16278407215037e-05
-2.0545953183331717e-05   3.670625821352528e-06   -3.16278407215037e-05
-2.0545953183331717e-05   3.670625821352528e-06   -3.16278407215037e-05
-2.0545953183331717e-05   3.670625821352528e-06   -3.16278407215037e-05
-1.988503879076179e-05   3.2548028257863796e-06   -1.956145969230058e-05
-1.988503879076179e-05   3.2548028257863796e-06   -1.956145969230058e-05
-1.988503879076179e-05   3.2548028257863796e-06   -1.956145969230058e-05
-1.988503879076179e-05   3.2548028257863796e-06   -1.956145969230058e-05
-1.2926894025466781e-05   4.394353800832177e-06   -3.18420982194865e-05
-1.2926894025466781e-05   4.394353800832177e-06   -3.18420982194865e-05
-1.2926894025466781e-05   4.394353800832177e-06   -3.18420982194865e-05
-1.2926894025466781e-05   4.394353800832177e-06   -3.18420982194865e-05
-1.6564315430212826e-05   3.37586363447699e-06   -2.5168635111763637e-05
-1.6564315430212826e-05   3.37586363447699e-06   -2.5168635111763637e-05
-1.6564315430212826e-05   3.37586363447699e-06   -2.5168635111763637e-05
-1.6564315430212826e-05   3.37586363447699e-06   -2.5168635111763637e-05
-1.2926894025466781e-05   3.2548028257863796e-06   -2.0245190277328067e-05
-1.2926894025466781e-05   3.2548028257863796e-06   -2.0245190277328067e-05
-1.2926894025466781e-05   3.2548028257863796e-06   -2.0245190277328067e-05
-1.2926894025466781e-05   3.2548028257863796e-06   -2.0245190277328067e-05
-1.988503879076179e-05   4.394353800832177e-06   -3.1158367634459e-05
-1.988503879076179e-05   4.394353800832177e-06   -3.1158367634459e-05
-1.988503879076179e-05   4.394353800832177e-06   -3.1158367634459e-05
-1.988503879076179e-05   4.394353800832177e-06   -3.1158367634459e-05
-1.9334656828723425e-05   4.162518089451594e-06   -2.0102863953540577e-05
-1.9334656828723425e-05   4.162518089451594e-06   -2.0102863953540577e-05
-1.9334656828723425e-05   4.162518089451594e-06   -2.0102863953540577e-05
-1.9334656828723425e-05   4.162518089451594e-06   -2.0102863953540577e-05
-1.2459627874652326e-05   5.2035212666156575e-06   -3.218584744995776e-05
-1.2459627874652326e-05   5.2035212666156575e-06   -3.218584744995776e-05
-1.2459627874652326e-05   5.2035212666156575e-06   -3.218584744995776e-05
-1.2459627874652326e-05   5.2035212666156575e-06   -3.218584744995776e-05
-1.6193361840493893e-05   4.0011168757717605e-06   -2.524151487238199e-05
-1.6193361840493893e-05   4.0011168757717605e-06   -2.524151487238199e-05
-1.6193361840493893e-05   4.0011168757717605e-06   -2.524151487238199e-05
-1.6193361840493893e-05   4.0011168757717605e-06   -2.524151487238199e-05
-2.1097164398704744e-05   2.632808120248912e-06   -1.084311340985119e-05
-2.1097164398704744e-05   2.632808120248912e-06   -1.084311340985119e-05
-2.1097164398704744e-05   2.632808120248912e-06   -1.084311340985119e-05
-2.1097164398704744e-05   2.632808120248912e-06   -1.084311340985119e-05
-2.9305469223667982e-05   4.929660216466654e-06   -2.314551019372583e-05
-2.9305469223667982e-05   4.929660216466654e-06   -2.314551019372583e-05
-2.9305469223667982e-05   4.929660216466654e-06   -2.314551019372583e-05
-2.9305469223667982e-05   4.929660216466654e-06   -2.314551019372583e-05
-2.7784750692458815e-05   3.430015223604508e-06   -6.8009223119700184e-06
-2.7784750692458815e-05   3.430015223604508e-06   -6.8009223119700184e-06
-2.7784750692458815e-05   3.430015223604508e-06   -6.8009223119700184e-06
-2.7784750692458815e-05   3.430015223604508e-06   -6.8009223119700184e-06
-2.0545953183331683e-05   5.76460168843205e-06   -2.0266336706078287e-05
-2.0545953183331683e-05   5.76460168843205e-06   -2.0266336706078287e-05
-2.0545953183331683e-05   5.76460168843205e-06   -2.0266336706078287e-05
-2.0545953183331683e-05   5.76460168843205e-06   -2.0266336706078287e-05
-2.367923329475102e-05   4.284003556742264e-06   -1.4155844308032359e-05
-2.367923329475102e-05   4.284003556742264e-06   -1.4155844308032359e-05
-2.367923329475102e-05   4.284003556742264e-06   -1.4155844308032359e-05
-2.367923329475102e-05   4.284003556742264e-06   -1.4155844308032359e-05
-2.0545953183331704e-05   3.430015223604508e-06   -8.201674190866381e-06
-2.0545953183331704e-05   3.430015223604508e-06   -8.201674190866381e-06
-2.0545953183331704e-05   3.430015223604508e-06   -8.201674190866381e-06
-2.0545953183331704e-05   3.430015223604508e-06   -8.201674190866381e-06
-2.778475069245872e-05   5.76460168843205e-06   -1.886558482718187e-05
-2.778475069245872e-05   5.76460168843205e-06   -1.886558482718187e-05
-2.778475069245872e-05   5.76460168843205e-06   -1.886558482718187e-05
-2.778475069245872e-05   5.76460168843205e-06   -1.886558482718187e-05
-2.652790280577522e-05   3.79499191603184e-06   -5.572414133771133e-06
-2.652790280577522e-05   3.79499191603184e-06   -5.572414133771133e-06
-2.652790280577522e-05   3.79499191603184e-06   -5.572414133771133e-06
-2.652790280577522e-05   3.79499191603184e-06   -5.572414133771133e-06
-1.9885038790761758e-05   6.063924690945721e-06   -1.8005213823741998e-05
-1.9885038790761758e-05   6.063924690945721e-06   -1.8005213823741998e-05
-1.9885038790761758e-05   6.063924690945721e-06   -1.8005213823741998e-05
-1.9885038790761758e-05   6.063924690945721e-06   -1.8005213823741998e-05
-2.312529162883636e-05   4.6601192681826505e-06   -1.1762509173293115e-05
-2.312529162883636e-05   4.6601192681826505e-06   -1.1762509173293115e-05
-2.312529162883636e-05   4.6601192681826505e-06   -1.1762509173293115e-05
-2.312529162883636e-05   4.6601192681826505e-06   -1.1762509173293115e-05
-1.988503879076179e-05   3.794991916031623e-06   -6.933773798719473e-06
-1.988503879076179e-05   3.794991916031623e-06   -6.933773798719473e-06
-1.988503879076179e-05   3.794991916031623e-06   -6.933773798719473e-06
-1.988503879076179e-05   3.794991916031623e-06   -6.933773798719473e-06
-2.6527902805775164e-05   6.063924690945721e-06   -1.6643854158793496e-05
-2.6527902805775164e-05   6.063924690945721e-06   -1.6643854158793496e-05
-2.6527902805775164e-05   6.063924690945721e-06   -1.6643854158793496e-05
-2.6527902805775164e-05   6.063924690945721e-06   -1.6643854158793496e-05
-2.5040327371200397e-05   4.359273349696397e-06   -4.2833955341507876e-06
-2.5040327371200397e-05   4.359273349696397e-06   -4.2833955341507876e-06
-2.5040327371200397e-05   4.359273349696397e-06   -4.2833955341507876e-06
-2.5040327371200397e-05   4.359273349696397e-06   -4.2833955341507876e-06
-1.933465682872341e-05   6.442163987173616e-06   -1.5042580820765232e-05
-1.933465682872341e-05   6.442163987173616e-06   -1.5042580820765232e-05
-1.933465682872341e-05   6.442163987173616e-06   -1.5042580820765232e-05
-1.933465682872341e-05   6.442163987173616e-06   -1.5042580820765232e-05
-2.1942655051383064e-05   4.841258882232603e-06   -9.735374053368277e-06
-2.1942655051383064e-05   4.841258882232603e-06   -9.735374053368277e-06
-2.1942655051383064e-05   4.841258882232603e-06   -9.735374053368277e-06
-2.1942655051383064e-05   4.841258882232603e-06   -9.735374053368277e-06
2.221038322703197e-05   -2.9116004788367657e-06   -1.235932410273595e-07
2.221038322703197e-05   -2.9116004788367657e-06   -1.235932410273595e-07
2.221038322703197e-05   -2.9116004788367657e-06   -1.235932410273595e-07
2.221038322703197e-05   -2.9116004788367657e-06   -1.235932410273595e-07
9.45798804656648e-06   -5.246298500350506e-06   -2.2778404021378085e-05
9.45798804656648e-06   -5.246298500350506e-06   -2.2778404021378085e-05
9.45798804656648e-06   -5.246298500350506e-06   -2.2778404021378085e-05
9.45798804656648e-06   -5.246298500350506e-06   -2.2778404021378085e-05
1.0124362999764796e-05   -2.3934048972594404e-06   -2.4610145749422076e-06
1.0124362999764796e-05   -2.3934048972594404e-06   -2.4610145749422076e-06
1.0124362999764796e-05   -2.3934048972594404e-06   -2.4610145749422076e-06
1.0124362999764796e-05   -2.3934048972594404e-06   -2.4610145749422076e-06
2.3883943802914797e-05   -4.879751046056244e-06   -2.3901841557580892e-05
2.3883943802914797e-05   -4.879751046056244e-06   -2.3901841557580892e-05
2.3883943802914797e-05   -4.879751046056244e-06   -2.3901841557580892e-05
2.3883943802914797e-05   -4.879751046056244e-06   -2.3901841557580892e-05
1.5756659119282607e-05   -3.4594815937668546e-06   -1.1208528756234128e-05
1.5756659119282607e-05   -3.4594815937668546e-06   -1.1208528756234128e-05
1.5756659119282607e-05   -3.4594815937668546e-06   -1.1208528756234128e-05
1.5756659119282607e-05   -3.4594815937668546e-06   -1.1208528756234128e-05
2.3883943802914824e-05   -2.3934048972594404e-06   -9.692068856642774e-07
2.3883943802914824e-05   -2.3934048972594404e-06   -9.692068856642774e-07
2.3883943802914824e-05   -2.3934048972594404e-06   -9.692068856642774e-07
2.3883943802914824e-05   -2.3934048972594404e-06   -9.692068856642774e-07
1.0124362999764768e-05   -4.879751046056027e-06   -2.5393649246858822e-05
1.0124362999764768e-05   -4.879751046056027e-06   -2.5393649246858822e-05
1.0124362999764768e-05   -4.879751046056027e-06   -2.5393649246858822e-05
1.0124362999764768e-05   -4.879751046056027e-06   -2.5393649246858822e-05
1.0862767623112012e-05   -2.0472398785441413e-06   -3.4869491983308566e-06
1.0862767623112012e-05   -2.0472398785441413e-06   -3.4869491983308566e-06
1.0862767623112012e-05   -2.0472398785441413e-06   -3.4869491983308566e-06
1.0862767623112012e-05   -2.0472398785441413e-06   -3.4869491983308566e-06
2.5289003242600613e-05   -4.563921379169321e-06   -2.602066633043687e-05
2.5289003242600613e-05   -4.563921379169321e-06   -2.602066633043687e-05
2.5289003242600613e-05   -4.563921379169321e-06   -2.602066633043687e-05
2.5289003242600613e-05   -4.563921379169321e-06   -2.602066633043687e-05
1.701350145747924e-05   -3.318845827529203e-06   -1.2975208686218673e-05
1.701350145747924e-05   -3.318845827529203e-06   -1.2975208686218673e-05
1.701350145747924e-05   -3.318845827529203e-06   -1.2975208686218673e-05
1.701350145747924e-05   -3.318845827529203e-06   -1.2975208686218673e-05
2.528900324260064e-05   -2.0472398785441413e-06   -1.976940297955868e-06
2.528900324260064e-05   -2.0472398785441413e-06   -1.976940297955868e-06
2.528900324260064e-05   -2.0472398785441413e-06   -1.976940297955868e-06
2.528900324260064e-05   -2.0472398785441413e-06   -1.976940297955868e-06
1.0862767623112012e-05   -4.563921379169321e-06   -2.7530675230811913e-05
1.0862767623112012e-05   -4.563921379169321e-06   -2.7530675230811913e-05
1.0862767623112012e-05   -4.563921379169321e-06   -2.7530675230811913e-05
1.0862767623112012e-05   -4.563921379169321e-06   -2.7530675230811913e-05
1.1472487073288306e-05   -1.1756670501984583e-06   -5.852113677245986e-06
1.1472487073288306e-05   -1.1756670501984583e-06   -5.852113677245986e-06
1.1472487073288306e-05   -1.1756670501984583e-06   -5.852113677245986e-06
1.1472487073288306e-05   -1.1756670501984583e-06   -5.852113677245986e-06
2.692055171657742e-05   -3.5660541900335227e-06   -3.0164655798827085e-05
2.692055171657742e-05   -3.5660541900335227e-06   -3.0164655798827085e-05
2.692055171657742e-05   -3.5660541900335227e-06   -3.0164655798827085e-05
2.692055171657742e-05   -3.5660541900335227e-06   -3.0164655798827085e-05
1.769221424753053e-05   -2.9281787515197943e-06   -1.5166818613524457e-05
1.769221424753053e-05   -2.9281787515197943e-06   -1.5166818613524457e-05
1.769221424753053e-05   -2.9281787515197943e-06   -1.5166818613524457e-05
1.769221424753053e-05   -2.9281787515197943e-06   -1.5166818613524457e-05
9.457988046566507e-06   -1.1488324829875707e-06   -1.5394807367156673e-05
9.457988046566507e-06   -1.1488324829875707e-06   -1.5394807367156673e-05
9.457988046566507e-06   -1.1488324829875707e-06   -1.5394807367156673e-05
9.457988046566507e-06   -1.1488324829875707e-06   -1.5394807367156673e-05
-4.032865231108431e-06   -2.4526484664821272e-06   -3.8661852420044654e-05
-4.032865231108431e-06   -2.4526484664821272e-06   -3.8661852420044654e-05
-4.032865231108431e-06   -2.4526484664821272e-06   -3.8661852420044654e-05
-4.032865231108431e-06   -2.4526484664821272e-06   -3.8661852420044654e-05
-3.4133186081652982e-06   -4.376171375828405e-07   -1.5714947759091482e-05
-3.4133186081652982e-06   -4.376171375828405e-07   -1.5714947759091482e-05
-3.4133186081652982e-06   -4.376171375828405e-07   -1.5714947759091482e-05
-3.4133186081652982e-06   -4.376171375828405e-07   -1.5714947759091482e-05
1.0124362999764796e-05   -1.942206617396589e-06   -3.7374996751086465e-05
1.0124362999764796e-05   -1.942206617396589e-06   -3.7374996751086465e-05
1.0124362999764796e-05   -1.942206617396589e-06   -3.7374996751086465e-05
1.0124362999764796e-05   -1.942206617396589e-06   -3.7374996751086465e-05
3.0673854701729147e-06   -1.1851494451539614e-06   -2.6067601838445785e-05
3.0673854701729147e-06   -1.1851494451539614e-06   -2.6067601838445785e-05
3.0673854701729147e-06   -1.1851494451539614e-06   -2.6067601838445785e-05
3.0673854701729147e-06   -1.1851494451539614e-06   -2.6067601838445785e-05
1.0124362999764796e-05   -4.376171375828405e-07   -1.4812194071202962e-05
1.0124362999764796e-05   -4.376171375828405e-07   -1.4812194071202962e-05
1.0124362999764796e-05   -4.376171375828405e-07   -1.4812194071202962e-05
1.0124362999764796e-05   -4.376171375828405e-07   -1.4812194071202962e-05
-3.4133186081652847e-06   -1.942206617396589e-06   -3.827775043897493e-05
-3.4133186081652847e-06   -1.942206617396589e-06   -3.827775043897493e-05
-3.4133186081652847e-06   -1.942206617396589e-06   -3.827775043897493e-05
-3.4133186081652847e-06   -1.942206617396589e-06   -3.827775043897493e-05
-2.821796252034013e-06   2.9803891003332e-07   -1.591827521725173e-05
-2.821796252034013e-06   2.9803891003332e-07   -1.591827521725173e-05
-2.821796252034013e-06   2.9803891003332e-07   -1.591827521725173e-05
-2.821796252034013e-06   2.9803891003332e-07   -1.591827521725173e-05
1.0862767623112012e-05   -1.3183847499416944e-06   -3.7756027479843605e-05
1.0862767623112012e-05   -1.3183847499416944e-06   -3.7756027479843605e-05
1.0862767623112012e-05   -1.3183847499416944e-06   -3.7756027479843605e-05
1.0862767623112012e-05   -1.3183847499416944e-06   -3.7756027479843605e-05
3.5583414203286905e-06   -7.333513089911696e-07   -2.5933003873107846e-05
3.5583414203286905e-06   -7.333513089911696e-07   -2.5933003873107846e-05
3.5583414203286905e-06   -7.333513089911696e-07   -2.5933003873107846e-05
3.5583414203286905e-06   -7.333513089911696e-07   -2.5933003873107846e-05
1.0862767623112012e-05   2.9803891003332e-07   -1.4948421021266874e-05
1.0862767623112012e-05   2.9803891003332e-07   -1.4948421021266874e-05
1.0862767623112012e-05   2.9803891003332e-07   -1.4948421021266874e-05
1.0862767623112012e-05   2.9803891003332e-07   -1.4948421021266874e-05
-2.821796252034013e-06   -1.3183847499414775e-06   -3.872588167582857e-05
-2.821796252034013e-06   -1.3183847499414775e-06   -3.872588167582857e-05
-2.821796252034013e-06   -1.3183847499414775e-06   -3.872588167582857e-05
-2.821796252034013e-06   -1.3183847499414775e-06   -3.872588167582857e-05
-2.266345912390686e-06   1.1696172580013056e-06   -1.6461509209040768e-05
-2.266345912390686e-06   1.1696172580013056e-06   -1.6461509209040768e-05
-2.266345912390686e-06   1.1696172580013056e-06   -1.6461509209040768e-05
-2.266345912390686e-06   1.1696172580013056e-06   -1.6461509209040768e-05
1.1472487073288306e-05   -5.331891195633695e-07   -3.833788035863359e-05
1.1472487073288306e-05   -5.331891195633695e-07   -3.833788035863359e-05
1.1472487073288306e-05   -5.331891195633695e-07   -3.833788035863359e-05
1.1472487073288306e-05   -5.331891195633695e-07   -3.833788035863359e-05
4.1718079802508185e-06   -1.7595964160092934e-07   -2.6384419557015767e-05
4.1718079802508185e-06   -1.7595964160092934e-07   -2.6384419557015767e-05
4.1718079802508185e-06   -1.7595964160092934e-07   -2.6384419557015767e-05
4.1718079802508185e-06   -1.7595964160092934e-07   -2.6384419557015767e-05
-4.0328652311084445e-06   8.883545884854141e-07   -1.981414076275424e-05
-4.0328652311084445e-06   8.883545884854141e-07   -1.981414076275424e-05
-4.0328652311084445e-06   8.883545884854141e-07   -1.981414076275424e-05
-4.0328652311084445e-06   8.883545884854141e-07   -1.981414076275424e-05
-1.7286060662087627e-05   4.5477368719416475e-07   -4.216294835516089e-05
-1.7286060662087627e-05   4.5477368719416475e-07   -4.216294835516089e-05
-1.7286060662087627e-05   4.5477368719416475e-07   -4.216294835516089e-05
-1.7286060662087627e-05   4.5477368719416475e-07   -4.216294835516089e-05
-1.661927239782346e-05   1.6413228384284419e-06   -1.9673922003729223e-05
-1.661927239782346e-05   1.6413228384284419e-06   -1.9673922003729223e-05
-1.661927239782346e-05   1.6413228384284419e-06   -1.9673922003729223e-05
-1.661927239782346e-05   1.6413228384284419e-06   -1.9673922003729223e-05
-3.4133186081652847e-06   1.028407632471971e-06   -4.1316095862919174e-05
-3.4133186081652847e-06   1.028407632471971e-06   -4.1316095862919174e-05
-3.4133186081652847e-06   1.028407632471971e-06   -4.1316095862919174e-05
-3.4133186081652847e-06   1.028407632471971e-06   -4.1316095862919174e-05
-1.0267272458162573e-05   1.218364467357215e-06   -3.0006813547187906e-05
-1.0267272458162573e-05   1.218364467357215e-06   -3.0006813547187906e-05
-1.0267272458162573e-05   1.218364467357215e-06   -3.0006813547187906e-05
-1.0267272458162573e-05   1.218364467357215e-06   -3.0006813547187906e-05
-3.4133186081652982e-06   1.641322838428225e-06   -1.9306172880155552e-05
-3.4133186081652982e-06   1.641322838428225e-06   -1.9306172880155552e-05
-3.4133186081652982e-06   1.641322838428225e-06   -1.9306172880155552e-05
-3.4133186081652982e-06   1.641322838428225e-06   -1.9306172880155552e-05
-1.661927239782346e-05   1.028407632471971e-06   -4.168384498649271e-05
-1.661927239782346e-05   1.028407632471971e-06   -4.168384498649271e-05
-1.661927239782346e-05   1.028407632471971e-06   -4.168384498649271e-05
-1.661927239782346e-05   1.028407632471971e-06   -4.168384498649271e-05
-1.5976030451158665e-05   2.438286212919907e-06   -1.964432572757759e-05
-1.5976030451158665e-05   2.438286212919907e-06   -1.964432572757759e-05
-1.5976030451158665e-05   2.438286212919907e-06   -1.964432572757759e-05
-1.5976030451158665e-05   2.438286212919907e-06   -1.964432572757759e-05
-2.821796252034013e-06   1.692204236057723e-06   -4.112040020666811e-05
-2.821796252034013e-06   1.692204236057723e-06   -4.112040020666811e-05
-2.821796252034013e-06   1.692204236057723e-06   -4.112040020666811e-05
-2.821796252034013e-06   1.692204236057723e-06   -4.112040020666811e-05
-9.69376934414208e-06   1.7554960819336557e-06   -2.9705086827346895e-05
-9.69376934414208e-06   1.7554960819336557e-06   -2.9705086827346895e-05
-9.69376934414208e-06   1.7554960819336557e-06   -2.9705086827346895e-05
-9.69376934414208e-06   1.7554960819336557e-06   -2.9705086827346895e-05
-2.821796252034013e-06   2.438286212919907e-06   -1.919667654146035e-05
-2.821796252034013e-06   2.438286212919907e-06   -1.919667654146035e-05
-2.821796252034013e-06   2.438286212919907e-06   -1.919667654146035e-05
-2.821796252034013e-06   2.438286212919907e-06   -1.919667654146035e-05
-1.5976030451158665e-05   1.692204236057723e-06   -4.156804939278551e-05
-1.5976030451158665e-05   1.692204236057723e-06   -4.156804939278551e-05
-1.5976030451158665e-05   1.692204236057723e-06   -4.156804939278551e-05
-1.5976030451158665e-05   1.692204236057723e-06   -4.156804939278551e-05
-1.538165957690293e-05   3.2490496673874807e-06   -2.010744123850136e-05
-1.538165957690293e-05   3.2490496673874807e-06   -2.010744123850136e-05
-1.538165957690293e-05   3.2490496673874807e-06   -2.010744123850136e-05
-1.538165957690293e-05   3.2490496673874807e-06   -2.010744123850136e-05
-2.266345912390686e-06   2.378124566029295e-06   -4.144374228520699e-05
-2.266345912390686e-06   2.378124566029295e-06   -4.144374228520699e-05
-2.266345912390686e-06   2.378124566029295e-06   -4.144374228520699e-05
-2.266345912390686e-06   2.378124566029295e-06   -4.144374228520699e-05
-9.181623482909499e-06   2.306629493843866e-06   -2.987538262436487e-05
-9.181623482909499e-06   2.306629493843866e-06   -2.987538262436487e-05
-9.181623482909499e-06   2.306629493843866e-06   -2.987538262436487e-05
-9.181623482909499e-06   2.306629493843866e-06   -2.987538262436487e-05
-1.7286060662087655e-05   2.8668663623360614e-06   -1.6070447348771918e-05
-1.7286060662087655e-05   2.8668663623360614e-06   -1.6070447348771918e-05
-1.7286060662087655e-05   2.8668663623360614e-06   -1.6070447348771918e-05
-1.7286060662087655e-05   2.8668663623360614e-06   -1.6070447348771918e-05
-3.0298626947177666e-05   3.4663956974775346e-06   -3.739834022283711e-05
-3.0298626947177666e-05   3.4663956974775346e-06   -3.739834022283711e-05
-3.0298626947177666e-05   3.4663956974775346e-06   -3.739834022283711e-05
-3.0298626947177666e-05   3.4663956974775346e-06   -3.739834022283711e-05
-2.9494629796749304e-05   3.670625821352528e-06   -1.5096094761943984e-05
-2.9494629796749304e-05   3.670625821352528e-06   -1.5096094761943984e-05
-2.9494629796749304e-05   3.670625821352528e-06   -1.5096094761943984e-05
-2.9494629796749304e-05   3.670625821352528e-06   -1.5096094761943984e-05
-1.6619272397823486e-05   4.194241838578359e-06   -3.686919337048925e-05
-1.6619272397823486e-05   4.194241838578359e-06   -3.686919337048925e-05
-1.6619272397823486e-05   4.194241838578359e-06   -3.686919337048925e-05
-1.6619272397823486e-05   4.194241838578359e-06   -3.686919337048925e-05
-2.3253604170107307e-05   3.7008703050032303e-06   -2.55159508298711e-05
-2.3253604170107307e-05   3.7008703050032303e-06   -2.55159508298711e-05
-2.3253604170107307e-05   3.7008703050032303e-06   -2.55159508298711e-05
-2.3253604170107307e-05   3.7008703050032303e-06   -2.55159508298711e-05
-1.6619272397823486e-05   3.670625821352528e-06   -1.541026437227951e-05
-1.6619272397823486e-05   3.670625821352528e-06   -1.541026437227951e-05
-1.6619272397823486e-05   3.670625821352528e-06   -1.541026437227951e-05
-1.6619272397823486e-05   3.670625821352528e-06   -1.541026437227951e-05
-2.9494629796749304e-05   4.194241838578359e-06   -3.655502376015364e-05
-2.9494629796749304e-05   4.194241838578359e-06   -3.655502376015364e-05
-2.9494629796749304e-05   4.194241838578359e-06   -3.655502376015364e-05
-2.9494629796749304e-05   4.194241838578359e-06   -3.655502376015364e-05
-2.8604288507803e-05   4.394353800832177e-06   -1.4554021575638259e-05
-2.8604288507803e-05   4.394353800832177e-06   -1.4554021575638259e-05
-2.8604288507803e-05   4.394353800832177e-06   -1.4554021575638259e-05
-2.8604288507803e-05   4.394353800832177e-06   -1.4554021575638259e-05
-1.597603045115869e-05   4.820970286834817e-06   -3.585708822831358e-05
-1.597603045115869e-05   4.820970286834817e-06   -3.585708822831358e-05
-1.597603045115869e-05   4.820970286834817e-06   -3.585708822831358e-05
-1.597603045115869e-05   4.820970286834817e-06   -3.585708822831358e-05
-2.243967227862682e-05   4.267947213331281e-06   -2.4752538005097947e-05
-2.243967227862682e-05   4.267947213331281e-06   -2.4752538005097947e-05
-2.243967227862682e-05   4.267947213331281e-06   -2.4752538005097947e-05
-2.243967227862682e-05   4.267947213331281e-06   -2.4752538005097947e-05
-1.597603045115869e-05   4.394353800832177e-06   -1.4809991467239634e-05
-1.597603045115869e-05   4.394353800832177e-06   -1.4809991467239634e-05
-1.597603045115869e-05   4.394353800832177e-06   -1.4809991467239634e-05
-1.597603045115869e-05   4.394353800832177e-06   -1.4809991467239634e-05
-2.8604288507803e-05   4.820970286834817e-06   -3.560111833671208e-05
-2.8604288507803e-05   4.820970286834817e-06   -3.560111833671208e-05
-2.8604288507803e-05   4.820970286834817e-06   -3.560111833671208e-05
-2.8604288507803e-05   4.820970286834817e-06   -3.560111833671208e-05
-2.7852130734931216e-05   5.2035212666156575e-06   -1.4890698466226305e-05
-2.7852130734931216e-05   5.2035212666156575e-06   -1.4890698466226305e-05
-2.7852130734931216e-05   5.2035212666156575e-06   -1.4890698466226305e-05
-2.7852130734931216e-05   5.2035212666156575e-06   -1.4890698466226305e-05
-1.5381659576902953e-05   5.51382956065472e-06   -3.586100203936324e-05
-1.5381659576902953e-05   5.51382956065472e-06   -3.586100203936324e-05
-1.5381659576902953e-05   5.51382956065472e-06   -3.586100203936324e-05
-1.5381659576902953e-05   5.51382956065472e-06   -3.586100203936324e-05
-2.193510910083182e-05   4.790094222864604e-06   -2.4504344963474948e-05
-2.193510910083182e-05   4.790094222864604e-06   -2.4504344963474948e-05
-2.193510910083182e-05   4.790094222864604e-06   -2.4504344963474948e-05
-2.193510910083182e-05   4.790094222864604e-06   -2.4504344963474948e-05
-3.0298626947177666e-05   4.929660216466654e-06   -8.04834856372102e-06
-3.0298626947177666e-05   4.929660216466654e-06   -8.04834856372102e-06
-3.0298626947177666e-05   4.929660216466654e-06   -8.04834856372102e-06
-3.0298626947177666e-05   4.929660216466654e-06   -8.04834856372102e-06
-4.401166270053939e-05   6.8060081991224135e-06   -2.9777599363063883e-05
-4.401166270053939e-05   6.8060081991224135e-06   -2.9777599363063883e-05
-4.401166270053939e-05   6.8060081991224135e-06   -2.9777599363063883e-05
-4.401166270053939e-05   6.8060081991224135e-06   -2.9777599363063883e-05
-4.216021024733864e-05   5.76460168843205e-06   -2.5294487058207926e-06
-4.216021024733864e-05   5.76460168843205e-06   -2.5294487058207926e-06
-4.216021024733864e-05   5.76460168843205e-06   -2.5294487058207926e-06
-4.216021024733864e-05   5.76460168843205e-06   -2.5294487058207926e-06
-2.9494629796749253e-05   7.773171756262189e-06   -2.4843891497501125e-05
-2.9494629796749253e-05   7.773171756262189e-06   -2.4843891497501125e-05
-2.9494629796749253e-05   7.773171756262189e-06   -2.4843891497501125e-05
-2.9494629796749253e-05   7.773171756262189e-06   -2.4843891497501125e-05
-3.498294068850924e-05   6.483775531952621e-06   -1.4923068943315377e-05
-3.498294068850924e-05   6.483775531952621e-06   -1.4923068943315377e-05
-3.498294068850924e-05   6.483775531952621e-06   -1.4923068943315377e-05
-3.498294068850924e-05   6.483775531952621e-06   -1.4923068943315377e-05
-2.9494629796749277e-05   5.76460168843205e-06   -3.7345907465187347e-06
-2.9494629796749277e-05   5.76460168843205e-06   -3.7345907465187347e-06
-2.9494629796749277e-05   5.76460168843205e-06   -3.7345907465187347e-06
-2.9494629796749277e-05   5.76460168843205e-06   -3.7345907465187347e-06
-4.216021024733856e-05   7.773171756262406e-06   -2.363874945680313e-05
-4.216021024733856e-05   7.773171756262406e-06   -2.363874945680313e-05
-4.216021024733856e-05   7.773171756262406e-06   -2.363874945680313e-05
-4.216021024733856e-05   7.773171756262406e-06   -2.363874945680313e-05
-4.0636761927842496e-05   6.063924690945721e-06   -2.2251713590129302e-07
-4.0636761927842496e-05   6.063924690945721e-06   -2.2251713590129302e-07
-4.0636761927842496e-05   6.063924690945721e-06   -2.2251713590129302e-07
-4.0636761927842496e-05   6.063924690945721e-06   -2.2251713590129302e-07
-2.8604288507803e-05   8.027842405978819e-06   -2.145499013165371e-05
-2.8604288507803e-05   8.027842405978819e-06   -2.145499013165371e-05
-2.8604288507803e-05   8.027842405978819e-06   -2.145499013165371e-05
-2.8604288507803e-05   8.027842405978819e-06   -2.145499013165371e-05
-3.4356092749521985e-05   6.869871440831447e-06   -1.117386714969982e-05
-3.4356092749521985e-05   6.869871440831447e-06   -1.117386714969982e-05
-3.4356092749521985e-05   6.869871440831447e-06   -1.117386714969982e-05
-3.4356092749521985e-05   6.869871440831447e-06   -1.117386714969982e-05
-2.8604288507803e-05   6.063924690945721e-06   -1.4008677649213414e-06
-2.8604288507803e-05   6.063924690945721e-06   -1.4008677649213414e-06
-2.8604288507803e-05   6.063924690945721e-06   -1.4008677649213414e-06
-2.8604288507803e-05   6.063924690945721e-06   -1.4008677649213414e-06
-4.063676192784236e-05   8.027842405978819e-06   -2.0276639502633852e-05
-4.063676192784236e-05   8.027842405978819e-06   -2.0276639502633852e-05
-4.063676192784236e-05   8.027842405978819e-06   -2.0276639502633852e-05
-4.063676192784236e-05   8.027842405978819e-06   -2.0276639502633852e-05
-3.899200371178042e-05   6.442163987173616e-06   2.7101103134266396e-06
-3.899200371178042e-05   6.442163987173616e-06   2.7101103134266396e-06
-3.899200371178042e-05   6.442163987173616e-06   2.7101103134266396e-06
-3.899200371178042e-05   6.442163987173616e-06   2.7101103134266396e-06
-2.785213073493119e-05   8.245737415105365e-06   -1.6938488704747547e-05
-2.785213073493119e-05   8.245737415105365e-06   -1.6938488704747547e-05
-2.785213073493119e-05   8.245737415105365e-06   -1.6938488704747547e-05
-2.785213073493119e-05   8.245737415105365e-06   -1.6938488704747547e-05
-3.280952134392538e-05   6.93267949916491e-06   -7.88833627352704e-06
-3.280952134392538e-05   6.93267949916491e-06   -7.88833627352704e-06
-3.280952134392538e-05   6.93267949916491e-06   -7.88833627352704e-06
-3.280952134392538e-05   6.93267949916491e-06   -7.88833627352704e-06
3.764134248918178e-05   -5.246298500350506e-06   7.505112222026746e-06
3.764134248918178e-05   -5.246298500350506e-06   7.505112222026746e-06
3.764134248918178e-05   -5.246298500350506e-06   7.505112222026746e-06
3.764134248918178e-05   -5.246298500350506e-06   7.505112222026746e-06
1.813042215463234e-05   -7.761813294624581e-06   -2.6522397212120144e-05
1.813042215463234e-05   -7.761813294624581e-06   -2.6522397212120144e-05
1.813042215463234e-05   -7.761813294624581e-06   -2.6522397212120144e-05
1.813042215463234e-05   -7.761813294624581e-06   -2.6522397212120144e-05
1.886867343005736e-05   -4.879751046056027e-06   3.6416270711738235e-06
1.886867343005736e-05   -4.879751046056027e-06   3.6416270711738235e-06
1.886867343005736e-05   -4.879751046056027e-06   3.6416270711738235e-06
1.886867343005736e-05   -4.879751046056027e-06   3.6416270711738235e-06
3.935898540920763e-05   -7.581302641800503e-06   -2.8887961936630187e-05
3.935898540920763e-05   -7.581302641800503e-06   -2.8887961936630187e-05
3.935898540920763e-05   -7.581302641800503e-06   -2.8887961936630187e-05
3.935898540920763e-05   -7.581302641800503e-06   -2.8887961936630187e-05
2.734070115416147e-05   -5.742854605975058e-06   -9.960556999715332e-06
2.734070115416147e-05   -5.742854605975058e-06   -9.960556999715332e-06
2.734070115416147e-05   -5.742854605975058e-06   -9.960556999715332e-06
2.734070115416147e-05   -5.742854605975058e-06   -9.960556999715332e-06
3.935898540920768e-05   -4.879751046056027e-06   5.262558028620292e-06
3.935898540920768e-05   -4.879751046056027e-06   5.262558028620292e-06
3.935898540920768e-05   -4.879751046056027e-06   5.262558028620292e-06
3.935898540920768e-05   -4.879751046056027e-06   5.262558028620292e-06
1.8868673430057334e-05   -7.581302641800503e-06   -3.0508892894076873e-05
1.8868673430057334e-05   -7.581302641800503e-06   -3.0508892894076873e-05
1.8868673430057334e-05   -7.581302641800503e-06   -3.0508892894076873e-05
1.8868673430057334e-05   -7.581302641800503e-06   -3.0508892894076873e-05
1.960317525239946e-05   -4.563921379169321e-06   1.7496877110360128e-06
1.960317525239946e-05   -4.563921379169321e-06   1.7496877110360128e-06
1.960317525239946e-05   -4.563921379169321e-06   1.7496877110360128e-06
1.960317525239946e-05   -4.563921379169321e-06   1.7496877110360128e-06
4.0676835095327946e-05   -7.317847076652485e-06   -3.172072327535503e-05
4.0676835095327946e-05   -7.317847076652485e-06   -3.172072327535503e-05
4.0676835095327946e-05   -7.317847076652485e-06   -3.172072327535503e-05
4.0676835095327946e-05   -7.317847076652485e-06   -3.172072327535503e-05
2.8787898667100053e-05   -5.723723522534758e-06   -1.2862303360779246e-05
2.8787898667100053e-05   -5.723723522534758e-06   -1.2862303360779246e-05
2.8787898667100053e-05   -5.723723522534758e-06   -1.2862303360779246e-05
2.8787898667100053e-05   -5.723723522534758e-06   -1.2862303360779246e-05
4.0676835095327946e-05   -4.563921379169321e-06   3.4020431295258354e-06
4.0676835095327946e-05   -4.563921379169321e-06   3.4020431295258354e-06
4.0676835095327946e-05   -4.563921379169321e-06   3.4020431295258354e-06
4.0676835095327946e-05   -4.563921379169321e-06   3.4020431295258354e-06
1.960317525239946e-05   -7.317847076652485e-06   -3.337307869384501e-05
1.960317525239946e-05   -7.317847076652485e-06   -3.337307869384501e-05
1.960317525239946e-05   -7.317847076652485e-06   -3.337307869384501e-05
1.960317525239946e-05   -7.317847076652485e-06   -3.337307869384501e-05
2.0101408383026956e-05   -3.5660541900335227e-06   -2.0581043866985983e-06
2.0101408383026956e-05   -3.5660541900335227e-06   -2.0581043866985983e-06
2.0101408383026956e-05   -3.5660541900335227e-06   -2.0581043866985983e-06
2.0101408383026956e-05   -3.5660541900335227e-06   -2.0581043866985983e-06
4.207058680695308e-05   -6.291168725714455e-06   -3.7038333038500295e-05
4.207058680695308e-05   -6.291168725714455e-06   -3.7038333038500295e-05
4.207058680695308e-05   -6.291168725714455e-06   -3.7038333038500295e-05
4.207058680695308e-05   -6.291168725714455e-06   -3.7038333038500295e-05
2.9189676316863293e-05   -5.283317875027648e-06   -1.6174859398763292e-05
2.9189676316863293e-05   -5.283317875027648e-06   -1.6174859398763292e-05
2.9189676316863293e-05   -5.283317875027648e-06   -1.6174859398763292e-05
2.9189676316863293e-05   -5.283317875027648e-06   -1.6174859398763292e-05
1.8130422154632395e-05   -2.4526484664821272e-06   -9.105355463107925e-06
1.8130422154632395e-05   -2.4526484664821272e-06   -9.105355463107925e-06
1.8130422154632395e-05   -2.4526484664821272e-06   -9.105355463107925e-06
1.8130422154632395e-05   -2.4526484664821272e-06   -9.105355463107925e-06
-1.1139770755470586e-06   -5.020091881562799e-06   -4.2719820229122126e-05
-1.1139770755470586e-06   -5.020091881562799e-06   -4.2719820229122126e-05
-1.1139770755470586e-06   -5.020091881562799e-06   -4.2719820229122126e-05
-1.1139770755470586e-06   -5.020091881562799e-06   -4.2719820229122126e-05
-3.565298958841783e-07   -1.9422066173968057e-06   -1.0041426936743033e-05
-3.565298958841783e-07   -1.9422066173968057e-06   -1.0041426936743033e-05
-3.565298958841783e-07   -1.9422066173968057e-06   -1.0041426936743033e-05
-3.565298958841783e-07   -1.9422066173968057e-06   -1.0041426936743033e-05
1.886867343005736e-05   -4.7783841235456755e-06   -4.038172597628964e-05
1.886867343005736e-05   -4.7783841235456755e-06   -4.038172597628964e-05
1.886867343005736e-05   -4.7783841235456755e-06   -4.038172597628964e-05
1.886867343005736e-05   -4.7783841235456755e-06   -4.038172597628964e-05
8.908582715218814e-06   -3.037588730648547e-06   -2.482605202063046e-05
8.908582715218814e-06   -3.037588730648547e-06   -2.482605202063046e-05
8.908582715218814e-06   -3.037588730648547e-06   -2.482605202063046e-05
8.908582715218814e-06   -3.037588730648547e-06   -2.482605202063046e-05
1.8868673430057334e-05   -1.9422066173968057e-06   -8.339720433053765e-06
1.8868673430057334e-05   -1.9422066173968057e-06   -8.339720433053765e-06
1.8868673430057334e-05   -1.9422066173968057e-06   -8.339720433053765e-06
1.8868673430057334e-05   -1.9422066173968057e-06   -8.339720433053765e-06
-3.565298958841783e-07   -4.7783841235456755e-06   -4.208343247997907e-05
-3.565298958841783e-07   -4.7783841235456755e-06   -4.208343247997907e-05
-3.565298958841783e-07   -4.7783841235456755e-06   -4.208343247997907e-05
-3.565298958841783e-07   -4.7783841235456755e-06   -4.208343247997907e-05
3.1074377355317913e-07   -1.3183847499414775e-06   -1.0282265561303329e-05
3.1074377355317913e-07   -1.3183847499414775e-06   -1.0282265561303329e-05
3.1074377355317913e-07   -1.3183847499414775e-06   -1.0282265561303329e-05
3.1074377355317913e-07   -1.3183847499414775e-06   -1.0282265561303329e-05
1.960317525239946e-05   -4.329386455453974e-06   -4.0629717002739875e-05
1.960317525239946e-05   -4.329386455453974e-06   -4.0629717002739875e-05
1.960317525239946e-05   -4.329386455453974e-06   -4.0629717002739875e-05
1.960317525239946e-05   -4.329386455453974e-06   -4.0629717002739875e-05
9.423325514660604e-06   -2.786908048475127e-06   -2.4588787817361724e-05
9.423325514660604e-06   -2.786908048475127e-06   -2.4588787817361724e-05
9.423325514660604e-06   -2.786908048475127e-06   -2.4588787817361724e-05
9.423325514660604e-06   -2.786908048475127e-06   -2.4588787817361724e-05
1.960317525239946e-05   -1.3183847499414775e-06   -8.475664537995896e-06
1.960317525239946e-05   -1.3183847499414775e-06   -8.475664537995896e-06
1.960317525239946e-05   -1.3183847499414775e-06   -8.475664537995896e-06
1.960317525239946e-05   -1.3183847499414775e-06   -8.475664537995896e-06
3.1074377355317913e-07   -4.329386455453757e-06   -4.243631802604709e-05
3.1074377355317913e-07   -4.329386455453757e-06   -4.243631802604709e-05
3.1074377355317913e-07   -4.329386455453757e-06   -4.243631802604709e-05
3.1074377355317913e-07   -4.329386455453757e-06   -4.243631802604709e-05
7.855280158981082e-07   -5.331891195633695e-07   -1.069147477223125e-05
7.855280158981082e-07   -5.331891195633695e-07   -1.069147477223125e-05
7.855280158981082e-07   -5.331891195633695e-07   -1.069147477223125e-05
7.855280158981082e-07   -5.331891195633695e-07   -1.069147477223125e-05
2.0101408383027037e-05   -3.690485968941507e-06   -4.099023060781916e-05
2.0101408383027037e-05   -3.690485968941507e-06   -4.099023060781916e-05
2.0101408383027037e-05   -3.690485968941507e-06   -4.099023060781916e-05
2.0101408383027037e-05   -3.690485968941507e-06   -4.099023060781916e-05
1.0040814203772416e-05   -2.3458026011260276e-06   -2.5029383663084572e-05
1.0040814203772416e-05   -2.3458026011260276e-06   -2.5029383663084572e-05
1.0040814203772416e-05   -2.3458026011260276e-06   -2.5029383663084572e-05
1.0040814203772416e-05   -2.3458026011260276e-06   -2.5029383663084572e-05
-1.1139770755470586e-06   4.547736871939479e-07   -1.3886768906497807e-05
-1.1139770755470586e-06   4.547736871939479e-07   -1.3886768906497807e-05
-1.1139770755470586e-06   4.547736871939479e-07   -1.3886768906497807e-05
-1.1139770755470586e-06   4.547736871939479e-07   -1.3886768906497807e-05
-2.007414015171826e-05   -2.6207710012778485e-06   -4.733236751319975e-05
-2.007414015171826e-05   -2.6207710012778485e-06   -4.733236751319975e-05
-2.007414015171826e-05   -2.6207710012778485e-06   -4.733236751319975e-05
-2.007414015171826e-05   -2.6207710012778485e-06   -4.733236751319975e-05
-1.9165211709150777e-05   1.0284076324721877e-06   -1.5098146060081629e-05
-1.9165211709150777e-05   1.0284076324721877e-06   -1.5098146060081629e-05
-1.9165211709150777e-05   1.0284076324721877e-06   -1.5098146060081629e-05
-1.9165211709150777e-05   1.0284076324721877e-06   -1.5098146060081629e-05
-3.565298958841783e-07   -2.3355485331852475e-06   -4.442757538279814e-05
-3.565298958841783e-07   -2.3355485331852475e-06   -4.442757538279814e-05
-3.565298958841783e-07   -2.3355485331852475e-06   -4.442757538279814e-05
-3.565298958841783e-07   -2.3355485331852475e-06   -4.442757538279814e-05
-1.0057177215385042e-05   -4.968269041643941e-07   -2.936306282770926e-05
-1.0057177215385042e-05   -4.968269041643941e-07   -2.936306282770926e-05
-1.0057177215385042e-05   -4.968269041643941e-07   -2.936306282770926e-05
-1.0057177215385042e-05   -4.968269041643941e-07   -2.936306282770926e-05
-3.565298958841783e-07   1.0284076324721877e-06   -1.3079772360687168e-05
-3.565298958841783e-07   1.0284076324721877e-06   -1.3079772360687168e-05
-3.565298958841783e-07   1.0284076324721877e-06   -1.3079772360687168e-05
-3.565298958841783e-07   1.0284076324721877e-06   -1.3079772360687168e-05
-1.9165211709150777e-05   -2.3355485331852475e-06   -4.644594908219271e-05
-1.9165211709150777e-05   -2.3355485331852475e-06   -4.644594908219271e-05
-1.9165211709150777e-05   -2.3355485331852475e-06   -4.644594908219271e-05
-1.9165211709150777e-05   -2.3355485331852475e-06   -4.644594908219271e-05
-1.833133255491653e-05   1.692204236057723e-06   -1.4827893131364681e-05
-1.833133255491653e-05   1.692204236057723e-06   -1.4827893131364681e-05
-1.833133255491653e-05   1.692204236057723e-06   -1.4827893131364681e-05
-1.833133255491653e-05   1.692204236057723e-06   -1.4827893131364681e-05
3.1074377355317913e-07   -1.8929774959781237e-06   -4.3746911306259077e-05
3.1074377355317913e-07   -1.8929774959781237e-06   -4.3746911306259077e-05
3.1074377355317913e-07   -1.8929774959781237e-06   -4.3746911306259077e-05
3.1074377355317913e-07   -1.8929774959781237e-06   -4.3746911306259077e-05
-9.317166244613703e-06   -1.708085434845184e-07   -2.8733695980810606e-05
-9.317166244613703e-06   -1.708085434845184e-07   -2.8733695980810606e-05
-9.317166244613703e-06   -1.708085434845184e-07   -2.8733695980810606e-05
-9.317166244613703e-06   -1.708085434845184e-07   -2.8733695980810606e-05
3.1074377355317913e-07   1.692204236057723e-06   -1.2676784092142856e-05
3.1074377355317913e-07   1.692204236057723e-06   -1.2676784092142856e-05
3.1074377355317913e-07   1.692204236057723e-06   -1.2676784092142856e-05
3.1074377355317913e-07   1.692204236057723e-06   -1.2676784092142856e-05
-1.833133255491653e-05   -1.8929774959783405e-06   -4.5898020345480997e-05
-1.833133255491653e-05   -1.8929774959783405e-06   -4.5898020345480997e-05
-1.833133255491653e-05   -1.8929774959783405e-06   -4.5898020345480997e-05
-1.833133255491653e-05   -1.8929774959783405e-06   -4.5898020345480997e-05
-1.7769208468906307e-05   2.378124566029295e-06   -1.5086379407298423e-05
-1.7769208468906307e-05   2.378124566029295e-06   -1.5086379407298423e-05
-1.7769208468906307e-05   2.378124566029295e-06   -1.5086379407298423e-05
-1.7769208468906307e-05   2.378124566029295e-06   -1.5086379407298423e-05
7.855280158981082e-07   -1.4730863256919198e-06   -4.370021368027316e-05
7.855280158981082e-07   -1.4730863256919198e-06   -4.370021368027316e-05
7.855280158981082e-07   -1.4730863256919198e-06   -4.370021368027316e-05
7.855280158981082e-07   -1.4730863256919198e-06   -4.370021368027316e-05
-8.7896676488114e-06   1.9504414156554586e-07   -2.8742432519445447e-05
-8.7896676488114e-06   1.9504414156554586e-07   -2.8742432519445447e-05
-8.7896676488114e-06   1.9504414156554586e-07   -2.8742432519445447e-05
-8.7896676488114e-06   1.9504414156554586e-07   -2.8742432519445447e-05
-2.007414015171826e-05   3.4663956974775346e-06   -1.1327205188341932e-05
-2.007414015171826e-05   3.4663956974775346e-06   -1.1327205188341932e-05
-2.007414015171826e-05   3.4663956974775346e-06   -1.1327205188341932e-05
-2.007414015171826e-05   3.4663956974775346e-06   -1.1327205188341932e-05
-3.9300685463587793e-05   6.979402256265463e-07   -4.5032520657901746e-05
-3.9300685463587793e-05   6.979402256265463e-07   -4.5032520657901746e-05
-3.9300685463587793e-05   6.979402256265463e-07   -4.5032520657901746e-05
-3.9300685463587793e-05   6.979402256265463e-07   -4.5032520657901746e-05
-3.800656119817936e-05   4.194241838578359e-06   -1.2066043891872155e-05
-3.800656119817936e-05   4.194241838578359e-06   -1.2066043891872155e-05
-3.800656119817936e-05   4.194241838578359e-06   -1.2066043891872155e-05
-3.800656119817936e-05   4.194241838578359e-06   -1.2066043891872155e-05
-1.9165211709150777e-05   1.2233260922550442e-06   -4.1685743592459164e-05
-1.9165211709150777e-05   1.2233260922550442e-06   -4.1685743592459164e-05
-1.9165211709150777e-05   1.2233260922550442e-06   -4.1685743592459164e-05
-1.9165211709150777e-05   1.2233260922550442e-06   -4.1685743592459164e-05
-2.8835005172555544e-05   2.6442156751047257e-06   -2.6421954903161097e-05
-2.8835005172555544e-05   2.6442156751047257e-06   -2.6421954903161097e-05
-2.8835005172555544e-05   2.6442156751047257e-06   -2.6421954903161097e-05
-2.8835005172555544e-05   2.6442156751047257e-06   -2.6421954903161097e-05
-1.9165211709150777e-05   4.194241838578359e-06   -1.0283494444078128e-05
-1.9165211709150777e-05   4.194241838578359e-06   -1.0283494444078128e-05
-1.9165211709150777e-05   4.194241838578359e-06   -1.0283494444078128e-05
-1.9165211709150777e-05   4.194241838578359e-06   -1.0283494444078128e-05
-3.800656119817943e-05   1.2233260922550442e-06   -4.346829304025326e-05
-3.800656119817943e-05   1.2233260922550442e-06   -4.346829304025326e-05
-3.800656119817943e-05   1.2233260922550442e-06   -4.346829304025326e-05
-3.800656119817943e-05   1.2233260922550442e-06   -4.346829304025326e-05
-3.6754855161044795e-05   4.820970286834817e-06   -1.0985454029972287e-05
-3.6754855161044795e-05   4.820970286834817e-06   -1.0985454029972287e-05
-3.6754855161044795e-05   4.820970286834817e-06   -1.0985454029972287e-05
-3.6754855161044795e-05   4.820970286834817e-06   -1.0985454029972287e-05
-1.8331332554916565e-05   1.7067668483684156e-06   -3.98228029771068e-05
-1.8331332554916565e-05   1.7067668483684156e-06   -3.98228029771068e-05
-1.8331332554916565e-05   1.7067668483684156e-06   -3.98228029771068e-05
-1.8331332554916565e-05   1.7067668483684156e-06   -3.98228029771068e-05
-2.7664375589770614e-05   3.1013679485526312e-06   -2.5104491912459953e-05
-2.7664375589770614e-05   3.1013679485526312e-06   -2.5104491912459953e-05
-2.7664375589770614e-05   3.1013679485526312e-06   -2.5104491912459953e-05
-2.7664375589770614e-05   3.1013679485526312e-06   -2.5104491912459953e-05
-1.833133255491653e-05   4.820970286834817e-06   -9.116931966892689e-06
-1.833133255491653e-05   4.820970286834817e-06   -9.116931966892689e-06
-1.833133255491653e-05   4.820970286834817e-06   -9.116931966892689e-06
-1.833133255491653e-05   4.820970286834817e-06   -9.116931966892689e-06
-3.675485516104486e-05   1.7067668483684156e-06   -4.169132504018623e-05
-3.675485516104486e-05   1.7067668483684156e-06   -4.169132504018623e-05
-3.675485516104486e-05   1.7067668483684156e-06   -4.169132504018623e-05
-3.675485516104486e-05   1.7067668483684156e-06   -4.169132504018623e-05
-3.580634237885441e-05   5.51382956065472e-06   -1.1020227859597767e-05
-3.580634237885441e-05   5.51382956065472e-06   -1.1020227859597767e-05
-3.580634237885441e-05   5.51382956065472e-06   -1.1020227859597767e-05
-3.580634237885441e-05   5.51382956065472e-06   -1.1020227859597767e-05
-1.776920846890634e-05   2.1152566290578642e-06   -3.9042973950553436e-05
-1.776920846890634e-05   2.1152566290578642e-06   -3.9042973950553436e-05
-1.776920846890634e-05   2.1152566290578642e-06   -3.9042973950553436e-05
-1.776920846890634e-05   2.1152566290578642e-06   -3.9042973950553436e-05
-2.7010972525364314e-05   3.4205840644861924e-06   -2.4423230317714316e-05
-2.7010972525364314e-05   3.4205840644861924e-06   -2.4423230317714316e-05
-2.7010972525364314e-05   3.4205840644861924e-06   -2.4423230317714316e-05
-2.7010972525364314e-05   3.4205840644861924e-06   -2.4423230317714316e-05
-3.9300685463587793e-05   6.8060081991224135e-06   -6.493346401272731e-06
-3.9300685463587793e-05   6.8060081991224135e-06   -6.493346401272731e-06
-3.9300685463587793e-05   6.8060081991224135e-06   -6.493346401272731e-06
-3.9300685463587793e-05   6.8060081991224135e-06   -6.493346401272731e-06
-5.939423806385611e-05   6.4317668541896255e-06   -4.020714554201312e-05
-5.939423806385611e-05   6.4317668541896255e-06   -4.020714554201312e-05
-5.939423806385611e-05   6.4317668541896255e-06   -4.020714554201312e-05
-5.939423806385611e-05   6.4317668541896255e-06   -4.020714554201312e-05
-5.683577845513588e-05   7.773171756262189e-06   -1.387797627623935e-07
-5.683577845513588e-05   7.773171756262189e-06   -1.387797627623935e-07
-5.683577845513588e-05   7.773171756262189e-06   -1.387797627623935e-07
-5.683577845513588e-05   7.773171756262189e-06   -1.387797627623935e-07
-3.800656119817929e-05   8.133391533690897e-06   -3.1736940390813704e-05
-3.800656119817929e-05   8.133391533690897e-06   -3.1736940390813704e-05
-3.800656119817929e-05   8.133391533690897e-06   -3.1736940390813704e-05
-3.800656119817929e-05   8.133391533690897e-06   -3.1736940390813704e-05
-4.6298026399226686e-05   7.667824509408928e-06   -1.7638491507832423e-05
-4.6298026399226686e-05   7.667824509408928e-06   -1.7638491507832423e-05
-4.6298026399226686e-05   7.667824509408928e-06   -1.7638491507832423e-05
-4.6298026399226686e-05   7.667824509408928e-06   -1.7638491507832423e-05
-3.8006561198179394e-05   7.773171756262189e-06   -3.549116292195047e-07
-3.8006561198179394e-05   7.773171756262189e-06   -3.549116292195047e-07
-3.8006561198179394e-05   7.773171756262189e-06   -3.549116292195047e-07
-3.8006561198179394e-05   7.773171756262189e-06   -3.549116292195047e-07
-5.683577845513578e-05   8.133391533690897e-06   -3.1520808524356566e-05
-5.683577845513578e-05   8.133391533690897e-06   -3.1520808524356566e-05
-5.683577845513578e-05   8.133391533690897e-06   -3.1520808524356566e-05
-5.683577845513578e-05   8.133391533690897e-06   -3.1520808524356566e-05
-5.471463691261794e-05   8.027842405978819e-06   3.453695702387242e-06
-5.471463691261794e-05   8.027842405978819e-06   3.453695702387242e-06
-5.471463691261794e-05   8.027842405978819e-06   3.453695702387242e-06
-5.471463691261794e-05   8.027842405978819e-06   3.453695702387242e-06
-3.6754855161044795e-05   8.51621161814778e-06   -2.6772295410869154e-05
-3.6754855161044795e-05   8.51621161814778e-06   -2.6772295410869154e-05
-3.6754855161044795e-05   8.51621161814778e-06   -2.6772295410869154e-05
-3.6754855161044795e-05   8.51621161814778e-06   -2.6772295410869154e-05
-4.533444242734976e-05   8.223911446212685e-06   -1.229760319719931e-05
-4.533444242734976e-05   8.223911446212685e-06   -1.229760319719931e-05
-4.533444242734976e-05   8.223911446212685e-06   -1.229760319719931e-05
-4.533444242734976e-05   8.223911446212685e-06   -1.229760319719931e-05
-3.675485516104486e-05   8.027842405978819e-06   3.160674175086163e-06
-3.675485516104486e-05   8.027842405978819e-06   3.160674175086163e-06
-3.675485516104486e-05   8.027842405978819e-06   3.160674175086163e-06
-3.675485516104486e-05   8.027842405978819e-06   3.160674175086163e-06
-5.471463691261804e-05   8.51621161814778e-06   -2.647927388356821e-05
-5.471463691261804e-05   8.51621161814778e-06   -2.647927388356821e-05
-5.471463691261804e-05   8.51621161814778e-06   -2.647927388356821e-05
-5.471463691261804e-05   8.51621161814778e-06   -2.647927388356821e-05
-5.2495347854832285e-05   8.245737415105365e-06   8.2712898973106e-06
-5.2495347854832285e-05   8.245737415105365e-06   8.2712898973106e-06
-5.2495347854832285e-05   8.245737415105365e-06   8.2712898973106e-06
-5.2495347854832285e-05   8.245737415105365e-06   8.2712898973106e-06
-3.5806342378854444e-05   9.171053079632362e-06   -2.009890862803552e-05
-3.5806342378854444e-05   9.171053079632362e-06   -2.009890862803552e-05
-3.5806342378854444e-05   9.171053079632362e-06   -2.009890862803552e-05
-3.5806342378854444e-05   9.171053079632362e-06   -2.009890862803552e-05
-4.319017652047719e-05   8.409733602780215e-06   -7.335726705887113e-06
-4.319017652047719e-05   8.409733602780215e-06   -7.335726705887113e-06
-4.319017652047719e-05   8.409733602780215e-06   -7.335726705887113e-06
-4.319017652047719e-05   8.409733602780215e-06   -7.335726705887113e-06
5.170864429929981e-05   -7.761813294624581e-06   1.7673854284184468e-05
5.170864429929981e-05   -7.761813294624581e-06   1.7673854284184468e-05
5.170864429929981e-05   -7.761813294624581e-06   1.7673854284184468e-05
5.170864429929981e-05   -7.761813294624581e-06   1.7673854284184468e-05
2.5981781169871526e-05   -9.811066535091e-06   -2.643380287580899e-05
2.5981781169871526e-05   -9.811066535091e-06   -2.643380287580899e-05
2.5981781169871526e-05   -9.811066535091e-06   -2.643380287580899e-05
2.5981781169871526e-05   -9.811066535091e-06   -2.643380287580899e-05
2.6613244612001455e-05   -7.581302641800503e-06   1.2685722454785359e-05
2.6613244612001455e-05   -7.581302641800503e-06   1.2685722454785359e-05
2.6613244612001455e-05   -7.581302641800503e-06   1.2685722454785359e-05
2.6613244612001455e-05   -7.581302641800503e-06   1.2685722454785359e-05
5.29928210501772e-05   -1.005653513907502e-05   -2.9795098777142493e-05
5.29928210501772e-05   -1.005653513907502e-05   -2.9795098777142493e-05
5.29928210501772e-05   -1.005653513907502e-05   -2.9795098777142493e-05
5.29928210501772e-05   -1.005653513907502e-05   -2.9795098777142493e-05
3.7756941827892134e-05   -7.928327193382559e-06   -5.678891507416293e-06
3.7756941827892134e-05   -7.928327193382559e-06   -5.678891507416293e-06
3.7756941827892134e-05   -7.928327193382559e-06   -5.678891507416293e-06
3.7756941827892134e-05   -7.928327193382559e-06   -5.678891507416293e-06
5.29928210501772e-05   -7.581302641800503e-06   1.417086195315041e-05
5.29928210501772e-05   -7.581302641800503e-06   1.417086195315041e-05
5.29928210501772e-05   -7.581302641800503e-06   1.417086195315041e-05
5.29928210501772e-05   -7.581302641800503e-06   1.417086195315041e-05
2.6613244612001455e-05   -1.005653513907502e-05   -3.1280238275507464e-05
2.6613244612001455e-05   -1.005653513907502e-05   -3.1280238275507464e-05
2.6613244612001455e-05   -1.005653513907502e-05   -3.1280238275507464e-05
2.6613244612001455e-05   -1.005653513907502e-05   -3.1280238275507464e-05
2.7146908352660166e-05   -7.317847076652485e-06   1.0013964234651881e-05
2.7146908352660166e-05   -7.317847076652485e-06   1.0013964234651881e-05
2.7146908352660166e-05   -7.317847076652485e-06   1.0013964234651881e-05
2.7146908352660166e-05   -7.317847076652485e-06   1.0013964234651881e-05
5.3792792141250803e-05   -9.964775440525486e-06   -3.280768506134179e-05
5.3792792141250803e-05   -9.964775440525486e-06   -3.280768506134179e-05
5.3792792141250803e-05   -9.964775440525486e-06   -3.280768506134179e-05
5.3792792141250803e-05   -9.964775440525486e-06   -3.280768506134179e-05
3.9085009105826156e-05   -8.177946303551415e-06   -9.366810817818612e-06
3.9085009105826156e-05   -8.177946303551415e-06   -9.366810817818612e-06
3.9085009105826156e-05   -8.177946303551415e-06   -9.366810817818612e-06
3.9085009105826156e-05   -8.177946303551415e-06   -9.366810817818612e-06
5.3792792141250803e-05   -7.317847076652485e-06   1.1602121252975883e-05
5.3792792141250803e-05   -7.317847076652485e-06   1.1602121252975883e-05
5.3792792141250803e-05   -7.317847076652485e-06   1.1602121252975883e-05
5.3792792141250803e-05   -7.317847076652485e-06   1.1602121252975883e-05
2.7146908352660166e-05   -9.964775440525486e-06   -3.439584207966587e-05
2.7146908352660166e-05   -9.964775440525486e-06   -3.439584207966587e-05
2.7146908352660166e-05   -9.964775440525486e-06   -3.439584207966587e-05
2.7146908352660166e-05   -9.964775440525486e-06   -3.439584207966587e-05
2.7703972042808972e-05   -6.291168725714455e-06   4.833641888781588e-06
2.7703972042808972e-05   -6.291168725714455e-06   4.833641888781588e-06
2.7703972042808972e-05   -6.291168725714455e-06   4.833641888781588e-06
2.7703972042808972e-05   -6.291168725714455e-06   4.833641888781588e-06
5.45805284791955e-05   -9.408527396761925e-06   -3.809020363590063e-05
5.45805284791955e-05   -9.408527396761925e-06   -3.809020363590063e-05
5.45805284791955e-05   -9.408527396761925e-06   -3.809020363590063e-05
5.45805284791955e-05   -9.408527396761925e-06   -3.809020363590063e-05
3.910117737921688e-05   -7.869338724642602e-06   -1.3214798339208e-05
3.910117737921688e-05   -7.869338724642602e-06   -1.3214798339208e-05
3.910117737921688e-05   -7.869338724642602e-06   -1.3214798339208e-05
3.910117737921688e-05   -7.869338724642602e-06   -1.3214798339208e-05
2.5981781169871526e-05   -5.020091881562799e-06   1.7873453719512546e-06
2.5981781169871526e-05   -5.020091881562799e-06   1.7873453719512546e-06
2.5981781169871526e-05   -5.020091881562799e-06   1.7873453719512546e-06
2.5981781169871526e-05   -5.020091881562799e-06   1.7873453719512546e-06
3.0559401640447643e-06   -9.819472605962498e-06   -3.930201807239987e-05
3.0559401640447643e-06   -9.819472605962498e-06   -3.930201807239987e-05
3.0559401640447643e-06   -9.819472605962498e-06   -3.930201807239987e-05
3.0559401640447643e-06   -9.819472605962498e-06   -3.930201807239987e-05
3.7915901017594944e-06   -4.7783841235456755e-06   -1.8070517041144513e-07
3.7915901017594944e-06   -4.7783841235456755e-06   -1.8070517041144513e-07
3.7915901017594944e-06   -4.7783841235456755e-06   -1.8070517041144513e-07
3.7915901017594944e-06   -4.7783841235456755e-06   -1.8070517041144513e-07
2.6613244612001523e-05   -9.767708361852184e-06   -3.5223201477830755e-05
2.6613244612001523e-05   -9.767708361852184e-06   -3.5223201477830755e-05
2.6613244612001523e-05   -9.767708361852184e-06   -3.5223201477830755e-05
2.6613244612001523e-05   -9.767708361852184e-06   -3.5223201477830755e-05
1.4917920173779193e-05   -6.626042726644516e-06   -1.7615993461918375e-05
1.4917920173779193e-05   -6.626042726644516e-06   -1.7615993461918375e-05
1.4917920173779193e-05   -6.626042726644516e-06   -1.7615993461918375e-05
1.4917920173779193e-05   -6.626042726644516e-06   -1.7615993461918375e-05
2.6613244612001442e-05   -4.7783841235456755e-06   2.812889372572671e-06
2.6613244612001442e-05   -4.7783841235456755e-06   2.812889372572671e-06
2.6613244612001442e-05   -4.7783841235456755e-06   2.812889372572671e-06
2.6613244612001442e-05   -4.7783841235456755e-06   2.812889372572671e-06
3.7915901017594944e-06   -9.767708361852617e-06   -3.82167960208149e-05
3.7915901017594944e-06   -9.767708361852617e-06   -3.82167960208149e-05
3.7915901017594944e-06   -9.767708361852617e-06   -3.82167960208149e-05
3.7915901017594944e-06   -9.767708361852617e-06   -3.82167960208149e-05
4.455595437285399e-06   -4.329386455453974e-06   -4.258755989432553e-07
4.455595437285399e-06   -4.329386455453974e-06   -4.258755989432553e-07
4.455595437285399e-06   -4.329386455453974e-06   -4.258755989432553e-07
4.455595437285399e-06   -4.329386455453974e-06   -4.258755989432553e-07
2.7146908352660166e-05   -9.634722329954649e-06   -3.506152893320092e-05
2.7146908352660166e-05   -9.634722329954649e-06   -3.506152893320092e-05
2.7146908352660166e-05   -9.634722329954649e-06   -3.506152893320092e-05
2.7146908352660166e-05   -9.634722329954649e-06   -3.506152893320092e-05
1.5334422861046403e-05   -6.697308422437607e-06   -1.7136501458353906e-05
1.5334422861046403e-05   -6.697308422437607e-06   -1.7136501458353906e-05
1.5334422861046403e-05   -6.697308422437607e-06   -1.7136501458353906e-05
1.5334422861046403e-05   -6.697308422437607e-06   -1.7136501458353906e-05
2.7146908352660166e-05   -4.329386455453757e-06   2.7573259257571007e-06
2.7146908352660166e-05   -4.329386455453757e-06   2.7573259257571007e-06
2.7146908352660166e-05   -4.329386455453757e-06   2.7573259257571007e-06
2.7146908352660166e-05   -4.329386455453757e-06   2.7573259257571007e-06
4.455595437285385e-06   -9.634722329954649e-06   -3.824473045790141e-05
4.455595437285385e-06   -9.634722329954649e-06   -3.824473045790141e-05
4.455595437285385e-06   -9.634722329954649e-06   -3.824473045790141e-05
4.455595437285385e-06   -9.634722329954649e-06   -3.824473045790141e-05
5.4468754193928075e-06   -3.6904859689412903e-06   -8.910460835636572e-07
5.4468754193928075e-06   -3.6904859689412903e-06   -8.910460835636572e-07
5.4468754193928075e-06   -3.6904859689412903e-06   -8.910460835636572e-07
5.4468754193928075e-06   -3.6904859689412903e-06   -8.910460835636572e-07
2.7703972042808958e-05   -9.370251176333503e-06   -3.457834799815585e-05
2.7703972042808958e-05   -9.370251176333503e-06   -3.457834799815585e-05
2.7703972042808958e-05   -9.370251176333503e-06   -3.457834799815585e-05
2.7703972042808958e-05   -9.370251176333503e-06   -3.457834799815585e-05
1.613163001150882e-05   -6.591185457416153e-06   -1.6958550710672346e-05
1.613163001150882e-05   -6.591185457416153e-06   -1.6958550710672346e-05
1.613163001150882e-05   -6.591185457416153e-06   -1.6958550710672346e-05
1.613163001150882e-05   -6.591185457416153e-06   -1.6958550710672346e-05
3.0559401640447643e-06   -2.6207710012778485e-06   -3.859503533682745e-06
3.0559401640447643e-06   -2.6207710012778485e-06   -3.859503533682745e-06
3.0559401640447643e-06   -2.6207710012778485e-06   -3.859503533682745e-06
3.0559401640447643e-06   -2.6207710012778485e-06   -3.859503533682745e-06
-1.9631732817707804e-05   -1.1821193220545e-05   -4.719254516816391e-05
-1.9631732817707804e-05   -1.1821193220545e-05   -4.719254516816391e-05
-1.9631732817707804e-05   -1.1821193220545e-05   -4.719254516816391e-05
-1.9631732817707804e-05   -1.1821193220545e-05   -4.719254516816391e-05
-1.848552482032451e-05   -2.3355485331852475e-06   -8.371847109809672e-06
-1.848552482032451e-05   -2.3355485331852475e-06   -8.371847109809672e-06
-1.848552482032451e-05   -2.3355485331852475e-06   -8.371847109809672e-06
-1.848552482032451e-05   -2.3355485331852475e-06   -8.371847109809672e-06
3.7915901017594944e-06   -1.2080546927483154e-05   -3.96533729433708e-05
3.7915901017594944e-06   -1.2080546927483154e-05   -3.96533729433708e-05
3.7915901017594944e-06   -1.2080546927483154e-05   -3.96533729433708e-05
3.7915901017594944e-06   -1.2080546927483154e-05   -3.96533729433708e-05
-7.55663451972369e-06   -6.67777332627093e-06   -2.3981329401626052e-05
-7.55663451972369e-06   -6.67777332627093e-06   -2.3981329401626052e-05
-7.55663451972369e-06   -6.67777332627093e-06   -2.3981329401626052e-05
-7.55663451972369e-06   -6.67777332627093e-06   -2.3981329401626052e-05
3.7915901017594944e-06   -2.3355485331852475e-06   -2.5248480732308277e-06
3.7915901017594944e-06   -2.3355485331852475e-06   -2.5248480732308277e-06
3.7915901017594944e-06   -2.3355485331852475e-06   -2.5248480732308277e-06
3.7915901017594944e-06   -2.3355485331852475e-06   -2.5248480732308277e-06
-1.8485524820324538e-05   -1.2080546927483587e-05   -4.550037197994963e-05
-1.8485524820324538e-05   -1.2080546927483587e-05   -4.550037197994963e-05
-1.8485524820324538e-05   -1.2080546927483587e-05   -4.550037197994963e-05
-1.8485524820324538e-05   -1.2080546927483587e-05   -4.550037197994963e-05
-1.749747621433565e-05   -1.8929774959783405e-06   -7.813599130954228e-06
-1.749747621433565e-05   -1.8929774959783405e-06   -7.813599130954228e-06
-1.749747621433565e-05   -1.8929774959783405e-06   -7.813599130954228e-06
-1.749747621433565e-05   -1.8929774959783405e-06   -7.813599130954228e-06
4.455595437285385e-06   -1.2021527915643572e-05   -3.8324921631857157e-05
4.455595437285385e-06   -1.2021527915643572e-05   -3.8324921631857157e-05
4.455595437285385e-06   -1.2021527915643572e-05   -3.8324921631857157e-05
4.455595437285385e-06   -1.2021527915643572e-05   -3.8324921631857157e-05
-6.7428753331029954e-06   -6.827299238199047e-06   -2.2777340887676677e-05
-6.7428753331029954e-06   -6.827299238199047e-06   -2.2777340887676677e-05
-6.7428753331029954e-06   -6.827299238199047e-06   -2.2777340887676677e-05
-6.7428753331029954e-06   -6.827299238199047e-06   -2.2777340887676677e-05
4.455595437285385e-06   -1.8929774959783405e-06   -1.7364688791554031e-06
4.455595437285385e-06   -1.8929774959783405e-06   -1.7364688791554031e-06
4.455595437285385e-06   -1.8929774959783405e-06   -1.7364688791554031e-06
4.455595437285385e-06   -1.8929774959783405e-06   -1.7364688791554031e-06
-1.7497476214335718e-05   -1.2021527915644006e-05   -4.440205188365625e-05
-1.7497476214335718e-05   -1.2021527915644006e-05   -4.440205188365625e-05
-1.7497476214335718e-05   -1.2021527915644006e-05   -4.440205188365625e-05
-1.7497476214335718e-05   -1.2021527915644006e-05   -4.440205188365625e-05
-1.579251969616799e-05   -1.4730863256919198e-06   -7.781033203666052e-06
-1.579251969616799e-05   -1.4730863256919198e-06   -7.781033203666052e-06
-1.579251969616799e-05   -1.4730863256919198e-06   -7.781033203666052e-06
-1.579251969616799e-05   -1.4730863256919198e-06   -7.781033203666052e-06
5.446875419392821e-06   -1.1597056587816807e-05   -3.7105642905659215e-05
5.446875419392821e-06   -1.1597056587816807e-05   -3.7105642905659215e-05
5.446875419392821e-06   -1.1597056587816807e-05   -3.7105642905659215e-05
5.446875419392821e-06   -1.1597056587816807e-05   -3.7105642905659215e-05
-5.68522750874349e-06   -6.673598349865649e-06   -2.1506212968202556e-05
-5.68522750874349e-06   -6.673598349865649e-06   -2.1506212968202556e-05
-5.68522750874349e-06   -6.673598349865649e-06   -2.1506212968202556e-05
-5.68522750874349e-06   -6.673598349865649e-06   -2.1506212968202556e-05
-1.9631732817707777e-05   6.979402256265463e-07   -5.418836726834535e-06
-1.9631732817707777e-05   6.979402256265463e-07   -5.418836726834535e-06
-1.9631732817707777e-05   6.979402256265463e-07   -5.418836726834535e-06
-1.9631732817707777e-05   6.979402256265463e-07   -5.418836726834535e-06
-4.4933931420951283e-05   -1.471528642620545e-05   -5.68371037233395e-05
-4.4933931420951283e-05   -1.471528642620545e-05   -5.68371037233395e-05
-4.4933931420951283e-05   -1.471528642620545e-05   -5.68371037233395e-05
-4.4933931420951283e-05   -1.471528642620545e-05   -5.68371037233395e-05
-4.356316675823621e-05   1.2233260922550442e-06   -1.4210159786357066e-05
-4.356316675823621e-05   1.2233260922550442e-06   -1.4210159786357066e-05
-4.356316675823621e-05   1.2233260922550442e-06   -1.4210159786357066e-05
-4.356316675823621e-05   1.2233260922550442e-06   -1.4210159786357066e-05
-1.848552482032451e-05   -1.644087085154707e-05   -4.5407711516595554e-05
-1.848552482032451e-05   -1.644087085154707e-05   -4.5407711516595554e-05
-1.848552482032451e-05   -1.644087085154707e-05   -4.5407711516595554e-05
-1.848552482032451e-05   -1.644087085154707e-05   -4.5407711516595554e-05
-3.1199506374158286e-05   -7.470867762366068e-06   -2.9599744113714276e-05
-3.1199506374158286e-05   -7.470867762366068e-06   -2.9599744113714276e-05
-3.1199506374158286e-05   -7.470867762366068e-06   -2.9599744113714276e-05
-3.1199506374158286e-05   -7.470867762366068e-06   -2.9599744113714276e-05
-1.848552482032451e-05   1.2233260922550442e-06   -3.611641620075995e-06
-1.848552482032451e-05   1.2233260922550442e-06   -3.611641620075995e-06
-1.848552482032451e-05   1.2233260922550442e-06   -3.611641620075995e-06
-1.848552482032451e-05   1.2233260922550442e-06   -3.611641620075995e-06
-4.3563166758236285e-05   -1.6440870851546635e-05   -5.600622968287682e-05
-4.3563166758236285e-05   -1.6440870851546635e-05   -5.600622968287682e-05
-4.3563166758236285e-05   -1.6440870851546635e-05   -5.600622968287682e-05
-4.3563166758236285e-05   -1.6440870851546635e-05   -5.600622968287682e-05
-4.224937580678875e-05   1.7067668483686325e-06   -1.268048345974375e-05
-4.224937580678875e-05   1.7067668483686325e-06   -1.268048345974375e-05
-4.224937580678875e-05   1.7067668483686325e-06   -1.268048345974375e-05
-4.224937580678875e-05   1.7067668483686325e-06   -1.268048345974375e-05
-1.7497476214335678e-05   -1.653006931357122e-05   -4.299154775000186e-05
-1.7497476214335678e-05   -1.653006931357122e-05   -4.299154775000186e-05
-1.7497476214335678e-05   -1.653006931357122e-05   -4.299154775000186e-05
-1.7497476214335678e-05   -1.653006931357122e-05   -4.299154775000186e-05
-2.9862879026779296e-05   -7.493908637126387e-06   -2.7804239468462726e-05
-2.9862879026779296e-05   -7.493908637126387e-06   -2.7804239468462726e-05
-2.9862879026779296e-05   -7.493908637126387e-06   -2.7804239468462726e-05
-2.9862879026779296e-05   -7.493908637126387e-06   -2.7804239468462726e-05
-1.7497476214335678e-05   1.7067668483686325e-06   -1.7383817625801691e-06
-1.7497476214335678e-05   1.7067668483686325e-06   -1.7383817625801691e-06
-1.7497476214335678e-05   1.7067668483686325e-06   -1.7383817625801691e-06
-1.7497476214335678e-05   1.7067668483686325e-06   -1.7383817625801691e-06
-4.224937580678882e-05   -1.6530069313570785e-05   -5.393364944716568e-05
-4.224937580678882e-05   -1.6530069313570785e-05   -5.393364944716568e-05
-4.224937580678882e-05   -1.6530069313570785e-05   -5.393364944716568e-05
-4.224937580678882e-05   -1.6530069313570785e-05   -5.393364944716568e-05
-4.009446953130442e-05   2.1152566290578642e-06   -1.1124478397578005e-05
-4.009446953130442e-05   2.1152566290578642e-06   -1.1124478397578005e-05
-4.009446953130442e-05   2.1152566290578642e-06   -1.1124478397578005e-05
-4.009446953130442e-05   2.1152566290578642e-06   -1.1124478397578005e-05
-1.5792519696168045e-05   -1.5070429135382885e-05   -4.131631666414088e-05
-1.5792519696168045e-05   -1.5070429135382885e-05   -4.131631666414088e-05
-1.5792519696168045e-05   -1.5070429135382885e-05   -4.131631666414088e-05
-1.5792519696168045e-05   -1.5070429135382885e-05   -4.131631666414088e-05
-2.8544913583208816e-05   -6.608122372705246e-06   -2.513971091001291e-05
-2.8544913583208816e-05   -6.608122372705246e-06   -2.513971091001291e-05
-2.8544913583208816e-05   -6.608122372705246e-06   -2.513971091001291e-05
-2.8544913583208816e-05   -6.608122372705246e-06   -2.513971091001291e-05
-4.4933931420951283e-05   6.431766854189842e-06   -9.616852795085726e-06
-4.4933931420951283e-05   6.431766854189842e-06   -9.616852795085726e-06
-4.4933931420951283e-05   6.431766854189842e-06   -9.616852795085726e-06
-4.4933931420951283e-05   6.431766854189842e-06   -9.616852795085726e-06
-7.730869073422088e-05   0.0   -6.74338450963824e-05
-7.730869073422088e-05   0.0   -6.74338450963824e-05
-7.730869073422088e-05   0.0   -6.74338450963824e-05
-7.730869073422088e-05   0.0   -6.74338450963824e-05
-7.530481074161928e-05   8.133391533690897e-06   -7.358842057131982e-06
-7.530481074161928e-05   8.133391533690897e-06   -7.358842057131982e-06
-7.530481074161928e-05   8.133391533690897e-06   -7.358842057131982e-06
-7.530481074161928e-05   8.133391533690897e-06   -7.358842057131982e-06
-4.356316675823621e-05   0.0   -5.5381547109222906e-05
-4.356316675823621e-05   0.0   -5.5381547109222906e-05
-4.356316675823621e-05   0.0   -5.5381547109222906e-05
-4.356316675823621e-05   0.0   -5.5381547109222906e-05
-5.771699784949414e-05   2.490995831703948e-06   -3.32864261228153e-05
-5.771699784949414e-05   2.490995831703948e-06   -3.32864261228153e-05
-5.771699784949414e-05   2.490995831703948e-06   -3.32864261228153e-05
-5.771699784949414e-05   2.490995831703948e-06   -3.32864261228153e-05
-4.356316675823625e-05   8.133391533690897e-06   -2.478807136917658e-06
-4.356316675823625e-05   8.133391533690897e-06   -2.478807136917658e-06
-4.356316675823625e-05   8.133391533690897e-06   -2.478807136917658e-06
-4.356316675823625e-05   8.133391533690897e-06   -2.478807136917658e-06
-7.530481074161915e-05   0.0   -6.026158202943727e-05
-7.530481074161915e-05   0.0   -6.026158202943727e-05
-7.530481074161915e-05   0.0   -6.026158202943727e-05
-7.530481074161915e-05   0.0   -6.026158202943727e-05
-7.360845969290313e-05   8.516211618147564e-06   -2.8711808013155357e-06
-7.360845969290313e-05   8.516211618147564e-06   -2.8711808013155357e-06
-7.360845969290313e-05   8.516211618147564e-06   -2.8711808013155357e-06
-7.360845969290313e-05   8.516211618147564e-06   -2.8711808013155357e-06
-4.224937580678882e-05   0.0   -5.002659364061767e-05
-4.224937580678882e-05   0.0   -5.002659364061767e-05
-4.224937580678882e-05   0.0   -5.002659364061767e-05
-4.224937580678882e-05   0.0   -5.002659364061767e-05
-5.7124938844829066e-05   3.93983913130828e-06   -2.7597892056001414e-05
-5.7124938844829066e-05   3.93983913130828e-06   -2.7597892056001414e-05
-5.7124938844829066e-05   3.93983913130828e-06   -2.7597892056001414e-05
-5.7124938844829066e-05   3.93983913130828e-06   -2.7597892056001414e-05
-4.224937580678882e-05   8.51621161814778e-06   2.2385461695729686e-06
-4.224937580678882e-05   8.51621161814778e-06   2.2385461695729686e-06
-4.224937580678882e-05   8.51621161814778e-06   2.2385461695729686e-06
-4.224937580678882e-05   8.51621161814778e-06   2.2385461695729686e-06
-7.3608459692903e-05   0.0   -5.513632061150621e-05
-7.3608459692903e-05   0.0   -5.513632061150621e-05
-7.3608459692903e-05   0.0   -5.513632061150621e-05
-7.3608459692903e-05   0.0   -5.513632061150621e-05
-7.02227012400286e-05   9.171053079632145e-06   4.356098836118608e-06
-7.02227012400286e-05   9.171053079632145e-06   4.356098836118608e-06
-7.02227012400286e-05   9.171053079632145e-06   4.356098836118608e-06
-7.02227012400286e-05   9.171053079632145e-06   4.356098836118608e-06
-4.009446953130446e-05   0.0   -4.035498883064241e-05
-4.009446953130446e-05   0.0   -4.035498883064241e-05
-4.009446953130446e-05   0.0   -4.035498883064241e-05
-4.009446953130446e-05   0.0   -4.035498883064241e-05
-5.416572539814971e-05   4.857389778625213e-06   -1.9817329586409153e-05
-5.416572539814971e-05   4.857389778625213e-06   -1.9817329586409153e-05
-5.416572539814971e-05   4.857389778625213e-06   -1.9817329586409153e-05
-5.416572539814971e-05   4.857389778625213e-06   -1.9817329586409153e-05
5.720644329108351e-05   -9.811066535091e-06   3.412556143291549e-05
5.720644329108351e-05   -9.811066535091e-06   3.412556143291549e-05
5.720644329108351e-05   -9.811066535091e-06   3.412556143291549e-05
5.720644329108351e-05   -9.811066535091e-06   3.412556143291549e-05
2.966663300691991e-05   -7.57108705282724e-06   -1.0430134684665622e-05
2.966663300691991e-05   -7.57108705282724e-06   -1.0430134684665622e-05
2.966663300691991e-05   -7.57108705282724e-06   -1.0430134684665622e-05
2.966663300691991e-05   -7.57108705282724e-06   -1.0430134684665622e-05
2.8923153441951928e-05   -1.005653513907502e-05   3.0126502953868334e-05
2.8923153441951928e-05   -1.005653513907502e-05   3.0126502953868334e-05
2.8923153441951928e-05   -1.005653513907502e-05   3.0126502953868334e-05
2.8923153441951928e-05   -1.005653513907502e-05   3.0126502953868334e-05
5.6598565322303824e-05   -8.322096774499282e-06   -1.7039846532130145e-05
5.6598565322303824e-05   -8.322096774499282e-06   -1.7039846532130145e-05
5.6598565322303824e-05   -8.322096774499282e-06   -1.7039846532130145e-05
5.6598565322303824e-05   -8.322096774499282e-06   -1.7039846532130145e-05
4.133443908438549e-05   -8.459796008143889e-06   8.482983404586961e-06
4.133443908438549e-05   -8.459796008143889e-06   8.482983404586961e-06
4.133443908438549e-05   -8.459796008143889e-06   8.482983404586961e-06
4.133443908438549e-05   -8.459796008143889e-06   8.482983404586961e-06
5.6598565322303824e-05   -1.005653513907502e-05   2.908583993512282e-05
5.6598565322303824e-05   -1.005653513907502e-05   2.908583993512282e-05
5.6598565322303824e-05   -1.005653513907502e-05   2.908583993512282e-05
5.6598565322303824e-05   -1.005653513907502e-05   2.908583993512282e-05
2.8923153441951928e-05   -8.322096774499282e-06   -1.5999183513384658e-05
2.8923153441951928e-05   -8.322096774499282e-06   -1.5999183513384658e-05
2.8923153441951928e-05   -8.322096774499282e-06   -1.5999183513384658e-05
2.8923153441951928e-05   -8.322096774499282e-06   -1.5999183513384658e-05
2.8250314292220256e-05   -9.964775440525486e-06   2.7042096528193766e-05
2.8250314292220256e-05   -9.964775440525486e-06   2.7042096528193766e-05
2.8250314292220256e-05   -9.964775440525486e-06   2.7042096528193766e-05
2.8250314292220256e-05   -9.964775440525486e-06   2.7042096528193766e-05
5.589450073744061e-05   -8.390362755284625e-06   -1.9976195158318217e-05
5.589450073744061e-05   -8.390362755284625e-06   -1.9976195158318217e-05
5.589450073744061e-05   -8.390362755284625e-06   -1.9976195158318217e-05
5.589450073744061e-05   -8.390362755284625e-06   -1.9976195158318217e-05
4.130643053646206e-05   -8.608193487796758e-06   4.467953616153406e-06
4.130643053646206e-05   -8.608193487796758e-06   4.467953616153406e-06
4.130643053646206e-05   -8.608193487796758e-06   4.467953616153406e-06
4.130643053646206e-05   -8.608193487796758e-06   4.467953616153406e-06
5.589450073744069e-05   -9.964775440525703e-06   2.6097448917049358e-05
5.589450073744069e-05   -9.964775440525703e-06   2.6097448917049358e-05
5.589450073744069e-05   -9.964775440525703e-06   2.6097448917049358e-05
5.589450073744069e-05   -9.964775440525703e-06   2.6097448917049358e-05
2.8250314292220256e-05   -8.390362755284625e-06   -1.90315475471737e-05
2.8250314292220256e-05   -8.390362755284625e-06   -1.90315475471737e-05
2.8250314292220256e-05   -8.390362755284625e-06   -1.90315475471737e-05
2.8250314292220256e-05   -8.390362755284625e-06   -1.90315475471737e-05
2.7429286787870576e-05   -9.408527396761925e-06   2.2024009130624687e-05
2.7429286787870576e-05   -9.408527396761925e-06   2.2024009130624687e-05
2.7429286787870576e-05   -9.408527396761925e-06   2.2024009130624687e-05
2.7429286787870576e-05   -9.408527396761925e-06   2.2024009130624687e-05
5.4791260648918774e-05   -8.212435730809136e-06   -2.4296935637360814e-05
5.4791260648918774e-05   -8.212435730809136e-06   -2.4296935637360814e-05
5.4791260648918774e-05   -8.212435730809136e-06   -2.4296935637360814e-05
5.4791260648918774e-05   -8.212435730809136e-06   -2.4296935637360814e-05
3.989935272594465e-05   -8.185237249800715e-06   5.065918123242966e-07
3.989935272594465e-05   -8.185237249800715e-06   5.065918123242966e-07
3.989935272594465e-05   -8.185237249800715e-06   5.065918123242966e-07
3.989935272594465e-05   -8.185237249800715e-06   5.065918123242966e-07
2.966663300691991e-05   -9.819472605962498e-06   2.5480962360322596e-05
2.966663300691991e-05   -9.819472605962498e-06   2.5480962360322596e-05
2.966663300691991e-05   -9.819472605962498e-06   2.5480962360322596e-05
2.966663300691991e-05   -9.819472605962498e-06   2.5480962360322596e-05
6.279401776490196e-06   -4.668880883231148e-06   -1.0407401323421581e-05
6.279401776490196e-06   -4.668880883231148e-06   -1.0407401323421581e-05
6.279401776490196e-06   -4.668880883231148e-06   -1.0407401323421581e-05
6.279401776490196e-06   -4.668880883231148e-06   -1.0407401323421581e-05
5.102808146096273e-06   -9.767708361852617e-06   2.9073485893034694e-05
5.102808146096273e-06   -9.767708361852617e-06   2.9073485893034694e-05
5.102808146096273e-06   -9.767708361852617e-06   2.9073485893034694e-05
5.102808146096273e-06   -9.767708361852617e-06   2.9073485893034694e-05
2.8923153441951928e-05   -4.951131459369866e-06   -1.3517035741547742e-05
2.8923153441951928e-05   -4.951131459369866e-06   -1.3517035741547742e-05
2.8923153441951928e-05   -4.951131459369866e-06   -1.3517035741547742e-05
2.8923153441951928e-05   -4.951131459369866e-06   -1.3517035741547742e-05
1.746804836226416e-05   -7.0312869448589405e-06   6.822899349225161e-06
1.746804836226416e-05   -7.0312869448589405e-06   6.822899349225161e-06
1.746804836226416e-05   -7.0312869448589405e-06   6.822899349225161e-06
1.746804836226416e-05   -7.0312869448589405e-06   6.822899349225161e-06
2.8923153441951915e-05   -9.767708361852617e-06   2.6183539751544773e-05
2.8923153441951915e-05   -9.767708361852617e-06   2.6183539751544773e-05
2.8923153441951915e-05   -9.767708361852617e-06   2.6183539751544773e-05
2.8923153441951915e-05   -9.767708361852617e-06   2.6183539751544773e-05
5.102808146096287e-06   -4.951131459369866e-06   -1.0627089600058525e-05
5.102808146096287e-06   -4.951131459369866e-06   -1.0627089600058525e-05
5.102808146096287e-06   -4.951131459369866e-06   -1.0627089600058525e-05
5.102808146096287e-06   -4.951131459369866e-06   -1.0627089600058525e-05
4.263326901296027e-06   -9.634722329954649e-06   2.911193922048921e-05
4.263326901296027e-06   -9.634722329954649e-06   2.911193922048921e-05
4.263326901296027e-06   -9.634722329954649e-06   2.911193922048921e-05
4.263326901296027e-06   -9.634722329954649e-06   2.911193922048921e-05
2.8250314292220256e-05   -5.0755064202375605e-06   -1.3601902643548469e-05
2.8250314292220256e-05   -5.0755064202375605e-06   -1.3601902643548469e-05
2.8250314292220256e-05   -5.0755064202375605e-06   -1.3601902643548469e-05
2.8250314292220256e-05   -5.0755064202375605e-06   -1.3601902643548469e-05
1.6458413805460544e-05   -6.886364771329463e-06   7.137779845040374e-06
1.6458413805460544e-05   -6.886364771329463e-06   7.137779845040374e-06
1.6458413805460544e-05   -6.886364771329463e-06   7.137779845040374e-06
1.6458413805460544e-05   -6.886364771329463e-06   7.137779845040374e-06
2.825031429222031e-05   -9.634722329954215e-06   2.63764096746588e-05
2.825031429222031e-05   -9.634722329954215e-06   2.63764096746588e-05
2.825031429222031e-05   -9.634722329954215e-06   2.63764096746588e-05
2.825031429222031e-05   -9.634722329954215e-06   2.63764096746588e-05
4.263326901296027e-06   -5.0755064202375605e-06   -1.0866373097717652e-05
4.263326901296027e-06   -5.0755064202375605e-06   -1.0866373097717652e-05
4.263326901296027e-06   -5.0755064202375605e-06   -1.0866373097717652e-05
4.263326901296027e-06   -5.0755064202375605e-06   -1.0866373097717652e-05
3.3296659691430132e-06   -9.370251176333503e-06   3.0053003987622453e-05
3.3296659691430132e-06   -9.370251176333503e-06   3.0053003987622453e-05
3.3296659691430132e-06   -9.370251176333503e-06   3.0053003987622453e-05
3.3296659691430132e-06   -9.370251176333503e-06   3.0053003987622453e-05
2.7429286787870562e-05   -4.959044481959475e-06   -1.2759754726881026e-05
2.7429286787870562e-05   -4.959044481959475e-06   -1.2759754726881026e-05
2.7429286787870562e-05   -4.959044481959475e-06   -1.2759754726881026e-05
2.7429286787870562e-05   -4.959044481959475e-06   -1.2759754726881026e-05
1.5841836402143318e-05   -6.5826755797342845e-06   7.526841241329305e-06
1.5841836402143318e-05   -6.5826755797342845e-06   7.526841241329305e-06
1.5841836402143318e-05   -6.5826755797342845e-06   7.526841241329305e-06
1.5841836402143318e-05   -6.5826755797342845e-06   7.526841241329305e-06
6.279401776490196e-06   -1.1821193220545e-05   2.6201043629757415e-05
6.279401776490196e-06   -1.1821193220545e-05   2.6201043629757415e-05
6.279401776490196e-06   -1.1821193220545e-05   2.6201043629757415e-05
6.279401776490196e-06   -1.1821193220545e-05   2.6201043629757415e-05
-1.618983054588252e-05   -1.9439884093135074e-06   -5.321354020791603e-06
-1.618983054588252e-05   -1.9439884093135074e-06   -5.321354020791603e-06
-1.618983054588252e-05   -1.9439884093135074e-06   -5.321354020791603e-06
-1.618983054588252e-05   -1.9439884093135074e-06   -5.321354020791603e-06
-1.8019829048174558e-05   -1.2080546927483587e-05   3.365395736498007e-05
-1.8019829048174558e-05   -1.2080546927483587e-05   3.365395736498007e-05
-1.8019829048174558e-05   -1.2080546927483587e-05   3.365395736498007e-05
-1.8019829048174558e-05   -1.2080546927483587e-05   3.365395736498007e-05
5.102808146096287e-06   -2.052132936647584e-06   -1.0900819686639413e-05
5.102808146096287e-06   -2.052132936647584e-06   -1.0900819686639413e-05
5.102808146096287e-06   -2.052132936647584e-06   -1.0900819686639413e-05
5.102808146096287e-06   -2.052132936647584e-06   -1.0900819686639413e-05
-5.5067767975917295e-06   -6.7496554009135665e-06   9.60033536473318e-06
-5.5067767975917295e-06   -6.7496554009135665e-06   9.60033536473318e-06
-5.5067767975917295e-06   -6.7496554009135665e-06   9.60033536473318e-06
-5.5067767975917295e-06   -6.7496554009135665e-06   9.60033536473318e-06
5.102808146096273e-06   -1.2080546927483154e-05   2.763690897047863e-05
5.102808146096273e-06   -1.2080546927483154e-05   2.763690897047863e-05
5.102808146096273e-06   -1.2080546927483154e-05   2.763690897047863e-05
5.102808146096273e-06   -1.2080546927483154e-05   2.763690897047863e-05
-1.801982904817453e-05   -2.0521329366480177e-06   -4.8837712921382444e-06
-1.801982904817453e-05   -2.0521329366480177e-06   -4.8837712921382444e-06
-1.801982904817453e-05   -2.0521329366480177e-06   -4.8837712921382444e-06
-1.801982904817453e-05   -2.0521329366480177e-06   -4.8837712921382444e-06
-1.913906830191254e-05   -1.2021527915644006e-05   3.493372741067598e-05
-1.913906830191254e-05   -1.2021527915644006e-05   3.493372741067598e-05
-1.913906830191254e-05   -1.2021527915644006e-05   3.493372741067598e-05
-1.913906830191254e-05   -1.2021527915644006e-05   3.493372741067598e-05
4.263326901296027e-06   -2.184895642072353e-06   -9.972243958814107e-06
4.263326901296027e-06   -2.184895642072353e-06   -9.972243958814107e-06
4.263326901296027e-06   -2.184895642072353e-06   -9.972243958814107e-06
4.263326901296027e-06   -2.184895642072353e-06   -9.972243958814107e-06
-6.74604071949156e-06   -6.726159161444959e-06   1.1101460187455214e-05
-6.74604071949156e-06   -6.726159161444959e-06   1.1101460187455214e-05
-6.74604071949156e-06   -6.726159161444959e-06   1.1101460187455214e-05
-6.74604071949156e-06   -6.726159161444959e-06   1.1101460187455214e-05
4.263326901296014e-06   -1.2021527915643572e-05   2.9031748046533056e-05
4.263326901296014e-06   -1.2021527915643572e-05   2.9031748046533056e-05
4.263326901296014e-06   -1.2021527915643572e-05   2.9031748046533056e-05
4.263326901296014e-06   -1.2021527915643572e-05   2.9031748046533056e-05
-1.9139068301912528e-05   -2.184895642072353e-06   -4.070264594671592e-06
-1.9139068301912528e-05   -2.184895642072353e-06   -4.070264594671592e-06
-1.9139068301912528e-05   -2.184895642072353e-06   -4.070264594671592e-06
-1.9139068301912528e-05   -2.184895642072353e-06   -4.070264594671592e-06
-2.0454579542346043e-05   -1.1597056587816807e-05   3.658956860636453e-05
-2.0454579542346043e-05   -1.1597056587816807e-05   3.658956860636453e-05
-2.0454579542346043e-05   -1.1597056587816807e-05   3.658956860636453e-05
-2.0454579542346043e-05   -1.1597056587816807e-05   3.658956860636453e-05
3.3296659691430132e-06   -2.1703892514662523e-06   -8.70684098126101e-06
3.3296659691430132e-06   -2.1703892514662523e-06   -8.70684098126101e-06
3.3296659691430132e-06   -2.1703892514662523e-06   -8.70684098126101e-06
3.3296659691430132e-06   -2.1703892514662523e-06   -8.70684098126101e-06
-7.75555343179705e-06   -6.455755365003882e-06   1.2339744355095348e-05
-7.75555343179705e-06   -6.455755365003882e-06   1.2339744355095348e-05
-7.75555343179705e-06   -6.455755365003882e-06   1.2339744355095348e-05
-7.75555343179705e-06   -6.455755365003882e-06   1.2339744355095348e-05
-1.618983054588256e-05   -1.471528642620545e-05   3.173074395242009e-05
-1.618983054588256e-05   -1.471528642620545e-05   3.173074395242009e-05
-1.618983054588256e-05   -1.471528642620545e-05   3.173074395242009e-05
-1.618983054588256e-05   -1.471528642620545e-05   3.173074395242009e-05
-4.17545626990234e-05   2.1456233340886102e-06   -7.605971133048048e-07
-4.17545626990234e-05   2.1456233340886102e-06   -7.605971133048048e-07
-4.17545626990234e-05   2.1456233340886102e-06   -7.605971133048048e-07
-4.17545626990234e-05   2.1456233340886102e-06   -7.605971133048048e-07
-4.395638075883643e-05   -1.6440870851546635e-05   4.482465554597249e-05
-4.395638075883643e-05   -1.6440870851546635e-05   4.482465554597249e-05
-4.395638075883643e-05   -1.6440870851546635e-05   4.482465554597249e-05
-4.395638075883643e-05   -1.6440870851546635e-05   4.482465554597249e-05
-1.801982904817453e-05   2.0225253445174153e-06   -9.480968356102414e-06
-1.801982904817453e-05   2.0225253445174153e-06   -9.480968356102414e-06
-1.801982904817453e-05   2.0225253445174153e-06   -9.480968356102414e-06
-1.801982904817453e-05   2.0225253445174153e-06   -9.480968356102414e-06
-2.9562883905879912e-05   -6.083768273359037e-06   1.4621232577465676e-05
-2.9562883905879912e-05   -6.083768273359037e-06   1.4621232577465676e-05
-2.9562883905879912e-05   -6.083768273359037e-06   1.4621232577465676e-05
-2.9562883905879912e-05   -6.083768273359037e-06   1.4621232577465676e-05
-1.801982904817453e-05   -1.644087085154707e-05   3.3746617828333915e-05
-1.801982904817453e-05   -1.644087085154707e-05   3.3746617828333915e-05
-1.801982904817453e-05   -1.644087085154707e-05   3.3746617828333915e-05
-1.801982904817453e-05   -1.644087085154707e-05   3.3746617828333915e-05
-4.395638075883635e-05   2.0225253445174153e-06   1.5970693615359292e-06
-4.395638075883635e-05   2.0225253445174153e-06   1.5970693615359292e-06
-4.395638075883635e-05   2.0225253445174153e-06   1.5970693615359292e-06
-4.395638075883635e-05   2.0225253445174153e-06   1.5970693615359292e-06
-4.5297868433202e-05   -1.6530069313570785e-05   4.733755655433403e-05
-4.5297868433202e-05   -1.6530069313570785e-05   4.733755655433403e-05
-4.5297868433202e-05   -1.6530069313570785e-05   4.733755655433403e-05
-4.5297868433202e-05   -1.6530069313570785e-05   4.733755655433403e-05
-1.9139068301912528e-05   1.792139036435169e-06   -7.253768674485425e-06
-1.9139068301912528e-05   1.792139036435169e-06   -7.253768674485425e-06
-1.9139068301912528e-05   1.792139036435169e-06   -7.253768674485425e-06
-1.9139068301912528e-05   1.792139036435169e-06   -7.253768674485425e-06
-3.099140628118159e-05   -7.013694642855114e-06   1.7783628165203937e-05
-3.099140628118159e-05   -7.013694642855114e-06   1.7783628165203937e-05
-3.099140628118159e-05   -7.013694642855114e-06   1.7783628165203937e-05
-3.099140628118159e-05   -7.013694642855114e-06   1.7783628165203937e-05
-1.9139068301912528e-05   -1.653006931357122e-05   3.634423154433034e-05
-1.9139068301912528e-05   -1.653006931357122e-05   3.634423154433034e-05
-1.9139068301912528e-05   -1.653006931357122e-05   3.634423154433034e-05
-1.9139068301912528e-05   -1.653006931357122e-05   3.634423154433034e-05
-4.529786843320192e-05   1.792139036435169e-06   3.7395563355182345e-06
-4.529786843320192e-05   1.792139036435169e-06   3.7395563355182345e-06
-4.529786843320192e-05   1.792139036435169e-06   3.7395563355182345e-06
-4.529786843320192e-05   1.792139036435169e-06   3.7395563355182345e-06
-4.674388932819521e-05   -1.5070429135382885e-05   4.841403821771403e-05
-4.674388932819521e-05   -1.5070429135382885e-05   4.841403821771403e-05
-4.674388932819521e-05   -1.5070429135382885e-05   4.841403821771403e-05
-4.674388932819521e-05   -1.5070429135382885e-05   4.841403821771403e-05
-2.0454579542346043e-05   1.5308395522107589e-06   -5.362239304590758e-06
-2.0454579542346043e-05   1.5308395522107589e-06   -5.362239304590758e-06
-2.0454579542346043e-05   1.5308395522107589e-06   -5.362239304590758e-06
-2.0454579542346043e-05   1.5308395522107589e-06   -5.362239304590758e-06
-3.2465444646784245e-05   -7.064394130739749e-06   1.981300941257633e-05
-3.2465444646784245e-05   -7.064394130739749e-06   1.981300941257633e-05
-3.2465444646784245e-05   -7.064394130739749e-06   1.981300941257633e-05
-3.2465444646784245e-05   -7.064394130739749e-06   1.981300941257633e-05
-4.175456269902326e-05   0.0   3.510960854806729e-05
-4.175456269902326e-05   0.0   3.510960854806729e-05
-4.175456269902326e-05   0.0   3.510960854806729e-05
-4.175456269902326e-05   0.0   3.510960854806729e-05
-7.347431700144547e-05   9.641379246784487e-06   -1.1971821074565812e-05
-7.347431700144547e-05   9.641379246784487e-06   -1.1971821074565812e-05
-7.347431700144547e-05   9.641379246784487e-06   -1.1971821074565812e-05
-7.347431700144547e-05   9.641379246784487e-06   -1.1971821074565812e-05
-7.650569851962169e-05   0.0   5.1036340341741515e-05
-7.650569851962169e-05   0.0   5.1036340341741515e-05
-7.650569851962169e-05   0.0   5.1036340341741515e-05
-7.650569851962169e-05   0.0   5.1036340341741515e-05
-4.395638075883635e-05   9.311670370192211e-06   -8.799524815016405e-06
-4.395638075883635e-05   9.311670370192211e-06   -8.799524815016405e-06
-4.395638075883635e-05   9.311670370192211e-06   -8.799524815016405e-06
-4.395638075883635e-05   9.311670370192211e-06   -8.799524815016405e-06
-5.6411199712588114e-05   5.7196906704660815e-06   1.411369459440549e-05
-5.6411199712588114e-05   5.7196906704660815e-06   1.411369459440549e-05
-5.6411199712588114e-05   5.7196906704660815e-06   1.411369459440549e-05
-5.6411199712588114e-05   5.7196906704660815e-06   1.411369459440549e-05
-4.395638075883631e-05   0.0   4.544933811962624e-05
-4.395638075883631e-05   0.0   4.544933811962624e-05
-4.395638075883631e-05   0.0   4.544933811962624e-05
-4.395638075883631e-05   0.0   4.544933811962624e-05
-7.650569851962185e-05   9.311670370192211e-06   -3.212522592901078e-06
-7.650569851962185e-05   9.311670370192211e-06   -3.212522592901078e-06
-7.650569851962185e-05   9.311670370192211e-06   -3.212522592901078e-06
-7.650569851962185e-05   9.311670370192211e-06   -3.212522592901078e-06
-7.803176543079207e-05   0.0   5.6689717110893195e-05
-7.803176543079207e-05   0.0   5.6689717110893195e-05
-7.803176543079207e-05   0.0   5.6689717110893195e-05
-7.803176543079207e-05   0.0   5.6689717110893195e-05
-4.529786843320192e-05   9.07517458335243e-06   -3.3118826351017077e-06
-4.529786843320192e-05   9.07517458335243e-06   -3.3118826351017077e-06
-4.529786843320192e-05   9.07517458335243e-06   -3.3118826351017077e-06
-4.529786843320192e-05   9.07517458335243e-06   -3.3118826351017077e-06
-5.934191866543927e-05   4.7776646333480034e-06   2.2673373721963604e-05
-5.934191866543927e-05   4.7776646333480034e-06   2.2673373721963604e-05
-5.934191866543927e-05   4.7776646333480034e-06   2.2673373721963604e-05
-5.934191866543927e-05   4.7776646333480034e-06   2.2673373721963604e-05
-4.529786843320192e-05   0.0   5.124461236088197e-05
-4.529786843320192e-05   0.0   5.124461236088197e-05
-4.529786843320192e-05   0.0   5.124461236088197e-05
-4.529786843320192e-05   0.0   5.124461236088197e-05
-7.803176543079218e-05   9.07517458335243e-06   2.133222114909664e-06
-7.803176543079218e-05   9.07517458335243e-06   2.133222114909664e-06
-7.803176543079218e-05   9.07517458335243e-06   2.133222114909664e-06
-7.803176543079218e-05   9.07517458335243e-06   2.133222114909664e-06
-7.972870854269535e-05   0.0   6.422712682096717e-05
-7.972870854269535e-05   0.0   6.422712682096717e-05
-7.972870854269535e-05   0.0   6.422712682096717e-05
-7.972870854269535e-05   0.0   6.422712682096717e-05
-4.674388932819516e-05   7.567248851817181e-06   4.7120788190429044e-06
-4.674388932819516e-05   7.567248851817181e-06   4.7120788190429044e-06
-4.674388932819516e-05   7.567248851817181e-06   4.7120788190429044e-06
-4.674388932819516e-05   7.567248851817181e-06   4.7120788190429044e-06
-5.982754927399468e-05   3.358375344642917e-06   2.904350283301283e-05
-5.982754927399468e-05   3.358375344642917e-06   2.904350283301283e-05
-5.982754927399468e-05   3.358375344642917e-06   2.904350283301283e-05
-5.982754927399468e-05   3.358375344642917e-06   2.904350283301283e-05
5.036356142178435e-05   -7.57108705282724e-06   3.5714384140823186e-05
5.036356142178435e-05   -7.57108705282724e-06   3.5714384140823186e-05
5.036356142178435e-05   -7.57108705282724e-06   3.5714384140823186e-05
5.036356142178435e-05   -7.57108705282724e-06   3.5714384140823186e-05
2.5461928125259623e-05   -5.719070461776771e-06   -4.677128065421138e-06
2.5461928125259623e-05   -5.719070461776771e-06   -4.677128065421138e-06
2.5461928125259623e-05   -5.719070461776771e-06   -4.677128065421138e-06
2.5461928125259623e-05   -5.719070461776771e-06   -4.677128065421138e-06
2.479276116394603e-05   -8.322096774499715e-06   3.116489090131732e-05
2.479276116394603e-05   -8.322096774499715e-06   3.116489090131732e-05
2.479276116394603e-05   -8.322096774499715e-06   3.116489090131732e-05
2.479276116394603e-05   -8.322096774499715e-06   3.116489090131732e-05
4.917006910125968e-05   -6.479513255082956e-06   -1.056950577252194e-05
4.917006910125968e-05   -6.479513255082956e-06   -1.056950577252194e-05
4.917006910125968e-05   -6.479513255082956e-06   -1.056950577252194e-05
4.917006910125968e-05   -6.479513255082956e-06   -1.056950577252194e-05
3.578000121263884e-05   -6.742947168177993e-06   1.1905334389703307e-05
3.578000121263884e-05   -6.742947168177993e-06   1.1905334389703307e-05
3.578000121263884e-05   -6.742947168177993e-06   1.1905334389703307e-05
3.578000121263884e-05   -6.742947168177993e-06   1.1905334389703307e-05
4.917006910125959e-05   -8.322096774499715e-06   3.0059340789667676e-05
4.917006910125959e-05   -8.322096774499715e-06   3.0059340789667676e-05
4.917006910125959e-05   -8.322096774499715e-06   3.0059340789667676e-05
4.917006910125959e-05   -8.322096774499715e-06   3.0059340789667676e-05
2.4792761163946084e-05   -6.479513255082956e-06   -9.463955660871971e-06
2.4792761163946084e-05   -6.479513255082956e-06   -9.463955660871971e-06
2.4792761163946084e-05   -6.479513255082956e-06   -9.463955660871971e-06
2.4792761163946084e-05   -6.479513255082956e-06   -9.463955660871971e-06
2.393055297307115e-05   -8.390362755284625e-06   2.7967971457366642e-05
2.393055297307115e-05   -8.390362755284625e-06   2.7967971457366642e-05
2.393055297307115e-05   -8.390362755284625e-06   2.7967971457366642e-05
2.393055297307115e-05   -8.390362755284625e-06   2.7967971457366642e-05
4.796244379533751e-05   -6.591975904097786e-06   -1.3164212023789555e-05
4.796244379533751e-05   -6.591975904097786e-06   -1.3164212023789555e-05
4.796244379533751e-05   -6.591975904097786e-06   -1.3164212023789555e-05
4.796244379533751e-05   -6.591975904097786e-06   -1.3164212023789555e-05
3.5447914483931134e-05   -7.036824893936989e-06   7.960246222457569e-06
3.5447914483931134e-05   -7.036824893936989e-06   7.960246222457569e-06
3.5447914483931134e-05   -7.036824893936989e-06   7.960246222457569e-06
3.5447914483931134e-05   -7.036824893936989e-06   7.960246222457569e-06
4.796244379533751e-05   -8.390362755284625e-06   2.6888939346654257e-05
4.796244379533751e-05   -8.390362755284625e-06   2.6888939346654257e-05
4.796244379533751e-05   -8.390362755284625e-06   2.6888939346654257e-05
4.796244379533751e-05   -8.390362755284625e-06   2.6888939346654257e-05
2.393055297307115e-05   -6.591975904097786e-06   -1.2085179913077278e-05
2.393055297307115e-05   -6.591975904097786e-06   -1.2085179913077278e-05
2.393055297307115e-05   -6.591975904097786e-06   -1.2085179913077278e-05
2.393055297307115e-05   -6.591975904097786e-06   -1.2085179913077278e-05
2.302573378105979e-05   -8.212435730808702e-06   2.322370932611494e-05
2.302573378105979e-05   -8.212435730808702e-06   2.322370932611494e-05
2.302573378105979e-05   -8.212435730808702e-06   2.322370932611494e-05
2.302573378105979e-05   -8.212435730808702e-06   2.322370932611494e-05
4.6450581014005514e-05   -6.547749009585234e-06   -1.6816514761528768e-05
4.6450581014005514e-05   -6.547749009585234e-06   -1.6816514761528768e-05
4.6450581014005514e-05   -6.547749009585234e-06   -1.6816514761528768e-05
4.6450581014005514e-05   -6.547749009585234e-06   -1.6816514761528768e-05
3.387265404357387e-05   -6.851772191759854e-06   4.32911076516274e-06
3.387265404357387e-05   -6.851772191759854e-06   4.32911076516274e-06
3.387265404357387e-05   -6.851772191759854e-06   4.32911076516274e-06
3.387265404357387e-05   -6.851772191759854e-06   4.32911076516274e-06
2.5461928125259623e-05   -4.668880883231148e-06   3.3757972423058914e-05
2.5461928125259623e-05   -4.668880883231148e-06   3.3757972423058914e-05
2.5461928125259623e-05   -4.668880883231148e-06   3.3757972423058914e-05
2.5461928125259623e-05   -4.668880883231148e-06   3.3757972423058914e-05
2.7675857210126485e-06   -2.014812657914972e-06   -2.473490648829957e-06
2.7675857210126485e-06   -2.014812657914972e-06   -2.473490648829957e-06
2.7675857210126485e-06   -2.014812657914972e-06   -2.473490648829957e-06
2.7675857210126485e-06   -2.014812657914972e-06   -2.473490648829957e-06
2.102563803259072e-06   -4.951131459369866e-06   3.5163983600027546e-05
2.102563803259072e-06   -4.951131459369866e-06   3.5163983600027546e-05
2.102563803259072e-06   -4.951131459369866e-06   3.5163983600027546e-05
2.102563803259072e-06   -4.951131459369866e-06   3.5163983600027546e-05
2.4792761163946084e-05   -2.422889914581233e-06   -4.169956927990671e-06
2.4792761163946084e-05   -2.422889914581233e-06   -4.169956927990671e-06
2.4792761163946084e-05   -2.422889914581233e-06   -4.169956927990671e-06
2.4792761163946084e-05   -2.422889914581233e-06   -4.169956927990671e-06
1.364901671730242e-05   -3.2682489489461574e-06   1.4910165903701399e-05
1.364901671730242e-05   -3.2682489489461574e-06   1.4910165903701399e-05
1.364901671730242e-05   -3.2682489489461574e-06   1.4910165903701399e-05
1.364901671730242e-05   -3.2682489489461574e-06   1.4910165903701399e-05
2.4792761163946057e-05   -4.951131459369866e-06   3.36470386731547e-05
2.4792761163946057e-05   -4.951131459369866e-06   3.36470386731547e-05
2.4792761163946057e-05   -4.951131459369866e-06   3.36470386731547e-05
2.4792761163946057e-05   -4.951131459369866e-06   3.36470386731547e-05
2.102563803259072e-06   -2.422889914581233e-06   -2.653012001117578e-06
2.102563803259072e-06   -2.422889914581233e-06   -2.653012001117578e-06
2.102563803259072e-06   -2.422889914581233e-06   -2.653012001117578e-06
2.102563803259072e-06   -2.422889914581233e-06   -2.653012001117578e-06
1.2539449878342908e-06   -5.075506420237127e-06   3.4829097297019726e-05
1.2539449878342908e-06   -5.075506420237127e-06   3.4829097297019726e-05
1.2539449878342908e-06   -5.075506420237127e-06   3.4829097297019726e-05
1.2539449878342908e-06   -5.075506420237127e-06   3.4829097297019726e-05
2.393055297307115e-05   -2.68970486018991e-06   -4.396730281069818e-06
2.393055297307115e-05   -2.68970486018991e-06   -4.396730281069818e-06
2.393055297307115e-05   -2.68970486018991e-06   -4.396730281069818e-06
2.393055297307115e-05   -2.68970486018991e-06   -4.396730281069818e-06
1.2805205662192446e-05   -3.4223050485329785e-06   1.4585075350067667e-05
1.2805205662192446e-05   -3.4223050485329785e-06   1.4585075350067667e-05
1.2805205662192446e-05   -3.4223050485329785e-06   1.4585075350067667e-05
1.2805205662192446e-05   -3.4223050485329785e-06   1.4585075350067667e-05
2.393055297307111e-05   -5.075506420237127e-06   3.339761636099147e-05
2.393055297307111e-05   -5.075506420237127e-06   3.339761636099147e-05
2.393055297307111e-05   -5.075506420237127e-06   3.339761636099147e-05
2.393055297307111e-05   -5.075506420237127e-06   3.339761636099147e-05
1.2539449878342908e-06   -2.68970486018991e-06   -2.9652493450417483e-06
1.2539449878342908e-06   -2.68970486018991e-06   -2.9652493450417483e-06
1.2539449878342908e-06   -2.68970486018991e-06   -2.9652493450417483e-06
1.2539449878342908e-06   -2.68970486018991e-06   -2.9652493450417483e-06
3.165212773162629e-07   -4.959044481959909e-06   3.5336935110182825e-05
3.165212773162629e-07   -4.959044481959909e-06   3.5336935110182825e-05
3.165212773162629e-07   -4.959044481959909e-06   3.5336935110182825e-05
3.165212773162629e-07   -4.959044481959909e-06   3.5336935110182825e-05
2.3025733781059776e-05   -2.8028780266929013e-06   -3.8054522692161728e-06
2.3025733781059776e-05   -2.8028780266929013e-06   -3.8054522692161728e-06
2.3025733781059776e-05   -2.8028780266929013e-06   -3.8054522692161728e-06
2.3025733781059776e-05   -2.8028780266929013e-06   -3.8054522692161728e-06
1.2119066682753717e-05   -3.3887585977714074e-06   1.4723854570608303e-05
1.2119066682753717e-05   -3.3887585977714074e-06   1.4723854570608303e-05
1.2119066682753717e-05   -3.3887585977714074e-06   1.4723854570608303e-05
1.2119066682753717e-05   -3.3887585977714074e-06   1.4723854570608303e-05
2.767585721012662e-06   -1.9439884093135074e-06   3.451013777413969e-05
2.767585721012662e-06   -1.9439884093135074e-06   3.451013777413969e-05
2.767585721012662e-06   -1.9439884093135074e-06   3.451013777413969e-05
2.767585721012662e-06   -1.9439884093135074e-06   3.451013777413969e-05
-1.9220581700093444e-05   1.7974664796257568e-06   1.0806500565967506e-07
-1.9220581700093444e-05   1.7974664796257568e-06   1.0806500565967506e-07
-1.9220581700093444e-05   1.7974664796257568e-06   1.0806500565967506e-07
-1.9220581700093444e-05   1.7974664796257568e-06   1.0806500565967506e-07
-1.996998860185134e-05   -2.0521329366480177e-06   3.7013250536242596e-05
-1.996998860185134e-05   -2.0521329366480177e-06   3.7013250536242596e-05
-1.996998860185134e-05   -2.0521329366480177e-06   3.7013250536242596e-05
-1.996998860185134e-05   -2.0521329366480177e-06   3.7013250536242596e-05
2.102563803259072e-06   1.4861954346788355e-06   -1.897333828404426e-06
2.102563803259072e-06   1.4861954346788355e-06   -1.897333828404426e-06
2.102563803259072e-06   1.4861954346788355e-06   -1.897333828404426e-06
2.102563803259072e-06   1.4861954346788355e-06   -1.897333828404426e-06
-8.564467038117945e-06   -1.4173377621074304e-08   1.6781272194603988e-05
-8.564467038117945e-06   -1.4173377621074304e-08   1.6781272194603988e-05
-8.564467038117945e-06   -1.4173377621074304e-08   1.6781272194603988e-05
-8.564467038117945e-06   -1.4173377621074304e-08   1.6781272194603988e-05
2.102563803259072e-06   -2.052132936647584e-06   3.4890253513446495e-05
2.102563803259072e-06   -2.052132936647584e-06   3.4890253513446495e-05
2.102563803259072e-06   -2.052132936647584e-06   3.4890253513446495e-05
2.102563803259072e-06   -2.052132936647584e-06   3.4890253513446495e-05
-1.996998860185134e-05   1.4861954346788355e-06   2.2566319439172935e-07
-1.996998860185134e-05   1.4861954346788355e-06   2.2566319439172935e-07
-1.996998860185134e-05   1.4861954346788355e-06   2.2566319439172935e-07
-1.996998860185134e-05   1.4861954346788355e-06   2.2566319439172935e-07
-2.0973987026914984e-05   -2.1848956420727865e-06   3.775203165811e-05
-2.0973987026914984e-05   -2.1848956420727865e-06   3.775203165811e-05
-2.0973987026914984e-05   -2.1848956420727865e-06   3.775203165811e-05
-2.0973987026914984e-05   -2.1848956420727865e-06   3.775203165811e-05
1.2539449878342908e-06   1.196446394904514e-06   -1.3233269219919876e-06
1.2539449878342908e-06   1.196446394904514e-06   -1.3233269219919876e-06
1.2539449878342908e-06   1.196446394904514e-06   -1.3233269219919876e-06
1.2539449878342908e-06   1.196446394904514e-06   -1.3233269219919876e-06
-9.303501257880258e-06   -1.0095015199555052e-07   1.705085474900574e-05
-9.303501257880258e-06   -1.0095015199555052e-07   1.705085474900574e-05
-9.303501257880258e-06   -1.0095015199555052e-07   1.705085474900574e-05
-9.303501257880258e-06   -1.0095015199555052e-07   1.705085474900574e-05
1.2539449878342908e-06   -2.184895642072353e-06   3.5723226435923434e-05
1.2539449878342908e-06   -2.184895642072353e-06   3.5723226435923434e-05
1.2539449878342908e-06   -2.184895642072353e-06   3.5723226435923434e-05
1.2539449878342908e-06   -2.184895642072353e-06   3.5723226435923434e-05
-2.0973987026914984e-05   1.196446394904514e-06   7.054783001945227e-07
-2.0973987026914984e-05   1.196446394904514e-06   7.054783001945227e-07
-2.0973987026914984e-05   1.196446394904514e-06   7.054783001945227e-07
-2.0973987026914984e-05   1.196446394904514e-06   7.054783001945227e-07
-2.2043657312901095e-05   -2.1703892514662523e-06   3.8638162160658076e-05
-2.2043657312901095e-05   -2.1703892514662523e-06   3.8638162160658076e-05
-2.2043657312901095e-05   -2.1703892514662523e-06   3.8638162160658076e-05
-2.2043657312901095e-05   -2.1703892514662523e-06   3.8638162160658076e-05
3.165212773162629e-07   9.8800628433259e-07   -5.238394778499678e-07
3.165212773162629e-07   9.8800628433259e-07   -5.238394778499678e-07
3.165212773162629e-07   9.8800628433259e-07   -5.238394778499678e-07
3.165212773162629e-07   9.8800628433259e-07   -5.238394778499678e-07
-1.0245708427945681e-05   -1.6282860556681312e-07   1.7770377631526704e-05
-1.0245708427945681e-05   -1.6282860556681312e-07   1.7770377631526704e-05
-1.0245708427945681e-05   -1.6282860556681312e-07   1.7770377631526704e-05
-1.0245708427945681e-05   -1.6282860556681312e-07   1.7770377631526704e-05
-1.9220581700093376e-05   2.1456233340886102e-06   3.1199221758813336e-05
-1.9220581700093376e-05   2.1456233340886102e-06   3.1199221758813336e-05
-1.9220581700093376e-05   2.1456233340886102e-06   3.1199221758813336e-05
-1.9220581700093376e-05   2.1456233340886102e-06   3.1199221758813336e-05
-4.0769791623568674e-05   5.846669713844167e-06   -2.4955002857921047e-06
-4.0769791623568674e-05   5.846669713844167e-06   -2.4955002857921047e-06
-4.0769791623568674e-05   5.846669713844167e-06   -2.4955002857921047e-06
-4.0769791623568674e-05   5.846669713844167e-06   -2.4955002857921047e-06
-4.185976547489752e-05   2.0225253445174153e-06   3.452366290009512e-05
-4.185976547489752e-05   2.0225253445174153e-06   3.452366290009512e-05
-4.185976547489752e-05   2.0225253445174153e-06   3.452366290009512e-05
-4.185976547489752e-05   2.0225253445174153e-06   3.452366290009512e-05
-1.996998860185134e-05   5.535207724212052e-06   -4.066907982798592e-06
-1.996998860185134e-05   5.535207724212052e-06   -4.066907982798592e-06
-1.996998860185134e-05   5.535207724212052e-06   -4.066907982798592e-06
-1.996998860185134e-05   5.535207724212052e-06   -4.066907982798592e-06
-3.0215861619776362e-05   3.953575380040387e-06   1.3958526453579465e-05
-3.0215861619776362e-05   3.953575380040387e-06   1.3958526453579465e-05
-3.0215861619776362e-05   3.953575380040387e-06   1.3958526453579465e-05
-3.0215861619776362e-05   3.953575380040387e-06   1.3958526453579465e-05
-1.996998860185134e-05   2.0225253445174153e-06   3.241605347227821e-05
-1.996998860185134e-05   2.0225253445174153e-06   3.241605347227821e-05
-1.996998860185134e-05   2.0225253445174153e-06   3.241605347227821e-05
-1.996998860185134e-05   2.0225253445174153e-06   3.241605347227821e-05
-4.185976547489745e-05   5.535207724212269e-06   -1.9592985549816803e-06
-4.185976547489745e-05   5.535207724212269e-06   -1.9592985549816803e-06
-4.185976547489745e-05   5.535207724212269e-06   -1.9592985549816803e-06
-4.185976547489745e-05   5.535207724212269e-06   -1.9592985549816803e-06
-4.319604397787272e-05   1.792139036435169e-06   3.664120959876848e-05
-4.319604397787272e-05   1.792139036435169e-06   3.664120959876848e-05
-4.319604397787272e-05   1.792139036435169e-06   3.664120959876848e-05
-4.319604397787272e-05   1.792139036435169e-06   3.664120959876848e-05
-2.0973987026914984e-05   5.2466090705556925e-06   -2.468234006633126e-06
-2.0973987026914984e-05   5.2466090705556925e-06   -2.468234006633126e-06
-2.0973987026914984e-05   5.2466090705556925e-06   -2.468234006633126e-06
-2.0973987026914984e-05   5.2466090705556925e-06   -2.468234006633126e-06
-3.102669804066921e-05   3.8829671592378705e-06   1.5104469496414344e-05
-3.102669804066921e-05   3.8829671592378705e-06   1.5104469496414344e-05
-3.102669804066921e-05   3.8829671592378705e-06   1.5104469496414344e-05
-3.102669804066921e-05   3.8829671592378705e-06   1.5104469496414344e-05
-2.0973987026914984e-05   1.792139036435169e-06   3.45685275782963e-05
-2.0973987026914984e-05   1.792139036435169e-06   3.45685275782963e-05
-2.0973987026914984e-05   1.792139036435169e-06   3.45685275782963e-05
-2.0973987026914984e-05   1.792139036435169e-06   3.45685275782963e-05
-4.319604397787264e-05   5.2466090705556925e-06   -3.955519861611372e-07
-4.319604397787264e-05   5.2466090705556925e-06   -3.955519861611372e-07
-4.319604397787264e-05   5.2466090705556925e-06   -3.955519861611372e-07
-4.319604397787264e-05   5.2466090705556925e-06   -3.955519861611372e-07
-4.460936421160378e-05   1.5308395522103252e-06   3.83230737463062e-05
-4.460936421160378e-05   1.5308395522103252e-06   3.83230737463062e-05
-4.460936421160378e-05   1.5308395522103252e-06   3.83230737463062e-05
-4.460936421160378e-05   1.5308395522103252e-06   3.83230737463062e-05
-2.2043657312901055e-05   4.858023403524507e-06   -1.2827480623197902e-06
-2.2043657312901055e-05   4.858023403524507e-06   -1.2827480623197902e-06
-2.2043657312901055e-05   4.858023403524507e-06   -1.2827480623197902e-06
-2.2043657312901055e-05   4.858023403524507e-06   -1.2827480623197902e-06
-3.238089627826963e-05   3.649224042693894e-06   1.6671263163126494e-05
-3.238089627826963e-05   3.649224042693894e-06   1.6671263163126494e-05
-3.238089627826963e-05   3.649224042693894e-06   1.6671263163126494e-05
-3.238089627826963e-05   3.649224042693894e-06   1.6671263163126494e-05
-4.0769791623568674e-05   9.641379246784487e-06   1.642379807733504e-05
-4.0769791623568674e-05   9.641379246784487e-06   1.642379807733504e-05
-4.0769791623568674e-05   9.641379246784487e-06   1.642379807733504e-05
-4.0769791623568674e-05   9.641379246784487e-06   1.642379807733504e-05
-6.141758173182086e-05   9.508605715262972e-06   -1.8068849555331564e-05
-6.141758173182086e-05   9.508605715262972e-06   -1.8068849555331564e-05
-6.141758173182086e-05   9.508605715262972e-06   -1.8068849555331564e-05
-6.141758173182086e-05   9.508605715262972e-06   -1.8068849555331564e-05
-6.337506344275044e-05   9.311670370192211e-06   2.4356320861704727e-05
-6.337506344275044e-05   9.311670370192211e-06   2.4356320861704727e-05
-6.337506344275044e-05   9.311670370192211e-06   2.4356320861704727e-05
-6.337506344275044e-05   9.311670370192211e-06   2.4356320861704727e-05
-4.185976547489745e-05   9.693757267129066e-06   -1.173176122287907e-05
-4.185976547489745e-05   9.693757267129066e-06   -1.173176122287907e-05
-4.185976547489745e-05   9.693757267129066e-06   -1.173176122287907e-05
-4.185976547489745e-05   9.693757267129066e-06   -1.173176122287907e-05
-4.97682783656068e-05   9.686546107816373e-06   1.4534202905574578e-06
-4.97682783656068e-05   9.686546107816373e-06   1.4534202905574578e-06
-4.97682783656068e-05   9.686546107816373e-06   1.4534202905574578e-06
-4.97682783656068e-05   9.686546107816373e-06   1.4534202905574578e-06
-4.185976547489741e-05   9.311670370192211e-06   2.4127068723542734e-05
-4.185976547489741e-05   9.311670370192211e-06   2.4127068723542734e-05
-4.185976547489741e-05   9.311670370192211e-06   2.4127068723542734e-05
-4.185976547489741e-05   9.311670370192211e-06   2.4127068723542734e-05
-6.337506344275044e-05   9.693757267129066e-06   -1.150250908471713e-05
-6.337506344275044e-05   9.693757267129066e-06   -1.150250908471713e-05
-6.337506344275044e-05   9.693757267129066e-06   -1.150250908471713e-05
-6.337506344275044e-05   9.693757267129066e-06   -1.150250908471713e-05
-6.529460731868086e-05   9.075174583351997e-06   2.991955910134768e-05
-6.529460731868086e-05   9.075174583351997e-06   2.991955910134768e-05
-6.529460731868086e-05   9.075174583351997e-06   2.991955910134768e-05
-6.529460731868086e-05   9.075174583351997e-06   2.991955910134768e-05
-4.319604397787264e-05   9.624822038684262e-06   -7.241168273199039e-06
-4.319604397787264e-05   9.624822038684262e-06   -7.241168273199039e-06
-4.319604397787264e-05   9.624822038684262e-06   -7.241168273199039e-06
-4.319604397787264e-05   9.624822038684262e-06   -7.241168273199039e-06
-5.201732158581661e-05   9.687539983352497e-06   7.423330306573922e-06
-5.201732158581661e-05   9.687539983352497e-06   7.423330306573922e-06
-5.201732158581661e-05   9.687539983352497e-06   7.423330306573922e-06
-5.201732158581661e-05   9.687539983352497e-06   7.423330306573922e-06
-4.319604397787264e-05   9.07517458335243e-06   2.9589770628148267e-05
-4.319604397787264e-05   9.07517458335243e-06   2.9589770628148267e-05
-4.319604397787264e-05   9.07517458335243e-06   2.9589770628148267e-05
-4.319604397787264e-05   9.07517458335243e-06   2.9589770628148267e-05
-6.5294607318681e-05   9.624822038684262e-06   -6.91137979999968e-06
-6.5294607318681e-05   9.624822038684262e-06   -6.91137979999968e-06
-6.5294607318681e-05   9.624822038684262e-06   -6.91137979999968e-06
-6.5294607318681e-05   9.624822038684262e-06   -6.91137979999968e-06
-6.755888831746495e-05   7.567248851817181e-06   3.921411014183671e-05
-6.755888831746495e-05   7.567248851817181e-06   3.921411014183671e-05
-6.755888831746495e-05   7.567248851817181e-06   3.921411014183671e-05
-6.755888831746495e-05   7.567248851817181e-06   3.921411014183671e-05
-4.460936421160374e-05   8.86304799257217e-06   1.8742381428164638e-07
-4.460936421160374e-05   8.86304799257217e-06   1.8742381428164638e-07
-4.460936421160374e-05   8.86304799257217e-06   1.8742381428164638e-07
-4.460936421160374e-05   8.86304799257217e-06   1.8742381428164638e-07
-5.2817188042169895e-05   9.229611019273185e-06   1.3647192382537892e-05
-5.2817188042169895e-05   9.229611019273185e-06   1.3647192382537892e-05
-5.2817188042169895e-05   9.229611019273185e-06   1.3647192382537892e-05
-5.2817188042169895e-05   9.229611019273185e-06   1.3647192382537892e-05
4.089804541102881e-05   -5.719070461776771e-06   3.1516399146433734e-05
4.089804541102881e-05   -5.719070461776771e-06   3.1516399146433734e-05
4.089804541102881e-05   -5.719070461776771e-06   3.1516399146433734e-05
4.089804541102881e-05   -5.719070461776771e-06   3.1516399146433734e-05
2.0240332140055106e-05   -4.199955914573278e-06   -2.0016542435336536e-06
2.0240332140055106e-05   -4.199955914573278e-06   -2.0016542435336536e-06
2.0240332140055106e-05   -4.199955914573278e-06   -2.0016542435336536e-06
2.0240332140055106e-05   -4.199955914573278e-06   -2.0016542435336536e-06
1.9469358014915287e-05   -6.479513255082739e-06   2.7400182534503695e-05
1.9469358014915287e-05   -6.479513255082739e-06   2.7400182534503695e-05
1.9469358014915287e-05   -6.479513255082739e-06   2.7400182534503695e-05
1.9469358014915287e-05   -6.479513255082739e-06   2.7400182534503695e-05
3.948051965835126e-05   -4.870986688582319e-06   -6.91686947778972e-06
3.948051965835126e-05   -4.870986688582319e-06   -6.91686947778972e-06
3.948051965835126e-05   -4.870986688582319e-06   -6.91686947778972e-06
3.948051965835126e-05   -4.870986688582319e-06   -6.91686947778972e-06
2.8647704312351224e-05   -5.2628129222025534e-06   1.1372918505715766e-05
2.8647704312351224e-05   -5.2628129222025534e-06   1.1372918505715766e-05
2.8647704312351224e-05   -5.2628129222025534e-06   1.1372918505715766e-05
2.8647704312351224e-05   -5.2628129222025534e-06   1.1372918505715766e-05
3.948051965835118e-05   -6.479513255082956e-06   2.6435066594603435e-05
3.948051965835118e-05   -6.479513255082956e-06   2.6435066594603435e-05
3.948051965835118e-05   -6.479513255082956e-06   2.6435066594603435e-05
3.948051965835118e-05   -6.479513255082956e-06   2.6435066594603435e-05
1.9469358014915354e-05   -4.870986688582319e-06   -5.951753537889338e-06
1.9469358014915354e-05   -4.870986688582319e-06   -5.951753537889338e-06
1.9469358014915354e-05   -4.870986688582319e-06   -5.951753537889338e-06
1.9469358014915354e-05   -4.870986688582319e-06   -5.951753537889338e-06
1.861242954894849e-05   -6.591975904098003e-06   2.45513491410089e-05
1.861242954894849e-05   -6.591975904098003e-06   2.45513491410089e-05
1.861242954894849e-05   -6.591975904098003e-06   2.45513491410089e-05
1.861242954894849e-05   -6.591975904098003e-06   2.45513491410089e-05
3.8196427270239844e-05   -5.005413557681139e-06   -9.040584468993041e-06
3.8196427270239844e-05   -5.005413557681139e-06   -9.040584468993041e-06
3.8196427270239844e-05   -5.005413557681139e-06   -9.040584468993041e-06
3.8196427270239844e-05   -5.005413557681139e-06   -9.040584468993041e-06
2.8116786607939243e-05   -5.523042469500689e-06   8.069393981932778e-06
2.8116786607939243e-05   -5.523042469500689e-06   8.069393981932778e-06
2.8116786607939243e-05   -5.523042469500689e-06   8.069393981932778e-06
2.8116786607939243e-05   -5.523042469500689e-06   8.069393981932778e-06
3.819642727023971e-05   -6.591975904097786e-06   2.359941173315918e-05
3.819642727023971e-05   -6.591975904097786e-06   2.359941173315918e-05
3.819642727023971e-05   -6.591975904097786e-06   2.359941173315918e-05
3.819642727023971e-05   -6.591975904097786e-06   2.359941173315918e-05
1.8612429548948525e-05   -5.005413557681139e-06   -8.08864706114301e-06
1.8612429548948525e-05   -5.005413557681139e-06   -8.08864706114301e-06
1.8612429548948525e-05   -5.005413557681139e-06   -8.08864706114301e-06
1.8612429548948525e-05   -5.005413557681139e-06   -8.08864706114301e-06
1.778802172192487e-05   -6.547749009585234e-06   2.0575506350247862e-05
1.778802172192487e-05   -6.547749009585234e-06   2.0575506350247862e-05
1.778802172192487e-05   -6.547749009585234e-06   2.0575506350247862e-05
1.778802172192487e-05   -6.547749009585234e-06   2.0575506350247862e-05
3.674163500275412e-05   -5.057813240687617e-06   -1.190781057913942e-05
3.674163500275412e-05   -5.057813240687617e-06   -1.190781057913942e-05
3.674163500275412e-05   -5.057813240687617e-06   -1.190781057913942e-05
3.674163500275412e-05   -5.057813240687617e-06   -1.190781057913942e-05
2.6674311546117845e-05   -5.428914303810101e-06   5.093722486461567e-06
2.6674311546117845e-05   -5.428914303810101e-06   5.093722486461567e-06
2.6674311546117845e-05   -5.428914303810101e-06   5.093722486461567e-06
2.6674311546117845e-05   -5.428914303810101e-06   5.093722486461567e-06
2.0240332140055106e-05   -2.014812657914972e-06   3.303906435615743e-05
2.0240332140055106e-05   -2.014812657914972e-06   3.303906435615743e-05
2.0240332140055106e-05   -2.014812657914972e-06   3.303906435615743e-05
2.0240332140055106e-05   -2.014812657914972e-06   3.303906435615743e-05
8.495482542337786e-07   -8.040862292729364e-07   1.4475270703072276e-06
8.495482542337786e-07   -8.040862292729364e-07   1.4475270703072276e-06
8.495482542337786e-07   -8.040862292729364e-07   1.4475270703072276e-06
8.495482542337786e-07   -8.040862292729364e-07   1.4475270703072276e-06
1.0919346410096268e-07   -2.422889914581233e-06   3.338026315563049e-05
1.0919346410096268e-07   -2.422889914581233e-06   3.338026315563049e-05
1.0919346410096268e-07   -2.422889914581233e-06   3.338026315563049e-05
1.0919346410096268e-07   -2.422889914581233e-06   3.338026315563049e-05
1.9469358014915354e-05   -1.279420100838962e-06   4.272403493613998e-07
1.9469358014915354e-05   -1.279420100838962e-06   4.272403493613998e-07
1.9469358014915354e-05   -1.279420100838962e-06   4.272403493613998e-07
1.9469358014915354e-05   -1.279420100838962e-06   4.272403493613998e-07
1.0043606076901094e-05   -1.5701947167515119e-06   1.6311291682265662e-05
1.0043606076901094e-05   -1.5701947167515119e-06   1.6311291682265662e-05
1.0043606076901094e-05   -1.5701947167515119e-06   1.6311291682265662e-05
1.0043606076901094e-05   -1.5701947167515119e-06   1.6311291682265662e-05
1.9469358014915334e-05   -2.422889914581233e-06   3.269418126738505e-05
1.9469358014915334e-05   -2.422889914581233e-06   3.269418126738505e-05
1.9469358014915334e-05   -2.422889914581233e-06   3.269418126738505e-05
1.9469358014915334e-05   -2.422889914581233e-06   3.269418126738505e-05
1.0919346410096268e-07   -1.279420100838962e-06   1.1133222376066756e-06
1.0919346410096268e-07   -1.279420100838962e-06   1.1133222376066756e-06
1.0919346410096268e-07   -1.279420100838962e-06   1.1133222376066756e-06
1.0919346410096268e-07   -1.279420100838962e-06   1.1133222376066756e-06
-6.603761659413021e-07   -2.68970486018991e-06   3.287447884192684e-05
-6.603761659413021e-07   -2.68970486018991e-06   3.287447884192684e-05
-6.603761659413021e-07   -2.68970486018991e-06   3.287447884192684e-05
-6.603761659413021e-07   -2.68970486018991e-06   3.287447884192684e-05
1.8612429548948525e-05   -1.6319047453402635e-06   1.1845591486718023e-07
1.8612429548948525e-05   -1.6319047453402635e-06   1.1845591486718023e-07
1.8612429548948525e-05   -1.6319047453402635e-06   1.1845591486718023e-07
1.8612429548948525e-05   -1.6319047453402635e-06   1.1845591486718023e-07
9.19313819851435e-06   -1.8189585031213847e-06   1.5929507086926515e-05
9.19313819851435e-06   -1.8189585031213847e-06   1.5929507086926515e-05
9.19313819851435e-06   -1.8189585031213847e-06   1.5929507086926515e-05
9.19313819851435e-06   -1.8189585031213847e-06   1.5929507086926515e-05
1.861242954894849e-05   -2.689704860190127e-06   3.2239798773016766e-05
1.861242954894849e-05   -2.689704860190127e-06   3.2239798773016766e-05
1.861242954894849e-05   -2.689704860190127e-06   3.2239798773016766e-05
1.861242954894849e-05   -2.689704860190127e-06   3.2239798773016766e-05
-6.603761659413021e-07   -1.6319047453402635e-06   7.531359837770115e-07
-6.603761659413021e-07   -1.6319047453402635e-06   7.531359837770115e-07
-6.603761659413021e-07   -1.6319047453402635e-06   7.531359837770115e-07
-6.603761659413021e-07   -1.6319047453402635e-06   7.531359837770115e-07
-1.4615588642778043e-06   -2.8028780266929013e-06   3.312395043559473e-05
-1.4615588642778043e-06   -2.8028780266929013e-06   3.312395043559473e-05
-1.4615588642778043e-06   -2.8028780266929013e-06   3.312395043559473e-05
-1.4615588642778043e-06   -2.8028780266929013e-06   3.312395043559473e-05
1.7788021721924918e-05   -1.9092219837445624e-06   5.051224994878038e-07
1.7788021721924918e-05   -1.9092219837445624e-06   5.051224994878038e-07
1.7788021721924918e-05   -1.9092219837445624e-06   5.051224994878038e-07
1.7788021721924918e-05   -1.9092219837445624e-06   5.051224994878038e-07
8.55466264064197e-06   -1.951796442143934e-06   1.5919598976666478e-05
8.55466264064197e-06   -1.951796442143934e-06   1.5919598976666478e-05
8.55466264064197e-06   -1.951796442143934e-06   1.5919598976666478e-05
8.55466264064197e-06   -1.951796442143934e-06   1.5919598976666478e-05
8.495482542337786e-07   1.7974664796257568e-06   3.410218293446851e-05
8.495482542337786e-07   1.7974664796257568e-06   3.410218293446851e-05
8.495482542337786e-07   1.7974664796257568e-06   3.410218293446851e-05
8.495482542337786e-07   1.7974664796257568e-06   3.410218293446851e-05
-1.7976545758408252e-05   2.6040949973168883e-06   3.2093366906798962e-06
-1.7976545758408252e-05   2.6040949973168883e-06   3.2093366906798962e-06
-1.7976545758408252e-05   2.6040949973168883e-06   3.2093366906798962e-06
-1.7976545758408252e-05   2.6040949973168883e-06   3.2093366906798962e-06
-1.875024392288151e-05   1.4861954346790524e-06   3.4569786215146074e-05
-1.875024392288151e-05   1.4861954346790524e-06   3.4569786215146074e-05
-1.875024392288151e-05   1.4861954346790524e-06   3.4569786215146074e-05
-1.875024392288151e-05   1.4861954346790524e-06   3.4569786215146074e-05
1.0919346410096268e-07   2.2092702460165155e-06   2.703545683372787e-06
1.0919346410096268e-07   2.2092702460165155e-06   2.703545683372787e-06
1.0919346410096268e-07   2.2092702460165155e-06   2.703545683372787e-06
1.0919346410096268e-07   2.2092702460165155e-06   2.703545683372787e-06
-8.955805924024644e-06   2.0466617179968173e-06   1.7909443113727278e-05
-8.955805924024644e-06   2.0466617179968173e-06   1.7909443113727278e-05
-8.955805924024644e-06   2.0466617179968173e-06   1.7909443113727278e-05
-8.955805924024644e-06   2.0466617179968173e-06   1.7909443113727278e-05
1.0919346410096268e-07   1.4861954346790524e-06   3.4135941328343694e-05
1.0919346410096268e-07   1.4861954346790524e-06   3.4135941328343694e-05
1.0919346410096268e-07   1.4861954346790524e-06   3.4135941328343694e-05
1.0919346410096268e-07   1.4861954346790524e-06   3.4135941328343694e-05
-1.875024392288151e-05   2.2092702460165155e-06   3.13739057017533e-06
-1.875024392288151e-05   2.2092702460165155e-06   3.13739057017533e-06
-1.875024392288151e-05   2.2092702460165155e-06   3.13739057017533e-06
-1.875024392288151e-05   2.2092702460165155e-06   3.13739057017533e-06
-1.9567058737805578e-05   1.1964463949047308e-06   3.489409020372334e-05
-1.9567058737805578e-05   1.1964463949047308e-06   3.489409020372334e-05
-1.9567058737805578e-05   1.1964463949047308e-06   3.489409020372334e-05
-1.9567058737805578e-05   1.1964463949047308e-06   3.489409020372334e-05
-6.603761659413021e-07   1.825927959482913e-06   3.0052636452023926e-06
-6.603761659413021e-07   1.825927959482913e-06   3.0052636452023926e-06
-6.603761659413021e-07   1.825927959482913e-06   3.0052636452023926e-06
-6.603761659413021e-07   1.825927959482913e-06   3.0052636452023926e-06
-9.674412087724054e-06   1.8216656744742508e-06   1.8031214219179075e-05
-9.674412087724054e-06   1.8216656744742508e-06   1.8031214219179075e-05
-9.674412087724054e-06   1.8216656744742508e-06   1.8031214219179075e-05
-9.674412087724054e-06   1.8216656744742508e-06   1.8031214219179075e-05
-6.603761659413021e-07   1.1964463949047308e-06   3.451640126497641e-05
-6.603761659413021e-07   1.1964463949047308e-06   3.451640126497641e-05
-6.603761659413021e-07   1.1964463949047308e-06   3.451640126497641e-05
-6.603761659413021e-07   1.1964463949047308e-06   3.451640126497641e-05
-1.9567058737805578e-05   1.8259279594831299e-06   3.382952583949562e-06
-1.9567058737805578e-05   1.8259279594831299e-06   3.382952583949562e-06
-1.9567058737805578e-05   1.8259279594831299e-06   3.382952583949562e-06
-1.9567058737805578e-05   1.8259279594831299e-06   3.382952583949562e-06
-2.0409834467210772e-05   9.88006284332807e-07   3.540991097903171e-05
-2.0409834467210772e-05   9.88006284332807e-07   3.540991097903171e-05
-2.0409834467210772e-05   9.88006284332807e-07   3.540991097903171e-05
-2.0409834467210772e-05   9.88006284332807e-07   3.540991097903171e-05
-1.4615588642778179e-06   1.4847523263836464e-06   3.531404015579649e-06
-1.4615588642778179e-06   1.4847523263836464e-06   3.531404015579649e-06
-1.4615588642778179e-06   1.4847523263836464e-06   3.531404015579649e-06
-1.4615588642778179e-06   1.4847523263836464e-06   3.531404015579649e-06
-1.0452080869722364e-05   1.6061943045167287e-06   1.8442742171107906e-05
-1.0452080869722364e-05   1.6061943045167287e-06   1.8442742171107906e-05
-1.0452080869722364e-05   1.6061943045167287e-06   1.8442742171107906e-05
-1.0452080869722364e-05   1.6061943045167287e-06   1.8442742171107906e-05
-1.7976545758408306e-05   5.8466697138443834e-06   2.9761966925778162e-05
-1.7976545758408306e-05   5.8466697138443834e-06   2.9761966925778162e-05
-1.7976545758408306e-05   5.8466697138443834e-06   2.9761966925778162e-05
-1.7976545758408306e-05   5.8466697138443834e-06   2.9761966925778162e-05
-3.6216969583464454e-05   5.9208398706625705e-06   -5.942373552243708e-07
-3.6216969583464454e-05   5.9208398706625705e-06   -5.942373552243708e-07
-3.6216969583464454e-05   5.9208398706625705e-06   -5.942373552243708e-07
-3.6216969583464454e-05   5.9208398706625705e-06   -5.942373552243708e-07
-3.711508810126378e-05   5.535207724212269e-06   3.0282754691682593e-05
-3.711508810126378e-05   5.535207724212269e-06   3.0282754691682593e-05
-3.711508810126378e-05   5.535207724212269e-06   3.0282754691682593e-05
-3.711508810126378e-05   5.535207724212269e-06   3.0282754691682593e-05
-1.8750243922881536e-05   5.544440480423742e-06   -3.308585926813188e-07
-1.8750243922881536e-05   5.544440480423742e-06   -3.308585926813188e-07
-1.8750243922881536e-05   5.544440480423742e-06   -3.308585926813188e-07
-1.8750243922881536e-05   5.544440480423742e-06   -3.308585926813188e-07
-2.7391788436902337e-05   5.697071599132801e-06   1.3980136926128068e-05
-2.7391788436902337e-05   5.697071599132801e-06   1.3980136926128068e-05
-2.7391788436902337e-05   5.697071599132801e-06   1.3980136926128068e-05
-2.7391788436902337e-05   5.697071599132801e-06   1.3980136926128068e-05
-1.8750243922881536e-05   5.535207724212269e-06   3.02772150379557e-05
-1.8750243922881536e-05   5.535207724212269e-06   3.02772150379557e-05
-1.8750243922881536e-05   5.535207724212269e-06   3.02772150379557e-05
-1.8750243922881536e-05   5.535207724212269e-06   3.02772150379557e-05
-3.711508810126378e-05   5.544440480423742e-06   -3.2531893895436977e-07
-3.711508810126378e-05   5.544440480423742e-06   -3.2531893895436977e-07
-3.711508810126378e-05   5.544440480423742e-06   -3.2531893895436977e-07
-3.711508810126378e-05   5.544440480423742e-06   -3.2531893895436977e-07
-3.811013434396382e-05   5.246609070555476e-06   3.1690553685872775e-05
-3.811013434396382e-05   5.246609070555476e-06   3.1690553685872775e-05
-3.811013434396382e-05   5.246609070555476e-06   3.1690553685872775e-05
-3.811013434396382e-05   5.246609070555476e-06   3.1690553685872775e-05
-1.956705873780562e-05   5.19690205218388e-06   8.152518866321422e-07
-1.956705873780562e-05   5.19690205218388e-06   8.152518866321422e-07
-1.956705873780562e-05   5.19690205218388e-06   8.152518866321422e-07
-1.956705873780562e-05   5.19690205218388e-06   8.152518866321422e-07
-2.8040010923185543e-05   5.484862242211485e-06   1.4764062748248501e-05
-2.8040010923185543e-05   5.484862242211485e-06   1.4764062748248501e-05
-2.8040010923185543e-05   5.484862242211485e-06   1.4764062748248501e-05
-2.8040010923185543e-05   5.484862242211485e-06   1.4764062748248501e-05
-1.956705873780562e-05   5.246609070555476e-06   3.172037789689585e-05
-1.956705873780562e-05   5.246609070555476e-06   3.172037789689585e-05
-1.956705873780562e-05   5.246609070555476e-06   3.172037789689585e-05
-1.956705873780562e-05   5.246609070555476e-06   3.172037789689585e-05
-3.811013434396382e-05   5.19690205218388e-06   7.854276756090114e-07
-3.811013434396382e-05   5.19690205218388e-06   7.854276756090114e-07
-3.811013434396382e-05   5.19690205218388e-06   7.854276756090114e-07
-3.811013434396382e-05   5.19690205218388e-06   7.854276756090114e-07
-3.90582458875261e-05   4.85802340352429e-06   3.270434283487436e-05
-3.90582458875261e-05   4.85802340352429e-06   3.270434283487436e-05
-3.90582458875261e-05   4.85802340352429e-06   3.270434283487436e-05
-3.90582458875261e-05   4.85802340352429e-06   3.270434283487436e-05
-2.0409834467210772e-05   4.77198633984377e-06   1.6752793725570165e-06
-2.0409834467210772e-05   4.77198633984377e-06   1.6752793725570165e-06
-2.0409834467210772e-05   4.77198633984377e-06   1.6752793725570165e-06
-2.0409834467210772e-05   4.77198633984377e-06   1.6752793725570165e-06
-2.9073697945548643e-05   5.208524887808492e-06   1.5853128707675565e-05
-2.9073697945548643e-05   5.208524887808492e-06   1.5853128707675565e-05
-2.9073697945548643e-05   5.208524887808492e-06   1.5853128707675565e-05
-2.9073697945548643e-05   5.208524887808492e-06   1.5853128707675565e-05
-3.62169695834644e-05   9.508605715262972e-06   1.4312783869242622e-05
-3.62169695834644e-05   9.508605715262972e-06   1.4312783869242622e-05
-3.62169695834644e-05   9.508605715262972e-06   1.4312783869242622e-05
-3.62169695834644e-05   9.508605715262972e-06   1.4312783869242622e-05
-5.356187219915327e-05   8.530662824027951e-06   -1.518215289164637e-05
-5.356187219915327e-05   8.530662824027951e-06   -1.518215289164637e-05
-5.356187219915327e-05   8.530662824027951e-06   -1.518215289164637e-05
-5.356187219915327e-05   8.530662824027951e-06   -1.518215289164637e-05
-5.497635626913909e-05   9.69375726712885e-06   1.986789002230739e-05
-5.497635626913909e-05   9.69375726712885e-06   1.986789002230739e-05
-5.497635626913909e-05   9.69375726712885e-06   1.986789002230739e-05
-5.497635626913909e-05   9.69375726712885e-06   1.986789002230739e-05
-3.711508810126378e-05   8.623087264665683e-06   -9.258488256007075e-06
-3.711508810126378e-05   8.623087264665683e-06   -9.258488256007075e-06
-3.711508810126378e-05   8.623087264665683e-06   -9.258488256007075e-06
-3.711508810126378e-05   8.623087264665683e-06   -9.258488256007075e-06
-4.372626768854937e-05   9.034894291659818e-06   1.5130601732725305e-06
-4.372626768854937e-05   9.034894291659818e-06   1.5130601732725305e-06
-4.372626768854937e-05   9.034894291659818e-06   1.5130601732725305e-06
-4.372626768854937e-05   9.034894291659818e-06   1.5130601732725305e-06
-3.71150881012637e-05   9.693757267129066e-06   2.051029202378526e-05
-3.71150881012637e-05   9.693757267129066e-06   2.051029202378526e-05
-3.71150881012637e-05   9.693757267129066e-06   2.051029202378526e-05
-3.71150881012637e-05   9.693757267129066e-06   2.051029202378526e-05
-5.497635626913917e-05   8.623087264665683e-06   -9.900890257485214e-06
-5.497635626913917e-05   8.623087264665683e-06   -9.900890257485214e-06
-5.497635626913917e-05   8.623087264665683e-06   -9.900890257485214e-06
-5.497635626913917e-05   8.623087264665683e-06   -9.900890257485214e-06
-5.635700157979648e-05   9.624822038684262e-06   2.4187278888336203e-05
-5.635700157979648e-05   9.624822038684262e-06   2.4187278888336203e-05
-5.635700157979648e-05   9.624822038684262e-06   2.4187278888336203e-05
-5.635700157979648e-05   9.624822038684262e-06   2.4187278888336203e-05
-3.811013434396382e-05   8.528724521187237e-06   -5.566507994220074e-06
-3.811013434396382e-05   8.528724521187237e-06   -5.566507994220074e-06
-3.811013434396382e-05   8.528724521187237e-06   -5.566507994220074e-06
-3.811013434396382e-05   8.528724521187237e-06   -5.566507994220074e-06
-4.5467812716035085e-05   9.20057836087992e-06   6.2931769887505755e-06
-4.5467812716035085e-05   9.20057836087992e-06   6.2931769887505755e-06
-4.5467812716035085e-05   9.20057836087992e-06   6.2931769887505755e-06
-4.5467812716035085e-05   9.20057836087992e-06   6.2931769887505755e-06
-3.811013434396382e-05   9.624822038684479e-06   2.484493739883471e-05
-3.811013434396382e-05   9.624822038684479e-06   2.484493739883471e-05
-3.811013434396382e-05   9.624822038684479e-06   2.484493739883471e-05
-3.811013434396382e-05   9.624822038684479e-06   2.484493739883471e-05
-5.6357001579796585e-05   8.528724521187237e-06   -6.2241665047184196e-06
-5.6357001579796585e-05   8.528724521187237e-06   -6.2241665047184196e-06
-5.6357001579796585e-05   8.528724521187237e-06   -6.2241665047184196e-06
-5.6357001579796585e-05   8.528724521187237e-06   -6.2241665047184196e-06
-5.7968900142199234e-05   8.86304799257217e-06   3.158386122574172e-05
-5.7968900142199234e-05   8.86304799257217e-06   3.158386122574172e-05
-5.7968900142199234e-05   8.86304799257217e-06   3.158386122574172e-05
-5.7968900142199234e-05   8.86304799257217e-06   3.158386122574172e-05
-3.905824588752607e-05   7.872476034329924e-06   6.604473095650227e-07
-3.905824588752607e-05   7.872476034329924e-06   6.604473095650227e-07
-3.905824588752607e-05   7.872476034329924e-06   6.604473095650227e-07
-3.905824588752607e-05   7.872476034329924e-06   6.604473095650227e-07
-4.590471952010906e-05   8.929711196461391e-06   1.143689559992471e-05
-4.590471952010906e-05   8.929711196461391e-06   1.143689559992471e-05
-4.590471952010906e-05   8.929711196461391e-06   1.143689559992471e-05
-4.590471952010906e-05   8.929711196461391e-06   1.143689559992471e-05
3.1095009996315366e-05   -4.199955914573278e-06   2.6347913762884962e-05
3.1095009996315366e-05   -4.199955914573278e-06   2.6347913762884962e-05
3.1095009996315366e-05   -4.199955914573278e-06   2.6347913762884962e-05
3.1095009996315366e-05   -4.199955914573278e-06   2.6347913762884962e-05
1.4634520698891765e-05   -2.7815118261390742e-06   -2.3516861309387863e-07
1.4634520698891765e-05   -2.7815118261390742e-06   -2.3516861309387863e-07
1.4634520698891765e-05   -2.7815118261390742e-06   -2.3516861309387863e-07
1.4634520698891765e-05   -2.7815118261390742e-06   -2.3516861309387863e-07
1.3945540040865569e-05   -4.870986688582102e-06   2.3145862837975354e-05
1.3945540040865569e-05   -4.870986688582102e-06   2.3145862837975354e-05
1.3945540040865569e-05   -4.870986688582102e-06   2.3145862837975354e-05
1.3945540040865569e-05   -4.870986688582102e-06   2.3145862837975354e-05
2.976165729794193e-05   -3.3738886925549667e-06   -4.112591388101593e-06
2.976165729794193e-05   -3.3738886925549667e-06   -4.112591388101593e-06
2.976165729794193e-05   -3.3738886925549667e-06   -4.112591388101593e-06
2.976165729794193e-05   -3.3738886925549667e-06   -4.112591388101593e-06
2.130755343173858e-05   -3.835175997747185e-06   1.0254354105352693e-05
2.130755343173858e-05   -3.835175997747185e-06   1.0254354105352693e-05
2.130755343173858e-05   -3.835175997747185e-06   1.0254354105352693e-05
2.130755343173858e-05   -3.835175997747185e-06   1.0254354105352693e-05
2.976165729794188e-05   -4.870986688582102e-06   2.224760404035909e-05
2.976165729794188e-05   -4.870986688582102e-06   2.224760404035909e-05
2.976165729794188e-05   -4.870986688582102e-06   2.224760404035909e-05
2.976165729794188e-05   -4.870986688582102e-06   2.224760404035909e-05
1.3945540040865589e-05   -3.3738886925549667e-06   -3.2143325904853987e-06
1.3945540040865589e-05   -3.3738886925549667e-06   -3.2143325904853987e-06
1.3945540040865589e-05   -3.3738886925549667e-06   -3.2143325904853987e-06
1.3945540040865589e-05   -3.3738886925549667e-06   -3.2143325904853987e-06
1.3184771240330525e-05   -5.005413557681356e-06   2.0895592865739082e-05
1.3184771240330525e-05   -5.005413557681356e-06   2.0895592865739082e-05
1.3184771240330525e-05   -5.005413557681356e-06   2.0895592865739082e-05
1.3184771240330525e-05   -5.005413557681356e-06   2.0895592865739082e-05
2.859273113283439e-05   -3.5318280913511097e-06   -5.6684915682322055e-06
2.859273113283439e-05   -3.5318280913511097e-06   -5.6684915682322055e-06
2.859273113283439e-05   -3.5318280913511097e-06   -5.6684915682322055e-06
2.859273113283439e-05   -3.5318280913511097e-06   -5.6684915682322055e-06
2.07571082344979e-05   -4.075692672430133e-06   7.717198677643098e-06
2.07571082344979e-05   -4.075692672430133e-06   7.717198677643098e-06
2.07571082344979e-05   -4.075692672430133e-06   7.717198677643098e-06
2.07571082344979e-05   -4.075692672430133e-06   7.717198677643098e-06
2.8592731132834342e-05   -5.005413557681356e-06   2.0011441585940715e-05
2.8592731132834342e-05   -5.005413557681356e-06   2.0011441585940715e-05
2.8592731132834342e-05   -5.005413557681356e-06   2.0011441585940715e-05
2.8592731132834342e-05   -5.005413557681356e-06   2.0011441585940715e-05
1.3184771240330549e-05   -3.5318280913511097e-06   -4.784340288434014e-06
1.3184771240330549e-05   -3.5318280913511097e-06   -4.784340288434014e-06
1.3184771240330549e-05   -3.5318280913511097e-06   -4.784340288434014e-06
1.3184771240330549e-05   -3.5318280913511097e-06   -4.784340288434014e-06
1.2482133298947188e-05   -5.057813240687834e-06   1.7845015932354017e-05
1.2482133298947188e-05   -5.057813240687834e-06   1.7845015932354017e-05
1.2482133298947188e-05   -5.057813240687834e-06   1.7845015932354017e-05
1.2482133298947188e-05   -5.057813240687834e-06   1.7845015932354017e-05
2.728613515158721e-05   -3.6779773658912347e-06   -7.656222013590437e-06
2.728613515158721e-05   -3.6779773658912347e-06   -7.656222013590437e-06
2.728613515158721e-05   -3.6779773658912347e-06   -7.656222013590437e-06
2.728613515158721e-05   -3.6779773658912347e-06   -7.656222013590437e-06
1.9534711486157336e-05   -4.051632750136174e-06   5.4870106593394425e-06
1.9534711486157336e-05   -4.051632750136174e-06   5.4870106593394425e-06
1.9534711486157336e-05   -4.051632750136174e-06   5.4870106593394425e-06
1.9534711486157336e-05   -4.051632750136174e-06   5.4870106593394425e-06
1.4634520698891715e-05   -8.040862292729364e-07   2.992172567260103e-05
1.4634520698891715e-05   -8.040862292729364e-07   2.992172567260103e-05
1.4634520698891715e-05   -8.040862292729364e-07   2.992172567260103e-05
1.4634520698891715e-05   -8.040862292729364e-07   2.992172567260103e-05
-9.432349684460208e-07   -1.7323393065090537e-08   4.430857262096308e-06
-9.432349684460208e-07   -1.7323393065090537e-08   4.430857262096308e-06
-9.432349684460208e-07   -1.7323393065090537e-08   4.430857262096308e-06
-9.432349684460208e-07   -1.7323393065090537e-08   4.430857262096308e-06
-1.591141719849105e-06   -1.2794201008391789e-06   2.9973283522542662e-05
-1.591141719849105e-06   -1.2794201008391789e-06   2.9973283522542662e-05
-1.591141719849105e-06   -1.2794201008391789e-06   2.9973283522542662e-05
-1.591141719849105e-06   -1.2794201008391789e-06   2.9973283522542662e-05
1.3945540040865589e-05   -5.32042105310911e-07   3.6303871240347778e-06
1.3945540040865589e-05   -5.32042105310911e-07   3.6303871240347778e-06
1.3945540040865589e-05   -5.32042105310911e-07   3.6303871240347778e-06
1.3945540040865589e-05   -5.32042105310911e-07   3.6303871240347778e-06
6.405842431847863e-06   -6.769909076784122e-07   1.6283519087151375e-05
6.405842431847863e-06   -6.769909076784122e-07   1.6283519087151375e-05
6.405842431847863e-06   -6.769909076784122e-07   1.6283519087151375e-05
6.405842431847863e-06   -6.769909076784122e-07   1.6283519087151375e-05
1.3945540040865531e-05   -1.2794201008391789e-06   2.9524856725225712e-05
1.3945540040865531e-05   -1.2794201008391789e-06   2.9524856725225712e-05
1.3945540040865531e-05   -1.2794201008391789e-06   2.9524856725225712e-05
1.3945540040865531e-05   -1.2794201008391789e-06   2.9524856725225712e-05
-1.591141719849105e-06   -5.32042105310911e-07   4.078813921351565e-06
-1.591141719849105e-06   -5.32042105310911e-07   4.078813921351565e-06
-1.591141719849105e-06   -5.32042105310911e-07   4.078813921351565e-06
-1.591141719849105e-06   -5.32042105310911e-07   4.078813921351565e-06
-2.2529024129923727e-06   -1.6319047453402635e-06   2.9519484391504975e-05
-2.2529024129923727e-06   -1.6319047453402635e-06   2.9519484391504975e-05
-2.2529024129923727e-06   -1.6319047453402635e-06   2.9519484391504975e-05
-2.2529024129923727e-06   -1.6319047453402635e-06   2.9519484391504975e-05
1.3184771240330549e-05   -9.372571624134424e-07   3.3732397528775816e-06
1.3184771240330549e-05   -9.372571624134424e-07   3.3732397528775816e-06
1.3184771240330549e-05   -9.372571624134424e-07   3.3732397528775816e-06
1.3184771240330549e-05   -9.372571624134424e-07   3.3732397528775816e-06
5.67864550592624e-06   -9.943801789382822e-07   1.591772312013398e-05
5.67864550592624e-06   -9.943801789382822e-07   1.591772312013398e-05
5.67864550592624e-06   -9.943801789382822e-07   1.591772312013398e-05
5.67864550592624e-06   -9.943801789382822e-07   1.591772312013398e-05
1.3184771240330525e-05   -1.6319047453402635e-06   2.9102695841749164e-05
1.3184771240330525e-05   -1.6319047453402635e-06   2.9102695841749164e-05
1.3184771240330525e-05   -1.6319047453402635e-06   2.9102695841749164e-05
1.3184771240330525e-05   -1.6319047453402635e-06   2.9102695841749164e-05
-2.2529024129923727e-06   -9.372571624134424e-07   3.790028302633609e-06
-2.2529024129923727e-06   -9.372571624134424e-07   3.790028302633609e-06
-2.2529024129923727e-06   -9.372571624134424e-07   3.790028302633609e-06
-2.2529024129923727e-06   -9.372571624134424e-07   3.790028302633609e-06
-2.918295500491943e-06   -1.9092219837445624e-06   2.9722373933635613e-05
-2.918295500491943e-06   -1.9092219837445624e-06   2.9722373933635613e-05
-2.918295500491943e-06   -1.9092219837445624e-06   2.9722373933635613e-05
-2.918295500491943e-06   -1.9092219837445624e-06   2.9722373933635613e-05
1.2482133298947201e-05   -1.3119113437564701e-06   3.696606217244453e-06
1.2482133298947201e-05   -1.3119113437564701e-06   3.696606217244453e-06
1.2482133298947201e-05   -1.3119113437564701e-06   3.696606217244453e-06
1.2482133298947201e-05   -1.3119113437564701e-06   3.696606217244453e-06
5.124077732569459e-06   -1.228720128665069e-06   1.5910117432152275e-05
5.124077732569459e-06   -1.228720128665069e-06   1.5910117432152275e-05
5.124077732569459e-06   -1.228720128665069e-06   1.5910117432152275e-05
5.124077732569459e-06   -1.228720128665069e-06   1.5910117432152275e-05
-9.432349684460343e-07   2.604094997317105e-06   3.167161588408398e-05
-9.432349684460343e-07   2.604094997317105e-06   3.167161588408398e-05
-9.432349684460343e-07   2.604094997317105e-06   3.167161588408398e-05
-9.432349684460343e-07   2.604094997317105e-06   3.167161588408398e-05
-1.619409504958916e-05   2.681541005126369e-06   6.299983353531065e-06
-1.619409504958916e-05   2.681541005126369e-06   6.299983353531065e-06
-1.619409504958916e-05   2.681541005126369e-06   6.299983353531065e-06
-1.619409504958916e-05   2.681541005126369e-06   6.299983353531065e-06
-1.684566071953684e-05   2.2092702460165155e-06   3.1575847377661144e-05
-1.684566071953684e-05   2.2092702460165155e-06   3.1575847377661144e-05
-1.684566071953684e-05   2.2092702460165155e-06   3.1575847377661144e-05
-1.684566071953684e-05   2.2092702460165155e-06   3.1575847377661144e-05
-1.591141719849105e-06   2.2298375949370616e-06   6.139308635496124e-06
-1.591141719849105e-06   2.2298375949370616e-06   6.139308635496124e-06
-1.591141719849105e-06   2.2298375949370616e-06   6.139308635496124e-06
-1.591141719849105e-06   2.2298375949370616e-06   6.139308635496124e-06
-8.916577620862403e-06   2.388347135400589e-06   1.8253262746239997e-05
-8.916577620862403e-06   2.388347135400589e-06   1.8253262746239997e-05
-8.916577620862403e-06   2.388347135400589e-06   1.8253262746239997e-05
-8.916577620862403e-06   2.388347135400589e-06   1.8253262746239997e-05
-1.591141719849105e-06   2.2092702460165155e-06   3.1563506968309126e-05
-1.591141719849105e-06   2.2092702460165155e-06   3.1563506968309126e-05
-1.591141719849105e-06   2.2092702460165155e-06   3.1563506968309126e-05
-1.591141719849105e-06   2.2092702460165155e-06   3.1563506968309126e-05
-1.684566071953684e-05   2.2298375949370616e-06   6.151649044848387e-06
-1.684566071953684e-05   2.2298375949370616e-06   6.151649044848387e-06
-1.684566071953684e-05   2.2298375949370616e-06   6.151649044848387e-06
-1.684566071953684e-05   2.2298375949370616e-06   6.151649044848387e-06
-1.7513404176970436e-05   1.8259279594831299e-06   3.174725324524416e-05
-1.7513404176970436e-05   1.8259279594831299e-06   3.174725324524416e-05
-1.7513404176970436e-05   1.8259279594831299e-06   3.174725324524416e-05
-1.7513404176970436e-05   1.8259279594831299e-06   3.174725324524416e-05
-2.2529024129923727e-06   1.785329946672222e-06   6.3374424463006566e-06
-2.2529024129923727e-06   1.785329946672222e-06   6.3374424463006566e-06
-2.2529024129923727e-06   1.785329946672222e-06   6.3374424463006566e-06
-2.2529024129923727e-06   1.785329946672222e-06   6.3374424463006566e-06
-9.5213749917224e-06   2.0848933427316738e-06   1.8271825373215617e-05
-9.5213749917224e-06   2.0848933427316738e-06   1.8271825373215617e-05
-9.5213749917224e-06   2.0848933427316738e-06   1.8271825373215617e-05
-9.5213749917224e-06   2.0848933427316738e-06   1.8271825373215617e-05
-2.2529024129923727e-06   1.825927959482913e-06   3.177161205293071e-05
-2.2529024129923727e-06   1.825927959482913e-06   3.177161205293071e-05
-2.2529024129923727e-06   1.825927959482913e-06   3.177161205293071e-05
-2.2529024129923727e-06   1.825927959482913e-06   3.177161205293071e-05
-1.7513404176970463e-05   1.785329946672222e-06   6.313083638613917e-06
-1.7513404176970463e-05   1.785329946672222e-06   6.313083638613917e-06
-1.7513404176970463e-05   1.785329946672222e-06   6.313083638613917e-06
-1.7513404176970463e-05   1.785329946672222e-06   6.313083638613917e-06
-1.81807968106773e-05   1.4847523263836464e-06   3.2139754477047934e-05
-1.81807968106773e-05   1.4847523263836464e-06   3.2139754477047934e-05
-1.81807968106773e-05   1.4847523263836464e-06   3.2139754477047934e-05
-1.81807968106773e-05   1.4847523263836464e-06   3.2139754477047934e-05
-2.918295500491943e-06   1.363573414866039e-06   6.774959640316186e-06
-2.918295500491943e-06   1.363573414866039e-06   6.774959640316186e-06
-2.918295500491943e-06   1.363573414866039e-06   6.774959640316186e-06
-2.918295500491943e-06   1.363573414866039e-06   6.774959640316186e-06
-1.015462168051551e-05   1.7892701315884094e-06   1.8580085243655316e-05
-1.015462168051551e-05   1.7892701315884094e-06   1.8580085243655316e-05
-1.015462168051551e-05   1.7892701315884094e-06   1.8580085243655316e-05
-1.015462168051551e-05   1.7892701315884094e-06   1.8580085243655316e-05
-1.619409504958913e-05   5.9208398706625705e-06   2.7870007348774085e-05
-1.619409504958913e-05   5.9208398706625705e-06   2.7870007348774085e-05
-1.619409504958913e-05   5.9208398706625705e-06   2.7870007348774085e-05
-1.619409504958913e-05   5.9208398706625705e-06   2.7870007348774085e-05
-3.111294191446409e-05   5.279553014782799e-06   2.620490460454746e-06
-3.111294191446409e-05   5.279553014782799e-06   2.620490460454746e-06
-3.111294191446409e-05   5.279553014782799e-06   2.620490460454746e-06
-3.111294191446409e-05   5.279553014782799e-06   2.620490460454746e-06
-3.18141847322629e-05   5.544440480423742e-06   2.768940172297239e-05
-3.18141847322629e-05   5.544440480423742e-06   2.768940172297239e-05
-3.18141847322629e-05   5.544440480423742e-06   2.768940172297239e-05
-3.18141847322629e-05   5.544440480423742e-06   2.768940172297239e-05
-1.6845660719536868e-05   4.847446327369692e-06   3.16005819359479e-06
-1.6845660719536868e-05   4.847446327369692e-06   3.16005819359479e-06
-1.6845660719536868e-05   4.847446327369692e-06   3.16005819359479e-06
-1.6845660719536868e-05   4.847446327369692e-06   3.16005819359479e-06
-2.391232157465537e-05   5.327084608845278e-06   1.4650043316573476e-05
-2.391232157465537e-05   5.327084608845278e-06   1.4650043316573476e-05
-2.391232157465537e-05   5.327084608845278e-06   1.4650043316573476e-05
-2.391232157465537e-05   5.327084608845278e-06   1.4650043316573476e-05
-1.684566071953684e-05   5.544440480423742e-06   2.8107598214804712e-05
-1.684566071953684e-05   5.544440480423742e-06   2.8107598214804712e-05
-1.684566071953684e-05   5.544440480423742e-06   2.8107598214804712e-05
-1.684566071953684e-05   5.544440480423742e-06   2.8107598214804712e-05
-3.1814184732262816e-05   4.847446327369692e-06   2.7418617017622516e-06
-3.1814184732262816e-05   4.847446327369692e-06   2.7418617017622516e-06
-3.1814184732262816e-05   4.847446327369692e-06   2.7418617017622516e-06
-3.1814184732262816e-05   4.847446327369692e-06   2.7418617017622516e-06
-3.258591642362984e-05   5.19690205218388e-06   2.872803738762273e-05
-3.258591642362984e-05   5.19690205218388e-06   2.872803738762273e-05
-3.258591642362984e-05   5.19690205218388e-06   2.872803738762273e-05
-3.258591642362984e-05   5.19690205218388e-06   2.872803738762273e-05
-1.7513404176970463e-05   4.444376785010459e-06   4.05869880349438e-06
-1.7513404176970463e-05   4.444376785010459e-06   4.05869880349438e-06
-1.7513404176970463e-05   4.444376785010459e-06   4.05869880349438e-06
-1.7513404176970463e-05   4.444376785010459e-06   4.05869880349438e-06
-2.4414726075234225e-05   5.05141919823857e-06   1.5196676519330934e-05
-2.4414726075234225e-05   5.05141919823857e-06   1.5196676519330934e-05
-2.4414726075234225e-05   5.05141919823857e-06   1.5196676519330934e-05
-2.4414726075234225e-05   5.05141919823857e-06   1.5196676519330934e-05
-1.7513404176970463e-05   5.19690205218388e-06   2.917955254792663e-05
-1.7513404176970463e-05   5.19690205218388e-06   2.917955254792663e-05
-1.7513404176970463e-05   5.19690205218388e-06   2.917955254792663e-05
-1.7513404176970463e-05   5.19690205218388e-06   2.917955254792663e-05
-3.258591642362981e-05   4.444376785010459e-06   3.6071836431903707e-06
-3.258591642362981e-05   4.444376785010459e-06   3.6071836431903707e-06
-3.258591642362981e-05   4.444376785010459e-06   3.6071836431903707e-06
-3.258591642362981e-05   4.444376785010459e-06   3.6071836431903707e-06
-3.329128445883606e-05   4.77198633984377e-06   2.950714010581455e-05
-3.329128445883606e-05   4.77198633984377e-06   2.950714010581455e-05
-3.329128445883606e-05   4.77198633984377e-06   2.950714010581455e-05
-3.329128445883606e-05   4.77198633984377e-06   2.950714010581455e-05
-1.8180796810677327e-05   3.97458283487662e-06   4.801436128530449e-06
-1.8180796810677327e-05   3.97458283487662e-06   4.801436128530449e-06
-1.8180796810677327e-05   3.97458283487662e-06   4.801436128530449e-06
-1.8180796810677327e-05   3.97458283487662e-06   4.801436128530449e-06
-2.5216057857864547e-05   4.739971438590725e-06   1.6067638044947206e-05
-2.5216057857864547e-05   4.739971438590725e-06   1.6067638044947206e-05
-2.5216057857864547e-05   4.739971438590725e-06   1.6067638044947206e-05
-2.5216057857864547e-05   4.739971438590725e-06   1.6067638044947206e-05
-3.111294191446409e-05   8.530662824027951e-06   1.34840854335653e-05
-3.111294191446409e-05   8.530662824027951e-06   1.34840854335653e-05
-3.111294191446409e-05   8.530662824027951e-06   1.34840854335653e-05
-3.111294191446409e-05   8.530662824027951e-06   1.34840854335653e-05
-4.529093967756365e-05   7.28196402073264e-06   -1.0895130120244572e-05
-4.529093967756365e-05   7.28196402073264e-06   -1.0895130120244572e-05
-4.529093967756365e-05   7.28196402073264e-06   -1.0895130120244572e-05
-4.529093967756365e-05   7.28196402073264e-06   -1.0895130120244572e-05
-4.655173450006405e-05   8.623087264665466e-06   1.7930746242699348e-05
-4.655173450006405e-05   8.623087264665466e-06   1.7930746242699348e-05
-4.655173450006405e-05   8.623087264665466e-06   1.7930746242699348e-05
-4.655173450006405e-05   8.623087264665466e-06   1.7930746242699348e-05
-3.18141847322629e-05   7.247276992632329e-06   -5.806350540415832e-06
-3.18141847322629e-05   7.247276992632329e-06   -5.806350540415832e-06
-3.18141847322629e-05   7.247276992632329e-06   -5.806350540415832e-06
-3.18141847322629e-05   7.247276992632329e-06   -5.806350540415832e-06
-3.722012574560493e-05   7.804057769572148e-06   2.8694826823237054e-06
-3.722012574560493e-05   7.804057769572148e-06   2.8694826823237054e-06
-3.722012574560493e-05   7.804057769572148e-06   2.8694826823237054e-06
-3.722012574560493e-05   7.804057769572148e-06   2.8694826823237054e-06
-3.1814184732262735e-05   8.623087264665683e-06   1.875623240591947e-05
-3.1814184732262735e-05   8.623087264665683e-06   1.875623240591947e-05
-3.1814184732262735e-05   8.623087264665683e-06   1.875623240591947e-05
-3.1814184732262735e-05   8.623087264665683e-06   1.875623240591947e-05
-4.6551734500064105e-05   7.247276992632329e-06   -6.631836703635953e-06
-4.6551734500064105e-05   7.247276992632329e-06   -6.631836703635953e-06
-4.6551734500064105e-05   7.247276992632329e-06   -6.631836703635953e-06
-4.6551734500064105e-05   7.247276992632329e-06   -6.631836703635953e-06
-4.768009433075602e-05   8.528724521187237e-06   2.1518965628162818e-05
-4.768009433075602e-05   8.528724521187237e-06   2.1518965628162818e-05
-4.768009433075602e-05   8.528724521187237e-06   2.1518965628162818e-05
-4.768009433075602e-05   8.528724521187237e-06   2.1518965628162818e-05
-3.258591642362984e-05   7.100164371802746e-06   -2.7808614607501437e-06
-3.258591642362984e-05   7.100164371802746e-06   -2.7808614607501437e-06
-3.258591642362984e-05   7.100164371802746e-06   -2.7808614607501437e-06
-3.258591642362984e-05   7.100164371802746e-06   -2.7808614607501437e-06
-3.86717069409931e-05   7.890870826696107e-06   6.887698861920554e-06
-3.86717069409931e-05   7.890870826696107e-06   6.887698861920554e-06
-3.86717069409931e-05   7.890870826696107e-06   6.887698861920554e-06
-3.86717069409931e-05   7.890870826696107e-06   6.887698861920554e-06
-3.258591642362984e-05   8.528724521187237e-06   2.237610171779359e-05
-3.258591642362984e-05   8.528724521187237e-06   2.237610171779359e-05
-3.258591642362984e-05   8.528724521187237e-06   2.237610171779359e-05
-3.258591642362984e-05   8.528724521187237e-06   2.237610171779359e-05
-4.7680094330756074e-05   7.100164371802529e-06   -3.6379975503809687e-06
-4.7680094330756074e-05   7.100164371802529e-06   -3.6379975503809687e-06
-4.7680094330756074e-05   7.100164371802529e-06   -3.6379975503809687e-06
-4.7680094330756074e-05   7.100164371802529e-06   -3.6379975503809687e-06
-4.897616127136752e-05   7.872476034329924e-06   2.769035317864662e-05
-4.897616127136752e-05   7.872476034329924e-06   2.769035317864662e-05
-4.897616127136752e-05   7.872476034329924e-06   2.769035317864662e-05
-4.897616127136752e-05   7.872476034329924e-06   2.769035317864662e-05
-3.3291284458836034e-05   6.449847530356394e-06   2.4024689268113165e-06
-3.3291284458836034e-05   6.449847530356394e-06   2.4024689268113165e-06
-3.3291284458836034e-05   6.449847530356394e-06   2.4024689268113165e-06
-3.3291284458836034e-05   6.449847530356394e-06   2.4024689268113165e-06
-3.8978134633946575e-05   7.621075901935318e-06   1.1177815529047523e-05
-3.8978134633946575e-05   7.621075901935318e-06   1.1177815529047523e-05
-3.8978134633946575e-05   7.621075901935318e-06   1.1177815529047523e-05
-3.8978134633946575e-05   7.621075901935318e-06   1.1177815529047523e-05
2.1468407435696853e-05   -2.7815118261388574e-06   2.1479776692715428e-05
2.1468407435696853e-05   -2.7815118261388574e-06   2.1479776692715428e-05
2.1468407435696853e-05   -2.7815118261388574e-06   2.1479776692715428e-05
2.1468407435696853e-05   -2.7815118261388574e-06   2.1479776692715428e-05
8.91089514801925e-06   -1.3737383883071375e-06   1.3952536092850035e-06
8.91089514801925e-06   -1.3737383883071375e-06   1.3952536092850035e-06
8.91089514801925e-06   -1.3737383883071375e-06   1.3952536092850035e-06
8.91089514801925e-06   -1.3737383883071375e-06   1.3952536092850035e-06
8.356197225534555e-06   -3.3738886925549667e-06   1.9307041149308228e-05
8.356197225534555e-06   -3.3738886925549667e-06   1.9307041149308228e-05
8.356197225534555e-06   -3.3738886925549667e-06   1.9307041149308228e-05
8.356197225534555e-06   -3.3738886925549667e-06   1.9307041149308228e-05
2.0286955378350374e-05   -1.9042653522851217e-06   -1.4593297762132687e-06
2.0286955378350374e-05   -1.9042653522851217e-06   -1.4593297762132687e-06
2.0286955378350374e-05   -1.9042653522851217e-06   -1.4593297762132687e-06
2.0286955378350374e-05   -1.9042653522851217e-06   -1.4593297762132687e-06
1.4021766763937444e-05   -2.4146033047458496e-06   9.28885401928507e-06
1.4021766763937444e-05   -2.4146033047458496e-06   9.28885401928507e-06
1.4021766763937444e-05   -2.4146033047458496e-06   9.28885401928507e-06
1.4021766763937444e-05   -2.4146033047458496e-06   9.28885401928507e-06
2.0286955378350408e-05   -3.3738886925549667e-06   1.8425267145146533e-05
2.0286955378350408e-05   -3.3738886925549667e-06   1.8425267145146533e-05
2.0286955378350408e-05   -3.3738886925549667e-06   1.8425267145146533e-05
2.0286955378350408e-05   -3.3738886925549667e-06   1.8425267145146533e-05
8.356197225534525e-06   -1.9042653522851217e-06   -5.775557720515134e-07
8.356197225534525e-06   -1.9042653522851217e-06   -5.775557720515134e-07
8.356197225534525e-06   -1.9042653522851217e-06   -5.775557720515134e-07
8.356197225534525e-06   -1.9042653522851217e-06   -5.775557720515134e-07
7.732849233111682e-06   -3.5318280913511097e-06   1.7694230593691125e-05
7.732849233111682e-06   -3.5318280913511097e-06   1.7694230593691125e-05
7.732849233111682e-06   -3.5318280913511097e-06   1.7694230593691125e-05
7.732849233111682e-06   -3.5318280913511097e-06   1.7694230593691125e-05
1.9272409428642798e-05   -2.0865506054133613e-06   -2.4055362237566155e-06
1.9272409428642798e-05   -2.0865506054133613e-06   -2.4055362237566155e-06
1.9272409428642798e-05   -2.0865506054133613e-06   -2.4055362237566155e-06
1.9272409428642798e-05   -2.0865506054133613e-06   -2.4055362237566155e-06
1.349787495337899e-05   -2.6397573171870695e-06   7.550611928747739e-06
1.349787495337899e-05   -2.6397573171870695e-06   7.550611928747739e-06
1.349787495337899e-05   -2.6397573171870695e-06   7.550611928747739e-06
1.349787495337899e-05   -2.6397573171870695e-06   7.550611928747739e-06
1.9272409428642832e-05   -3.5318280913511097e-06   1.6827064102128526e-05
1.9272409428642832e-05   -3.5318280913511097e-06   1.6827064102128526e-05
1.9272409428642832e-05   -3.5318280913511097e-06   1.6827064102128526e-05
1.9272409428642832e-05   -3.5318280913511097e-06   1.6827064102128526e-05
7.732849233111669e-06   -2.0865506054133613e-06   -1.5383697321940098e-06
7.732849233111669e-06   -2.0865506054133613e-06   -1.5383697321940098e-06
7.732849233111669e-06   -2.0865506054133613e-06   -1.5383697321940098e-06
7.732849233111669e-06   -2.0865506054133613e-06   -1.5383697321940098e-06
7.173937906573384e-06   -3.677977365891018e-06   1.5597404585031716e-05
7.173937906573384e-06   -3.677977365891018e-06   1.5597404585031716e-05
7.173937906573384e-06   -3.677977365891018e-06   1.5597404585031716e-05
7.173937906573384e-06   -3.677977365891018e-06   1.5597404585031716e-05
1.8121104967169767e-05   -2.3263987443602075e-06   -3.4588210222142104e-06
1.8121104967169767e-05   -2.3263987443602075e-06   -3.4588210222142104e-06
1.8121104967169767e-05   -2.3263987443602075e-06   -3.4588210222142104e-06
1.8121104967169767e-05   -2.3263987443602075e-06   -3.4588210222142104e-06
1.252243195780659e-05   -2.6831142434203484e-06   6.086329959493575e-06
1.252243195780659e-05   -2.6831142434203484e-06   6.086329959493575e-06
1.252243195780659e-05   -2.6831142434203484e-06   6.086329959493575e-06
1.252243195780659e-05   -2.6831142434203484e-06   6.086329959493575e-06
8.910895148019281e-06   -1.7323393065090537e-08   2.6518408928879697e-05
8.910895148019281e-06   -1.7323393065090537e-08   2.6518408928879697e-05
8.910895148019281e-06   -1.7323393065090537e-08   2.6518408928879697e-05
8.910895148019281e-06   -1.7323393065090537e-08   2.6518408928879697e-05
-2.8697550657878507e-06   6.983294592480087e-07   7.313383617255586e-06
-2.8697550657878507e-06   6.983294592480087e-07   7.313383617255586e-06
-2.8697550657878507e-06   6.983294592480087e-07   7.313383617255586e-06
-2.8697550657878507e-06   6.983294592480087e-07   7.313383617255586e-06
-3.3795942696332546e-06   -5.32042105310911e-07   2.656810291269023e-05
-3.3795942696332546e-06   -5.32042105310911e-07   2.656810291269023e-05
-3.3795942696332546e-06   -5.32042105310911e-07   2.656810291269023e-05
-3.3795942696332546e-06   -5.32042105310911e-07   2.656810291269023e-05
8.356197225534525e-06   1.6186130945955966e-07   6.5921083718818154e-06
8.356197225534525e-06   1.6186130945955966e-07   6.5921083718818154e-06
8.356197225534525e-06   1.6186130945955966e-07   6.5921083718818154e-06
8.356197225534525e-06   1.6186130945955966e-07   6.5921083718818154e-06
2.6703403348310974e-06   3.147919388254549e-08   1.6146765792400878e-05
2.6703403348310974e-06   3.147919388254549e-08   1.6146765792400878e-05
2.6703403348310974e-06   3.147919388254549e-08   1.6146765792400878e-05
2.6703403348310974e-06   3.147919388254549e-08   1.6146765792400878e-05
8.356197225534548e-06   -5.320421053106941e-07   2.615176086382816e-05
8.356197225534548e-06   -5.320421053106941e-07   2.615176086382816e-05
8.356197225534548e-06   -5.320421053106941e-07   2.615176086382816e-05
8.356197225534548e-06   -5.320421053106941e-07   2.615176086382816e-05
-3.379594269633268e-06   1.6186130945955966e-07   7.008450420744076e-06
-3.379594269633268e-06   1.6186130945955966e-07   7.008450420744076e-06
-3.379594269633268e-06   1.6186130945955966e-07   7.008450420744076e-06
-3.379594269633268e-06   1.6186130945955966e-07   7.008450420744076e-06
-3.900943802172916e-06   -9.372571624134424e-07   2.6248179009723044e-05
-3.900943802172916e-06   -9.372571624134424e-07   2.6248179009723044e-05
-3.900943802172916e-06   -9.372571624134424e-07   2.6248179009723044e-05
-3.900943802172916e-06   -9.372571624134424e-07   2.6248179009723044e-05
7.732849233111669e-06   -2.766432045464909e-07   6.462155576195203e-06
7.732849233111669e-06   -2.766432045464909e-07   6.462155576195203e-06
7.732849233111669e-06   -2.766432045464909e-07   6.462155576195203e-06
7.732849233111669e-06   -2.766432045464909e-07   6.462155576195203e-06
2.109457457366329e-06   -3.2605325029765476e-07   1.5864121229888903e-05
2.109457457366329e-06   -3.2605325029765476e-07   1.5864121229888903e-05
2.109457457366329e-06   -3.2605325029765476e-07   1.5864121229888903e-05
2.109457457366329e-06   -3.2605325029765476e-07   1.5864121229888903e-05
7.732849233111692e-06   -9.372571624134424e-07   2.5851810635002856e-05
7.732849233111692e-06   -9.372571624134424e-07   2.5851810635002856e-05
7.732849233111692e-06   -9.372571624134424e-07   2.5851810635002856e-05
7.732849233111692e-06   -9.372571624134424e-07   2.5851810635002856e-05
-3.90094380217293e-06   -2.766432045464909e-07   6.858523950915526e-06
-3.90094380217293e-06   -2.766432045464909e-07   6.858523950915526e-06
-3.90094380217293e-06   -2.766432045464909e-07   6.858523950915526e-06
-3.90094380217293e-06   -2.766432045464909e-07   6.858523950915526e-06
-4.417970951979471e-06   -1.311911343756687e-06   2.6484574061363887e-05
-4.417970951979471e-06   -1.311911343756687e-06   2.6484574061363887e-05
-4.417970951979471e-06   -1.311911343756687e-06   2.6484574061363887e-05
-4.417970951979471e-06   -1.311911343756687e-06   2.6484574061363887e-05
7.17393790657335e-06   -7.081733931313221e-07   6.802483193400636e-06
7.17393790657335e-06   -7.081733931313221e-07   6.802483193400636e-06
7.17393790657335e-06   -7.081733931313221e-07   6.802483193400636e-06
7.17393790657335e-06   -7.081733931313221e-07   6.802483193400636e-06
1.6669014301581525e-06   -6.235655355406496e-07   1.59301126062043e-05
1.6669014301581525e-06   -6.235655355406496e-07   1.59301126062043e-05
1.6669014301581525e-06   -6.235655355406496e-07   1.59301126062043e-05
1.6669014301581525e-06   -6.235655355406496e-07   1.59301126062043e-05
-2.8697550657878643e-06   2.681541005126369e-06   2.877045912701669e-05
-2.8697550657878643e-06   2.681541005126369e-06   2.877045912701669e-05
-2.8697550657878643e-06   2.681541005126369e-06   2.877045912701669e-05
-2.8697550657878643e-06   2.681541005126369e-06   2.877045912701669e-05
-1.4455153542176907e-05   2.640468577437202e-06   9.436818209754652e-06
-1.4455153542176907e-05   2.640468577437202e-06   9.436818209754652e-06
-1.4455153542176907e-05   2.640468577437202e-06   9.436818209754652e-06
-1.4455153542176907e-05   2.640468577437202e-06   9.436818209754652e-06
-1.4958316781098587e-05   2.2298375949370616e-06   2.8582798454897338e-05
-1.4958316781098587e-05   2.2298375949370616e-06   2.8582798454897338e-05
-1.4958316781098587e-05   2.2298375949370616e-06   2.8582798454897338e-05
-1.4958316781098587e-05   2.2298375949370616e-06   2.8582798454897338e-05
-3.3795942696332546e-06   2.1535056417077217e-06   9.330726774392831e-06
-3.3795942696332546e-06   2.1535056417077217e-06   9.330726774392831e-06
-3.3795942696332546e-06   2.1535056417077217e-06   9.330726774392831e-06
-3.3795942696332546e-06   2.1535056417077217e-06   9.330726774392831e-06
-8.937995159586531e-06   2.3658588403309335e-06   1.846731633847466e-05
-8.937995159586531e-06   2.3658588403309335e-06   1.846731633847466e-05
-8.937995159586531e-06   2.3658588403309335e-06   1.846731633847466e-05
-8.937995159586531e-06   2.3658588403309335e-06   1.846731633847466e-05
-3.3795942696332546e-06   2.2298375949370616e-06   2.8628597626834953e-05
-3.3795942696332546e-06   2.2298375949370616e-06   2.8628597626834953e-05
-3.3795942696332546e-06   2.2298375949370616e-06   2.8628597626834953e-05
-3.3795942696332546e-06   2.2298375949370616e-06   2.8628597626834953e-05
-1.4958316781098614e-05   2.1535056417077217e-06   9.284927602455162e-06
-1.4958316781098614e-05   2.1535056417077217e-06   9.284927602455162e-06
-1.4958316781098614e-05   2.1535056417077217e-06   9.284927602455162e-06
-1.4958316781098614e-05   2.1535056417077217e-06   9.284927602455162e-06
-1.5473516036573965e-05   1.785329946672222e-06   2.872768229009279e-05
-1.5473516036573965e-05   1.785329946672222e-06   2.872768229009279e-05
-1.5473516036573965e-05   1.785329946672222e-06   2.872768229009279e-05
-1.5473516036573965e-05   1.785329946672222e-06   2.872768229009279e-05
-3.900943802172903e-06   1.6721451745105222e-06   9.507972762721572e-06
-3.900943802172903e-06   1.6721451745105222e-06   9.507972762721572e-06
-3.900943802172903e-06   1.6721451745105222e-06   9.507972762721572e-06
-3.900943802172903e-06   1.6721451745105222e-06   9.507972762721572e-06
-9.398648578561416e-06   2.012636060903187e-06   1.8466519524867376e-05
-9.398648578561416e-06   2.012636060903187e-06   1.8466519524867376e-05
-9.398648578561416e-06   2.012636060903187e-06   1.8466519524867376e-05
-9.398648578561416e-06   2.012636060903187e-06   1.8466519524867376e-05
-3.90094380217293e-06   1.785329946672222e-06   2.879559315338993e-05
-3.90094380217293e-06   1.785329946672222e-06   2.879559315338993e-05
-3.90094380217293e-06   1.785329946672222e-06   2.879559315338993e-05
-3.90094380217293e-06   1.785329946672222e-06   2.879559315338993e-05
-1.5473516036573992e-05   1.672145174510739e-06   9.440061899424596e-06
-1.5473516036573992e-05   1.672145174510739e-06   9.440061899424596e-06
-1.5473516036573992e-05   1.672145174510739e-06   9.440061899424596e-06
-1.5473516036573992e-05   1.672145174510739e-06   9.440061899424596e-06
-1.598265232507213e-05   1.3635734148662558e-06   2.9111676709371115e-05
-1.598265232507213e-05   1.3635734148662558e-06   2.9111676709371115e-05
-1.598265232507213e-05   1.3635734148662558e-06   2.9111676709371115e-05
-1.598265232507213e-05   1.3635734148662558e-06   2.9111676709371115e-05
-4.417970951979471e-06   1.2087994297467312e-06   9.93007214528845e-06
-4.417970951979471e-06   1.2087994297467312e-06   9.93007214528845e-06
-4.417970951979471e-06   1.2087994297467312e-06   9.93007214528845e-06
-4.417970951979471e-06   1.2087994297467312e-06   9.93007214528845e-06
-9.880569905406809e-06   1.6677764268205244e-06   1.87590175360892e-05
-9.880569905406809e-06   1.6677764268205244e-06   1.87590175360892e-05
-9.880569905406809e-06   1.6677764268205244e-06   1.87590175360892e-05
-9.880569905406809e-06   1.6677764268205244e-06   1.87590175360892e-05
-1.4455153542176907e-05   5.279553014783016e-06   2.5451094890854625e-05
-1.4455153542176907e-05   5.279553014783016e-06   2.5451094890854625e-05
-1.4455153542176907e-05   5.279553014783016e-06   2.5451094890854625e-05
-1.4455153542176907e-05   5.279553014783016e-06   2.5451094890854625e-05
-2.584922900364118e-05   4.530253206642271e-06   6.011389236863112e-06
-2.584922900364118e-05   4.530253206642271e-06   6.011389236863112e-06
-2.584922900364118e-05   4.530253206642271e-06   6.011389236863112e-06
-2.584922900364118e-05   4.530253206642271e-06   6.011389236863112e-06
-2.6389152501847828e-05   4.847446327369692e-06   2.5115679319110762e-05
-2.6389152501847828e-05   4.847446327369692e-06   2.5115679319110762e-05
-2.6389152501847828e-05   4.847446327369692e-06   2.5115679319110762e-05
-2.6389152501847828e-05   4.847446327369692e-06   2.5115679319110762e-05
-1.495831678109856e-05   4.054899186481647e-06   6.5398147357282775e-06
-1.495831678109856e-05   4.054899186481647e-06   6.5398147357282775e-06
-1.495831678109856e-05   4.054899186481647e-06   6.5398147357282775e-06
-1.495831678109856e-05   4.054899186481647e-06   6.5398147357282775e-06
-2.0355173279667258e-05   4.5979318547762415e-06   1.5208755965699823e-05
-2.0355173279667258e-05   4.5979318547762415e-06   1.5208755965699823e-05
-2.0355173279667258e-05   4.5979318547762415e-06   1.5208755965699823e-05
-2.0355173279667258e-05   4.5979318547762415e-06   1.5208755965699823e-05
-1.4958316781098614e-05   4.847446327369692e-06   2.5591207603643687e-05
-1.4958316781098614e-05   4.847446327369692e-06   2.5591207603643687e-05
-1.4958316781098614e-05   4.847446327369692e-06   2.5591207603643687e-05
-1.4958316781098614e-05   4.847446327369692e-06   2.5591207603643687e-05
-2.63891525018478e-05   4.054899186481647e-06   6.064286451195407e-06
-2.63891525018478e-05   4.054899186481647e-06   6.064286451195407e-06
-2.63891525018478e-05   4.054899186481647e-06   6.064286451195407e-06
-2.63891525018478e-05   4.054899186481647e-06   6.064286451195407e-06
-2.6996622509531225e-05   4.444376785010459e-06   2.5975480905635756e-05
-2.6996622509531225e-05   4.444376785010459e-06   2.5975480905635756e-05
-2.6996622509531225e-05   4.444376785010459e-06   2.5975480905635756e-05
-2.6996622509531225e-05   4.444376785010459e-06   2.5975480905635756e-05
-1.5473516036573938e-05   3.6146825361145236e-06   7.2681200000444595e-06
-1.5473516036573938e-05   3.6146825361145236e-06   7.2681200000444595e-06
-1.5473516036573938e-05   3.6146825361145236e-06   7.2681200000444595e-06
-1.5473516036573938e-05   3.6146825361145236e-06   7.2681200000444595e-06
-2.072840126593245e-05   4.274282698455323e-06   1.56305019515716e-05
-2.072840126593245e-05   4.274282698455323e-06   1.56305019515716e-05
-2.072840126593245e-05   4.274282698455323e-06   1.56305019515716e-05
-2.072840126593245e-05   4.274282698455323e-06   1.56305019515716e-05
-1.5473516036573992e-05   4.444376785010459e-06   2.647329745497336e-05
-1.5473516036573992e-05   4.444376785010459e-06   2.647329745497336e-05
-1.5473516036573992e-05   4.444376785010459e-06   2.647329745497336e-05
-1.5473516036573992e-05   4.444376785010459e-06   2.647329745497336e-05
-2.699662250953117e-05   3.6146825361145236e-06   6.77030345070718e-06
-2.699662250953117e-05   3.6146825361145236e-06   6.77030345070718e-06
-2.699662250953117e-05   3.6146825361145236e-06   6.77030345070718e-06
-2.699662250953117e-05   3.6146825361145236e-06   6.77030345070718e-06
-2.753643967245086e-05   3.974582834876403e-06   2.669943656382896e-05
-2.753643967245086e-05   3.974582834876403e-06   2.669943656382896e-05
-2.753643967245086e-05   3.974582834876403e-06   2.669943656382896e-05
-2.753643967245086e-05   3.974582834876403e-06   2.669943656382896e-05
-1.5982652325072076e-05   3.1222095337648387e-06   7.954548298864657e-06
-1.5982652325072076e-05   3.1222095337648387e-06   7.954548298864657e-06
-1.5982652325072076e-05   3.1222095337648387e-06   7.954548298864657e-06
-1.5982652325072076e-05   3.1222095337648387e-06   7.954548298864657e-06
-2.1337679095223403e-05   3.933210291519459e-06   1.639299246112999e-05
-2.1337679095223403e-05   3.933210291519459e-06   1.639299246112999e-05
-2.1337679095223403e-05   3.933210291519459e-06   1.639299246112999e-05
-2.1337679095223403e-05   3.933210291519459e-06   1.639299246112999e-05
-2.584922900364118e-05   7.28196402073264e-06   1.2235113707248133e-05
-2.584922900364118e-05   7.28196402073264e-06   1.2235113707248133e-05
-2.584922900364118e-05   7.28196402073264e-06   1.2235113707248133e-05
-2.584922900364118e-05   7.28196402073264e-06   1.2235113707248133e-05
-3.65426829078843e-05   5.947747323068733e-06   -6.387839485088654e-06
-3.65426829078843e-05   5.947747323068733e-06   -6.387839485088654e-06
-3.65426829078843e-05   5.947747323068733e-06   -6.387839485088654e-06
-3.65426829078843e-05   5.947747323068733e-06   -6.387839485088654e-06
-3.767229009181525e-05   7.247276992632329e-06   1.5696811292331648e-05
-3.767229009181525e-05   7.247276992632329e-06   1.5696811292331648e-05
-3.767229009181525e-05   7.247276992632329e-06   1.5696811292331648e-05
-3.767229009181525e-05   7.247276992632329e-06   1.5696811292331648e-05
-2.6389152501847746e-05   5.796184018297748e-06   -2.2377622396798887e-06
-2.6389152501847746e-05   5.796184018297748e-06   -2.2377622396798887e-06
-2.6389152501847746e-05   5.796184018297748e-06   -2.2377622396798887e-06
-2.6389152501847746e-05   5.796184018297748e-06   -2.2377622396798887e-06
-3.0428323088419937e-05   6.448156107285562e-06   4.103005484548374e-06
-3.0428323088419937e-05   6.448156107285562e-06   4.103005484548374e-06
-3.0428323088419937e-05   6.448156107285562e-06   4.103005484548374e-06
-3.0428323088419937e-05   6.448156107285562e-06   4.103005484548374e-06
-2.6389152501847828e-05   7.247276992632329e-06   1.656746707693257e-05
-2.6389152501847828e-05   7.247276992632329e-06   1.656746707693257e-05
-2.6389152501847828e-05   7.247276992632329e-06   1.656746707693257e-05
-2.6389152501847828e-05   7.247276992632329e-06   1.656746707693257e-05
-3.767229009181525e-05   5.796184018297965e-06   -3.108418024280648e-06
-3.767229009181525e-05   5.796184018297965e-06   -3.108418024280648e-06
-3.767229009181525e-05   5.796184018297965e-06   -3.108418024280648e-06
-3.767229009181525e-05   5.796184018297965e-06   -3.108418024280648e-06
-3.8657385644803735e-05   7.100164371802746e-06   1.8693024660450946e-05
-3.8657385644803735e-05   7.100164371802746e-06   1.8693024660450946e-05
-3.8657385644803735e-05   7.100164371802746e-06   1.8693024660450946e-05
-3.8657385644803735e-05   7.100164371802746e-06   1.8693024660450946e-05
-2.6996622509531143e-05   5.609479136395659e-06   1.528305762411473e-07
-2.6996622509531143e-05   5.609479136395659e-06   1.528305762411473e-07
-2.6996622509531143e-05   5.609479136395659e-06   1.528305762411473e-07
-2.6996622509531143e-05   5.609479136395659e-06   1.528305762411473e-07
-3.162615055247184e-05   6.4530227772233726e-06   7.362584463313591e-06
-3.162615055247184e-05   6.4530227772233726e-06   7.362584463313591e-06
-3.162615055247184e-05   6.4530227772233726e-06   7.362584463313591e-06
-3.162615055247184e-05   6.4530227772233726e-06   7.362584463313591e-06
-2.699662250953117e-05   7.100164371802529e-06   1.9587435801695242e-05
-2.699662250953117e-05   7.100164371802529e-06   1.9587435801695242e-05
-2.699662250953117e-05   7.100164371802529e-06   1.9587435801695242e-05
-2.699662250953117e-05   7.100164371802529e-06   1.9587435801695242e-05
-3.865738564480363e-05   5.609479136395659e-06   -7.415805650030395e-07
-3.865738564480363e-05   5.609479136395659e-06   -7.415805650030395e-07
-3.865738564480363e-05   5.609479136395659e-06   -7.415805650030395e-07
-3.865738564480363e-05   5.609479136395659e-06   -7.415805650030395e-07
-3.979968719051383e-05   6.449847530356394e-06   2.3898093275632722e-05
-3.979968719051383e-05   6.449847530356394e-06   2.3898093275632722e-05
-3.979968719051383e-05   6.449847530356394e-06   2.3898093275632722e-05
-3.979968719051383e-05   6.449847530356394e-06   2.3898093275632722e-05
-2.7536439672450725e-05   4.981817214593778e-06   4.340165601651779e-06
-2.7536439672450725e-05   4.981817214593778e-06   4.340165601651779e-06
-2.7536439672450725e-05   4.981817214593778e-06   4.340165601651779e-06
-2.7536439672450725e-05   4.981817214593778e-06   4.340165601651779e-06
-3.189060008917298e-05   6.1795683992222575e-06   1.087844891874403e-05
-3.189060008917298e-05   6.1795683992222575e-06   1.087844891874403e-05
-3.189060008917298e-05   6.1795683992222575e-06   1.087844891874403e-05
-3.189060008917298e-05   6.1795683992222575e-06   1.087844891874403e-05
1.1968813978126219e-05   -1.3737383883071375e-06   1.6927046221727715e-05
1.1968813978126219e-05   -1.3737383883071375e-06   1.6927046221727715e-05
1.1968813978126219e-05   -1.3737383883071375e-06   1.6927046221727715e-05
1.1968813978126219e-05   -1.3737383883071375e-06   1.6927046221727715e-05
3.147646574241046e-06   2.1556696872199535e-08   3.0622775996935227e-06
3.147646574241046e-06   2.1556696872199535e-08   3.0622775996935227e-06
3.147646574241046e-06   2.1556696872199535e-08   3.0622775996935227e-06
3.147646574241046e-06   2.1556696872199535e-08   3.0622775996935227e-06
2.7320012255743095e-06   -1.9042653522853385e-06   1.5775952264174406e-05
2.7320012255743095e-06   -1.9042653522853385e-06   1.5775952264174406e-05
2.7320012255743095e-06   -1.9042653522853385e-06   1.5775952264174406e-05
2.7320012255743095e-06   -1.9042653522853385e-06   1.5775952264174406e-05
1.0940889341736898e-05   -4.542805541892479e-07   1.224481191712751e-06
1.0940889341736898e-05   -4.542805541892479e-07   1.224481191712751e-06
1.0940889341736898e-05   -4.542805541892479e-07   1.224481191712751e-06
1.0940889341736898e-05   -4.542805541892479e-07   1.224481191712751e-06
6.773249102602882e-06   -9.950287814580652e-07   8.49499719329772e-06
6.773249102602882e-06   -9.950287814580652e-07   8.49499719329772e-06
6.773249102602882e-06   -9.950287814580652e-07   8.49499719329772e-06
6.773249102602882e-06   -9.950287814580652e-07   8.49499719329772e-06
1.0940889341736919e-05   -1.9042653522853385e-06   1.4905961385316896e-05
1.0940889341736919e-05   -1.9042653522853385e-06   1.4905961385316896e-05
1.0940889341736919e-05   -1.9042653522853385e-06   1.4905961385316896e-05
1.0940889341736919e-05   -1.9042653522853385e-06   1.4905961385316896e-05
2.732001225574306e-06   -4.542805541892479e-07   2.094472070570362e-06
2.732001225574306e-06   -4.542805541892479e-07   2.094472070570362e-06
2.732001225574306e-06   -4.542805541892479e-07   2.094472070570362e-06
2.732001225574306e-06   -4.542805541892479e-07   2.094472070570362e-06
2.247304625055189e-06   -2.0865506054133613e-06   1.4802351866456827e-05
2.247304625055189e-06   -2.0865506054133613e-06   1.4802351866456827e-05
2.247304625055189e-06   -2.0865506054133613e-06   1.4802351866456827e-05
2.247304625055189e-06   -2.0865506054133613e-06   1.4802351866456827e-05
1.0070218386120511e-05   -6.589559445728012e-07   9.076054681769752e-07
1.0070218386120511e-05   -6.589559445728012e-07   9.076054681769752e-07
1.0070218386120511e-05   -6.589559445728012e-07   9.076054681769752e-07
1.0070218386120511e-05   -6.589559445728012e-07   9.076054681769752e-07
6.277668609686355e-06   -1.2027815398169732e-06   7.554817119380408e-06
6.277668609686355e-06   -1.2027815398169732e-06   7.554817119380408e-06
6.277668609686355e-06   -1.2027815398169732e-06   7.554817119380408e-06
6.277668609686355e-06   -1.2027815398169732e-06   7.554817119380408e-06
1.0070218386120531e-05   -2.0865506054133613e-06   1.3945795069952566e-05
1.0070218386120531e-05   -2.0865506054133613e-06   1.3945795069952566e-05
1.0070218386120531e-05   -2.0865506054133613e-06   1.3945795069952566e-05
1.0070218386120531e-05   -2.0865506054133613e-06   1.3945795069952566e-05
2.247304625055179e-06   -6.589559445728012e-07   1.7641622646812028e-06
2.247304625055179e-06   -6.589559445728012e-07   1.7641622646812028e-06
2.247304625055179e-06   -6.589559445728012e-07   1.7641622646812028e-06
2.247304625055179e-06   -6.589559445728012e-07   1.7641622646812028e-06
1.8272026712982599e-06   -2.3263987443602075e-06   1.3674198999960693e-05
1.8272026712982599e-06   -2.3263987443602075e-06   1.3674198999960693e-05
1.8272026712982599e-06   -2.3263987443602075e-06   1.3674198999960693e-05
1.8272026712982599e-06   -2.3263987443602075e-06   1.3674198999960693e-05
9.050177460195542e-06   -9.989675598847444e-07   8.394489744466879e-07
9.050177460195542e-06   -9.989675598847444e-07   8.394489744466879e-07
9.050177460195542e-06   -9.989675598847444e-07   8.394489744466879e-07
9.050177460195542e-06   -9.989675598847444e-07   8.394489744466879e-07
5.544165386375242e-06   -1.3090682267296152e-06   6.868862830920633e-06
5.544165386375242e-06   -1.3090682267296152e-06   6.868862830920633e-06
5.544165386375242e-06   -1.3090682267296152e-06   6.868862830920633e-06
5.544165386375242e-06   -1.3090682267296152e-06   6.868862830920633e-06
3.1476465742410494e-06   6.983294592480087e-07   2.3252961569418355e-05
3.1476465742410494e-06   6.983294592480087e-07   2.3252961569418355e-05
3.1476465742410494e-06   6.983294592480087e-07   2.3252961569418355e-05
3.1476465742410494e-06   6.983294592480087e-07   2.3252961569418355e-05
-4.885790312931111e-06   1.3311151150297365e-06   1.0243571484267193e-05
-4.885790312931111e-06   1.3311151150297365e-06   1.0243571484267193e-05
-4.885790312931111e-06   1.3311151150297365e-06   1.0243571484267193e-05
-4.885790312931111e-06   1.3311151150297365e-06   1.0243571484267193e-05
-5.251083400166528e-06   1.6186130945955966e-07   2.3324937865392792e-05
-5.251083400166528e-06   1.6186130945955966e-07   2.3324937865392792e-05
-5.251083400166528e-06   1.6186130945955966e-07   2.3324937865392792e-05
-5.251083400166528e-06   1.6186130945955966e-07   2.3324937865392792e-05
2.732001225574306e-06   7.940637382678438e-07   9.640475365206612e-06
2.732001225574306e-06   7.940637382678438e-07   9.640475365206612e-06
2.732001225574306e-06   7.940637382678438e-07   9.640475365206612e-06
2.732001225574306e-06   7.940637382678438e-07   9.640475365206612e-06
-1.1245991580049737e-06   6.92522145006539e-07   1.612906762712957e-05
-1.1245991580049737e-06   6.92522145006539e-07   1.612906762712957e-05
-1.1245991580049737e-06   6.92522145006539e-07   1.612906762712957e-05
-1.1245991580049737e-06   6.92522145006539e-07   1.612906762712957e-05
2.732001225574306e-06   1.6186130945955966e-07   2.2945616408107735e-05
2.732001225574306e-06   1.6186130945955966e-07   2.2945616408107735e-05
2.732001225574306e-06   1.6186130945955966e-07   2.2945616408107735e-05
2.732001225574306e-06   1.6186130945955966e-07   2.2945616408107735e-05
-5.251083400166528e-06   7.940637382680606e-07   1.001979682249167e-05
-5.251083400166528e-06   7.940637382680606e-07   1.001979682249167e-05
-5.251083400166528e-06   7.940637382680606e-07   1.001979682249167e-05
-5.251083400166528e-06   7.940637382680606e-07   1.001979682249167e-05
-5.6271101222020936e-06   -2.766432045464909e-07   2.317250061865516e-05
-5.6271101222020936e-06   -2.766432045464909e-07   2.317250061865516e-05
-5.6271101222020936e-06   -2.766432045464909e-07   2.317250061865516e-05
-5.6271101222020936e-06   -2.766432045464909e-07   2.317250061865516e-05
2.247304625055179e-06   3.39395868468673e-07   9.678852596083955e-06
2.247304625055179e-06   3.39395868468673e-07   9.678852596083955e-06
2.247304625055179e-06   3.39395868468673e-07   9.678852596083955e-06
2.247304625055179e-06   3.39395868468673e-07   9.678852596083955e-06
-1.51472447268677e-06   3.182626289484477e-07   1.5961581036033027e-05
-1.51472447268677e-06   3.182626289484477e-07   1.5961581036033027e-05
-1.51472447268677e-06   3.182626289484477e-07   1.5961581036033027e-05
-1.51472447268677e-06   3.182626289484477e-07   1.5961581036033027e-05
2.247304625055189e-06   -2.766432045464909e-07   2.2802877174846176e-05
2.247304625055189e-06   -2.766432045464909e-07   2.2802877174846176e-05
2.247304625055189e-06   -2.766432045464909e-07   2.2802877174846176e-05
2.247304625055189e-06   -2.766432045464909e-07   2.2802877174846176e-05
-5.627110122202107e-06   3.39395868468673e-07   1.0048476039893183e-05
-5.627110122202107e-06   3.39395868468673e-07   1.0048476039893183e-05
-5.627110122202107e-06   3.39395868468673e-07   1.0048476039893183e-05
-5.627110122202107e-06   3.39395868468673e-07   1.0048476039893183e-05
-5.9976029383802435e-06   -7.081733931313221e-07   2.3474670517765984e-05
-5.9976029383802435e-06   -7.081733931313221e-07   2.3474670517765984e-05
-5.9976029383802435e-06   -7.081733931313221e-07   2.3474670517765984e-05
-5.9976029383802435e-06   -7.081733931313221e-07   2.3474670517765984e-05
1.8272026712982531e-06   -1.2464926794930088e-07   1.0083213359859435e-05
1.8272026712982531e-06   -1.2464926794930088e-07   1.0083213359859435e-05
1.8272026712982531e-06   -1.2464926794930088e-07   1.0083213359859435e-05
1.8272026712982531e-06   -1.2464926794930088e-07   1.0083213359859435e-05
-1.8447447787046017e-06   -1.7037118511006692e-08   1.6138558486867714e-05
-1.8447447787046017e-06   -1.7037118511006692e-08   1.6138558486867714e-05
-1.8447447787046017e-06   -1.7037118511006692e-08   1.6138558486867714e-05
-1.8447447787046017e-06   -1.7037118511006692e-08   1.6138558486867714e-05
-4.885790312931111e-06   2.640468577437202e-06   2.5780711012000023e-05
-4.885790312931111e-06   2.640468577437202e-06   2.5780711012000023e-05
-4.885790312931111e-06   2.640468577437202e-06   2.5780711012000023e-05
-4.885790312931111e-06   2.640468577437202e-06   2.5780711012000023e-05
-1.2781221968527961e-05   2.490631671732673e-06   1.25317561092493e-05
-1.2781221968527961e-05   2.490631671732673e-06   1.25317561092493e-05
-1.2781221968527961e-05   2.490631671732673e-06   1.25317561092493e-05
-1.2781221968527961e-05   2.490631671732673e-06   1.25317561092493e-05
-1.313185742521589e-05   2.1535056417077217e-06   2.5552711140897338e-05
-1.313185742521589e-05   2.1535056417077217e-06   2.5552711140897338e-05
-1.313185742521589e-05   2.1535056417077217e-06   2.5552711140897338e-05
-1.313185742521589e-05   2.1535056417077217e-06   2.5552711140897338e-05
-5.251083400166501e-06   1.99600051146759e-06   1.2512590843959267e-05
-5.251083400166501e-06   1.99600051146759e-06   1.2512590843959267e-05
-5.251083400166501e-06   1.99600051146759e-06   1.2512590843959267e-05
-5.251083400166501e-06   1.99600051146759e-06   1.2512590843959267e-05
-9.029445122754924e-06   2.264268477214287e-06   1.864889960215949e-05
-9.029445122754924e-06   2.264268477214287e-06   1.864889960215949e-05
-9.029445122754924e-06   2.264268477214287e-06   1.864889960215949e-05
-9.029445122754924e-06   2.264268477214287e-06   1.864889960215949e-05
-5.251083400166528e-06   2.1535056417077217e-06   2.5647214219041547e-05
-5.251083400166528e-06   2.1535056417077217e-06   2.5647214219041547e-05
-5.251083400166528e-06   2.1535056417077217e-06   2.5647214219041547e-05
-5.251083400166528e-06   2.1535056417077217e-06   2.5647214219041547e-05
-1.313185742521589e-05   1.99600051146759e-06   1.241808776581522e-05
-1.313185742521589e-05   1.99600051146759e-06   1.241808776581522e-05
-1.313185742521589e-05   1.99600051146759e-06   1.241808776581522e-05
-1.313185742521589e-05   1.99600051146759e-06   1.241808776581522e-05
-1.3493935038314816e-05   1.6721451745105222e-06   2.572101224016302e-05
-1.3493935038314816e-05   1.6721451745105222e-06   2.572101224016302e-05
-1.3493935038314816e-05   1.6721451745105222e-06   2.572101224016302e-05
-1.3493935038314816e-05   1.6721451745105222e-06   2.572101224016302e-05
-5.6271101222020936e-06   1.5039165240132886e-06   1.2710574570273499e-05
-5.6271101222020936e-06   1.5039165240132886e-06   1.2710574570273499e-05
-5.6271101222020936e-06   1.5039165240132886e-06   1.2710574570273499e-05
-5.6271101222020936e-06   1.5039165240132886e-06   1.2710574570273499e-05
-9.34152750616633e-06   1.8882634449482764e-06   1.8670662057652905e-05
-9.34152750616633e-06   1.8882634449482764e-06   1.8670662057652905e-05
-9.34152750616633e-06   1.8882634449482764e-06   1.8670662057652905e-05
-9.34152750616633e-06   1.8882634449482764e-06   1.8670662057652905e-05
-5.627110122202107e-06   1.6721451745105222e-06   2.5821949430461315e-05
-5.627110122202107e-06   1.6721451745105222e-06   2.5821949430461315e-05
-5.627110122202107e-06   1.6721451745105222e-06   2.5821949430461315e-05
-5.627110122202107e-06   1.6721451745105222e-06   2.5821949430461315e-05
-1.3493935038314816e-05   1.5039165240132886e-06   1.260963737997531e-05
-1.3493935038314816e-05   1.5039165240132886e-06   1.260963737997531e-05
-1.3493935038314816e-05   1.5039165240132886e-06   1.260963737997531e-05
-1.3493935038314816e-05   1.5039165240132886e-06   1.260963737997531e-05
-1.3850320675839247e-05   1.2087994297467312e-06   2.6134452590666365e-05
-1.3850320675839247e-05   1.2087994297467312e-06   2.6134452590666365e-05
-1.3850320675839247e-05   1.2087994297467312e-06   2.6134452590666365e-05
-1.3850320675839247e-05   1.2087994297467312e-06   2.6134452590666365e-05
-5.99760293838023e-06   1.0328592487259761e-06   1.3152153803513869e-05
-5.99760293838023e-06   1.0328592487259761e-06   1.3152153803513869e-05
-5.99760293838023e-06   1.0328592487259761e-06   1.3152153803513869e-05
-5.99760293838023e-06   1.0328592487259761e-06   1.3152153803513869e-05
-9.673541810150727e-06   1.5198538554386755e-06   1.89865218257705e-05
-9.673541810150727e-06   1.5198538554386755e-06   1.89865218257705e-05
-9.673541810150727e-06   1.5198538554386755e-06   1.89865218257705e-05
-9.673541810150727e-06   1.5198538554386755e-06   1.89865218257705e-05
-1.2781221968527961e-05   4.530253206642271e-06   2.271495978057019e-05
-1.2781221968527961e-05   4.530253206642271e-06   2.271495978057019e-05
-1.2781221968527961e-05   4.530253206642271e-06   2.271495978057019e-05
-1.2781221968527961e-05   4.530253206642271e-06   2.271495978057019e-05
-2.0535637437886674e-05   3.702989312761012e-06   9.294575661976932e-06
-2.0535637437886674e-05   3.702989312761012e-06   9.294575661976932e-06
-2.0535637437886674e-05   3.702989312761012e-06   9.294575661976932e-06
-2.0535637437886674e-05   3.702989312761012e-06   9.294575661976932e-06
-2.0917974613955854e-05   4.054899186481647e-06   2.229728639362963e-05
-2.0917974613955854e-05   4.054899186481647e-06   2.229728639362963e-05
-2.0917974613955854e-05   4.054899186481647e-06   2.229728639362963e-05
-2.0917974613955854e-05   4.054899186481647e-06   2.229728639362963e-05
-1.3131857425215863e-05   3.204379385580384e-06   9.830736292937379e-06
-1.3131857425215863e-05   3.204379385580384e-06   9.830736292937379e-06
-1.3131857425215863e-05   3.204379385580384e-06   9.830736292937379e-06
-1.3131857425215863e-05   3.204379385580384e-06   9.830736292937379e-06
-1.6800998678539227e-05   3.809516116605417e-06   1.558288967652886e-05
-1.6800998678539227e-05   3.809516116605417e-06   1.558288967652886e-05
-1.6800998678539227e-05   3.809516116605417e-06   1.558288967652886e-05
-1.6800998678539227e-05   3.809516116605417e-06   1.558288967652886e-05
-1.3131857425215918e-05   4.054899186481647e-06   2.280759827417067e-05
-1.3131857425215918e-05   4.054899186481647e-06   2.280759827417067e-05
-1.3131857425215918e-05   4.054899186481647e-06   2.280759827417067e-05
-1.3131857425215918e-05   4.054899186481647e-06   2.280759827417067e-05
-2.09179746139558e-05   3.204379385580384e-06   9.320424412396664e-06
-2.09179746139558e-05   3.204379385580384e-06   9.320424412396664e-06
-2.09179746139558e-05   3.204379385580384e-06   9.320424412396664e-06
-2.09179746139558e-05   3.204379385580384e-06   9.320424412396664e-06
-2.137058838409323e-05   3.6146825361145236e-06   2.303071845069309e-05
-2.137058838409323e-05   3.6146825361145236e-06   2.303071845069309e-05
-2.137058838409323e-05   3.6146825361145236e-06   2.303071845069309e-05
-2.137058838409323e-05   3.6146825361145236e-06   2.303071845069309e-05
-1.3493935038314789e-05   2.7507627192978074e-06   1.0421314764485893e-05
-1.3493935038314789e-05   2.7507627192978074e-06   1.0421314764485893e-05
-1.3493935038314789e-05   2.7507627192978074e-06   1.0421314764485893e-05
-1.3493935038314789e-05   2.7507627192978074e-06   1.0421314764485893e-05
-1.704828990137613e-05   3.4570215548489474e-06   1.5921484234924008e-05
-1.704828990137613e-05   3.4570215548489474e-06   1.5921484234924008e-05
-1.704828990137613e-05   3.4570215548489474e-06   1.5921484234924008e-05
-1.704828990137613e-05   3.4570215548489474e-06   1.5921484234924008e-05
-1.3493935038314816e-05   3.6146825361147404e-06   2.35490703407831e-05
-1.3493935038314816e-05   3.6146825361147404e-06   2.35490703407831e-05
-1.3493935038314816e-05   3.6146825361147404e-06   2.35490703407831e-05
-1.3493935038314816e-05   3.6146825361147404e-06   2.35490703407831e-05
-2.1370588384093177e-05   2.7507627192978074e-06   9.90296287439594e-06
-2.1370588384093177e-05   2.7507627192978074e-06   9.90296287439594e-06
-2.1370588384093177e-05   2.7507627192978074e-06   9.90296287439594e-06
-2.1370588384093177e-05   2.7507627192978074e-06   9.90296287439594e-06
-2.1758758557526177e-05   3.1222095337648387e-06   2.373787936307153e-05
-2.1758758557526177e-05   3.1222095337648387e-06   2.373787936307153e-05
-2.1758758557526177e-05   3.1222095337648387e-06   2.373787936307153e-05
-2.1758758557526177e-05   3.1222095337648387e-06   2.373787936307153e-05
-1.3850320675839193e-05   2.2656865800267656e-06   1.107106333250263e-05
-1.3850320675839193e-05   2.2656865800267656e-06   1.107106333250263e-05
-1.3850320675839193e-05   2.2656865800267656e-06   1.107106333250263e-05
-1.3850320675839193e-05   2.2656865800267656e-06   1.107106333250263e-05
-1.747438847584225e-05   3.10368043662931e-06   1.660838001854616e-05
-1.747438847584225e-05   3.10368043662931e-06   1.660838001854616e-05
-1.747438847584225e-05   3.10368043662931e-06   1.660838001854616e-05
-1.747438847584225e-05   3.10368043662931e-06   1.660838001854616e-05
-2.0535637437886674e-05   5.94774732306895e-06   1.0619902740887917e-05
-2.0535637437886674e-05   5.94774732306895e-06   1.0619902740887917e-05
-2.0535637437886674e-05   5.94774732306895e-06   1.0619902740887917e-05
-2.0535637437886674e-05   5.94774732306895e-06   1.0619902740887917e-05
-2.7538364291922006e-05   4.560667662315649e-06   -1.8835564789560367e-06
-2.7538364291922006e-05   4.560667662315649e-06   -1.8835564789560367e-06
-2.7538364291922006e-05   4.560667662315649e-06   -1.8835564789560367e-06
-2.7538364291922006e-05   4.560667662315649e-06   -1.8835564789560367e-06
-2.8518926197355302e-05   5.796184018297965e-06   1.3100856992627518e-05
-2.8518926197355302e-05   5.796184018297965e-06   1.3100856992627518e-05
-2.8518926197355302e-05   5.796184018297965e-06   1.3100856992627518e-05
-2.8518926197355302e-05   5.796184018297965e-06   1.3100856992627518e-05
-2.09179746139558e-05   4.305549501420081e-06   1.326985063755345e-06
-2.09179746139558e-05   4.305549501420081e-06   1.326985063755345e-06
-2.09179746139558e-05   4.305549501420081e-06   1.326985063755345e-06
-2.09179746139558e-05   4.305549501420081e-06   1.326985063755345e-06
-2.348968720117489e-05   5.057220279228495e-06   5.1621702424365105e-06
-2.348968720117489e-05   5.057220279228495e-06   5.1621702424365105e-06
-2.348968720117489e-05   5.057220279228495e-06   5.1621702424365105e-06
-2.348968720117489e-05   5.057220279228495e-06   5.1621702424365105e-06
-2.09179746139558e-05   5.796184018297748e-06   1.3995237702754226e-05
-2.09179746139558e-05   5.796184018297748e-06   1.3995237702754226e-05
-2.09179746139558e-05   5.796184018297748e-06   1.3995237702754226e-05
-2.09179746139558e-05   5.796184018297748e-06   1.3995237702754226e-05
-2.8518926197355356e-05   4.305549501420081e-06   4.3260435362871773e-07
-2.8518926197355356e-05   4.305549501420081e-06   4.3260435362871773e-07
-2.8518926197355356e-05   4.305549501420081e-06   4.3260435362871773e-07
-2.8518926197355356e-05   4.305549501420081e-06   4.3260435362871773e-07
-2.9362754295672805e-05   5.609479136395659e-06   1.5502634661466964e-05
-2.9362754295672805e-05   5.609479136395659e-06   1.5502634661466964e-05
-2.9362754295672805e-05   5.609479136395659e-06   1.5502634661466964e-05
-2.9362754295672805e-05   5.609479136395659e-06   1.5502634661466964e-05
-2.1370588384093177e-05   4.091794278462133e-06   3.0929690569275877e-06
-2.1370588384093177e-05   4.091794278462133e-06   3.0929690569275877e-06
-2.1370588384093177e-05   4.091794278462133e-06   3.0929690569275877e-06
-2.1370588384093177e-05   4.091794278462133e-06   3.0929690569275877e-06
-2.4432058706612934e-05   4.991479742381543e-06   7.65560831610942e-06
-2.4432058706612934e-05   4.991479742381543e-06   7.65560831610942e-06
-2.4432058706612934e-05   4.991479742381543e-06   7.65560831610942e-06
-2.4432058706612934e-05   4.991479742381543e-06   7.65560831610942e-06
-2.1370588384093177e-05   5.609479136395442e-06   1.6413245576227167e-05
-2.1370588384093177e-05   5.609479136395442e-06   1.6413245576227167e-05
-2.1370588384093177e-05   5.609479136395442e-06   1.6413245576227167e-05
-2.1370588384093177e-05   5.609479136395442e-06   1.6413245576227167e-05
-2.936275429567286e-05   4.091794278461916e-06   2.182358142167602e-06
-2.936275429567286e-05   4.091794278461916e-06   2.182358142167602e-06
-2.936275429567286e-05   4.091794278461916e-06   2.182358142167602e-06
-2.936275429567286e-05   4.091794278461916e-06   2.182358142167602e-06
-3.0372212870882407e-05   4.981817214593995e-06   1.9751486995652932e-05
-3.0372212870882407e-05   4.981817214593995e-06   1.9751486995652932e-05
-3.0372212870882407e-05   4.981817214593995e-06   1.9751486995652932e-05
-3.0372212870882407e-05   4.981817214593995e-06   1.9751486995652932e-05
-2.1758758557526123e-05   3.5094277964727895e-06   6.279163457598462e-06
-2.1758758557526123e-05   3.5094277964727895e-06   6.279163457598462e-06
-2.1758758557526123e-05   3.5094277964727895e-06   6.279163457598462e-06
-2.1758758557526123e-05   3.5094277964727895e-06   6.279163457598462e-06
-2.4665088058033625e-05   4.726647776532211e-06   1.0392713970408204e-05
-2.4665088058033625e-05   4.726647776532211e-06   1.0392713970408204e-05
-2.4665088058033625e-05   4.726647776532211e-06   1.0392713970408204e-05
-2.4665088058033625e-05   4.726647776532211e-06   1.0392713970408204e-05
2.4596811807867423e-06   2.1556696872199535e-08   1.2654143919019088e-05
2.4596811807867423e-06   2.1556696872199535e-08   1.2654143919019088e-05
2.4596811807867423e-06   2.1556696872199535e-08   1.2654143919019088e-05
2.4596811807867423e-06   2.1556696872199535e-08   1.2654143919019088e-05
-2.606298763933398e-06   1.3627005758534922e-06   5.015530338540802e-06
-2.606298763933398e-06   1.3627005758534922e-06   5.015530338540802e-06
-2.606298763933398e-06   1.3627005758534922e-06   5.015530338540802e-06
-2.606298763933398e-06   1.3627005758534922e-06   5.015530338540802e-06
-2.901605292946497e-06   -4.5428055418946477e-07   1.247352062430315e-05
-2.901605292946497e-06   -4.5428055418946477e-07   1.247352062430315e-05
-2.901605292946497e-06   -4.5428055418946477e-07   1.247352062430315e-05
-2.901605292946497e-06   -4.5428055418946477e-07   1.247352062430315e-05
1.5617131933676518e-06   9.187410097489298e-07   4.210843542083232e-06
1.5617131933676518e-06   9.187410097489298e-07   4.210843542083232e-06
1.5617131933676518e-06   9.187410097489298e-07   4.210843542083232e-06
1.5617131933676518e-06   9.187410097489298e-07   4.210843542083232e-06
-4.919809114659778e-07   3.8594881292849763e-07   7.953342368231635e-06
-4.919809114659778e-07   3.8594881292849763e-07   7.953342368231635e-06
-4.919809114659778e-07   3.8594881292849763e-07   7.953342368231635e-06
-4.919809114659778e-07   3.8594881292849763e-07   7.953342368231635e-06
1.5617131933676518e-06   -4.5428055418946477e-07   1.16497076859402e-05
1.5617131933676518e-06   -4.5428055418946477e-07   1.16497076859402e-05
1.5617131933676518e-06   -4.5428055418946477e-07   1.16497076859402e-05
1.5617131933676518e-06   -4.5428055418946477e-07   1.16497076859402e-05
-2.901605292946497e-06   9.187410097489298e-07   5.034656480446182e-06
-2.901605292946497e-06   9.187410097489298e-07   5.034656480446182e-06
-2.901605292946497e-06   9.187410097489298e-07   5.034656480446182e-06
-2.901605292946497e-06   9.187410097489298e-07   5.034656480446182e-06
-3.2665598783017967e-06   -6.58955944573018e-07   1.2142372882308398e-05
-3.2665598783017967e-06   -6.58955944573018e-07   1.2142372882308398e-05
-3.2665598783017967e-06   -6.58955944573018e-07   1.2142372882308398e-05
-3.2665598783017967e-06   -6.58955944573018e-07   1.2142372882308398e-05
7.82096878481725e-07   6.750409174182195e-07   4.594213503807858e-06
7.82096878481725e-07   6.750409174182195e-07   4.594213503807858e-06
7.82096878481725e-07   6.750409174182195e-07   4.594213503807858e-06
7.82096878481725e-07   6.750409174182195e-07   4.594213503807858e-06
-9.75864538628136e-07   1.9682829248418446e-07   7.811076773951329e-06
-9.75864538628136e-07   1.9682829248418446e-07   7.811076773951329e-06
-9.75864538628136e-07   1.9682829248418446e-07   7.811076773951329e-06
-9.75864538628136e-07   1.9682829248418446e-07   7.811076773951329e-06
7.82096878481725e-07   -6.589559445728012e-07   1.1341974765113555e-05
7.82096878481725e-07   -6.589559445728012e-07   1.1341974765113555e-05
7.82096878481725e-07   -6.589559445728012e-07   1.1341974765113555e-05
7.82096878481725e-07   -6.589559445728012e-07   1.1341974765113555e-05
-3.26655987830179e-06   6.750409174182195e-07   5.394611621002579e-06
-3.26655987830179e-06   6.750409174182195e-07   5.394611621002579e-06
-3.26655987830179e-06   6.750409174182195e-07   5.394611621002579e-06
-3.26655987830179e-06   6.750409174182195e-07   5.394611621002579e-06
-3.5718393369010345e-06   -9.989675598847444e-07   1.2017510513051988e-05
-3.5718393369010345e-06   -9.989675598847444e-07   1.2017510513051988e-05
-3.5718393369010345e-06   -9.989675598847444e-07   1.2017510513051988e-05
-3.5718393369010345e-06   -9.989675598847444e-07   1.2017510513051988e-05
-1.9630577974775055e-07   1.5882488531185172e-07   5.69694578401211e-06
-1.9630577974775055e-07   1.5882488531185172e-07   5.69694578401211e-06
-1.9630577974775055e-07   1.5882488531185172e-07   5.69694578401211e-06
-1.9630577974775055e-07   1.5882488531185172e-07   5.69694578401211e-06
-1.4994468854597798e-06   2.4472638414678102e-08   7.949458975003662e-06
-1.4994468854597798e-06   2.4472638414678102e-08   7.949458975003662e-06
-1.4994468854597798e-06   2.4472638414678102e-08   7.949458975003662e-06
-1.4994468854597798e-06   2.4472638414678102e-08   7.949458975003662e-06
-2.606298763933398e-06   1.3311151150297365e-06   2.0260452737512328e-05
-2.606298763933398e-06   1.3311151150297365e-06   2.0260452737512328e-05
-2.606298763933398e-06   1.3311151150297365e-06   2.0260452737512328e-05
-2.606298763933398e-06   1.3311151150297365e-06   2.0260452737512328e-05
-6.845235924976718e-06   1.597023226657568e-06   1.3355102336083452e-05
-6.845235924976718e-06   1.597023226657568e-06   1.3355102336083452e-05
-6.845235924976718e-06   1.597023226657568e-06   1.3355102336083452e-05
-6.845235924976718e-06   1.597023226657568e-06   1.3355102336083452e-05
-7.068271112955132e-06   7.940637382678438e-07   2.0204047463940125e-05
-7.068271112955132e-06   7.940637382678438e-07   2.0204047463940125e-05
-7.068271112955132e-06   7.940637382678438e-07   2.0204047463940125e-05
-7.068271112955132e-06   7.940637382678438e-07   2.0204047463940125e-05
-2.901605292946497e-06   1.1016029799357186e-06   1.3075080885591715e-05
-2.901605292946497e-06   1.1016029799357186e-06   1.3075080885591715e-05
-2.901605292946497e-06   1.1016029799357186e-06   1.3075080885591715e-05
-2.901605292946497e-06   1.1016029799357186e-06   1.3075080885591715e-05
-4.884989552770843e-06   1.1480978495792115e-06   1.6352824396846194e-05
-4.884989552770843e-06   1.1480978495792115e-06   1.6352824396846194e-05
-4.884989552770843e-06   1.1480978495792115e-06   1.6352824396846194e-05
-4.884989552770843e-06   1.1480978495792115e-06   1.6352824396846194e-05
-2.9016052929464903e-06   7.940637382678438e-07   2.001952391893932e-05
-2.9016052929464903e-06   7.940637382678438e-07   2.001952391893932e-05
-2.9016052929464903e-06   7.940637382678438e-07   2.001952391893932e-05
-2.9016052929464903e-06   7.940637382678438e-07   2.001952391893932e-05
-7.068271112955132e-06   1.1016029799357186e-06   1.3259604430592385e-05
-7.068271112955132e-06   1.1016029799357186e-06   1.3259604430592385e-05
-7.068271112955132e-06   1.1016029799357186e-06   1.3259604430592385e-05
-7.068271112955132e-06   1.1016029799357186e-06   1.3259604430592385e-05
-7.298366362149775e-06   3.39395868468673e-07   2.0240359096866103e-05
-7.298366362149775e-06   3.39395868468673e-07   2.0240359096866103e-05
-7.298366362149775e-06   3.39395868468673e-07   2.0240359096866103e-05
-7.298366362149775e-06   3.39395868468673e-07   2.0240359096866103e-05
-3.26655987830179e-06   6.448890070605154e-07   1.3337385740631153e-05
-3.26655987830179e-06   6.448890070605154e-07   1.3337385740631153e-05
-3.26655987830179e-06   6.448890070605154e-07   1.3337385740631153e-05
-3.26655987830179e-06   6.448890070605154e-07   1.3337385740631153e-05
-5.112820912679238e-06   7.864121325605166e-07   1.6329573589293913e-05
-5.112820912679238e-06   7.864121325605166e-07   1.6329573589293913e-05
-5.112820912679238e-06   7.864121325605166e-07   1.6329573589293913e-05
-5.112820912679238e-06   7.864121325605166e-07   1.6329573589293913e-05
-3.26655987830179e-06   3.39395868468673e-07   2.0057063213710987e-05
-3.26655987830179e-06   3.39395868468673e-07   2.0057063213710987e-05
-3.26655987830179e-06   3.39395868468673e-07   2.0057063213710987e-05
-3.26655987830179e-06   3.39395868468673e-07   2.0057063213710987e-05
-7.298366362149775e-06   6.448890070605154e-07   1.3520681623786215e-05
-7.298366362149775e-06   6.448890070605154e-07   1.3520681623786215e-05
-7.298366362149775e-06   6.448890070605154e-07   1.3520681623786215e-05
-7.298366362149775e-06   6.448890070605154e-07   1.3520681623786215e-05
-7.524201369296662e-06   -1.2464926794930088e-07   2.0630046883863976e-05
-7.524201369296662e-06   -1.2464926794930088e-07   2.0630046883863976e-05
-7.524201369296662e-06   -1.2464926794930088e-07   2.0630046883863976e-05
-7.524201369296662e-06   -1.2464926794930088e-07   2.0630046883863976e-05
-3.571839336901031e-06   1.5073522552475245e-07   1.3877546133786987e-05
-3.571839336901031e-06   1.5073522552475245e-07   1.3877546133786987e-05
-3.571839336901031e-06   1.5073522552475245e-07   1.3877546133786987e-05
-3.571839336901031e-06   1.5073522552475245e-07   1.3877546133786987e-05
-5.3401716770519144e-06   4.3150150664459904e-07   1.6656306932033105e-05
-5.3401716770519144e-06   4.3150150664459904e-07   1.6656306932033105e-05
-5.3401716770519144e-06   4.3150150664459904e-07   1.6656306932033105e-05
-5.3401716770519144e-06   4.3150150664459904e-07   1.6656306932033105e-05
-6.845235924976718e-06   2.490631671732673e-06   2.2798084372893743e-05
-6.845235924976718e-06   2.490631671732673e-06   2.2798084372893743e-05
-6.845235924976718e-06   2.490631671732673e-06   2.2798084372893743e-05
-6.845235924976718e-06   2.490631671732673e-06   2.2798084372893743e-05
-1.1066267011887785e-05   1.919145805566046e-06   1.5420141041675394e-05
-1.1066267011887785e-05   1.919145805566046e-06   1.5420141041675394e-05
-1.1066267011887785e-05   1.919145805566046e-06   1.5420141041675394e-05
-1.1066267011887785e-05   1.919145805566046e-06   1.5420141041675394e-05
-1.1255248786322598e-05   1.99600051146759e-06   2.2375553488868062e-05
-1.1255248786322598e-05   1.99600051146759e-06   2.2375553488868062e-05
-1.1255248786322598e-05   1.99600051146759e-06   2.2375553488868062e-05
-1.1255248786322598e-05   1.99600051146759e-06   2.2375553488868062e-05
-7.068271112955132e-06   1.4605205172347861e-06   1.571854536312875e-05
-7.068271112955132e-06   1.4605205172347861e-06   1.571854536312875e-05
-7.068271112955132e-06   1.4605205172347861e-06   1.571854536312875e-05
-7.068271112955132e-06   1.4605205172347861e-06   1.571854536312875e-05
-9.063534794057364e-06   1.9281304616001267e-06   1.8763418865013187e-05
-9.063534794057364e-06   1.9281304616001267e-06   1.8763418865013187e-05
-9.063534794057364e-06   1.9281304616001267e-06   1.8763418865013187e-05
-9.063534794057364e-06   1.9281304616001267e-06   1.8763418865013187e-05
-7.068271112955132e-06   1.99600051146759e-06   2.2696841485407777e-05
-7.068271112955132e-06   1.99600051146759e-06   2.2696841485407777e-05
-7.068271112955132e-06   1.99600051146759e-06   2.2696841485407777e-05
-7.068271112955132e-06   1.99600051146759e-06   2.2696841485407777e-05
-1.1255248786322598e-05   1.4605205172347861e-06   1.5397257366589034e-05
-1.1255248786322598e-05   1.4605205172347861e-06   1.5397257366589034e-05
-1.1255248786322598e-05   1.4605205172347861e-06   1.5397257366589034e-05
-1.1255248786322598e-05   1.4605205172347861e-06   1.5397257366589034e-05
-1.1457671427032986e-05   1.5039165240132886e-06   2.2596776449319064e-05
-1.1457671427032986e-05   1.5039165240132886e-06   2.2596776449319064e-05
-1.1457671427032986e-05   1.5039165240132886e-06   2.2596776449319064e-05
-1.1457671427032986e-05   1.5039165240132886e-06   2.2596776449319064e-05
-7.298366362149775e-06   9.944478941340375e-07   1.597028251910796e-05
-7.298366362149775e-06   9.944478941340375e-07   1.597028251910796e-05
-7.298366362149775e-06   9.944478941340375e-07   1.597028251910796e-05
-7.298366362149775e-06   9.944478941340375e-07   1.597028251910796e-05
-9.225015002451396e-06   1.5611369111591345e-06   1.8841350176062265e-05
-9.225015002451396e-06   1.5611369111591345e-06   1.8841350176062265e-05
-9.225015002451396e-06   1.5611369111591345e-06   1.8841350176062265e-05
-9.225015002451396e-06   1.5611369111591345e-06   1.8841350176062265e-05
-7.298366362149775e-06   1.5039165240132886e-06   2.2902457627246473e-05
-7.298366362149775e-06   1.5039165240132886e-06   2.2902457627246473e-05
-7.298366362149775e-06   1.5039165240132886e-06   2.2902457627246473e-05
-7.298366362149775e-06   1.5039165240132886e-06   2.2902457627246473e-05
-1.1457671427032986e-05   9.944478941340375e-07   1.5664601341180333e-05
-1.1457671427032986e-05   9.944478941340375e-07   1.5664601341180333e-05
-1.1457671427032986e-05   9.944478941340375e-07   1.5664601341180333e-05
-1.1457671427032986e-05   9.944478941340375e-07   1.5664601341180333e-05
-1.1655919666509704e-05   1.0328592487259761e-06   2.306086754553724e-05
-1.1655919666509704e-05   1.0328592487259761e-06   2.306086754553724e-05
-1.1655919666509704e-05   1.0328592487259761e-06   2.306086754553724e-05
-1.1655919666509704e-05   1.0328592487259761e-06   2.306086754553724e-05
-7.524201369296649e-06   5.528504039392342e-07   1.6462675690387613e-05
-7.524201369296649e-06   5.528504039392342e-07   1.6462675690387613e-05
-7.524201369296649e-06   5.528504039392342e-07   1.6462675690387613e-05
-7.524201369296649e-06   5.528504039392342e-07   1.6462675690387613e-05
-9.404915836132944e-06   1.1997651010653074e-06   1.9209050983505814e-05
-9.404915836132944e-06   1.1997651010653074e-06   1.9209050983505814e-05
-9.404915836132944e-06   1.1997651010653074e-06   1.9209050983505814e-05
-9.404915836132944e-06   1.1997651010653074e-06   1.9209050983505814e-05
-1.1066267011887812e-05   3.702989312761012e-06   1.9714370742250262e-05
-1.1066267011887812e-05   3.702989312761012e-06   1.9714370742250262e-05
-1.1066267011887812e-05   3.702989312761012e-06   1.9714370742250262e-05
-1.1066267011887812e-05   3.702989312761012e-06   1.9714370742250262e-05
-1.5219407038875876e-05   2.5970918029423256e-06   1.2128932191378915e-05
-1.5219407038875876e-05   2.5970918029423256e-06   1.2128932191378915e-05
-1.5219407038875876e-05   2.5970918029423256e-06   1.2128932191378915e-05
-1.5219407038875876e-05   2.5970918029423256e-06   1.2128932191378915e-05
-1.542712996500462e-05   3.204379385580167e-06   1.913435697560768e-05
-1.542712996500462e-05   3.204379385580167e-06   1.913435697560768e-05
-1.542712996500462e-05   3.204379385580167e-06   1.913435697560768e-05
-1.542712996500462e-05   3.204379385580167e-06   1.913435697560768e-05
-1.1255248786322598e-05   2.1146376516093576e-06   1.2835066718187068e-05
-1.1255248786322598e-05   2.1146376516093576e-06   1.2835066718187068e-05
-1.1255248786322598e-05   2.1146376516093576e-06   1.2835066718187068e-05
-1.1255248786322598e-05   2.1146376516093576e-06   1.2835066718187068e-05
-1.321394973543416e-05   2.8793707852684935e-06   1.5640728419844156e-05
-1.321394973543416e-05   2.8793707852684935e-06   1.5640728419844156e-05
-1.321394973543416e-05   2.8793707852684935e-06   1.5640728419844156e-05
-1.321394973543416e-05   2.8793707852684935e-06   1.5640728419844156e-05
-1.1255248786322598e-05   3.204379385580167e-06   1.9788202015990437e-05
-1.1255248786322598e-05   3.204379385580167e-06   1.9788202015990437e-05
-1.1255248786322598e-05   3.204379385580167e-06   1.9788202015990437e-05
-1.1255248786322598e-05   3.204379385580167e-06   1.9788202015990437e-05
-1.5427129965004565e-05   2.1146376516093576e-06   1.218122167780442e-05
-1.5427129965004565e-05   2.1146376516093576e-06   1.218122167780442e-05
-1.5427129965004565e-05   2.1146376516093576e-06   1.218122167780442e-05
-1.5427129965004565e-05   2.1146376516093576e-06   1.218122167780442e-05
-1.5713742235476792e-05   2.7507627192978074e-06   1.9769116331549096e-05
-1.5713742235476792e-05   2.7507627192978074e-06   1.9769116331549096e-05
-1.5713742235476792e-05   2.7507627192978074e-06   1.9769116331549096e-05
-1.5713742235476792e-05   2.7507627192978074e-06   1.9769116331549096e-05
-1.1457671427032986e-05   1.6852002154967103e-06   1.3315002486423357e-05
-1.1457671427032986e-05   1.6852002154967103e-06   1.3315002486423357e-05
-1.1457671427032986e-05   1.6852002154967103e-06   1.3315002486423357e-05
-1.1457671427032986e-05   1.6852002154967103e-06   1.3315002486423357e-05
-1.3326830586140475e-05   2.523708191073536e-06   1.592716296625644e-05
-1.3326830586140475e-05   2.523708191073536e-06   1.592716296625644e-05
-1.3326830586140475e-05   2.523708191073536e-06   1.592716296625644e-05
-1.3326830586140475e-05   2.523708191073536e-06   1.592716296625644e-05
-1.1457671427032986e-05   2.7507627192980243e-06   2.0408453833829483e-05
-1.1457671427032986e-05   2.7507627192980243e-06   2.0408453833829483e-05
-1.1457671427032986e-05   2.7507627192980243e-06   2.0408453833829483e-05
-1.1457671427032986e-05   2.7507627192980243e-06   2.0408453833829483e-05
-1.5713742235476684e-05   1.6852002154967103e-06   1.2675664984142698e-05
-1.5713742235476684e-05   1.6852002154967103e-06   1.2675664984142698e-05
-1.5713742235476684e-05   1.6852002154967103e-06   1.2675664984142698e-05
-1.5713742235476684e-05   1.6852002154967103e-06   1.2675664984142698e-05
-1.5943406330606782e-05   2.2656865800267656e-06   2.0474419952964257e-05
-1.5943406330606782e-05   2.2656865800267656e-06   2.0474419952964257e-05
-1.5943406330606782e-05   2.2656865800267656e-06   2.0474419952964257e-05
-1.5943406330606782e-05   2.2656865800267656e-06   2.0474419952964257e-05
-1.1655919666509704e-05   1.247484529736222e-06   1.3939530076310241e-05
-1.1655919666509704e-05   1.247484529736222e-06   1.3939530076310241e-05
-1.1655919666509704e-05   1.247484529736222e-06   1.3939530076310241e-05
-1.1655919666509704e-05   1.247484529736222e-06   1.3939530076310241e-05
-1.3564472824695908e-05   2.1852351541523695e-06   1.6557801631970925e-05
-1.3564472824695908e-05   2.1852351541523695e-06   1.6557801631970925e-05
-1.3564472824695908e-05   2.1852351541523695e-06   1.6557801631970925e-05
-1.3564472824695908e-05   2.1852351541523695e-06   1.6557801631970925e-05
-1.5219407038875876e-05   4.560667662315649e-06   8.70494789187784e-06
-1.5219407038875876e-05   4.560667662315649e-06   8.70494789187784e-06
-1.5219407038875876e-05   4.560667662315649e-06   8.70494789187784e-06
-1.5219407038875876e-05   4.560667662315649e-06   8.70494789187784e-06
-1.849136150737274e-05   3.072888490137705e-06   2.3590229410763463e-06
-1.849136150737274e-05   3.072888490137705e-06   2.3590229410763463e-06
-1.849136150737274e-05   3.072888490137705e-06   2.3590229410763463e-06
-1.849136150737274e-05   3.072888490137705e-06   2.3590229410763463e-06
-1.9278096837759017e-05   4.305549501420081e-06   1.0208738460530187e-05
-1.9278096837759017e-05   4.305549501420081e-06   1.0208738460530187e-05
-1.9278096837759017e-05   4.305549501420081e-06   1.0208738460530187e-05
-1.9278096837759017e-05   4.305549501420081e-06   1.0208738460530187e-05
-1.542712996500462e-05   2.7519175573597916e-06   4.722639505708886e-06
-1.542712996500462e-05   2.7519175573597916e-06   4.722639505708886e-06
-1.542712996500462e-05   2.7519175573597916e-06   4.722639505708886e-06
-1.542712996500462e-05   2.7519175573597916e-06   4.722639505708886e-06
-1.6510269686553487e-05   3.6349278008449676e-06   5.998066228866022e-06
-1.6510269686553487e-05   3.6349278008449676e-06   5.998066228866022e-06
-1.6510269686553487e-05   3.6349278008449676e-06   5.998066228866022e-06
-1.6510269686553487e-05   3.6349278008449676e-06   5.998066228866022e-06
-1.5427129965004565e-05   4.305549501420298e-06   1.1140917626966361e-05
-1.5427129965004565e-05   4.305549501420298e-06   1.1140917626966361e-05
-1.5427129965004565e-05   4.305549501420298e-06   1.1140917626966361e-05
-1.5427129965004565e-05   4.305549501420298e-06   1.1140917626966361e-05
-1.9278096837759017e-05   2.7519175573597916e-06   3.7904603392727867e-06
-1.9278096837759017e-05   2.7519175573597916e-06   3.7904603392727867e-06
-1.9278096837759017e-05   2.7519175573597916e-06   3.7904603392727867e-06
-1.9278096837759017e-05   2.7519175573597916e-06   3.7904603392727867e-06
-1.995320209815404e-05   4.091794278462133e-06   1.2022823455960308e-05
-1.995320209815404e-05   4.091794278462133e-06   1.2022823455960308e-05
-1.995320209815404e-05   4.091794278462133e-06   1.2022823455960308e-05
-1.995320209815404e-05   4.091794278462133e-06   1.2022823455960308e-05
-1.5713742235476738e-05   2.531295848261098e-06   5.89335607628519e-06
-1.5713742235476738e-05   2.531295848261098e-06   5.89335607628519e-06
-1.5713742235476738e-05   2.531295848261098e-06   5.89335607628519e-06
-1.5713742235476738e-05   2.531295848261098e-06   5.89335607628519e-06
-1.717746744746805e-05   3.509430680460543e-06   7.746017196951508e-06
-1.717746744746805e-05   3.509430680460543e-06   7.746017196951508e-06
-1.717746744746805e-05   3.509430680460543e-06   7.746017196951508e-06
-1.717746744746805e-05   3.509430680460543e-06   7.746017196951508e-06
-1.5713742235476738e-05   4.091794278461916e-06   1.2959122514080582e-05
-1.5713742235476738e-05   4.091794278461916e-06   1.2959122514080582e-05
-1.5713742235476738e-05   4.091794278461916e-06   1.2959122514080582e-05
-1.5713742235476738e-05   4.091794278461916e-06   1.2959122514080582e-05
-1.9953202098154093e-05   2.531295848261098e-06   4.957057018164694e-06
-1.9953202098154093e-05   2.531295848261098e-06   4.957057018164694e-06
-1.9953202098154093e-05   2.531295848261098e-06   4.957057018164694e-06
-1.9953202098154093e-05   2.531295848261098e-06   4.957057018164694e-06
-2.0812085226519733e-05   3.5094277964727895e-06   1.530503240280588e-05
-2.0812085226519733e-05   3.5094277964727895e-06   1.530503240280588e-05
-2.0812085226519733e-05   3.5094277964727895e-06   1.530503240280588e-05
-2.0812085226519733e-05   3.5094277964727895e-06   1.530503240280588e-05
-1.5943406330606728e-05   2.0237587173110687e-06   8.081969023781307e-06
-1.5943406330606728e-05   2.0237587173110687e-06   8.081969023781307e-06
-1.5943406330606728e-05   2.0237587173110687e-06   8.081969023781307e-06
-1.5943406330606728e-05   2.0237587173110687e-06   8.081969023781307e-06
-1.736724536243237e-05   3.267568254277178e-06   9.708748354643766e-06
-1.736724536243237e-05   3.267568254277178e-06   9.708748354643766e-06
-1.736724536243237e-05   3.267568254277178e-06   9.708748354643766e-06
-1.736724536243237e-05   3.267568254277178e-06   9.708748354643766e-06
-7.47264610547118e-06   1.3627005758534922e-06   9.048769192532841e-06
-7.47264610547118e-06   1.3627005758534922e-06   9.048769192532841e-06
-7.47264610547118e-06   1.3627005758534922e-06   9.048769192532841e-06
-7.47264610547118e-06   1.3627005758534922e-06   9.048769192532841e-06
-8.214484160640388e-06   2.581570910870968e-06   8.543694634928099e-06
-8.214484160640388e-06   2.581570910870968e-06   8.543694634928099e-06
-8.214484160640388e-06   2.581570910870968e-06   8.543694634928099e-06
-8.214484160640388e-06   2.581570910870968e-06   8.543694634928099e-06
-8.42788177805867e-06   9.187410097489298e-07   9.708742838420966e-06
-8.42788177805867e-06   9.187410097489298e-07   9.708742838420966e-06
-8.42788177805867e-06   9.187410097489298e-07   9.708742838420966e-06
-8.42788177805867e-06   9.187410097489298e-07   9.708742838420966e-06
-8.366507964220065e-06   2.015355242646565e-06   8.948484608951326e-06
-8.366507964220065e-06   2.015355242646565e-06   8.948484608951326e-06
-8.366507964220065e-06   2.015355242646565e-06   8.948484608951326e-06
-8.366507964220065e-06   2.015355242646565e-06   8.948484608951326e-06
-7.919952067948028e-06   1.606499181549799e-06   8.449538418489345e-06
-7.919952067948028e-06   1.606499181549799e-06   8.449538418489345e-06
-7.919952067948028e-06   1.606499181549799e-06   8.449538418489345e-06
-7.919952067948028e-06   1.606499181549799e-06   8.449538418489345e-06
-8.366507964220079e-06   9.187410097489298e-07   9.050774298682337e-06
-8.366507964220079e-06   9.187410097489298e-07   9.050774298682337e-06
-8.366507964220079e-06   9.187410097489298e-07   9.050774298682337e-06
-8.366507964220079e-06   9.187410097489298e-07   9.050774298682337e-06
-8.42788177805867e-06   2.015355242646565e-06   9.606453148689961e-06
-8.42788177805867e-06   2.015355242646565e-06   9.606453148689961e-06
-8.42788177805867e-06   2.015355242646565e-06   9.606453148689961e-06
-8.42788177805867e-06   2.015355242646565e-06   9.606453148689961e-06
-8.70476860484262e-06   6.750409174182195e-07   1.0009088943399905e-05
-8.70476860484262e-06   6.750409174182195e-07   1.0009088943399905e-05
-8.70476860484262e-06   6.750409174182195e-07   1.0009088943399905e-05
-8.70476860484262e-06   6.750409174182195e-07   1.0009088943399905e-05
-9.236364800615108e-06   1.6245416346433693e-06   1.0325382172685744e-05
-9.236364800615108e-06   1.6245416346433693e-06   1.0325382172685744e-05
-9.236364800615108e-06   1.6245416346433693e-06   1.0325382172685744e-05
-9.236364800615108e-06   1.6245416346433693e-06   1.0325382172685744e-05
-8.45174861592711e-06   1.362459643614272e-06   9.174937726156467e-06
-8.45174861592711e-06   1.362459643614272e-06   9.174937726156467e-06
-8.45174861592711e-06   1.362459643614272e-06   9.174937726156467e-06
-8.45174861592711e-06   1.362459643614272e-06   9.174937726156467e-06
-9.236364800615128e-06   6.75040917418328e-07   9.439388513064814e-06
-9.236364800615128e-06   6.75040917418328e-07   9.439388513064814e-06
-9.236364800615128e-06   6.75040917418328e-07   9.439388513064814e-06
-9.236364800615128e-06   6.75040917418328e-07   9.439388513064814e-06
-8.70476860484262e-06   1.6245416346433693e-06   1.0895082603020747e-05
-8.70476860484262e-06   1.6245416346433693e-06   1.0895082603020747e-05
-8.70476860484262e-06   1.6245416346433693e-06   1.0895082603020747e-05
-8.70476860484262e-06   1.6245416346433693e-06   1.0895082603020747e-05
-8.881772348014092e-06   1.5882488531185172e-07   1.0988821402923622e-05
-8.881772348014092e-06   1.5882488531185172e-07   1.0988821402923622e-05
-8.881772348014092e-06   1.5882488531185172e-07   1.0988821402923622e-05
-8.881772348014092e-06   1.5882488531185172e-07   1.0988821402923622e-05
-1.0162834826906587e-05   6.636374161641525e-07   1.2821038015899502e-05
-1.0162834826906587e-05   6.636374161641525e-07   1.2821038015899502e-05
-1.0162834826906587e-05   6.636374161641525e-07   1.2821038015899502e-05
-1.0162834826906587e-05   6.636374161641525e-07   1.2821038015899502e-05
-8.827082630749606e-06   1.0637215774550002e-06   1.0354733858863099e-05
-8.827082630749606e-06   1.0637215774550002e-06   1.0354733858863099e-05
-8.827082630749606e-06   1.0637215774550002e-06   1.0354733858863099e-05
-8.827082630749606e-06   1.0637215774550002e-06   1.0354733858863099e-05
-8.214484160640388e-06   1.597023226657568e-06   1.796011852410936e-05
-8.214484160640388e-06   1.597023226657568e-06   1.796011852410936e-05
-8.214484160640388e-06   1.597023226657568e-06   1.796011852410936e-05
-8.214484160640388e-06   1.597023226657568e-06   1.796011852410936e-05
-8.35249494983023e-06   6.686076599615211e-07   1.7173051202108464e-05
-8.35249494983023e-06   6.686076599615211e-07   1.7173051202108464e-05
-8.35249494983023e-06   6.686076599615211e-07   1.7173051202108464e-05
-8.35249494983023e-06   6.686076599615211e-07   1.7173051202108464e-05
-8.41960721088589e-06   1.1016029799357186e-06   1.7279761954053924e-05
-8.41960721088589e-06   1.1016029799357186e-06   1.7279761954053924e-05
-8.41960721088589e-06   1.1016029799357186e-06   1.7279761954053924e-05
-8.41960721088589e-06   1.1016029799357186e-06   1.7279761954053924e-05
-8.42788177805867e-06   3.192608307483113e-07   1.776295818885443e-05
-8.42788177805867e-06   3.192608307483113e-07   1.776295818885443e-05
-8.42788177805867e-06   3.192608307483113e-07   1.776295818885443e-05
-8.42788177805867e-06   3.192608307483113e-07   1.776295818885443e-05
-8.328614629572381e-06   8.144852499427898e-07   1.730037828986055e-05
-8.328614629572381e-06   8.144852499427898e-07   1.730037828986055e-05
-8.328614629572381e-06   8.144852499427898e-07   1.730037828986055e-05
-8.328614629572381e-06   8.144852499427898e-07   1.730037828986055e-05
-8.427881778058677e-06   1.101602979935827e-06   1.7749167243566336e-05
-8.427881778058677e-06   1.101602979935827e-06   1.7749167243566336e-05
-8.427881778058677e-06   1.101602979935827e-06   1.7749167243566336e-05
-8.427881778058677e-06   1.101602979935827e-06   1.7749167243566336e-05
-8.41960721088589e-06   3.192608307483113e-07   1.729355289934191e-05
-8.41960721088589e-06   3.192608307483113e-07   1.729355289934191e-05
-8.41960721088589e-06   3.192608307483113e-07   1.729355289934191e-05
-8.41960721088589e-06   3.192608307483113e-07   1.729355289934191e-05
-8.502538400117831e-06   6.44889007060407e-07   1.751414847694574e-05
-8.502538400117831e-06   6.44889007060407e-07   1.751414847694574e-05
-8.502538400117831e-06   6.44889007060407e-07   1.751414847694574e-05
-8.502538400117831e-06   6.44889007060407e-07   1.751414847694574e-05
-8.70476860484262e-06   -8.463530307774476e-08   1.828891340423651e-05
-8.70476860484262e-06   -8.463530307774476e-08   1.828891340423651e-05
-8.70476860484262e-06   -8.463530307774476e-08   1.828891340423651e-05
-8.70476860484262e-06   -8.463530307774476e-08   1.828891340423651e-05
-8.410615506139013e-06   5.257454020108666e-07   1.7432429816677643e-05
-8.410615506139013e-06   5.257454020108666e-07   1.7432429816677643e-05
-8.410615506139013e-06   5.257454020108666e-07   1.7432429816677643e-05
-8.410615506139013e-06   5.257454020108666e-07   1.7432429816677643e-05
-8.70476860484262e-06   6.44889007060407e-07   1.795186306302837e-05
-8.70476860484262e-06   6.44889007060407e-07   1.795186306302837e-05
-8.70476860484262e-06   6.44889007060407e-07   1.795186306302837e-05
-8.70476860484262e-06   6.44889007060407e-07   1.795186306302837e-05
-8.502538400117804e-06   -8.463530307774476e-08   1.785119881815366e-05
-8.502538400117804e-06   -8.463530307774476e-08   1.785119881815366e-05
-8.502538400117804e-06   -8.463530307774476e-08   1.785119881815366e-05
-8.502538400117804e-06   -8.463530307774476e-08   1.785119881815366e-05
-8.563519999382183e-06   1.5073522552464403e-07   1.8015513562208516e-05
-8.563519999382183e-06   1.5073522552464403e-07   1.8015513562208516e-05
-8.563519999382183e-06   1.5073522552464403e-07   1.8015513562208516e-05
-8.563519999382183e-06   1.5073522552464403e-07   1.8015513562208516e-05
-8.881772348014075e-06   -6.146526467618475e-07   1.9005166866633573e-05
-8.881772348014075e-06   -6.146526467618475e-07   1.9005166866633573e-05
-8.881772348014075e-06   -6.146526467618475e-07   1.9005166866633573e-05
-8.881772348014075e-06   -6.146526467618475e-07   1.9005166866633573e-05
-8.539213129638931e-06   1.8715649762672364e-07   1.7953149349374714e-05
-8.539213129638931e-06   1.8715649762672364e-07   1.7953149349374714e-05
-8.539213129638931e-06   1.8715649762672364e-07   1.7953149349374714e-05
-8.539213129638931e-06   1.8715649762672364e-07   1.7953149349374714e-05
-8.352494949830243e-06   1.919145805566046e-06   1.981099940938358e-05
-8.352494949830243e-06   1.919145805566046e-06   1.981099940938358e-05
-8.352494949830243e-06   1.919145805566046e-06   1.981099940938358e-05
-8.352494949830243e-06   1.919145805566046e-06   1.981099940938358e-05
-9.01591235323343e-06   1.8658409768244032e-07   1.766576671231469e-05
-9.01591235323343e-06   1.8658409768244032e-07   1.766576671231469e-05
-9.01591235323343e-06   1.8658409768244032e-07   1.766576671231469e-05
-9.01591235323343e-06   1.8658409768244032e-07   1.766576671231469e-05
-9.039555204594477e-06   1.4605205172347861e-06   1.8797728286013612e-05
-9.039555204594477e-06   1.4605205172347861e-06   1.8797728286013612e-05
-9.039555204594477e-06   1.4605205172347861e-06   1.8797728286013612e-05
-9.039555204594477e-06   1.4605205172347861e-06   1.8797728286013612e-05
-8.41960721088589e-06   -1.0777048372635767e-07   1.8705456230409345e-05
-8.41960721088589e-06   -1.0777048372635767e-07   1.8705456230409345e-05
-8.41960721088589e-06   -1.0777048372635767e-07   1.8705456230409345e-05
-8.41960721088589e-06   -1.0777048372635767e-07   1.8705456230409345e-05
-8.692290808848252e-06   8.350675909140682e-07   1.8594226048895644e-05
-8.692290808848252e-06   8.350675909140682e-07   1.8594226048895644e-05
-8.692290808848252e-06   8.350675909140682e-07   1.8594226048895644e-05
-8.692290808848252e-06   8.350675909140682e-07   1.8594226048895644e-05
-8.41960721088589e-06   1.4605205172347861e-06   1.973870288659034e-05
-8.41960721088589e-06   1.4605205172347861e-06   1.973870288659034e-05
-8.41960721088589e-06   1.4605205172347861e-06   1.973870288659034e-05
-8.41960721088589e-06   1.4605205172347861e-06   1.973870288659034e-05
-9.03955520459445e-06   -1.0777048372635767e-07   1.776448162983259e-05
-9.03955520459445e-06   -1.0777048372635767e-07   1.776448162983259e-05
-9.03955520459445e-06   -1.0777048372635767e-07   1.776448162983259e-05
-9.03955520459445e-06   -1.0777048372635767e-07   1.776448162983259e-05
-9.08127214048913e-06   9.944478941340375e-07   1.909096365858504e-05
-9.08127214048913e-06   9.944478941340375e-07   1.909096365858504e-05
-9.08127214048913e-06   9.944478941340375e-07   1.909096365858504e-05
-9.08127214048913e-06   9.944478941340375e-07   1.909096365858504e-05
-8.502538400117804e-06   -4.601949620030091e-07   1.899919313831514e-05
-8.502538400117804e-06   -4.601949620030091e-07   1.899919313831514e-05
-8.502538400117804e-06   -4.601949620030091e-07   1.899919313831514e-05
-8.502538400117804e-06   -4.601949620030091e-07   1.899919313831514e-05
-8.698647103902733e-06   5.438332607223418e-07   1.872362404432151e-05
-8.698647103902733e-06   5.438332607223418e-07   1.872362404432151e-05
-8.698647103902733e-06   5.438332607223418e-07   1.872362404432151e-05
-8.698647103902733e-06   5.438332607223418e-07   1.872362404432151e-05
-8.502538400117804e-06   9.944478941340375e-07   1.9963749372267213e-05
-8.502538400117804e-06   9.944478941340375e-07   1.9963749372267213e-05
-8.502538400117804e-06   9.944478941340375e-07   1.9963749372267213e-05
-8.502538400117804e-06   9.944478941340375e-07   1.9963749372267213e-05
-9.08127214048913e-06   -4.601949620030091e-07   1.8126407424632913e-05
-9.08127214048913e-06   -4.601949620030091e-07   1.8126407424632913e-05
-9.08127214048913e-06   -4.601949620030091e-07   1.8126407424632913e-05
-9.08127214048913e-06   -4.601949620030091e-07   1.8126407424632913e-05
-9.10859693598428e-06   5.528504039392342e-07   1.961553065316416e-05
-9.10859693598428e-06   5.528504039392342e-07   1.961553065316416e-05
-9.10859693598428e-06   5.528504039392342e-07   1.961553065316416e-05
-9.10859693598428e-06   5.528504039392342e-07   1.961553065316416e-05
-8.563519999382196e-06   -8.136192119951625e-07   1.9526950861721245e-05
-8.563519999382196e-06   -8.136192119951625e-07   1.9526950861721245e-05
-8.563519999382196e-06   -8.136192119951625e-07   1.9526950861721245e-05
-8.563519999382196e-06   -8.136192119951625e-07   1.9526950861721245e-05
-8.719547106019176e-06   2.445208774726573e-07   1.9152111985768256e-05
-8.719547106019176e-06   2.445208774726573e-07   1.9152111985768256e-05
-8.719547106019176e-06   2.445208774726573e-07   1.9152111985768256e-05
-8.719547106019176e-06   2.445208774726573e-07   1.9152111985768256e-05
-9.01591235323343e-06   2.5970918029423256e-06   1.6143792040248096e-05
-9.01591235323343e-06   2.5970918029423256e-06   1.6143792040248096e-05
-9.01591235323343e-06   2.5970918029423256e-06   1.6143792040248096e-05
-9.01591235323343e-06   2.5970918029423256e-06   1.6143792040248096e-05
-9.96525716170319e-06   8.54100635704633e-07   1.3515755992455901e-05
-9.96525716170319e-06   8.54100635704633e-07   1.3515755992455901e-05
-9.96525716170319e-06   8.54100635704633e-07   1.3515755992455901e-05
-9.96525716170319e-06   8.54100635704633e-07   1.3515755992455901e-05
-9.983270165817319e-06   2.1146376516093576e-06   1.5246380754213216e-05
-9.983270165817319e-06   2.1146376516093576e-06   1.5246380754213216e-05
-9.983270165817319e-06   2.1146376516093576e-06   1.5246380754213216e-05
-9.983270165817319e-06   2.1146376516093576e-06   1.5246380754213216e-05
-9.039555204594477e-06   4.6604284594528936e-07   1.466267936890681e-05
-9.039555204594477e-06   4.6604284594528936e-07   1.466267936890681e-05
-9.039555204594477e-06   4.6604284594528936e-07   1.466267936890681e-05
-9.039555204594477e-06   4.6604284594528936e-07   1.466267936890681e-05
-9.476213082360312e-06   1.5430826078992625e-06   1.474421864134414e-05
-9.476213082360312e-06   1.5430826078992625e-06   1.474421864134414e-05
-9.476213082360312e-06   1.5430826078992625e-06   1.474421864134414e-05
-9.476213082360312e-06   1.5430826078992625e-06   1.474421864134414e-05
-9.039555204594477e-06   2.1146376516093576e-06   1.6235537637611537e-05
-9.039555204594477e-06   2.1146376516093576e-06   1.6235537637611537e-05
-9.039555204594477e-06   2.1146376516093576e-06   1.6235537637611537e-05
-9.039555204594477e-06   2.1146376516093576e-06   1.6235537637611537e-05
-9.983270165817319e-06   4.6604284594528936e-07   1.3673522485508437e-05
-9.983270165817319e-06   4.6604284594528936e-07   1.3673522485508437e-05
-9.983270165817319e-06   4.6604284594528936e-07   1.3673522485508437e-05
-9.983270165817319e-06   4.6604284594528936e-07   1.3673522485508437e-05
-1.0092858743781282e-05   1.6852002154967103e-06   1.5810416293341703e-05
-1.0092858743781282e-05   1.6852002154967103e-06   1.5810416293341703e-05
-1.0092858743781282e-05   1.6852002154967103e-06   1.5810416293341703e-05
-1.0092858743781282e-05   1.6852002154967103e-06   1.5810416293341703e-05
-9.08127214048913e-06   1.3361936468598342e-07   1.505538713167452e-05
-9.08127214048913e-06   1.3361936468598342e-07   1.505538713167452e-05
-9.08127214048913e-06   1.3361936468598342e-07   1.505538713167452e-05
-9.08127214048913e-06   1.3361936468598342e-07   1.505538713167452e-05
-9.450636864309539e-06   1.2246230636661724e-06   1.501639278532049e-05
-9.450636864309539e-06   1.2246230636661724e-06   1.501639278532049e-05
-9.450636864309539e-06   1.2246230636661724e-06   1.501639278532049e-05
-9.450636864309539e-06   1.2246230636661724e-06   1.501639278532049e-05
-9.08127214048913e-06   1.6852002154968187e-06   1.6741364803828118e-05
-9.08127214048913e-06   1.6852002154968187e-06   1.6741364803828118e-05
-9.08127214048913e-06   1.6852002154968187e-06   1.6741364803828118e-05
-9.08127214048913e-06   1.6852002154968187e-06   1.6741364803828118e-05
-1.0092858743781282e-05   1.3361936468598342e-07   1.4124438621188138e-05
-1.0092858743781282e-05   1.3361936468598342e-07   1.4124438621188138e-05
-1.0092858743781282e-05   1.3361936468598342e-07   1.4124438621188138e-05
-1.0092858743781282e-05   1.3361936468598342e-07   1.4124438621188138e-05
-1.0158641347674208e-05   1.2474845297363304e-06   1.6510954885669738e-05
-1.0158641347674208e-05   1.2474845297363304e-06   1.6510954885669738e-05
-1.0158641347674208e-05   1.2474845297363304e-06   1.6510954885669738e-05
-1.0158641347674208e-05   1.2474845297363304e-06   1.6510954885669738e-05
-9.10859693598428e-06   -2.0157457074560306e-07   1.5630316326475523e-05
-9.10859693598428e-06   -2.0157457074560306e-07   1.5630316326475523e-05
-9.10859693598428e-06   -2.0157457074560306e-07   1.5630316326475523e-05
-9.10859693598428e-06   -2.0157457074560306e-07   1.5630316326475523e-05
-9.499598617784328e-06   9.400059788800983e-07   1.559703746636609e-05
-9.499598617784328e-06   9.400059788800983e-07   1.559703746636609e-05
-9.499598617784328e-06   9.400059788800983e-07   1.559703746636609e-05
-9.499598617784328e-06   9.400059788800983e-07   1.559703746636609e-05
-9.96525716170319e-06   3.072888490137705e-06   6.22075559290967e-06
-9.96525716170319e-06   3.072888490137705e-06   6.22075559290967e-06
-9.96525716170319e-06   3.072888490137705e-06   6.22075559290967e-06
-9.96525716170319e-06   3.072888490137705e-06   6.22075559290967e-06
-9.865424483011744e-06   1.4105169282135335e-06   5.38972045357428e-06
-9.865424483011744e-06   1.4105169282135335e-06   5.38972045357428e-06
-9.865424483011744e-06   1.4105169282135335e-06   5.38972045357428e-06
-9.865424483011744e-06   1.4105169282135335e-06   5.38972045357428e-06
-1.0372841651814732e-05   2.7519175573597916e-06   6.817968476231502e-06
-1.0372841651814732e-05   2.7519175573597916e-06   6.817968476231502e-06
-1.0372841651814732e-05   2.7519175573597916e-06   6.817968476231502e-06
-1.0372841651814732e-05   2.7519175573597916e-06   6.817968476231502e-06
-9.983270165817319e-06   1.1355340475495456e-06   7.13851277212203e-06
-9.983270165817319e-06   1.1355340475495456e-06   7.13851277212203e-06
-9.983270165817319e-06   1.1355340475495456e-06   7.13851277212203e-06
-9.983270165817319e-06   1.1355340475495456e-06   7.13851277212203e-06
-9.720073357123715e-06   2.1629247330858924e-06   6.083417012977741e-06
-9.720073357123715e-06   2.1629247330858924e-06   6.083417012977741e-06
-9.720073357123715e-06   2.1629247330858924e-06   6.083417012977741e-06
-9.720073357123715e-06   2.1629247330858924e-06   6.083417012977741e-06
-9.983270165817319e-06   2.7519175573597916e-06   7.78779858211752e-06
-9.983270165817319e-06   2.7519175573597916e-06   7.78779858211752e-06
-9.983270165817319e-06   2.7519175573597916e-06   7.78779858211752e-06
-9.983270165817319e-06   2.7519175573597916e-06   7.78779858211752e-06
-1.0372841651814732e-05   1.1355340475495456e-06   6.168682666235877e-06
-1.0372841651814732e-05   1.1355340475495456e-06   6.168682666235877e-06
-1.0372841651814732e-05   1.1355340475495456e-06   6.168682666235877e-06
-1.0372841651814732e-05   1.1355340475495456e-06   6.168682666235877e-06
-1.0818219798263524e-05   2.531295848261098e-06   8.082821117973604e-06
-1.0818219798263524e-05   2.531295848261098e-06   8.082821117973604e-06
-1.0818219798263524e-05   2.531295848261098e-06   8.082821117973604e-06
-1.0818219798263524e-05   2.531295848261098e-06   8.082821117973604e-06
-1.0092858743781282e-05   9.558187357433393e-07   7.819172294680531e-06
-1.0092858743781282e-05   9.558187357433393e-07   7.819172294680531e-06
-1.0092858743781282e-05   9.558187357433393e-07   7.819172294680531e-06
-1.0092858743781282e-05   9.558187357433393e-07   7.819172294680531e-06
-1.0082292892890567e-05   2.002869679496738e-06   7.173331976944423e-06
-1.0082292892890567e-05   2.002869679496738e-06   7.173331976944423e-06
-1.0082292892890567e-05   2.002869679496738e-06   7.173331976944423e-06
-1.0082292892890567e-05   2.002869679496738e-06   7.173331976944423e-06
-1.0092858743781282e-05   2.531295848261098e-06   9.028107385484086e-06
-1.0092858743781282e-05   2.531295848261098e-06   9.028107385484086e-06
-1.0092858743781282e-05   2.531295848261098e-06   9.028107385484086e-06
-1.0092858743781282e-05   2.531295848261098e-06   9.028107385484086e-06
-1.0818219798263578e-05   9.558187357433393e-07   6.873886027169778e-06
-1.0818219798263578e-05   9.558187357433393e-07   6.873886027169778e-06
-1.0818219798263578e-05   9.558187357433393e-07   6.873886027169778e-06
-1.0818219798263578e-05   9.558187357433393e-07   6.873886027169778e-06
-1.147904375707956e-05   2.0237587173109603e-06   1.0406054620192072e-05
-1.147904375707956e-05   2.0237587173109603e-06   1.0406054620192072e-05
-1.147904375707956e-05   2.0237587173109603e-06   1.0406054620192072e-05
-1.147904375707956e-05   2.0237587173109603e-06   1.0406054620192072e-05
-1.0158641347674153e-05   5.933246454394503e-07   9.063644380972319e-06
-1.0158641347674153e-05   5.933246454394503e-07   9.063644380972319e-06
-1.0158641347674153e-05   5.933246454394503e-07   9.063644380972319e-06
-1.0158641347674153e-05   5.933246454394503e-07   9.063644380972319e-06
-1.0204892398482407e-05   1.8117642785192697e-06   8.409665685803769e-06
-1.0204892398482407e-05   1.8117642785192697e-06   8.409665685803769e-06
-1.0204892398482407e-05   1.8117642785192697e-06   8.409665685803769e-06
-1.0204892398482407e-05   1.8117642785192697e-06   8.409665685803769e-06
-1.9492125836429543e-05   2.581570910870968e-06   7.58413031642707e-06
-1.9492125836429543e-05   2.581570910870968e-06   7.58413031642707e-06
-1.9492125836429543e-05   2.581570910870968e-06   7.58413031642707e-06
-1.9492125836429543e-05   2.581570910870968e-06   7.58413031642707e-06
-1.3176795642266299e-05   3.5725297431825603e-06   1.8704255939419454e-05
-1.3176795642266299e-05   3.5725297431825603e-06   1.8704255939419454e-05
-1.3176795642266299e-05   3.5725297431825603e-06   1.8704255939419454e-05
-1.3176795642266299e-05   3.5725297431825603e-06   1.8704255939419454e-05
-1.3171680420201454e-05   2.0153552426466735e-06   8.599263212836702e-06
-1.3171680420201454e-05   2.0153552426466735e-06   8.599263212836702e-06
-1.3171680420201454e-05   2.0153552426466735e-06   8.599263212836702e-06
-1.3171680420201454e-05   2.0153552426466735e-06   8.599263212836702e-06
-2.1480192176273136e-05   1.4390408351685233e-06   2.2792571450776504e-05
-2.1480192176273136e-05   1.4390408351685233e-06   2.2792571450776504e-05
-2.1480192176273136e-05   1.4390408351685233e-06   2.2792571450776504e-05
-2.1480192176273136e-05   1.4390408351685233e-06   2.2792571450776504e-05
-1.5961359133833317e-05   2.115118283538579e-06   1.3188869911021374e-05
-1.5961359133833317e-05   2.115118283538579e-06   1.3188869911021374e-05
-1.5961359133833317e-05   2.115118283538579e-06   1.3188869911021374e-05
-1.5961359133833317e-05   2.115118283538579e-06   1.3188869911021374e-05
-2.148019217627317e-05   2.0153552426466735e-06   8.945051857323465e-06
-2.148019217627317e-05   2.0153552426466735e-06   8.945051857323465e-06
-2.148019217627317e-05   2.0153552426466735e-06   8.945051857323465e-06
-2.148019217627317e-05   2.0153552426466735e-06   8.945051857323465e-06
-1.317168042020143e-05   1.4390408351685233e-06   2.244678280628962e-05
-1.317168042020143e-05   1.4390408351685233e-06   2.244678280628962e-05
-1.317168042020143e-05   1.4390408351685233e-06   2.244678280628962e-05
-1.317168042020143e-05   1.4390408351685233e-06   2.244678280628962e-05
-1.3354360811207444e-05   1.6245416346433693e-06   9.611090488718406e-06
-1.3354360811207444e-05   1.6245416346433693e-06   9.611090488718406e-06
-1.3354360811207444e-05   1.6245416346433693e-06   9.611090488718406e-06
-1.3354360811207444e-05   1.6245416346433693e-06   9.611090488718406e-06
-2.1558512768450184e-05   1.0297101985235727e-06   2.364157594579488e-05
-2.1558512768450184e-05   1.0297101985235727e-06   2.364157594579488e-05
-2.1558512768450184e-05   1.0297101985235727e-06   2.364157594579488e-05
-2.1558512768450184e-05   1.0297101985235727e-06   2.364157594579488e-05
-1.703690182033051e-05   1.3183843164466034e-06   1.5932353228174733e-05
-1.703690182033051e-05   1.3183843164466034e-06   1.5932353228174733e-05
-1.703690182033051e-05   1.3183843164466034e-06   1.5932353228174733e-05
-1.703690182033051e-05   1.3183843164466034e-06   1.5932353228174733e-05
-2.1558512768450224e-05   1.6245416346433693e-06   9.96798935039035e-06
-2.1558512768450224e-05   1.6245416346433693e-06   9.96798935039035e-06
-2.1558512768450224e-05   1.6245416346433693e-06   9.96798935039035e-06
-2.1558512768450224e-05   1.6245416346433693e-06   9.96798935039035e-06
-1.3354360811207417e-05   1.0297101985235727e-06   2.328467708412297e-05
-1.3354360811207417e-05   1.0297101985235727e-06   2.328467708412297e-05
-1.3354360811207417e-05   1.0297101985235727e-06   2.328467708412297e-05
-1.3354360811207417e-05   1.0297101985235727e-06   2.328467708412297e-05
-1.321476349084261e-05   6.636374161641525e-07   1.1380290506564621e-05
-1.321476349084261e-05   6.636374161641525e-07   1.1380290506564621e-05
-1.321476349084261e-05   6.636374161641525e-07   1.1380290506564621e-05
-1.321476349084261e-05   6.636374161641525e-07   1.1380290506564621e-05
-2.1796528018624503e-05   -7.127425239470482e-07   2.650905935026773e-05
-2.1796528018624503e-05   -7.127425239470482e-07   2.650905935026773e-05
-2.1796528018624503e-05   -7.127425239470482e-07   2.650905935026773e-05
-2.1796528018624503e-05   -7.127425239470482e-07   2.650905935026773e-05
-1.677991904452142e-05   6.356763635351355e-07   1.7338993060940014e-05
-1.677991904452142e-05   6.356763635351355e-07   1.7338993060940014e-05
-1.677991904452142e-05   6.356763635351355e-07   1.7338993060940014e-05
-1.677991904452142e-05   6.356763635351355e-07   1.7338993060940014e-05
-1.3176795642266322e-05   6.686076599614127e-07   1.7365111523012187e-05
-1.3176795642266322e-05   6.686076599614127e-07   1.7365111523012187e-05
-1.3176795642266322e-05   6.686076599614127e-07   1.7365111523012187e-05
-1.3176795642266322e-05   6.686076599614127e-07   1.7365111523012187e-05
-8.093500556448672e-06   -4.060581165205111e-06   2.2999756704275074e-05
-8.093500556448672e-06   -4.060581165205111e-06   2.2999756704275074e-05
-8.093500556448672e-06   -4.060581165205111e-06   2.2999756704275074e-05
-8.093500556448672e-06   -4.060581165205111e-06   2.2999756704275074e-05
-8.111863733439715e-06   3.192608307482029e-07   1.4567278736229462e-05
-8.111863733439715e-06   3.192608307482029e-07   1.4567278736229462e-05
-8.111863733439715e-06   3.192608307482029e-07   1.4567278736229462e-05
-8.111863733439715e-06   3.192608307482029e-07   1.4567278736229462e-05
-1.317168042020143e-05   -3.3282216972047355e-06   2.5188796064270808e-05
-1.317168042020143e-05   -3.3282216972047355e-06   2.5188796064270808e-05
-1.317168042020143e-05   -3.3282216972047355e-06   2.5188796064270808e-05
-1.317168042020143e-05   -3.3282216972047355e-06   2.5188796064270808e-05
-1.0582755953480926e-05   -2.0086312279977265e-06   2.0082167671545703e-05
-1.0582755953480926e-05   -2.0086312279977265e-06   2.0082167671545703e-05
-1.0582755953480926e-05   -2.0086312279977265e-06   2.0082167671545703e-05
-1.0582755953480926e-05   -2.0086312279977265e-06   2.0082167671545703e-05
-1.317168042020144e-05   3.192608307482029e-07   1.675576825300101e-05
-1.317168042020144e-05   3.192608307482029e-07   1.675576825300101e-05
-1.317168042020144e-05   3.192608307482029e-07   1.675576825300101e-05
-1.317168042020144e-05   3.192608307482029e-07   1.675576825300101e-05
-8.111863733439701e-06   -3.3282216972047355e-06   2.3000306547499004e-05
-8.111863733439701e-06   -3.3282216972047355e-06   2.3000306547499004e-05
-8.111863733439701e-06   -3.3282216972047355e-06   2.3000306547499004e-05
-8.111863733439701e-06   -3.3282216972047355e-06   2.3000306547499004e-05
-8.146544877848095e-06   -8.463530307774476e-08   1.5014151055255315e-05
-8.146544877848095e-06   -8.463530307774476e-08   1.5014151055255315e-05
-8.146544877848095e-06   -8.463530307774476e-08   1.5014151055255315e-05
-8.146544877848095e-06   -8.463530307774476e-08   1.5014151055255315e-05
-1.3354360811207417e-05   -3.4025856942092292e-06   2.56846145121998e-05
-1.3354360811207417e-05   -3.4025856942092292e-06   2.56846145121998e-05
-1.3354360811207417e-05   -3.4025856942092292e-06   2.56846145121998e-05
-1.3354360811207417e-05   -3.4025856942092292e-06   2.56846145121998e-05
-1.0507540247299519e-05   -1.755069350189856e-06   1.995140376594164e-05
-1.0507540247299519e-05   -1.755069350189856e-06   1.995140376594164e-05
-1.0507540247299519e-05   -1.755069350189856e-06   1.995140376594164e-05
-1.0507540247299519e-05   -1.755069350189856e-06   1.995140376594164e-05
-1.3354360811207444e-05   -8.463530307774476e-08   1.7004921289934358e-05
-1.3354360811207444e-05   -8.463530307774476e-08   1.7004921289934358e-05
-1.3354360811207444e-05   -8.463530307774476e-08   1.7004921289934358e-05
-1.3354360811207444e-05   -8.463530307774476e-08   1.7004921289934358e-05
-8.146544877848081e-06   -3.4025856942092292e-06   2.3693844277520852e-05
-8.146544877848081e-06   -3.4025856942092292e-06   2.3693844277520852e-05
-8.146544877848081e-06   -3.4025856942092292e-06   2.3693844277520852e-05
-8.146544877848081e-06   -3.4025856942092292e-06   2.3693844277520852e-05
-8.070405268787017e-06   -6.146526467618475e-07   1.5572104535530886e-05
-8.070405268787017e-06   -6.146526467618475e-07   1.5572104535530886e-05
-8.070405268787017e-06   -6.146526467618475e-07   1.5572104535530886e-05
-8.070405268787017e-06   -6.146526467618475e-07   1.5572104535530886e-05
-1.3214763490842582e-05   -3.4303648188558017e-06   2.583546220887977e-05
-1.3214763490842582e-05   -3.4303648188558017e-06   2.583546220887977e-05
-1.3214763490842582e-05   -3.4303648188558017e-06   2.583546220887977e-05
-1.3214763490842582e-05   -3.4303648188558017e-06   2.583546220887977e-05
-1.0559440795570202e-05   -1.968497504775473e-06   2.0532803994977615e-05
-1.0559440795570202e-05   -1.968497504775473e-06   2.0532803994977615e-05
-1.0559440795570202e-05   -1.968497504775473e-06   2.0532803994977615e-05
-1.0559440795570202e-05   -1.968497504775473e-06   2.0532803994977615e-05
-8.093500556448672e-06   1.8658409768244032e-07   1.6059850762848587e-05
-8.093500556448672e-06   1.8658409768244032e-07   1.6059850762848587e-05
-8.093500556448672e-06   1.8658409768244032e-07   1.6059850762848587e-05
-8.093500556448672e-06   1.8658409768244032e-07   1.6059850762848587e-05
-5.966350400055695e-06   -3.172471358408918e-06   1.758966774984875e-05
-5.966350400055695e-06   -3.172471358408918e-06   1.758966774984875e-05
-5.966350400055695e-06   -3.172471358408918e-06   1.758966774984875e-05
-5.966350400055695e-06   -3.172471358408918e-06   1.758966774984875e-05
-5.915463940521634e-06   -1.0777048372635767e-07   1.4174392845571872e-05
-5.915463940521634e-06   -1.0777048372635767e-07   1.4174392845571872e-05
-5.915463940521634e-06   -1.0777048372635767e-07   1.4174392845571872e-05
-5.915463940521634e-06   -1.0777048372635767e-07   1.4174392845571872e-05
-8.111863733439701e-06   -3.1157525199346442e-06   1.9639848388826916e-05
-8.111863733439701e-06   -3.1157525199346442e-06   1.9639848388826916e-05
-8.111863733439701e-06   -3.1157525199346442e-06   1.9639848388826916e-05
-8.111863733439701e-06   -3.1157525199346442e-06   1.9639848388826916e-05
-6.979013275273732e-06   -1.6025552718953475e-06   1.6843845943060164e-05
-6.979013275273732e-06   -1.6025552718953475e-06   1.6843845943060164e-05
-6.979013275273732e-06   -1.6025552718953475e-06   1.6843845943060164e-05
-6.979013275273732e-06   -1.6025552718953475e-06   1.6843845943060164e-05
-8.111863733439701e-06   -1.0777048372635767e-07   1.597918206729668e-05
-8.111863733439701e-06   -1.0777048372635767e-07   1.597918206729668e-05
-8.111863733439701e-06   -1.0777048372635767e-07   1.597918206729668e-05
-8.111863733439701e-06   -1.0777048372635767e-07   1.597918206729668e-05
-5.915463940521634e-06   -3.1157525199346442e-06   1.7835059167101964e-05
-5.915463940521634e-06   -3.1157525199346442e-06   1.7835059167101964e-05
-5.915463940521634e-06   -3.1157525199346442e-06   1.7835059167101964e-05
-5.915463940521634e-06   -3.1157525199346442e-06   1.7835059167101964e-05
-5.872630667862552e-06   -4.601949620030091e-07   1.4512115281598557e-05
-5.872630667862552e-06   -4.601949620030091e-07   1.4512115281598557e-05
-5.872630667862552e-06   -4.601949620030091e-07   1.4512115281598557e-05
-5.872630667862552e-06   -4.601949620030091e-07   1.4512115281598557e-05
-8.146544877848081e-06   -3.210245118366703e-06   1.9952002392059317e-05
-8.146544877848081e-06   -3.210245118366703e-06   1.9952002392059317e-05
-8.146544877848081e-06   -3.210245118366703e-06   1.9952002392059317e-05
-8.146544877848081e-06   -3.210245118366703e-06   1.9952002392059317e-05
-6.919847502197713e-06   -1.7076486510951192e-06   1.700594888561217e-05
-6.919847502197713e-06   -1.7076486510951192e-06   1.700594888561217e-05
-6.919847502197713e-06   -1.7076486510951192e-06   1.700594888561217e-05
-6.919847502197713e-06   -1.7076486510951192e-06   1.700594888561217e-05
-8.146544877848081e-06   -4.601949620031175e-07   1.6162145375416903e-05
-8.146544877848081e-06   -4.601949620031175e-07   1.6162145375416903e-05
-8.146544877848081e-06   -4.601949620031175e-07   1.6162145375416903e-05
-8.146544877848081e-06   -4.601949620031175e-07   1.6162145375416903e-05
-5.872630667862552e-06   -3.210245118366703e-06   1.8301972298241157e-05
-5.872630667862552e-06   -3.210245118366703e-06   1.8301972298241157e-05
-5.872630667862552e-06   -3.210245118366703e-06   1.8301972298241157e-05
-5.872630667862552e-06   -3.210245118366703e-06   1.8301972298241157e-05
-5.760882263446164e-06   -8.136192119951625e-07   1.5035460557931359e-05
-5.760882263446164e-06   -8.136192119951625e-07   1.5035460557931359e-05
-5.760882263446164e-06   -8.136192119951625e-07   1.5035460557931359e-05
-5.760882263446164e-06   -8.136192119951625e-07   1.5035460557931359e-05
-8.070405268787017e-06   -3.3430537054269854e-06   2.0402326262891797e-05
-8.070405268787017e-06   -3.3430537054269854e-06   2.0402326262891797e-05
-8.070405268787017e-06   -3.3430537054269854e-06   2.0402326262891797e-05
-8.070405268787017e-06   -3.3430537054269854e-06   2.0402326262891797e-05
-6.85086460673067e-06   -1.8615026680050134e-06   1.7480827870344684e-05
-6.85086460673067e-06   -1.8615026680050134e-06   1.7480827870344684e-05
-6.85086460673067e-06   -1.8615026680050134e-06   1.7480827870344684e-05
-6.85086460673067e-06   -1.8615026680050134e-06   1.7480827870344684e-05
-5.966350400055695e-06   8.54100635704633e-07   1.0940201469677611e-05
-5.966350400055695e-06   8.54100635704633e-07   1.0940201469677611e-05
-5.966350400055695e-06   8.54100635704633e-07   1.0940201469677611e-05
-5.966350400055695e-06   8.54100635704633e-07   1.0940201469677611e-05
-4.988524198952353e-06   -1.3029831937647475e-06   1.1275661507168178e-05
-4.988524198952353e-06   -1.3029831937647475e-06   1.1275661507168178e-05
-4.988524198952353e-06   -1.3029831937647475e-06   1.1275661507168178e-05
-4.988524198952353e-06   -1.3029831937647475e-06   1.1275661507168178e-05
-4.884163803486159e-06   4.6604284594528936e-07   9.878485324995526e-06
-4.884163803486159e-06   4.6604284594528936e-07   9.878485324995526e-06
-4.884163803486159e-06   4.6604284594528936e-07   9.878485324995526e-06
-4.884163803486159e-06   4.6604284594528936e-07   9.878485324995526e-06
-5.915463940521634e-06   -1.5241325868056645e-06   1.2791424146371948e-05
-5.915463940521634e-06   -1.5241325868056645e-06   1.2791424146371948e-05
-5.915463940521634e-06   -1.5241325868056645e-06   1.2791424146371948e-05
-5.915463940521634e-06   -1.5241325868056645e-06   1.2791424146371948e-05
-5.399064000982364e-06   -2.9745032637825243e-07   1.1194748224216758e-05
-5.399064000982364e-06   -2.9745032637825243e-07   1.1194748224216758e-05
-5.399064000982364e-06   -2.9745032637825243e-07   1.1194748224216758e-05
-5.399064000982364e-06   -2.9745032637825243e-07   1.1194748224216758e-05
-5.915463940521634e-06   4.6604284594528936e-07   1.107259058464585e-05
-5.915463940521634e-06   4.6604284594528936e-07   1.107259058464585e-05
-5.915463940521634e-06   4.6604284594528936e-07   1.107259058464585e-05
-5.915463940521634e-06   4.6604284594528936e-07   1.107259058464585e-05
-4.884163803486159e-06   -1.5241325868057187e-06   1.1597318886721327e-05
-4.884163803486159e-06   -1.5241325868057187e-06   1.1597318886721327e-05
-4.884163803486159e-06   -1.5241325868057187e-06   1.1597318886721327e-05
-4.884163803486159e-06   -1.5241325868057187e-06   1.1597318886721327e-05
-4.838777706941933e-06   1.3361936468609184e-07   1.034476013582052e-05
-4.838777706941933e-06   1.3361936468609184e-07   1.034476013582052e-05
-4.838777706941933e-06   1.3361936468609184e-07   1.034476013582052e-05
-4.838777706941933e-06   1.3361936468609184e-07   1.034476013582052e-05
-5.872630667862552e-06   -1.6936053900135496e-06   1.3164183256841313e-05
-5.872630667862552e-06   -1.6936053900135496e-06   1.3164183256841313e-05
-5.872630667862552e-06   -1.6936053900135496e-06   1.3164183256841313e-05
-5.872630667862552e-06   -1.6936053900135496e-06   1.3164183256841313e-05
-5.2954865348881115e-06   -5.334561821603685e-07   1.150618684383845e-05
-5.2954865348881115e-06   -5.334561821603685e-07   1.150618684383845e-05
-5.2954865348881115e-06   -5.334561821603685e-07   1.150618684383845e-05
-5.2954865348881115e-06   -5.334561821603685e-07   1.150618684383845e-05
-5.872630667862525e-06   1.3361936468598342e-07   1.1441094988640273e-05
-5.872630667862525e-06   1.3361936468598342e-07   1.1441094988640273e-05
-5.872630667862525e-06   1.3361936468598342e-07   1.1441094988640273e-05
-5.872630667862525e-06   1.3361936468598342e-07   1.1441094988640273e-05
-4.838777706941933e-06   -1.6936053900136038e-06   1.2067848404021534e-05
-4.838777706941933e-06   -1.6936053900136038e-06   1.2067848404021534e-05
-4.838777706941933e-06   -1.6936053900136038e-06   1.2067848404021534e-05
-4.838777706941933e-06   -1.6936053900136038e-06   1.2067848404021534e-05
-4.762038496847101e-06   -2.0157457074571148e-07   1.0930300344163851e-05
-4.762038496847101e-06   -2.0157457074571148e-07   1.0930300344163851e-05
-4.762038496847101e-06   -2.0157457074571148e-07   1.0930300344163851e-05
-4.762038496847101e-06   -2.0157457074571148e-07   1.0930300344163851e-05
-5.760882263446164e-06   -1.915586984216561e-06   1.3623447403244757e-05
-5.760882263446164e-06   -1.915586984216561e-06   1.3623447403244757e-05
-5.760882263446164e-06   -1.915586984216561e-06   1.3623447403244757e-05
-5.760882263446164e-06   -1.915586984216561e-06   1.3623447403244757e-05
-5.216205360256414e-06   -7.405543125893423e-07   1.2010632961618735e-05
-5.216205360256414e-06   -7.405543125893423e-07   1.2010632961618735e-05
-5.216205360256414e-06   -7.405543125893423e-07   1.2010632961618735e-05
-5.216205360256414e-06   -7.405543125893423e-07   1.2010632961618735e-05
-4.988524198952407e-06   1.4105169282135335e-06   2.5173385702688834e-06
-4.988524198952407e-06   1.4105169282135335e-06   2.5173385702688834e-06
-4.988524198952407e-06   1.4105169282135335e-06   2.5173385702688834e-06
-4.988524198952407e-06   1.4105169282135335e-06   2.5173385702688834e-06
-2.9068904518394904e-06   -1.438668769744209e-07   5.05409786567758e-06
-2.9068904518394904e-06   -1.438668769744209e-07   5.05409786567758e-06
-2.9068904518394904e-06   -1.438668769744209e-07   5.05409786567758e-06
-2.9068904518394904e-06   -1.438668769744209e-07   5.05409786567758e-06
-3.0741881795027333e-06   1.135534047549654e-06   2.5413163389886428e-06
-3.0741881795027333e-06   1.135534047549654e-06   2.5413163389886428e-06
-3.0741881795027333e-06   1.135534047549654e-06   2.5413163389886428e-06
-3.0741881795027333e-06   1.135534047549654e-06   2.5413163389886428e-06
-4.884163803486159e-06   -2.0139807348467775e-07   6.360101651581534e-06
-4.884163803486159e-06   -2.0139807348467775e-07   6.360101651581534e-06
-4.884163803486159e-06   -2.0139807348467775e-07   6.360101651581534e-06
-4.884163803486159e-06   -2.0139807348467775e-07   6.360101651581534e-06
-3.827082221936808e-06   7.255792748958503e-07   4.042112606637583e-06
-3.827082221936808e-06   7.255792748958503e-07   4.042112606637583e-06
-3.827082221936808e-06   7.255792748958503e-07   4.042112606637583e-06
-3.827082221936808e-06   7.255792748958503e-07   4.042112606637583e-06
-4.884163803486159e-06   1.135534047549654e-06   3.3434756116088515e-06
-4.884163803486159e-06   1.135534047549654e-06   3.3434756116088515e-06
-4.884163803486159e-06   1.135534047549654e-06   3.3434756116088515e-06
-4.884163803486159e-06   1.135534047549654e-06   3.3434756116088515e-06
-3.0741881795027333e-06   -2.0139807348467775e-07   5.557942378960946e-06
-3.0741881795027333e-06   -2.0139807348467775e-07   5.557942378960946e-06
-3.0741881795027333e-06   -2.0139807348467775e-07   5.557942378960946e-06
-3.0741881795027333e-06   -2.0139807348467775e-07   5.557942378960946e-06
-3.211863774637571e-06   9.558187357433393e-07   3.2985962752995297e-06
-3.211863774637571e-06   9.558187357433393e-07   3.2985962752995297e-06
-3.211863774637571e-06   9.558187357433393e-07   3.2985962752995297e-06
-3.211863774637571e-06   9.558187357433393e-07   3.2985962752995297e-06
-4.838777706941879e-06   -2.790104876121912e-07   6.7510170298200355e-06
-4.838777706941879e-06   -2.790104876121912e-07   6.7510170298200355e-06
-4.838777706941879e-06   -2.790104876121912e-07   6.7510170298200355e-06
-4.838777706941879e-06   -2.790104876121912e-07   6.7510170298200355e-06
-3.897456484154452e-06   5.900622088681222e-07   4.660704707286096e-06
-3.897456484154452e-06   5.900622088681222e-07   4.660704707286096e-06
-3.897456484154452e-06   5.900622088681222e-07   4.660704707286096e-06
-3.897456484154452e-06   5.900622088681222e-07   4.660704707286096e-06
-4.838777706941879e-06   9.558187357434477e-07   4.0394938093129456e-06
-4.838777706941879e-06   9.558187357434477e-07   4.0394938093129456e-06
-4.838777706941879e-06   9.558187357434477e-07   4.0394938093129456e-06
-4.838777706941879e-06   9.558187357434477e-07   4.0394938093129456e-06
-3.2118637746375166e-06   -2.790104876121912e-07   6.010119495806782e-06
-3.2118637746375166e-06   -2.790104876121912e-07   6.010119495806782e-06
-3.2118637746375166e-06   -2.790104876121912e-07   6.010119495806782e-06
-3.2118637746375166e-06   -2.790104876121912e-07   6.010119495806782e-06
-3.545871282203809e-06   5.933246454394503e-07   4.6526047721325015e-06
-3.545871282203809e-06   5.933246454394503e-07   4.6526047721325015e-06
-3.545871282203809e-06   5.933246454394503e-07   4.6526047721325015e-06
-3.545871282203809e-06   5.933246454394503e-07   4.6526047721325015e-06
-4.762038496847101e-06   -3.741071659229796e-07   7.2600092166885915e-06
-4.762038496847101e-06   -3.741071659229796e-07   7.2600092166885915e-06
-4.762038496847101e-06   -3.741071659229796e-07   7.2600092166885915e-06
-4.762038496847101e-06   -3.741071659229796e-07   7.2600092166885915e-06
-3.908786320086467e-06   4.97891452700441e-07   5.314723084246474e-06
-3.908786320086467e-06   4.97891452700441e-07   5.314723084246474e-06
-3.908786320086467e-06   4.97891452700441e-07   5.314723084246474e-06
-3.908786320086467e-06   4.97891452700441e-07   5.314723084246474e-06
-4.575478597352298e-05   3.5725297431825603e-06   1.97126838392006e-05
-4.575478597352298e-05   3.5725297431825603e-06   1.97126838392006e-05
-4.575478597352298e-05   3.5725297431825603e-06   1.97126838392006e-05
-4.575478597352298e-05   3.5725297431825603e-06   1.97126838392006e-05
-1.0744309144112569e-05   -2.248746281620027e-05   6.242748301925498e-05
-1.0744309144112569e-05   -2.248746281620027e-05   6.242748301925498e-05
-1.0744309144112569e-05   -2.248746281620027e-05   6.242748301925498e-05
-1.0744309144112569e-05   -2.248746281620027e-05   6.242748301925498e-05
-1.2619389288082729e-05   1.4390408351685233e-06   1.0810317331991115e-05
-1.2619389288082729e-05   1.4390408351685233e-06   1.0810317331991115e-05
-1.2619389288082729e-05   1.4390408351685233e-06   1.0810317331991115e-05
-1.2619389288082729e-05   1.4390408351685233e-06   1.0810317331991115e-05
-4.172977349425762e-05   -1.7497886965735188e-05   7.068978102282473e-05
-4.172977349425762e-05   -1.7497886965735188e-05   7.068978102282473e-05
-4.172977349425762e-05   -1.7497886965735188e-05   7.068978102282473e-05
-4.172977349425762e-05   -1.7497886965735188e-05   7.068978102282473e-05
-2.7819952855366386e-05   -8.710450065266972e-06   4.223428448439174e-05
-2.7819952855366386e-05   -8.710450065266972e-06   4.223428448439174e-05
-2.7819952855366386e-05   -8.710450065266972e-06   4.223428448439174e-05
-2.7819952855366386e-05   -8.710450065266972e-06   4.223428448439174e-05
-4.172977349425755e-05   1.4390408351685233e-06   2.2172474012533317e-05
-4.172977349425755e-05   1.4390408351685233e-06   2.2172474012533317e-05
-4.172977349425755e-05   1.4390408351685233e-06   2.2172474012533317e-05
-4.172977349425755e-05   1.4390408351685233e-06   2.2172474012533317e-05
-1.2619389288082749e-05   -1.7497886965735188e-05   5.932762434228249e-05
-1.2619389288082749e-05   -1.7497886965735188e-05   5.932762434228249e-05
-1.2619389288082749e-05   -1.7497886965735188e-05   5.932762434228249e-05
-1.2619389288082749e-05   -1.7497886965735188e-05   5.932762434228249e-05
-1.2908894320397027e-05   1.0297101985235185e-06   1.1880013393150983e-05
-1.2908894320397027e-05   1.0297101985235185e-06   1.1880013393150983e-05
-1.2908894320397027e-05   1.0297101985235185e-06   1.1880013393150983e-05
-1.2908894320397027e-05   1.0297101985235185e-06   1.1880013393150983e-05
-3.9374112868830506e-05   -1.5096237358577293e-05   6.566427950813386e-05
-3.9374112868830506e-05   -1.5096237358577293e-05   6.566427950813386e-05
-3.9374112868830506e-05   -1.5096237358577293e-05   6.566427950813386e-05
-3.9374112868830506e-05   -1.5096237358577293e-05   6.566427950813386e-05
-2.6991139133331957e-05   -8.254327149292918e-06   4.0920843823399035e-05
-2.6991139133331957e-05   -8.254327149292918e-06   4.0920843823399035e-05
-2.6991139133331957e-05   -8.254327149292918e-06   4.0920843823399035e-05
-2.6991139133331957e-05   -8.254327149292918e-06   4.0920843823399035e-05
-3.937411286883044e-05   1.0297101985235185e-06   2.1555581927411497e-05
-3.937411286883044e-05   1.0297101985235185e-06   2.1555581927411497e-05
-3.937411286883044e-05   1.0297101985235185e-06   2.1555581927411497e-05
-3.937411286883044e-05   1.0297101985235185e-06   2.1555581927411497e-05
-1.2908894320397054e-05   -1.5096237358577293e-05   5.5988710973873355e-05
-1.2908894320397054e-05   -1.5096237358577293e-05   5.5988710973873355e-05
-1.2908894320397054e-05   -1.5096237358577293e-05   5.5988710973873355e-05
-1.2908894320397054e-05   -1.5096237358577293e-05   5.5988710973873355e-05
-1.4148737945693939e-05   -7.127425239471024e-07   1.487266273898102e-05
-1.4148737945693939e-05   -7.127425239471024e-07   1.487266273898102e-05
-1.4148737945693939e-05   -7.127425239471024e-07   1.487266273898102e-05
-1.4148737945693939e-05   -7.127425239471024e-07   1.487266273898102e-05
-3.6353144398197313e-05   -1.1905192417762366e-05   5.859547676277572e-05
-3.6353144398197313e-05   -1.1905192417762366e-05   5.859547676277572e-05
-3.6353144398197313e-05   -1.1905192417762366e-05   5.859547676277572e-05
-3.6353144398197313e-05   -1.1905192417762366e-05   5.859547676277572e-05
-2.5965900036867605e-05   -7.620408181944311e-06   3.871253228573541e-05
-2.5965900036867605e-05   -7.620408181944311e-06   3.871253228573541e-05
-2.5965900036867605e-05   -7.620408181944311e-06   3.871253228573541e-05
-2.5965900036867605e-05   -7.620408181944311e-06   3.871253228573541e-05
-1.0744309144112549e-05   -4.060581165205111e-06   1.120970236352645e-05
-1.0744309144112549e-05   -4.060581165205111e-06   1.120970236352645e-05
-1.0744309144112549e-05   -4.060581165205111e-06   1.120970236352645e-05
-1.0744309144112549e-05   -4.060581165205111e-06   1.120970236352645e-05
-3.739131741225404e-06   -7.006773540023055e-06   2.1117282610114253e-05
-3.739131741225404e-06   -7.006773540023055e-06   2.1117282610114253e-05
-3.739131741225404e-06   -7.006773540023055e-06   2.1117282610114253e-05
-3.739131741225404e-06   -7.006773540023055e-06   2.1117282610114253e-05
-4.181881729780761e-06   -3.3282216972047897e-06   9.984349850226498e-06
-4.181881729780761e-06   -3.3282216972047897e-06   9.984349850226498e-06
-4.181881729780761e-06   -3.3282216972047897e-06   9.984349850226498e-06
-4.181881729780761e-06   -3.3282216972047897e-06   9.984349850226498e-06
-1.2619389288082749e-05   -9.27485626344778e-06   2.7614843187142202e-05
-1.2619389288082749e-05   -9.27485626344778e-06   2.7614843187142202e-05
-1.2619389288082749e-05   -9.27485626344778e-06   2.7614843187142202e-05
-1.2619389288082749e-05   -9.27485626344778e-06   2.7614843187142202e-05
-7.413260902102513e-06   -4.853957789077598e-06   1.6285423459219645e-05
-7.413260902102513e-06   -4.853957789077598e-06   1.6285423459219645e-05
-7.413260902102513e-06   -4.853957789077598e-06   1.6285423459219645e-05
-7.413260902102513e-06   -4.853957789077598e-06   1.6285423459219645e-05
-1.2619389288082715e-05   -3.3282216972047897e-06   1.3552330589972154e-05
-1.2619389288082715e-05   -3.3282216972047897e-06   1.3552330589972154e-05
-1.2619389288082715e-05   -3.3282216972047897e-06   1.3552330589972154e-05
-1.2619389288082715e-05   -3.3282216972047897e-06   1.3552330589972154e-05
-4.181881729780761e-06   -9.27485626344778e-06   2.4046862447396377e-05
-4.181881729780761e-06   -9.27485626344778e-06   2.4046862447396377e-05
-4.181881729780761e-06   -9.27485626344778e-06   2.4046862447396377e-05
-4.181881729780761e-06   -9.27485626344778e-06   2.4046862447396377e-05
-4.561583564053186e-06   -3.402585694209175e-06   1.1227021877031836e-05
-4.561583564053186e-06   -3.402585694209175e-06   1.1227021877031836e-05
-4.561583564053186e-06   -3.402585694209175e-06   1.1227021877031836e-05
-4.561583564053186e-06   -3.402585694209175e-06   1.1227021877031836e-05
-1.2908894320397054e-05   -8.490800601202514e-06   2.819213541513412e-05
-1.2908894320397054e-05   -8.490800601202514e-06   2.819213541513412e-05
-1.2908894320397054e-05   -8.490800601202514e-06   2.819213541513412e-05
-1.2908894320397054e-05   -8.490800601202514e-06   2.819213541513412e-05
-8.364914401043887e-06   -5.929749914890741e-06   1.9082205137758618e-05
-8.364914401043887e-06   -5.929749914890741e-06   1.9082205137758618e-05
-8.364914401043887e-06   -5.929749914890741e-06   1.9082205137758618e-05
-8.364914401043887e-06   -5.929749914890741e-06   1.9082205137758618e-05
-1.2908894320397027e-05   -3.402585694209175e-06   1.4279950821227759e-05
-1.2908894320397027e-05   -3.402585694209175e-06   1.4279950821227759e-05
-1.2908894320397027e-05   -3.402585694209175e-06   1.4279950821227759e-05
-1.2908894320397027e-05   -3.402585694209175e-06   1.4279950821227759e-05
-4.561583564053186e-06   -8.490800601202514e-06   2.513920647093815e-05
-4.561583564053186e-06   -8.490800601202514e-06   2.513920647093815e-05
-4.561583564053186e-06   -8.490800601202514e-06   2.513920647093815e-05
-4.561583564053186e-06   -8.490800601202514e-06   2.513920647093815e-05
-5.18005125027597e-06   -3.4303648188557475e-06   1.2285876566608126e-05
-5.18005125027597e-06   -3.4303648188557475e-06   1.2285876566608126e-05
-5.18005125027597e-06   -3.4303648188557475e-06   1.2285876566608126e-05
-5.18005125027597e-06   -3.4303648188557475e-06   1.2285876566608126e-05
-1.4148737945693925e-05   -7.995393143941749e-06   2.997270472068951e-05
-1.4148737945693925e-05   -7.995393143941749e-06   2.997270472068951e-05
-1.4148737945693925e-05   -7.995393143941749e-06   2.997270472068951e-05
-1.4148737945693925e-05   -7.995393143941749e-06   2.997270472068951e-05
-8.923259396561355e-06   -5.414907659757602e-06   1.9715282514958127e-05
-8.923259396561355e-06   -5.414907659757602e-06   1.9715282514958127e-05
-8.923259396561355e-06   -5.414907659757602e-06   1.9715282514958127e-05
-8.923259396561355e-06   -5.414907659757602e-06   1.9715282514958127e-05
-3.739131741225404e-06   -3.172471358408918e-06   6.047331257864148e-06
-3.739131741225404e-06   -3.172471358408918e-06   6.047331257864148e-06
-3.739131741225404e-06   -3.172471358408918e-06   6.047331257864148e-06
-3.739131741225404e-06   -3.172471358408918e-06   6.047331257864148e-06
-2.088354986907895e-06   -1.9777566454815146e-06   9.515454676149764e-06
-2.088354986907895e-06   -1.9777566454815146e-06   9.515454676149764e-06
-2.088354986907895e-06   -1.9777566454815146e-06   9.515454676149764e-06
-2.088354986907895e-06   -1.9777566454815146e-06   9.515454676149764e-06
-2.009894181630379e-06   -3.1157525199346442e-06   6.944040712604559e-06
-2.009894181630379e-06   -3.1157525199346442e-06   6.944040712604559e-06
-2.009894181630379e-06   -3.1157525199346442e-06   6.944040712604559e-06
-2.009894181630379e-06   -3.1157525199346442e-06   6.944040712604559e-06
-4.181881729780761e-06   -2.582170818184457e-06   1.0243870938471628e-05
-4.181881729780761e-06   -2.582170818184457e-06   1.0243870938471628e-05
-4.181881729780761e-06   -2.582170818184457e-06   1.0243870938471628e-05
-4.181881729780761e-06   -2.582170818184457e-06   1.0243870938471628e-05
-2.8144191699539184e-06   -2.5637812587603445e-06   7.953732936439009e-06
-2.8144191699539184e-06   -2.5637812587603445e-06   7.953732936439009e-06
-2.8144191699539184e-06   -2.5637812587603445e-06   7.953732936439009e-06
-2.8144191699539184e-06   -2.5637812587603445e-06   7.953732936439009e-06
-4.181881729780734e-06   -3.1157525199346442e-06   6.623891691554451e-06
-4.181881729780734e-06   -3.1157525199346442e-06   6.623891691554451e-06
-4.181881729780734e-06   -3.1157525199346442e-06   6.623891691554451e-06
-4.181881729780734e-06   -3.1157525199346442e-06   6.623891691554451e-06
-2.009894181630379e-06   -2.5821708181844535e-06   1.0564019959521709e-05
-2.009894181630379e-06   -2.5821708181844535e-06   1.0564019959521709e-05
-2.009894181630379e-06   -2.5821708181844535e-06   1.0564019959521709e-05
-2.009894181630379e-06   -2.5821708181844535e-06   1.0564019959521709e-05
-2.016214107954594e-06   -3.210245118366703e-06   7.4264381388580865e-06
-2.016214107954594e-06   -3.210245118366703e-06   7.4264381388580865e-06
-2.016214107954594e-06   -3.210245118366703e-06   7.4264381388580865e-06
-2.016214107954594e-06   -3.210245118366703e-06   7.4264381388580865e-06
-4.561583564053186e-06   -3.308148206220404e-06   1.1727462418401155e-05
-4.561583564053186e-06   -3.308148206220404e-06   1.1727462418401155e-05
-4.561583564053186e-06   -3.308148206220404e-06   1.1727462418401155e-05
-4.561583564053186e-06   -3.308148206220404e-06   1.1727462418401155e-05
-2.987891011880519e-06   -2.8029792991397643e-06   8.801540153865008e-06
-2.987891011880519e-06   -2.8029792991397643e-06   8.801540153865008e-06
-2.987891011880519e-06   -2.8029792991397643e-06   8.801540153865008e-06
-2.987891011880519e-06   -2.8029792991397643e-06   8.801540153865008e-06
-4.561583564053186e-06   -3.210245118366703e-06   7.4851799915702055e-06
-4.561583564053186e-06   -3.210245118366703e-06   7.4851799915702055e-06
-4.561583564053186e-06   -3.210245118366703e-06   7.4851799915702055e-06
-4.561583564053186e-06   -3.210245118366703e-06   7.4851799915702055e-06
-2.016214107954594e-06   -3.308148206220404e-06   1.1668720565688928e-05
-2.016214107954594e-06   -3.308148206220404e-06   1.1668720565688928e-05
-2.016214107954594e-06   -3.308148206220404e-06   1.1668720565688928e-05
-2.016214107954594e-06   -3.308148206220404e-06   1.1668720565688928e-05
-2.052159024951871e-06   -3.3430537054270396e-06   8.14940865740435e-06
-2.052159024951871e-06   -3.3430537054270396e-06   8.14940865740435e-06
-2.052159024951871e-06   -3.3430537054270396e-06   8.14940865740435e-06
-2.052159024951871e-06   -3.3430537054270396e-06   8.14940865740435e-06
-5.18005125027597e-06   -3.997652482880648e-06   1.3755321632749926e-05
-5.18005125027597e-06   -3.997652482880648e-06   1.3755321632749926e-05
-5.18005125027597e-06   -3.997652482880648e-06   1.3755321632749926e-05
-5.18005125027597e-06   -3.997652482880648e-06   1.3755321632749926e-05
-3.186217932908393e-06   -3.0582737503521496e-06   9.868638864286893e-06
-3.186217932908393e-06   -3.0582737503521496e-06   9.868638864286893e-06
-3.186217932908393e-06   -3.0582737503521496e-06   9.868638864286893e-06
-3.186217932908393e-06   -3.0582737503521496e-06   9.868638864286893e-06
-2.088354986907895e-06   -1.3029831937646933e-06   1.7444041406217137e-06
-2.088354986907895e-06   -1.3029831937646933e-06   1.7444041406217137e-06
-2.088354986907895e-06   -1.3029831937646933e-06   1.7444041406217137e-06
-2.088354986907895e-06   -1.3029831937646933e-06   1.7444041406217137e-06
-1.5563209119816095e-06   3.172669744329077e-07   3.603277699750808e-06
-1.5563209119816095e-06   3.172669744329077e-07   3.603277699750808e-06
-1.5563209119816095e-06   3.172669744329077e-07   3.603277699750808e-06
-1.5563209119816095e-06   3.172669744329077e-07   3.603277699750808e-06
-1.261886026376576e-06   -1.5241325868057187e-06   2.874166568344119e-06
-1.261886026376576e-06   -1.5241325868057187e-06   2.874166568344119e-06
-1.261886026376576e-06   -1.5241325868057187e-06   2.874166568344119e-06
-1.261886026376576e-06   -1.5241325868057187e-06   2.874166568344119e-06
-2.009894181630379e-06   9.880220731052638e-08   3.1470859506307295e-06
-2.009894181630379e-06   9.880220731052638e-08   3.1470859506307295e-06
-2.009894181630379e-06   9.880220731052638e-08   3.1470859506307295e-06
-2.009894181630379e-06   9.880220731052638e-08   3.1470859506307295e-06
-1.6221904378876874e-06   -6.191171692794214e-07   2.931664670346583e-06
-1.6221904378876874e-06   -6.191171692794214e-07   2.931664670346583e-06
-1.6221904378876874e-06   -6.191171692794214e-07   2.931664670346583e-06
-1.6221904378876874e-06   -6.191171692794214e-07   2.931664670346583e-06
-2.009894181630379e-06   -1.5241325868056645e-06   1.9004056918744006e-06
-2.009894181630379e-06   -1.5241325868056645e-06   1.9004056918744006e-06
-2.009894181630379e-06   -1.5241325868056645e-06   1.9004056918744006e-06
-2.009894181630379e-06   -1.5241325868056645e-06   1.9004056918744006e-06
-1.2618860263766303e-06   9.880220731052638e-08   4.120846827100394e-06
-1.2618860263766303e-06   9.880220731052638e-08   4.120846827100394e-06
-1.2618860263766303e-06   9.880220731052638e-08   4.120846827100394e-06
-1.2618860263766303e-06   9.880220731052638e-08   4.120846827100394e-06
-1.1014484064612016e-06   -1.6936053900136038e-06   3.1576808728805885e-06
-1.1014484064612016e-06   -1.6936053900136038e-06   3.1576808728805885e-06
-1.1014484064612016e-06   -1.6936053900136038e-06   3.1576808728805885e-06
-1.1014484064612016e-06   -1.6936053900136038e-06   3.1576808728805885e-06
-2.016214107954594e-06   -2.4521909764291656e-07   3.813258599947065e-06
-2.016214107954594e-06   -2.4521909764291656e-07   3.813258599947065e-06
-2.016214107954594e-06   -2.4521909764291656e-07   3.813258599947065e-06
-2.016214107954594e-06   -2.4521909764291656e-07   3.813258599947065e-06
-1.4727605932595735e-06   -7.914471730885019e-07   3.2352395873893485e-06
-1.4727605932595735e-06   -7.914471730885019e-07   3.2352395873893485e-06
-1.4727605932595735e-06   -7.914471730885019e-07   3.2352395873893485e-06
-1.4727605932595735e-06   -7.914471730885019e-07   3.2352395873893485e-06
-2.016214107954594e-06   -1.6936053900136038e-06   2.2886490974581043e-06
-2.016214107954594e-06   -1.6936053900136038e-06   2.2886490974581043e-06
-2.016214107954594e-06   -1.6936053900136038e-06   2.2886490974581043e-06
-2.016214107954594e-06   -1.6936053900136038e-06   2.2886490974581043e-06
-1.1014484064612016e-06   -2.4521909764291656e-07   4.6822903753694135e-06
-1.1014484064612016e-06   -2.4521909764291656e-07   4.6822903753694135e-06
-1.1014484064612016e-06   -2.4521909764291656e-07   4.6822903753694135e-06
-1.1014484064612016e-06   -2.4521909764291656e-07   4.6822903753694135e-06
-8.555187765156872e-07   -1.9155869842166153e-06   3.468194525599582e-06
-8.555187765156872e-07   -1.9155869842166153e-06   3.468194525599582e-06
-8.555187765156872e-07   -1.9155869842166153e-06   3.468194525599582e-06
-8.555187765156872e-07   -1.9155869842166153e-06   3.468194525599582e-06
-2.052159024951871e-06   -9.48913597911175e-07   4.882590907876556e-06
-2.052159024951871e-06   -9.48913597911175e-07   4.882590907876556e-06
-2.052159024951871e-06   -9.48913597911175e-07   4.882590907876556e-06
-2.052159024951871e-06   -9.48913597911175e-07   4.882590907876556e-06
-1.3522418172974516e-06   -1.0539322884908103e-06   3.7790734428002953e-06
-1.3522418172974516e-06   -1.0539322884908103e-06   3.7790734428002953e-06
-1.3522418172974516e-06   -1.0539322884908103e-06   3.7790734428002953e-06
-1.3522418172974516e-06   -1.0539322884908103e-06   3.7790734428002953e-06
-1.5563209119816095e-06   -1.4386687697447512e-07   -2.572379116837697e-06
-1.5563209119816095e-06   -1.4386687697447512e-07   -2.572379116837697e-06
-1.5563209119816095e-06   -1.4386687697447512e-07   -2.572379116837697e-06
-1.5563209119816095e-06   -1.4386687697447512e-07   -2.572379116837697e-06
-2.953170984288235e-07   2.2050376914122438e-07   -2.520837065801435e-07
-2.953170984288235e-07   2.2050376914122438e-07   -2.520837065801435e-07
-2.953170984288235e-07   2.2050376914122438e-07   -2.520837065801435e-07
-2.953170984288235e-07   2.2050376914122438e-07   -2.520837065801435e-07
-6.403705286796724e-09   -2.0139807348462354e-07   -2.013879749928867e-06
-6.403705286796724e-09   -2.0139807348462354e-07   -2.013879749928867e-06
-6.403705286796724e-09   -2.0139807348462354e-07   -2.013879749928867e-06
-6.403705286796724e-09   -2.0139807348462354e-07   -2.013879749928867e-06
-1.2618860263766303e-06   3.8055345462664105e-07   -2.705801316461951e-07
-1.2618860263766303e-06   3.8055345462664105e-07   -2.705801316461951e-07
-1.2618860263766303e-06   3.8055345462664105e-07   -2.705801316461951e-07
-1.2618860263766303e-06   3.8055345462664105e-07   -2.705801316461951e-07
-7.129174029081326e-07   1.0265892573310263e-07   -1.0187911200909149e-06
-7.129174029081326e-07   1.0265892573310263e-07   -1.0187911200909149e-06
-7.129174029081326e-07   1.0265892573310263e-07   -1.0187911200909149e-06
-7.129174029081326e-07   1.0265892573310263e-07   -1.0187911200909149e-06
-1.261886026376576e-06   -2.0139807348467775e-07   -2.363050666795755e-06
-1.261886026376576e-06   -2.0139807348467775e-07   -2.363050666795755e-06
-1.261886026376576e-06   -2.0139807348467775e-07   -2.363050666795755e-06
-1.261886026376576e-06   -2.0139807348467775e-07   -2.363050666795755e-06
-6.403705286796724e-09   3.8055345462664105e-07   7.859078522063885e-08
-6.403705286796724e-09   3.8055345462664105e-07   7.859078522063885e-08
-6.403705286796724e-09   3.8055345462664105e-07   7.859078522063885e-08
-6.403705286796724e-09   3.8055345462664105e-07   7.859078522063885e-08
1.4375199177991006e-07   -2.790104876121912e-07   -1.7978589533406341e-06
1.4375199177991006e-07   -2.790104876121912e-07   -1.7978589533406341e-06
1.4375199177991006e-07   -2.790104876121912e-07   -1.7978589533406341e-06
1.4375199177991006e-07   -2.790104876121912e-07   -1.7978589533406341e-06
-1.1014484064612016e-06   3.231420923547113e-07   -8.381650425234519e-08
-1.1014484064612016e-06   3.231420923547113e-07   -8.381650425234519e-08
-1.1014484064612016e-06   3.231420923547113e-07   -8.381650425234519e-08
-1.1014484064612016e-06   3.231420923547113e-07   -8.381650425234519e-08
-5.000405582303974e-07   6.682642769804004e-08   -9.32373519176049e-07
-5.000405582303974e-07   6.682642769804004e-08   -9.32373519176049e-07
-5.000405582303974e-07   6.682642769804004e-08   -9.32373519176049e-07
-5.000405582303974e-07   6.682642769804004e-08   -9.32373519176049e-07
-1.1014484064612016e-06   -2.790104876121912e-07   -2.1591505013208827e-06
-1.1014484064612016e-06   -2.790104876121912e-07   -2.1591505013208827e-06
-1.1014484064612016e-06   -2.790104876121912e-07   -2.1591505013208827e-06
-1.1014484064612016e-06   -2.790104876121912e-07   -2.1591505013208827e-06
1.4375199177991006e-07   3.231420923547113e-07   2.7747504372779494e-07
1.4375199177991006e-07   3.231420923547113e-07   2.7747504372779494e-07
1.4375199177991006e-07   3.231420923547113e-07   2.7747504372779494e-07
1.4375199177991006e-07   3.231420923547113e-07   2.7747504372779494e-07
3.298218964349468e-07   -3.741071659229796e-07   -1.4791993306448488e-06
3.298218964349468e-07   -3.741071659229796e-07   -1.4791993306448488e-06
3.298218964349468e-07   -3.741071659229796e-07   -1.4791993306448488e-06
3.298218964349468e-07   -3.741071659229796e-07   -1.4791993306448488e-06
-8.555187765156872e-07   2.719543044587026e-07   1.0873157537698492e-07
-8.555187765156872e-07   2.719543044587026e-07   1.0873157537698492e-07
-8.555187765156872e-07   2.719543044587026e-07   1.0873157537698492e-07
-8.555187765156872e-07   2.719543044587026e-07   1.0873157537698492e-07
-3.0764843935717715e-07   2.2942660862177453e-08   -6.549786670627519e-07
-3.0764843935717715e-07   2.2942660862177453e-08   -6.549786670627519e-07
-3.0764843935717715e-07   2.2942660862177453e-08   -6.549786670627519e-07
-3.0764843935717715e-07   2.2942660862177453e-08   -6.549786670627519e-07
              </DataArray>   
             <DataArray type="Float64" NumberOfComponents="3" Name="Stress" format="ascii">   
-2.3771219531901333   -0.5942804882975333   -0.5942804882975333
-2.3771219531901333   -0.5942804882975333   -0.5942804882975333
-2.3771219531901333   -0.5942804882975333   -0.5942804882975333
-2.3771219531901333   -0.5942804882975333   -0.5942804882975333
-1.3755014091422948   -0.04382676782567865   -0.027675237861823132
-1.3755014091422948   -0.04382676782567865   -0.027675237861823132
-1.3755014091422948   -0.04382676782567865   -0.027675237861823132
-1.3755014091422948   -0.04382676782567865   -0.027675237861823132
-1.4824257224739574   -0.37060643061848936   -0.37060643061848936
-1.4824257224739574   -0.37060643061848936   -0.37060643061848936
-1.4824257224739574   -0.37060643061848936   -0.37060643061848936
-1.4824257224739574   -0.37060643061848936   -0.37060643061848936
-2.290956135952654   -0.1883319098660277   -0.07208508265234376
-2.290956135952654   -0.1883319098660277   -0.07208508265234376
-2.290956135952654   -0.1883319098660277   -0.07208508265234376
-2.290956135952654   -0.1883319098660277   -0.07208508265234376
-1.7967270972933163   -0.2946783841851024   -0.004974832037289878
-1.7967270972933163   -0.2946783841851024   -0.004974832037289878
-1.7967270972933163   -0.2946783841851024   -0.004974832037289878
-1.7967270972933163   -0.2946783841851024   -0.004974832037289878
-2.4876363749433152   -0.6219090937358288   -0.6219090937358288
-2.4876363749433152   -0.6219090937358288   -0.6219090937358288
-2.4876363749433152   -0.6219090937358288   -0.6219090937358288
-2.4876363749433152   -0.6219090937358288   -0.6219090937358288
-1.3324086234541521   0.01630761328045957   -0.007434979418411369
-1.3324086234541521   0.01630761328045957   -0.007434979418411369
-1.3324086234541521   0.01630761328045957   -0.007434979418411369
-1.3324086234541521   0.01630761328045957   -0.007434979418411369
-1.486489032871406   -0.3716222582178515   -0.3716222582178515
-1.486489032871406   -0.3716222582178515   -0.3716222582178515
-1.486489032871406   -0.3716222582178515   -0.3716222582178515
-1.486489032871406   -0.3716222582178515   -0.3716222582178515
-2.3678189509280303   -0.19010149378545815   -0.10561271011260193
-2.3678189509280303   -0.19010149378545815   -0.10561271011260193
-2.3678189509280303   -0.19010149378545815   -0.10561271011260193
-2.3678189509280303   -0.19010149378545815   -0.10561271011260193
-1.8636149619070135   -0.27740188490118345   -0.09889075705077838
-1.8636149619070135   -0.27740188490118345   -0.09889075705077838
-1.8636149619070135   -0.27740188490118345   -0.09889075705077838
-1.8636149619070135   -0.27740188490118345   -0.09889075705077838
-2.5651956779426905   -0.6412989194856726   -0.6412989194856726
-2.5651956779426905   -0.6412989194856726   -0.6412989194856726
-2.5651956779426905   -0.6412989194856726   -0.6412989194856726
-2.5651956779426905   -0.6412989194856726   -0.6412989194856726
-1.328426510118023   0.04026096322108652   0.0068071341101144656
-1.328426510118023   0.04026096322108652   0.0068071341101144656
-1.328426510118023   0.04026096322108652   0.0068071341101144656
-1.328426510118023   0.04026096322108652   0.0068071341101144656
-1.485575367311218   -0.3713938418278045   -0.3713938418278045
-1.485575367311218   -0.3713938418278045   -0.3713938418278045
-1.485575367311218   -0.3713938418278045   -0.3713938418278045
-1.485575367311218   -0.3713938418278045   -0.3713938418278045
-2.5051728385538565   -0.16665523203849555   -0.063425688050879
-2.5051728385538565   -0.16665523203849555   -0.063425688050879
-2.5051728385538565   -0.16665523203849555   -0.063425688050879
-2.5051728385538565   -0.16665523203849555   -0.063425688050879
-1.9131972839601465   -0.27304929652332327   -0.17870227145612982
-1.9131972839601465   -0.27304929652332327   -0.17870227145612982
-1.9131972839601465   -0.27304929652332327   -0.17870227145612982
-1.9131972839601465   -0.27304929652332327   -0.17870227145612982
-1.5124455644497738   -0.37811139111244346   -0.37811139111244346
-1.5124455644497738   -0.37811139111244346   -0.37811139111244346
-1.5124455644497738   -0.37811139111244346   -0.37811139111244346
-1.5124455644497738   -0.37811139111244346   -0.37811139111244346
-0.6311901986610645   -0.04216141828685939   -0.013687174530525675
-0.6311901986610645   -0.04216141828685939   -0.013687174530525675
-0.6311901986610645   -0.04216141828685939   -0.013687174530525675
-0.6311901986610645   -0.04216141828685939   -0.013687174530525675
-0.662471058330517   -0.16561776458262925   -0.16561776458262925
-0.662471058330517   -0.16561776458262925   -0.16561776458262925
-0.662471058330517   -0.16561776458262925   -0.16561776458262925
-0.662471058330517   -0.16561776458262925   -0.16561776458262925
-1.3769113827078963   -0.16204106949738764   -0.05160009290928447
-1.3769113827078963   -0.16204106949738764   -0.05160009290928447
-1.3769113827078963   -0.16204106949738764   -0.05160009290928447
-1.3769113827078963   -0.16204106949738764   -0.05160009290928447
-1.0156196705867135   -0.19245232562204656   0.007916373944127475
-1.0156196705867135   -0.19245232562204656   0.007916373944127475
-1.0156196705867135   -0.19245232562204656   0.007916373944127475
-1.0156196705867135   -0.19245232562204656   0.007916373944127475
-1.482425722473956   -0.370606430618489   -0.370606430618489
-1.482425722473956   -0.370606430618489   -0.370606430618489
-1.482425722473956   -0.370606430618489   -0.370606430618489
-1.482425722473956   -0.370606430618489   -0.370606430618489
-0.595401790374161   0.004502524728766867   -0.00039171411224517283
-0.595401790374161   0.004502524728766867   -0.00039171411224517283
-0.595401790374161   0.004502524728766867   -0.00039171411224517283
-0.595401790374161   0.004502524728766867   -0.00039171411224517283
-0.6475732239254363   -0.16189330598135906   -0.16189330598135906
-0.6475732239254363   -0.16189330598135906   -0.16189330598135906
-0.6475732239254363   -0.16189330598135906   -0.16189330598135906
-0.6475732239254363   -0.16189330598135906   -0.16189330598135906
-1.3733348669521126   -0.13215994672095033   -0.045313740118285484
-1.3733348669521126   -0.13215994672095033   -0.045313740118285484
-1.3733348669521126   -0.13215994672095033   -0.045313740118285484
-1.3733348669521126   -0.13215994672095033   -0.045313740118285484
-1.0013673556336218   -0.16199610130930542   -0.05234304746017465
-1.0013673556336218   -0.16199610130930542   -0.05234304746017465
-1.0013673556336218   -0.16199610130930542   -0.05234304746017465
-1.0013673556336218   -0.16199610130930542   -0.05234304746017465
-1.486489032871406   -0.3716222582178515   -0.3716222582178515
-1.486489032871406   -0.3716222582178515   -0.3716222582178515
-1.486489032871406   -0.3716222582178515   -0.3716222582178515
-1.486489032871406   -0.3716222582178515   -0.3716222582178515
-0.5716553889221568   0.040332674599528835   0.015469888454154646
-0.5716553889221568   0.040332674599528835   0.015469888454154646
-0.5716553889221568   0.040332674599528835   0.015469888454154646
-0.5716553889221568   0.040332674599528835   0.015469888454154646
-0.6339881862043646   -0.15849704655109115   -0.15849704655109115
-0.6339881862043646   -0.15849704655109115   -0.15849704655109115
-0.6339881862043646   -0.15849704655109115   -0.15849704655109115
-0.6339881862043646   -0.15849704655109115   -0.15849704655109115
-1.3631213598301304   -0.10194468147805344   -0.028572964772135
-1.3631213598301304   -0.10194468147805344   -0.028572964772135
-1.3631213598301304   -0.10194468147805344   -0.028572964772135
-1.3631213598301304   -0.10194468147805344   -0.028572964772135
-1.0061998497186113   -0.14332482000703287   -0.11660068566554119
-1.0061998497186113   -0.14332482000703287   -0.11660068566554119
-1.0061998497186113   -0.14332482000703287   -0.11660068566554119
-1.0061998497186113   -0.14332482000703287   -0.11660068566554119
-0.6889116445528762   -0.17222791113821906   -0.17222791113821906
-0.6889116445528762   -0.17222791113821906   -0.17222791113821906
-0.6889116445528762   -0.17222791113821906   -0.17222791113821906
-0.6889116445528762   -0.17222791113821906   -0.17222791113821906
0.08135074335674378   0.005253780612712197   0.0006719908599252186
0.08135074335674378   0.005253780612712197   0.0006719908599252186
0.08135074335674378   0.005253780612712197   0.0006719908599252186
0.08135074335674378   0.005253780612712197   0.0006719908599252186
0.10600427729030452   0.02650106932257613   0.02650106932257613
0.10600427729030452   0.02650106932257613   0.02650106932257613
0.10600427729030452   0.02650106932257613   0.02650106932257613
0.10600427729030452   0.02650106932257613   0.02650106932257613
-0.6227713141720304   -0.10763807866456518   -0.02509872970826002
-0.6227713141720304   -0.10763807866456518   -0.02509872970826002
-0.6227713141720304   -0.10763807866456518   -0.02509872970826002
-0.6227713141720304   -0.10763807866456518   -0.02509872970826002
-0.2668055241320046   -0.06767420258646772   0.04518815826722815
-0.2668055241320046   -0.06767420258646772   0.04518815826722815
-0.2668055241320046   -0.06767420258646772   0.04518815826722815
-0.2668055241320046   -0.06767420258646772   0.04518815826722815
-0.6624710583305181   -0.16561776458262953   -0.16561776458262953
-0.6624710583305181   -0.16561776458262953   -0.16561776458262953
-0.6624710583305181   -0.16561776458262953   -0.16561776458262953
-0.6624710583305181   -0.16561776458262953   -0.16561776458262953
0.10791160598246922   0.046688339774318084   0.015850442331656785
0.10791160598246922   0.046688339774318084   0.015850442331656785
0.10791160598246922   0.046688339774318084   0.015850442331656785
0.10791160598246922   0.046688339774318084   0.015850442331656785
0.1193831281284773   0.029845782032119326   0.029845782032119326
0.1193831281284773   0.029845782032119326   0.029845782032119326
0.1193831281284773   0.029845782032119326   0.029845782032119326
0.1193831281284773   0.029845782032119326   0.029845782032119326
-0.6006670630944052   -0.07242544517126784   -0.016830362636300805
-0.6006670630944052   -0.07242544517126784   -0.016830362636300805
-0.6006670630944052   -0.07242544517126784   -0.016830362636300805
-0.6006670630944052   -0.07242544517126784   -0.016830362636300805
-0.25584670336340626   -0.041811740801086086   -0.015473933061355832
-0.25584670336340626   -0.041811740801086086   -0.015473933061355832
-0.25584670336340626   -0.041811740801086086   -0.015473933061355832
-0.25584670336340626   -0.041811740801086086   -0.015473933061355832
-0.6475732239254373   -0.16189330598135931   -0.16189330598135931
-0.6475732239254373   -0.16189330598135931   -0.16189330598135931
-0.6475732239254373   -0.16189330598135931   -0.16189330598135931
-0.6475732239254373   -0.16189330598135931   -0.16189330598135931
0.1292578013858673   0.0822821552685706   0.026782775082616967
0.1292578013858673   0.0822821552685706   0.026782775082616967
0.1292578013858673   0.0822821552685706   0.026782775082616967
0.1292578013858673   0.0822821552685706   0.026782775082616967
0.1373454667072684   0.0343363666768171   0.0343363666768171
0.1373454667072684   0.0343363666768171   0.0343363666768171
0.1373454667072684   0.0343363666768171   0.0343363666768171
0.1373454667072684   0.0343363666768171   0.0343363666768171
-0.5766127565059338   -0.030440687189603487   0.0003237425795727944
-0.5766127565059338   -0.030440687189603487   0.0003237425795727944
-0.5766127565059338   -0.030440687189603487   0.0003237425795727944
-0.5766127565059338   -0.030440687189603487   0.0003237425795727944
-0.2480972020368456   -0.016879328479143245   -0.07559422796420745
-0.2480972020368456   -0.016879328479143245   -0.07559422796420745
-0.2480972020368456   -0.016879328479143245   -0.07559422796420745
-0.2480972020368456   -0.016879328479143245   -0.07559422796420745
0.08907287673579602   0.022268219183949004   0.022268219183949004
0.08907287673579602   0.022268219183949004   0.022268219183949004
0.08907287673579602   0.022268219183949004   0.022268219183949004
0.08907287673579602   0.022268219183949004   0.022268219183949004
0.8614325263237941   0.07905281348570731   0.02662551857098336
0.8614325263237941   0.07905281348570731   0.02662551857098336
0.8614325263237941   0.07905281348570731   0.02662551857098336
0.8614325263237941   0.07905281348570731   0.02662551857098336
0.9354565865515208   0.2338641466378802   0.2338641466378802
0.9354565865515208   0.2338641466378802   0.2338641466378802
0.9354565865515208   0.2338641466378802   0.2338641466378802
0.9354565865515208   0.2338641466378802   0.2338641466378802
0.08074888210861016   -0.06064641645923045   -0.012628420804090032
0.08074888210861016   -0.06064641645923045   -0.012628420804090032
0.08074888210861016   -0.06064641645923045   -0.012628420804090032
0.08074888210861016   -0.06064641645923045   -0.012628420804090032
0.4911063404615732   0.061148957846938586   0.08919145206446419
0.4911063404615732   0.061148957846938586   0.08919145206446419
0.4911063404615732   0.061148957846938586   0.08919145206446419
0.4911063404615732   0.061148957846938586   0.08919145206446419
0.1060042772903049   0.026501069322576225   0.026501069322576225
0.1060042772903049   0.026501069322576225   0.026501069322576225
0.1060042772903049   0.026501069322576225   0.026501069322576225
0.1060042772903049   0.026501069322576225   0.026501069322576225
0.871783397064264   0.10829886655051256   0.04106347928897111
0.871783397064264   0.10829886655051256   0.04106347928897111
0.871783397064264   0.10829886655051256   0.04106347928897111
0.871783397064264   0.10829886655051256   0.04106347928897111
0.9315649497310192   0.2328912374327548   0.2328912374327548
0.9315649497310192   0.2328912374327548   0.2328912374327548
0.9315649497310192   0.2328912374327548   0.2328912374327548
0.9315649497310192   0.2328912374327548   0.2328912374327548
0.10222976441954408   -0.026209717120530537   0.00013446264010203227
0.10222976441954408   -0.026209717120530537   0.00013446264010203227
0.10222976441954408   -0.026209717120530537   0.00013446264010203227
0.10222976441954408   -0.026209717120530537   0.00013446264010203227
0.48759891984806286   0.08029640984997499   0.023167428592360095
0.48759891984806286   0.08029640984997499   0.023167428592360095
0.48759891984806286   0.08029640984997499   0.023167428592360095
0.48759891984806286   0.08029640984997499   0.023167428592360095
0.11938312812847753   0.02984578203211938   0.02984578203211938
0.11938312812847753   0.02984578203211938   0.02984578203211938
0.11938312812847753   0.02984578203211938   0.02984578203211938
0.11938312812847753   0.02984578203211938   0.02984578203211938
0.8763636507613631   0.13878780301938348   0.05098817699785302
0.8763636507613631   0.13878780301938348   0.05098817699785302
0.8763636507613631   0.13878780301938348   0.05098817699785302
0.8763636507613631   0.13878780301938348   0.05098817699785302
0.9497168557869017   0.23742921394672542   0.23742921394672542
0.9497168557869017   0.23742921394672542   0.23742921394672542
0.9497168557869017   0.23742921394672542   0.23742921394672542
0.9497168557869017   0.23742921394672542   0.23742921394672542
0.13036156824096187   0.019338453018482176   0.014414788003618197
0.13036156824096187   0.019338453018482176   0.014414788003618197
0.13036156824096187   0.019338453018482176   0.014414788003618197
0.13036156824096187   0.019338453018482176   0.014414788003618197
0.49527654962487516   0.10895866267195264   -0.038050878357179824
0.49527654962487516   0.10895866267195264   -0.038050878357179824
0.49527654962487516   0.10895866267195264   -0.038050878357179824
0.49527654962487516   0.10895866267195264   -0.038050878357179824
0.93366317768051   0.2334157944201275   0.2334157944201275
0.93366317768051   0.2334157944201275   0.2334157944201275
0.93366317768051   0.2334157944201275   0.2334157944201275
0.93366317768051   0.2334157944201275   0.2334157944201275
1.9374285300675178   0.14771958168362226   0.050803071824406854
1.9374285300675178   0.14771958168362226   0.050803071824406854
1.9374285300675178   0.14771958168362226   0.050803071824406854
1.9374285300675178   0.14771958168362226   0.050803071824406854
1.9804720013393813   0.4951180003348453   0.4951180003348453
1.9804720013393813   0.4951180003348453   0.4951180003348453
1.9804720013393813   0.4951180003348453   0.4951180003348453
1.9804720013393813   0.4951180003348453   0.4951180003348453
0.8315521095798292   -0.047194136756449234   -0.004599954826241037
0.8315521095798292   -0.047194136756449234   -0.004599954826241037
0.8315521095798292   -0.047194136756449234   -0.004599954826241037
0.8315521095798292   -0.047194136756449234   -0.004599954826241037
1.3816639306775618   0.1955936662407456   0.15592183435230825
1.3816639306775618   0.1955936662407456   0.15592183435230825
1.3816639306775618   0.1955936662407456   0.15592183435230825
1.3816639306775618   0.1955936662407456   0.15592183435230825
0.9354565865515199   0.23386414663787997   0.23386414663787997
0.9354565865515199   0.23386414663787997   0.23386414663787997
0.9354565865515199   0.23386414663787997   0.23386414663787997
0.9354565865515199   0.23386414663787997   0.23386414663787997
1.8353842437678702   0.17287643634069483   0.09192077647144031
1.8353842437678702   0.17287643634069483   0.09192077647144031
1.8353842437678702   0.17287643634069483   0.09192077647144031
1.8353842437678702   0.17287643634069483   0.09192077647144031
1.9214471050000028   0.4803617762500007   0.4803617762500007
1.9214471050000028   0.4803617762500007   0.4803617762500007
1.9214471050000028   0.4803617762500007   0.4803617762500007
1.9214471050000028   0.4803617762500007   0.4803617762500007
0.83456913116834   -0.025964558956302966   0.006767941008423206
0.83456913116834   -0.025964558956302966   0.006767941008423206
0.83456913116834   -0.025964558956302966   0.006767941008423206
0.83456913116834   -0.025964558956302966   0.006767941008423206
1.3408137395855106   0.2012768617754644   0.07475853016116402
1.3408137395855106   0.2012768617754644   0.07475853016116402
1.3408137395855106   0.2012768617754644   0.07475853016116402
1.3408137395855106   0.2012768617754644   0.07475853016116402
0.9315649497310192   0.2328912374327548   0.2328912374327548
0.9315649497310192   0.2328912374327548   0.2328912374327548
0.9315649497310192   0.2328912374327548   0.2328912374327548
0.9315649497310192   0.2328912374327548   0.2328912374327548
1.7764239703714302   0.17347866379505084   0.06212921556210205
1.7764239703714302   0.17347866379505084   0.06212921556210205
1.7764239703714302   0.17347866379505084   0.06212921556210205
1.7764239703714302   0.17347866379505084   0.06212921556210205
1.8334954065099711   0.4583738516274928   0.4583738516274928
1.8334954065099711   0.4583738516274928   0.4583738516274928
1.8334954065099711   0.4583738516274928   0.4583738516274928
1.8334954065099711   0.4583738516274928   0.4583738516274928
0.8655697830850213   0.027542684604460056   0.026580379779600344
0.8655697830850213   0.027542684604460056   0.026580379779600344
0.8655697830850213   0.027542684604460056   0.026580379779600344
0.8655697830850213   0.027542684604460056   0.026580379779600344
1.2840030605290413   0.21828137335568093   -0.019651872252691494
1.2840030605290413   0.21828137335568093   -0.019651872252691494
1.2840030605290413   0.21828137335568093   -0.019651872252691494
1.2840030605290413   0.21828137335568093   -0.019651872252691494
-1.8777750725157227   -0.13448224013161555   0.021321063981924016
-1.8777750725157227   -0.13448224013161555   0.021321063981924016
-1.8777750725157227   -0.13448224013161555   0.021321063981924016
-1.8777750725157227   -0.13448224013161555   0.021321063981924016
-1.1954116186840276   -0.027749940592628128   -0.007794724236045658
-1.1954116186840276   -0.027749940592628128   -0.007794724236045658
-1.1954116186840276   -0.027749940592628128   -0.007794724236045658
-1.1954116186840276   -0.027749940592628128   -0.007794724236045658
-1.2033682882615726   0.0486521085193212   0.025247161583321243
-1.2033682882615726   0.0486521085193212   0.025247161583321243
-1.2033682882615726   0.0486521085193212   0.025247161583321243
-1.2033682882615726   0.0486521085193212   0.025247161583321243
-1.9056601561710378   -0.1300826229365548   -0.022645675194992332
-1.9056601561710378   -0.1300826229365548   -0.022645675194992332
-1.9056601561710378   -0.1300826229365548   -0.022645675194992332
-1.9056601561710378   -0.1300826229365548   -0.022645675194992332
-1.4847529206221193   -0.05076007275000828   -0.005979174831107048
-1.4847529206221193   -0.05076007275000828   -0.005979174831107048
-1.4847529206221193   -0.05076007275000828   -0.005979174831107048
-1.4847529206221193   -0.05076007275000828   -0.005979174831107048
-1.891725075970513   -0.09223271730409646   0.00917982017517327
-1.891725075970513   -0.09223271730409646   0.00917982017517327
-1.891725075970513   -0.09223271730409646   0.00917982017517327
-1.891725075970513   -0.09223271730409646   0.00917982017517327
-1.2192941727167377   0.008811398632227213   -0.014541550805389714
-1.2192941727167377   0.008811398632227213   -0.014541550805389714
-1.2192941727167377   0.008811398632227213   -0.014541550805389714
-1.2192941727167377   0.008811398632227213   -0.014541550805389714
-1.2047250322421044   0.06938320334148759   0.02871685683620301
-1.2047250322421044   0.06938320334148759   0.02871685683620301
-1.2047250322421044   0.06938320334148759   0.02871685683620301
-1.2047250322421044   0.06938320334148759   0.02871685683620301
-1.9171031772368305   -0.1145512191298908   -0.02988690592884996
-1.9171031772368305   -0.1145512191298908   -0.02988690592884996
-1.9171031772368305   -0.1145512191298908   -0.02988690592884996
-1.9171031772368305   -0.1145512191298908   -0.02988690592884996
-1.5263505798362131   -0.03394990891432885   -0.014520121565135491
-1.5263505798362131   -0.03394990891432885   -0.014520121565135491
-1.5263505798362131   -0.03394990891432885   -0.014520121565135491
-1.5263505798362131   -0.03394990891432885   -0.014520121565135491
-1.88259373455835   -0.05526007568522712   0.08336916401887529
-1.88259373455835   -0.05526007568522712   0.08336916401887529
-1.88259373455835   -0.05526007568522712   0.08336916401887529
-1.88259373455835   -0.05526007568522712   0.08336916401887529
-1.2248806422804062   0.0244458925370011   -0.0271238825508108
-1.2248806422804062   0.0244458925370011   -0.0271238825508108
-1.2248806422804062   0.0244458925370011   -0.0271238825508108
-1.2248806422804062   0.0244458925370011   -0.0271238825508108
-1.182724538950912   0.12093607565847152   0.052082550831013597
-1.182724538950912   0.12093607565847152   0.052082550831013597
-1.182724538950912   0.12093607565847152   0.052082550831013597
-1.182724538950912   0.12093607565847152   0.052082550831013597
-1.8639585124038067   -0.09236089273162809   -0.04885021999999278
-1.8639585124038067   -0.09236089273162809   -0.04885021999999278
-1.8639585124038067   -0.09236089273162809   -0.04885021999999278
-1.8639585124038067   -0.09236089273162809   -0.04885021999999278
-1.4678562069094336   0.013763137169022263   0.032558260989210885
-1.4678562069094336   0.013763137169022263   0.032558260989210885
-1.4678562069094336   0.013763137169022263   0.032558260989210885
-1.4678562069094336   0.013763137169022263   0.032558260989210885
-1.225057302497206   -0.16246001743907965   -0.021313066455485585
-1.225057302497206   -0.16246001743907965   -0.021313066455485585
-1.225057302497206   -0.16246001743907965   -0.021313066455485585
-1.225057302497206   -0.16246001743907965   -0.021313066455485585
-0.5646010242290195   -0.012663300638523965   0.005966008995390765
-0.5646010242290195   -0.012663300638523965   0.005966008995390765
-0.5646010242290195   -0.012663300638523965   0.005966008995390765
-0.5646010242290195   -0.012663300638523965   0.005966008995390765
-0.5727796495314473   0.010823686989909292   0.008591956350751495
-0.5727796495314473   0.010823686989909292   0.008591956350751495
-0.5727796495314473   0.010823686989909292   0.008591956350751495
-0.5727796495314473   0.010823686989909292   0.008591956350751495
-1.2492886213386853   -0.11890188219539156   -0.03680051308752991
-1.2492886213386853   -0.11890188219539156   -0.03680051308752991
-1.2492886213386853   -0.11890188219539156   -0.03680051308752991
-1.2492886213386853   -0.11890188219539156   -0.03680051308752991
-0.9029149696040335   -0.07336420878227828   -0.02074365399792308
-0.9029149696040335   -0.07336420878227828   -0.02074365399792308
-0.9029149696040335   -0.07336420878227828   -0.02074365399792308
-0.9029149696040335   -0.07336420878227828   -0.02074365399792308
-1.248096144690563   -0.12992167143377265   -0.01981834060854082
-1.248096144690563   -0.12992167143377265   -0.01981834060854082
-1.248096144690563   -0.12992167143377265   -0.01981834060854082
-1.248096144690563   -0.12992167143377265   -0.01981834060854082
-0.5717474952828555   0.0240681071250034   0.0005083074586112457
-0.5717474952828555   0.0240681071250034   0.0005083074586112457
-0.5717474952828555   0.0240681071250034   0.0005083074586112457
-0.5717474952828555   0.0240681071250034   0.0005083074586112457
-0.5705537647773022   0.0397859364061916   0.011634573342611892
-0.5705537647773022   0.0397859364061916   0.011634573342611892
-0.5705537647773022   0.0397859364061916   0.011634573342611892
-0.5705537647773022   0.0397859364061916   0.011634573342611892
-1.2497254651093634   -0.08709334595687115   -0.03980875820173496
-1.2497254651093634   -0.08709334595687115   -0.03980875820173496
-1.2497254651093634   -0.08709334595687115   -0.03980875820173496
-1.2497254651093634   -0.08709334595687115   -0.03980875820173496
-0.9010959826189936   -0.040812322622807075   -0.009865143754939215
-0.9010959826189936   -0.040812322622807075   -0.009865143754939215
-0.9010959826189936   -0.040812322622807075   -0.009865143754939215
-0.9010959826189936   -0.040812322622807075   -0.009865143754939215
-1.2448250441466495   -0.09822936167100653   -0.0041706376740295314
-1.2448250441466495   -0.09822936167100653   -0.0041706376740295314
-1.2448250441466495   -0.09822936167100653   -0.0041706376740295314
-1.2448250441466495   -0.09822936167100653   -0.0041706376740295314
-0.5713223518290149   0.05505378603132938   -0.0074762115410846874
-0.5713223518290149   0.05505378603132938   -0.0074762115410846874
-0.5713223518290149   0.05505378603132938   -0.0074762115410846874
-0.5713223518290149   0.05505378603132938   -0.0074762115410846874
-0.5609344728065743   0.06887166274224815   0.023321869305815035
-0.5609344728065743   0.06887166274224815   0.023321869305815035
-0.5609344728065743   0.06887166274224815   0.023321869305815035
-0.5609344728065743   0.06887166274224815   0.023321869305815035
-1.2362678869577988   -0.050339669626044845   -0.044358443918898094
-1.2362678869577988   -0.050339669626044845   -0.044358443918898094
-1.2362678869577988   -0.050339669626044845   -0.044358443918898094
-1.2362678869577988   -0.050339669626044845   -0.044358443918898094
-0.8972581617176145   -0.010006686004325166   0.004500848788837053
-0.8972581617176145   -0.010006686004325166   0.004500848788837053
-0.8972581617176145   -0.010006686004325166   0.004500848788837053
-0.8972581617176145   -0.010006686004325166   0.004500848788837053
-0.5953371891592028   -0.13524485610106096   -0.025133260192994028
-0.5953371891592028   -0.13524485610106096   -0.025133260192994028
-0.5953371891592028   -0.13524485610106096   -0.025133260192994028
-0.5953371891592028   -0.13524485610106096   -0.025133260192994028
0.06131029563328798   0.013932253786911522   0.02319185270488294
0.06131029563328798   0.013932253786911522   0.02319185270488294
0.06131029563328798   0.013932253786911522   0.02319185270488294
0.06131029563328798   0.013932253786911522   0.02319185270488294
0.05857088101004137   0.03402412371573882   0.001870087011190253
0.05857088101004137   0.03402412371573882   0.001870087011190253
0.05857088101004137   0.03402412371573882   0.001870087011190253
0.05857088101004137   0.03402412371573882   0.001870087011190253
-0.597786610846009   -0.08956726252654196   -0.016051900705610744
-0.597786610846009   -0.08956726252654196   -0.016051900705610744
-0.597786610846009   -0.08956726252654196   -0.016051900705610744
-0.597786610846009   -0.08956726252654196   -0.016051900705610744
-0.2709067976016007   -0.04487030946329405   -0.008594193202708218
-0.2709067976016007   -0.04487030946329405   -0.008594193202708218
-0.2709067976016007   -0.04487030946329405   -0.008594193202708218
-0.2709067976016007   -0.04487030946329405   -0.008594193202708218
-0.6019241787972188   -0.10309192187132635   -0.02321508111687537
-0.6019241787972188   -0.10309192187132635   -0.02321508111687537
-0.6019241787972188   -0.10309192187132635   -0.02321508111687537
-0.6019241787972188   -0.10309192187132635   -0.02321508111687537
0.06500110611317485   0.0498414402124468   0.018203896030149228
0.06500110611317485   0.0498414402124468   0.018203896030149228
0.06500110611317485   0.0498414402124468   0.018203896030149228
0.06500110611317485   0.0498414402124468   0.018203896030149228
0.06331876552133356   0.06589232743338884   0.010772671771243802
0.06331876552133356   0.06589232743338884   0.010772671771243802
0.06331876552133356   0.06589232743338884   0.010772671771243802
0.06331876552133356   0.06589232743338884   0.010772671771243802
-0.5957681636847819   -0.05461836428485445   -0.020033120503745602
-0.5957681636847819   -0.05461836428485445   -0.020033120503745602
-0.5957681636847819   -0.05461836428485445   -0.020033120503745602
-0.5957681636847819   -0.05461836428485445   -0.020033120503745602
-0.26659006391177326   -0.011008394613977401   0.0031683193785829317
-0.26659006391177326   -0.011008394613977401   0.0031683193785829317
-0.26659006391177326   -0.011008394613977401   0.0031683193785829317
-0.26659006391177326   -0.011008394613977401   0.0031683193785829317
-0.5973730543374149   -0.07077979875246901   -0.011896139299296865
-0.5973730543374149   -0.07077979875246901   -0.011896139299296865
-0.5973730543374149   -0.07077979875246901   -0.011896139299296865
-0.5973730543374149   -0.07077979875246901   -0.011896139299296865
0.06739138580583173   0.08452149153286778   0.012506609094255761
0.06739138580583173   0.08452149153286778   0.012506609094255761
0.06739138580583173   0.08452149153286778   0.012506609094255761
0.06739138580583173   0.08452149153286778   0.012506609094255761
0.06488050994214183   0.10133686951263399   0.017718259642684548
0.06488050994214183   0.10133686951263399   0.017718259642684548
0.06488050994214183   0.10133686951263399   0.017718259642684548
0.06488050994214183   0.10133686951263399   0.017718259642684548
-0.5878759361520666   -0.017263415889534187   -0.02525036878986811
-0.5878759361520666   -0.017263415889534187   -0.02525036878986811
-0.5878759361520666   -0.017263415889534187   -0.02525036878986811
-0.5878759361520666   -0.017263415889534187   -0.02525036878986811
-0.2598246725618232   0.024403064076874634   0.01604560272410077
-0.2598246725618232   0.024403064076874634   0.01604560272410077
-0.2598246725618232   0.024403064076874634   0.01604560272410077
-0.2598246725618232   0.024403064076874634   0.01604560272410077
0.027870607753472835   -0.09916628377000823   -0.030908049137273054
0.027870607753472835   -0.09916628377000823   -0.030908049137273054
0.027870607753472835   -0.09916628377000823   -0.030908049137273054
0.027870607753472835   -0.09916628377000823   -0.030908049137273054
0.7081456133131147   0.04882438540527045   0.0425923757488145
0.7081456133131147   0.04882438540527045   0.0425923757488145
0.7081456133131147   0.04882438540527045   0.0425923757488145
0.7081456133131147   0.04882438540527045   0.0425923757488145
0.7073742699700623   0.06583854811926816   -0.0068289857730510495
0.7073742699700623   0.06583854811926816   -0.0068289857730510495
0.7073742699700623   0.06583854811926816   -0.0068289857730510495
0.7073742699700623   0.06583854811926816   -0.0068289857730510495
0.0403510538834355   -0.05951539875302569   0.004310473846925003
0.0403510538834355   -0.05951539875302569   0.004310473846925003
0.0403510538834355   -0.05951539875302569   0.004310473846925003
0.0403510538834355   -0.05951539875302569   0.004310473846925003
0.36635891715087776   -0.008536131161030996   0.0007466186139200165
0.36635891715087776   -0.008536131161030996   0.0007466186139200165
0.36635891715087776   -0.008536131161030996   0.0007466186139200165
0.36635891715087776   -0.008536131161030996   0.0007466186139200165
0.03228558331077429   -0.07243320634321707   -0.02309907142618923
0.03228558331077429   -0.07243320634321707   -0.02309907142618923
0.03228558331077429   -0.07243320634321707   -0.02309907142618923
0.03228558331077429   -0.07243320634321707   -0.02309907142618923
0.7195657366384459   0.08288235180518205   0.03708454388295329
0.7195657366384459   0.08288235180518205   0.03708454388295329
0.7195657366384459   0.08288235180518205   0.03708454388295329
0.7195657366384459   0.08288235180518205   0.03708454388295329
0.7130923228821022   0.09736354195046697   0.007138199532529449
0.7130923228821022   0.09736354195046697   0.007138199532529449
0.7130923228821022   0.09736354195046697   0.007138199532529449
0.7130923228821022   0.09736354195046697   0.007138199532529449
0.041923878294825336   -0.028274666126581992   -0.0020347708013264323
0.041923878294825336   -0.028274666126581992   -0.0020347708013264323
0.041923878294825336   -0.028274666126581992   -0.0020347708013264323
0.041923878294825336   -0.028274666126581992   -0.0020347708013264323
0.37137978326210536   0.021593890730395575   0.015203589186751035
0.37137978326210536   0.021593890730395575   0.015203589186751035
0.37137978326210536   0.021593890730395575   0.015203589186751035
0.37137978326210536   0.021593890730395575   0.015203589186751035
0.03603757887247175   -0.042852694638250255   -0.01688823940142612
0.03603757887247175   -0.042852694638250255   -0.01688823940142612
0.03603757887247175   -0.042852694638250255   -0.01688823940142612
0.03603757887247175   -0.042852694638250255   -0.01688823940142612
0.7219652639657995   0.11492821212347887   0.033938234778003784
0.7219652639657995   0.11492821212347887   0.033938234778003784
0.7219652639657995   0.11492821212347887   0.033938234778003784
0.7219652639657995   0.11492821212347887   0.033938234778003784
0.7017518706388899   0.13374500830337507   0.01505726203015667
0.7017518706388899   0.13374500830337507   0.01505726203015667
0.7017518706388899   0.13374500830337507   0.01505726203015667
0.7017518706388899   0.13374500830337507   0.01505726203015667
0.04165584798301741   0.010397180113814259   -0.007465360754117805
0.04165584798301741   0.010397180113814259   -0.007465360754117805
0.04165584798301741   0.010397180113814259   -0.007465360754117805
0.04165584798301741   0.010397180113814259   -0.007465360754117805
0.3769994526057115   0.056035900561511656   0.028591880012114157
0.3769994526057115   0.056035900561511656   0.028591880012114157
0.3769994526057115   0.056035900561511656   0.028591880012114157
0.3769994526057115   0.056035900561511656   0.028591880012114157
0.6522363211787531   -0.13092117863546346   -0.057208520882259
0.6522363211787531   -0.13092117863546346   -0.057208520882259
0.6522363211787531   -0.13092117863546346   -0.057208520882259
0.6522363211787531   -0.13092117863546346   -0.057208520882259
1.3434928971644113   0.08874560604557712   0.04158102104800643
1.3434928971644113   0.08874560604557712   0.04158102104800643
1.3434928971644113   0.08874560604557712   0.04158102104800643
1.3434928971644113   0.08874560604557712   0.04158102104800643
1.35882964018219   0.04196795399103584   -0.08606703169117658
1.35882964018219   0.04196795399103584   -0.08606703169117658
1.35882964018219   0.04196795399103584   -0.08606703169117658
1.35882964018219   0.04196795399103584   -0.08606703169117658
0.6952072470398882   -0.026721148098145346   0.024895595793486075
0.6952072470398882   -0.026721148098145346   0.024895595793486075
0.6952072470398882   -0.026721148098145346   0.024895595793486075
0.6952072470398882   -0.026721148098145346   0.024895595793486075
0.9620896341381826   -0.016905224828671003   -0.024142731130753353
0.9620896341381826   -0.016905224828671003   -0.024142731130753353
0.9620896341381826   -0.016905224828671003   -0.024142731130753353
0.9620896341381826   -0.016905224828671003   -0.024142731130753353
0.6707644135728116   -0.08603302410050924   -0.038006695539523516
0.6707644135728116   -0.08603302410050924   -0.038006695539523516
0.6707644135728116   -0.08603302410050924   -0.038006695539523516
0.6707644135728116   -0.08603302410050924   -0.038006695539523516
1.395630793519239   0.11363814986337555   0.026268539121739765
1.395630793519239   0.11363814986337555   0.026268539121739765
1.395630793519239   0.11363814986337555   0.026268539121739765
1.395630793519239   0.11363814986337555   0.026268539121739765
1.3739934291910725   0.07664601844181967   -0.019603470023694225
1.3739934291910725   0.07664601844181967   -0.019603470023694225
1.3739934291910725   0.07664601844181967   -0.019603470023694225
1.3739934291910725   0.07664601844181967   -0.019603470023694225
0.6925408615452673   -0.011132219753716248   0.012876654552537531
0.6925408615452673   -0.011132219753716248   0.012876654552537531
0.6925408615452673   -0.011132219753716248   0.012876654552537531
0.6925408615452673   -0.011132219753716248   0.012876654552537531
1.0126617372144544   0.02530634771074023   0.01665897975834152
1.0126617372144544   0.02530634771074023   0.01665897975834152
1.0126617372144544   0.02530634771074023   0.01665897975834152
1.0126617372144544   0.02530634771074023   0.01665897975834152
0.6729149475533488   -0.06577167576094903   -0.03061345939981594
0.6729149475533488   -0.06577167576094903   -0.03061345939981594
0.6729149475533488   -0.06577167576094903   -0.03061345939981594
0.6729149475533488   -0.06577167576094903   -0.03061345939981594
1.3919943306823352   0.12966046194840003   0.01738659392605091
1.3919943306823352   0.12966046194840003   0.01738659392605091
1.3919943306823352   0.12966046194840003   0.01738659392605091
1.3919943306823352   0.12966046194840003   0.01738659392605091
1.3719152479800112   0.1175021346796865   -0.029967834739255406
1.3719152479800112   0.1175021346796865   -0.029967834739255406
1.3719152479800112   0.1175021346796865   -0.029967834739255406
1.3719152479800112   0.1175021346796865   -0.029967834739255406
0.6783810091842015   0.0247601847192536   0.007187778340839113
0.6783810091842015   0.0247601847192536   0.007187778340839113
0.6783810091842015   0.0247601847192536   0.007187778340839113
0.6783810091842015   0.0247601847192536   0.007187778340839113
0.9869205808670672   0.04442554306210541   0.012409565057963368
0.9869205808670672   0.04442554306210541   0.012409565057963368
0.9869205808670672   0.04442554306210541   0.012409565057963368
0.9869205808670672   0.04442554306210541   0.012409565057963368
-1.4750406730392887   -0.06689360147160148   0.07611602572434856
-1.4750406730392887   -0.06689360147160148   0.07611602572434856
-1.4750406730392887   -0.06689360147160148   0.07611602572434856
-1.4750406730392887   -0.06689360147160148   0.07611602572434856
-0.979881781072534   -0.03734569500388279   -0.019805566914904954
-0.979881781072534   -0.03734569500388279   -0.019805566914904954
-0.979881781072534   -0.03734569500388279   -0.019805566914904954
-0.979881781072534   -0.03734569500388279   -0.019805566914904954
-0.9444465303885244   0.07945718079923177   0.06383971770142732
-0.9444465303885244   0.07945718079923177   0.06383971770142732
-0.9444465303885244   0.07945718079923177   0.06383971770142732
-0.9444465303885244   0.07945718079923177   0.06383971770142732
-1.4817968608311418   -0.10583179751404274   -0.03102245350421734
-1.4817968608311418   -0.10583179751404274   -0.03102245350421734
-1.4817968608311418   -0.10583179751404274   -0.03102245350421734
-1.4817968608311418   -0.10583179751404274   -0.03102245350421734
-1.1707603575273733   -0.018099908678911425   -0.0022418091397902185
-1.1707603575273733   -0.018099908678911425   -0.0022418091397902185
-1.1707603575273733   -0.018099908678911425   -0.0022418091397902185
-1.1707603575273733   -0.018099908678911425   -0.0022418091397902185
-1.4404670905080037   -0.01546329553788639   0.08525789613531587
-1.4404670905080037   -0.01546329553788639   0.08525789613531587
-1.4404670905080037   -0.01546329553788639   0.08525789613531587
-1.4404670905080037   -0.01546329553788639   0.08525789613531587
-0.9792686837853115   -0.004403704250573563   -0.026410164232701788
-0.9792686837853115   -0.004403704250573563   -0.026410164232701788
-0.9792686837853115   -0.004403704250573563   -0.026410164232701788
-0.9792686837853115   -0.004403704250573563   -0.026410164232701788
-0.9405449086560533   0.09856981273759795   0.05915998482782053
-0.9405449086560533   0.09856981273759795   0.05915998482782053
-0.9405449086560533   0.09856981273759795   0.05915998482782053
-0.9405449086560533   0.09856981273759795   0.05915998482782053
-1.4587426277451108   -0.08850150790613692   -0.042461861949138924
-1.4587426277451108   -0.08850150790613692   -0.042461861949138924
-1.4587426277451108   -0.08850150790613692   -0.042461861949138924
-1.4587426277451108   -0.08850150790613692   -0.042461861949138924
-1.173165962285458   0.004354379905089745   0.013481638092824488
-1.173165962285458   0.004354379905089745   0.013481638092824488
-1.173165962285458   0.004354379905089745   0.013481638092824488
-1.173165962285458   0.004354379905089745   0.013481638092824488
-1.4202609323794122   0.0025696936850045093   0.05887541328821222
-1.4202609323794122   0.0025696936850045093   0.05887541328821222
-1.4202609323794122   0.0025696936850045093   0.05887541328821222
-1.4202609323794122   0.0025696936850045093   0.05887541328821222
-0.9768824480471983   0.009642767121011427   -0.033600666511309635
-0.9768824480471983   0.009642767121011427   -0.033600666511309635
-0.9768824480471983   0.009642767121011427   -0.033600666511309635
-0.9768824480471983   0.009642767121011427   -0.033600666511309635
-0.9414100428121406   0.11130735099353352   0.04694252903414903
-0.9414100428121406   0.11130735099353352   0.04694252903414903
-0.9414100428121406   0.11130735099353352   0.04694252903414903
-0.9414100428121406   0.11130735099353352   0.04694252903414903
-1.428845788695919   -0.0700605519537819   -0.054136368147568115
-1.428845788695919   -0.0700605519537819   -0.054136368147568115
-1.428845788695919   -0.0700605519537819   -0.054136368147568115
-1.428845788695919   -0.0700605519537819   -0.054136368147568115
-1.1393751832127577   0.024474761752150048   0.028123351030976074
-1.1393751832127577   0.024474761752150048   0.028123351030976074
-1.1393751832127577   0.024474761752150048   0.028123351030976074
-1.1393751832127577   0.024474761752150048   0.028123351030976074
-0.9827513402021163   -0.09315531428796765   0.021656256721269113
-0.9827513402021163   -0.09315531428796765   0.021656256721269113
-0.9827513402021163   -0.09315531428796765   0.021656256721269113
-0.9827513402021163   -0.09315531428796765   0.021656256721269113
-0.4965608786805916   -0.018021301430350977   0.0009390413775454132
-0.4965608786805916   -0.018021301430350977   0.0009390413775454132
-0.4965608786805916   -0.018021301430350977   0.0009390413775454132
-0.4965608786805916   -0.018021301430350977   0.0009390413775454132
-0.48242097049802396   0.048769465170944055   0.03468857290348305
-0.48242097049802396   0.048769465170944055   0.03468857290348305
-0.48242097049802396   0.048769465170944055   0.03468857290348305
-0.48242097049802396   0.048769465170944055   0.03468857290348305
-0.9983604416141798   -0.09186708133763288   -0.03440557628998411
-0.9983604416141798   -0.09186708133763288   -0.03440557628998411
-0.9983604416141798   -0.09186708133763288   -0.03440557628998411
-0.9983604416141798   -0.09186708133763288   -0.03440557628998411
-0.7374043055035062   -0.036186910192938196   -0.014981635536650856
-0.7374043055035062   -0.036186910192938196   -0.014981635536650856
-0.7374043055035062   -0.036186910192938196   -0.014981635536650856
-0.7374043055035062   -0.036186910192938196   -0.014981635536650856
-0.979597969903683   -0.053413090921593034   0.02095279184645643
-0.979597969903683   -0.053413090921593034   0.02095279184645643
-0.979597969903683   -0.053413090921593034   0.02095279184645643
-0.979597969903683   -0.053413090921593034   0.02095279184645643
-0.4973843917801949   0.014114525183230336   -0.005473593519652931
-0.4973843917801949   0.014114525183230336   -0.005473593519652931
-0.4973843917801949   0.014114525183230336   -0.005473593519652931
-0.4973843917801949   0.014114525183230336   -0.005473593519652931
-0.48084553941864844   0.08064521485719792   0.030004120177891558
-0.48084553941864844   0.08064521485719792   0.030004120177891558
-0.48084553941864844   0.08064521485719792   0.030004120177891558
-0.48084553941864844   0.08064521485719792   0.030004120177891558
-0.9926410302879962   -0.06212243159264299   -0.040628379001652615
-0.9926410302879962   -0.06212243159264299   -0.040628379001652615
-0.9926410302879962   -0.06212243159264299   -0.040628379001652615
-0.9926410302879962   -0.06212243159264299   -0.040628379001652615
-0.7293023711892499   -0.00395008189338103   -7.559224290107358e-05
-0.7293023711892499   -0.00395008189338103   -7.559224290107358e-05
-0.7293023711892499   -0.00395008189338103   -7.559224290107358e-05
-0.7293023711892499   -0.00395008189338103   -7.559224290107358e-05
-0.9734963629370357   -0.02107605720829707   0.01404858336880388
-0.9734963629370357   -0.02107605720829707   0.01404858336880388
-0.9734963629370357   -0.02107605720829707   0.01404858336880388
-0.9734963629370357   -0.02107605720829707   0.01404858336880388
-0.49689700161955186   0.042692045622909944   -0.012300021592332289
-0.49689700161955186   0.042692045622909944   -0.012300021592332289
-0.49689700161955186   0.042692045622909944   -0.012300021592332289
-0.49689700161955186   0.042692045622909944   -0.012300021592332289
-0.4806567176810281   0.11414946315576902   0.02247605071340042
-0.4806567176810281   0.11414946315576902   0.02247605071340042
-0.4806567176810281   0.11414946315576902   0.02247605071340042
-0.4806567176810281   0.11414946315576902   0.02247605071340042
-0.987806453307159   -0.03001512621659065   -0.04371704623082254
-0.987806453307159   -0.03001512621659065   -0.04371704623082254
-0.987806453307159   -0.03001512621659065   -0.04371704623082254
-0.987806453307159   -0.03001512621659065   -0.04371704623082254
-0.7297199672930076   0.025627379035609243   0.011324149992250232
-0.7297199672930076   0.025627379035609243   0.011324149992250232
-0.7297199672930076   0.025627379035609243   0.011324149992250232
-0.7297199672930076   0.025627379035609243   0.011324149992250232
-0.5150352801644282   -0.1065550711733384   -0.0028991962986542608
-0.5150352801644282   -0.1065550711733384   -0.0028991962986542608
-0.5150352801644282   -0.1065550711733384   -0.0028991962986542608
-0.5150352801644282   -0.1065550711733384   -0.0028991962986542608
-0.0176967364592544   0.005182654849468151   0.021991102187566926
-0.0176967364592544   0.005182654849468151   0.021991102187566926
-0.0176967364592544   0.005182654849468151   0.021991102187566926
-0.0176967364592544   0.005182654849468151   0.021991102187566926
-0.01953497561045644   0.03139657729316696   0.010515663157385141
-0.01953497561045644   0.03139657729316696   0.010515663157385141
-0.01953497561045644   0.03139657729316696   0.010515663157385141
-0.01953497561045644   0.03139657729316696   0.010515663157385141
-0.515334610048285   -0.06824892922246514   -0.012861230454416075
-0.515334610048285   -0.06824892922246514   -0.012861230454416075
-0.515334610048285   -0.06824892922246514   -0.012861230454416075
-0.515334610048285   -0.06824892922246514   -0.012861230454416075
-0.26772127687329983   -0.03343129814406019   -0.008394234615569943
-0.26772127687329983   -0.03343129814406019   -0.008394234615569943
-0.26772127687329983   -0.03343129814406019   -0.008394234615569943
-0.26772127687329983   -0.03343129814406019   -0.008394234615569943
-0.5147793576604653   -0.0711851760798897   -0.007148721657889337
-0.5147793576604653   -0.0711851760798897   -0.007148721657889337
-0.5147793576604653   -0.0711851760798897   -0.007148721657889337
-0.5147793576604653   -0.0711851760798897   -0.007148721657889337
-0.01725887311852317   0.0371641790303438   0.016128573879874628
-0.01725887311852317   0.0371641790303438   0.016128573879874628
-0.01725887311852317   0.0371641790303438   0.016128573879874628
-0.01725887311852317   0.0371641790303438   0.016128573879874628
-0.01713764995764265   0.06612076449585523   0.005032009672667414
-0.01713764995764265   0.06612076449585523   0.005032009672667414
-0.01713764995764265   0.06612076449585523   0.005032009672667414
-0.01713764995764265   0.06612076449585523   0.005032009672667414
-0.5139894972736536   -0.0362107788207881   -0.018859675419148375
-0.5139894972736536   -0.0362107788207881   -0.018859675419148375
-0.5139894972736536   -0.0362107788207881   -0.018859675419148375
-0.5139894972736536   -0.0362107788207881   -0.018859675419148375
-0.26507498286151865   -0.0013291708155428912   0.003651888436047558
-0.26507498286151865   -0.0013291708155428912   0.003651888436047558
-0.26507498286151865   -0.0013291708155428912   0.003651888436047558
-0.26507498286151865   -0.0013291708155428912   0.003651888436047558
-0.5132172865364897   -0.03695287072105917   -0.014256529833057557
-0.5132172865364897   -0.03695287072105917   -0.014256529833057557
-0.5132172865364897   -0.03695287072105917   -0.014256529833057557
-0.5132172865364897   -0.03695287072105917   -0.014256529833057557
-0.015572298329985983   0.06920041876094564   0.009779113545860349
-0.015572298329985983   0.06920041876094564   0.009779113545860349
-0.015572298329985983   0.06920041876094564   0.009779113545860349
-0.015572298329985983   0.06920041876094564   0.009779113545860349
-0.016589814284656404   0.10188030874566491   -0.000817867481282826
-0.016589814284656404   0.10188030874566491   -0.000817867481282826
-0.016589814284656404   0.10188030874566491   -0.000817867481282826
-0.016589814284656404   0.10188030874566491   -0.000817867481282826
-0.5136925001614299   -0.0036298900896231667   -0.024923508443214518
-0.5136925001614299   -0.0036298900896231667   -0.024923508443214518
-0.5136925001614299   -0.0036298900896231667   -0.024923508443214518
-0.5136925001614299   -0.0036298900896231667   -0.024923508443214518
-0.2630089616483965   0.030803684031834186   0.014699275904825282
-0.2630089616483965   0.030803684031834186   0.014699275904825282
-0.2630089616483965   0.030803684031834186   0.014699275904825282
-0.2630089616483965   0.030803684031834186   0.014699275904825282
-0.051584950292477276   -0.11674472074285554   -0.025522591386223523
-0.051584950292477276   -0.11674472074285554   -0.025522591386223523
-0.051584950292477276   -0.11674472074285554   -0.025522591386223523
-0.051584950292477276   -0.11674472074285554   -0.025522591386223523
0.4592864828561369   0.032331969371423026   0.041813686526755184
0.4592864828561369   0.032331969371423026   0.041813686526755184
0.4592864828561369   0.032331969371423026   0.041813686526755184
0.4592864828561369   0.032331969371423026   0.041813686526755184
0.44425035330874657   0.017095891350030135   -0.016532375063106966
0.44425035330874657   0.017095891350030135   -0.016532375063106966
0.44425035330874657   0.017095891350030135   -0.016532375063106966
0.44425035330874657   0.017095891350030135   -0.016532375063106966
-0.03465040875749682   -0.04269063503556189   0.009025709750912048
-0.03465040875749682   -0.04269063503556189   0.009025709750912048
-0.03465040875749682   -0.04269063503556189   0.009025709750912048
-0.03465040875749682   -0.04269063503556189   0.009025709750912048
0.20142793275719856   -0.027078326567745982   -0.0047457635421293345
0.20142793275719856   -0.027078326567745982   -0.0047457635421293345
0.20142793275719856   -0.027078326567745982   -0.0047457635421293345
0.20142793275719856   -0.027078326567745982   -0.0047457635421293345
-0.05135611453787242   -0.08513134836998153   -0.032062105816546276
-0.05135611453787242   -0.08513134836998153   -0.032062105816546276
-0.05135611453787242   -0.08513134836998153   -0.032062105816546276
-0.05135611453787242   -0.08513134836998153   -0.032062105816546276
0.46417658116027166   0.06275712675559891   0.037437528788947586
0.46417658116027166   0.06275712675559891   0.037437528788947586
0.46417658116027166   0.06275712675559891   0.037437528788947586
0.46417658116027166   0.06275712675559891   0.037437528788947586
0.4515072641525528   0.04940441771893372   -0.023222737431475363
0.4515072641525528   0.04940441771893372   -0.023222737431475363
0.4515072641525528   0.04940441771893372   -0.023222737431475363
0.4515072641525528   0.04940441771893372   -0.023222737431475363
-0.03364065048760405   -0.013984675901061523   0.0026224474197773864
-0.03364065048760405   -0.013984675901061523   0.0026224474197773864
-0.03364065048760405   -0.013984675901061523   0.0026224474197773864
-0.03364065048760405   -0.013984675901061523   0.0026224474197773864
0.20325782751391067   0.001972023076812419   0.007227225066193027
0.20325782751391067   0.001972023076812419   0.007227225066193027
0.20325782751391067   0.001972023076812419   0.007227225066193027
0.20325782751391067   0.001972023076812419   0.007227225066193027
-0.04988924254559851   -0.05395947824054401   -0.03864571053071264
-0.04988924254559851   -0.05395947824054401   -0.03864571053071264
-0.04988924254559851   -0.05395947824054401   -0.03864571053071264
-0.04988924254559851   -0.05395947824054401   -0.03864571053071264
0.47126577576865536   0.09288913961652359   0.032085098751443566
0.47126577576865536   0.09288913961652359   0.032085098751443566
0.47126577576865536   0.09288913961652359   0.032085098751443566
0.47126577576865536   0.09288913961652359   0.032085098751443566
0.4559987550122826   0.08990697060730393   -0.0242593153159346
0.4559987550122826   0.08990697060730393   -0.0242593153159346
0.4559987550122826   0.08990697060730393   -0.0242593153159346
0.4559987550122826   0.08990697060730393   -0.0242593153159346
-0.033645336804627494   0.019550338804820093   -0.0037655101402930624
-0.033645336804627494   0.019550338804820093   -0.0037655101402930624
-0.033645336804627494   0.019550338804820093   -0.0037655101402930624
-0.033645336804627494   0.019550338804820093   -0.0037655101402930624
0.21035249947367907   0.03435375308407197   0.021440360664191326
0.21035249947367907   0.03435375308407197   0.021440360664191326
0.21035249947367907   0.03435375308407197   0.021440360664191326
0.21035249947367907   0.03435375308407197   0.021440360664191326
0.41132183475395323   -0.11595027297388635   -0.04972731163884894
0.41132183475395323   -0.11595027297388635   -0.04972731163884894
0.41132183475395323   -0.11595027297388635   -0.04972731163884894
0.41132183475395323   -0.11595027297388635   -0.04972731163884894
0.9048343217174741   0.06723393383712983   0.04655564441445051
0.9048343217174741   0.06723393383712983   0.04655564441445051
0.9048343217174741   0.06723393383712983   0.04655564441445051
0.9048343217174741   0.06723393383712983   0.04655564441445051
0.8977945652585717   -0.004421205126625541   -0.06619200756760227
0.8977945652585717   -0.004421205126625541   -0.06619200756760227
0.8977945652585717   -0.004421205126625541   -0.06619200756760227
0.8977945652585717   -0.004421205126625541   -0.06619200756760227
0.44846956324599857   -0.0096036189643832   0.031263184937566274
0.44846956324599857   -0.0096036189643832   0.031263184937566274
0.44846956324599857   -0.0096036189643832   0.031263184937566274
0.44846956324599857   -0.0096036189643832   0.031263184937566274
0.6332927990457141   -0.02265977558045467   -0.02080893140981474
0.6332927990457141   -0.02265977558045467   -0.02080893140981474
0.6332927990457141   -0.02265977558045467   -0.02080893140981474
0.6332927990457141   -0.02265977558045467   -0.02080893140981474
0.4117788360374591   -0.10062063622602557   -0.061173433843485975
0.4117788360374591   -0.10062063622602557   -0.061173433843485975
0.4117788360374591   -0.10062063622602557   -0.061173433843485975
0.4117788360374591   -0.10062063622602557   -0.061173433843485975
0.9371200705166335   0.0892305901845391   0.03678372341154276
0.9371200705166335   0.0892305901845391   0.03678372341154276
0.9371200705166335   0.0892305901845391   0.03678372341154276
0.9371200705166335   0.0892305901845391   0.03678372341154276
0.9199148544364396   0.014007075188032916   -0.08880086362988904
0.9199148544364396   0.014007075188032916   -0.08880086362988904
0.9199148544364396   0.014007075188032916   -0.08880086362988904
0.9199148544364396   0.014007075188032916   -0.08880086362988904
0.4518233835592979   0.004455677836295399   0.023306599484892526
0.4518233835592979   0.004455677836295399   0.023306599484892526
0.4518233835592979   0.004455677836295399   0.023306599484892526
0.4518233835592979   0.004455677836295399   0.023306599484892526
0.6620415281326666   -0.0027297230198243677   -0.006330574591156435
0.6620415281326666   -0.0027297230198243677   -0.006330574591156435
0.6620415281326666   -0.0027297230198243677   -0.006330574591156435
0.6620415281326666   -0.0027297230198243677   -0.006330574591156435
0.41650764693530995   -0.08223122895497201   -0.06658517684378396
0.41650764693530995   -0.08223122895497201   -0.06658517684378396
0.41650764693530995   -0.08223122895497201   -0.06658517684378396
0.41650764693530995   -0.08223122895497201   -0.06658517684378396
0.9610519658706038   0.1065153567894779   0.02437641193949902
0.9610519658706038   0.1065153567894779   0.02437641193949902
0.9610519658706038   0.1065153567894779   0.02437641193949902
0.9610519658706038   0.1065153567894779   0.02437641193949902
0.9550329713048107   0.061943195216021485   -0.08354913129593053
0.9550329713048107   0.061943195216021485   -0.08354913129593053
0.9550329713048107   0.061943195216021485   -0.08354913129593053
0.9550329713048107   0.061943195216021485   -0.08354913129593053
0.4533724235798995   0.03548949811589219   0.017026500013566107
0.4533724235798995   0.03548949811589219   0.017026500013566107
0.4533724235798995   0.03548949811589219   0.017026500013566107
0.4533724235798995   0.03548949811589219   0.017026500013566107
0.6670278971298463   0.020048912185700013   0.009700900907704979
0.6670278971298463   0.020048912185700013   0.009700900907704979
0.6670278971298463   0.020048912185700013   0.009700900907704979
0.6670278971298463   0.020048912185700013   0.009700900907704979
-1.0535954761843944   -0.03434425422675598   0.06891533208258949
-1.0535954761843944   -0.03434425422675598   0.06891533208258949
-1.0535954761843944   -0.03434425422675598   0.06891533208258949
-1.0535954761843944   -0.03434425422675598   0.06891533208258949
-0.7374867272729164   -0.04934539065487251   -0.026008938026052142
-0.7374867272729164   -0.04934539065487251   -0.026008938026052142
-0.7374867272729164   -0.04934539065487251   -0.026008938026052142
-0.7374867272729164   -0.04934539065487251   -0.026008938026052142
-0.6940966354914804   0.06966339426578066   0.058753280055238444
-0.6940966354914804   0.06966339426578066   0.058753280055238444
-0.6940966354914804   0.06966339426578066   0.058753280055238444
-0.6940966354914804   0.06966339426578066   0.058753280055238444
-1.0536738020771654   -0.08674918882562424   -0.03804906401270039
-1.0536738020771654   -0.08674918882562424   -0.03804906401270039
-1.0536738020771654   -0.08674918882562424   -0.03804906401270039
-1.0536738020771654   -0.08674918882562424   -0.03804906401270039
-0.8484861749319507   -0.01350413346718276   -0.0019363643869698965
-0.8484861749319507   -0.01350413346718276   -0.0019363643869698965
-0.8484861749319507   -0.01350413346718276   -0.0019363643869698965
-0.8484861749319507   -0.01350413346718276   -0.0019363643869698965
-1.0142048820844065   0.007000298634368407   0.06554604849110302
-1.0142048820844065   0.007000298634368407   0.06554604849110302
-1.0142048820844065   0.007000298634368407   0.06554604849110302
-1.0142048820844065   0.007000298634368407   0.06554604849110302
-0.7303528764669254   -0.020873414176896907   -0.03199111637930399
-0.7303528764669254   -0.020873414176896907   -0.03199111637930399
-0.7303528764669254   -0.020873414176896907   -0.03199111637930399
-0.7303528764669254   -0.020873414176896907   -0.03199111637930399
-0.6875568579621113   0.08415688207989722   0.04964431819803239
-0.6875568579621113   0.08415688207989722   0.04964431819803239
-0.6875568579621113   0.08415688207989722   0.04964431819803239
-0.6875568579621113   0.08415688207989722   0.04964431819803239
-1.0286961165494437   -0.07059184867811016   -0.04809029872063081
-1.0286961165494437   -0.07059184867811016   -0.04809029872063081
-1.0286961165494437   -0.07059184867811016   -0.04809029872063081
-1.0286961165494437   -0.07059184867811016   -0.04809029872063081
-0.8425270570241068   0.005608250288905103   0.008860758176983813
-0.8425270570241068   0.005608250288905103   0.008860758176983813
-0.8425270570241068   0.005608250288905103   0.008860758176983813
-0.8425270570241068   0.005608250288905103   0.008860758176983813
-0.9895706828510269   0.02434521473431349   0.05259980635902933
-0.9895706828510269   0.02434521473431349   0.05259980635902933
-0.9895706828510269   0.02434521473431349   0.05259980635902933
-0.9895706828510269   0.02434521473431349   0.05259980635902933
-0.7237792914719061   -0.007877181143900739   -0.039433786127136564
-0.7237792914719061   -0.007877181143900739   -0.039433786127136564
-0.7237792914719061   -0.007877181143900739   -0.039433786127136564
-0.7237792914719061   -0.007877181143900739   -0.039433786127136564
-0.683937065591613   0.09829212250803528   0.042718281057211815
-0.683937065591613   0.09829212250803528   0.042718281057211815
-0.683937065591613   0.09829212250803528   0.042718281057211815
-0.683937065591613   0.09829212250803528   0.042718281057211815
-0.995253172367063   -0.049220687314343856   -0.05757167122183368
-0.995253172367063   -0.049220687314343856   -0.05757167122183368
-0.995253172367063   -0.049220687314343856   -0.05757167122183368
-0.995253172367063   -0.049220687314343856   -0.05757167122183368
-0.8108912933165305   0.023524835323294628   0.023996628264897818
-0.8108912933165305   0.023524835323294628   0.023996628264897818
-0.8108912933165305   0.023524835323294628   0.023996628264897818
-0.8108912933165305   0.023524835323294628   0.023996628264897818
-0.7291445699489676   -0.05954546364314405   0.02590192158195606
-0.7291445699489676   -0.05954546364314405   0.02590192158195606
-0.7291445699489676   -0.05954546364314405   0.02590192158195606
-0.7291445699489676   -0.05954546364314405   0.02590192158195606
-0.4231004279503275   -0.03197297320963684   -0.004199008303205409
-0.4231004279503275   -0.03197297320963684   -0.004199008303205409
-0.4231004279503275   -0.03197297320963684   -0.004199008303205409
-0.4231004279503275   -0.03197297320963684   -0.004199008303205409
-0.4015952395304012   0.04070245857900921   0.03167692120945553
-0.4015952395304012   0.04070245857900921   0.03167692120945553
-0.4015952395304012   0.04070245857900921   0.03167692120945553
-0.4015952395304012   0.04070245857900921   0.03167692120945553
-0.7401255705033091   -0.07088364349747325   -0.03084435724065082
-0.7401255705033091   -0.07088364349747325   -0.03084435724065082
-0.7401255705033091   -0.07088364349747325   -0.03084435724065082
-0.7401255705033091   -0.07088364349747325   -0.03084435724065082
-0.5711935263747719   -0.02783261716721016   -0.011690432253359972
-0.5711935263747719   -0.02783261716721016   -0.011690432253359972
-0.5711935263747719   -0.02783261716721016   -0.011690432253359972
-0.5711935263747719   -0.02783261716721016   -0.011690432253359972
-0.720585957168072   -0.025197546669002445   0.02116761260706032
-0.720585957168072   -0.025197546669002445   0.02116761260706032
-0.720585957168072   -0.025197546669002445   0.02116761260706032
-0.720585957168072   -0.025197546669002445   0.02116761260706032
-0.4186280314041584   -0.0024768167879784704   -0.01030776279234287
-0.4186280314041584   -0.0024768167879784704   -0.01030776279234287
-0.4186280314041584   -0.0024768167879784704   -0.01030776279234287
-0.4186280314041584   -0.0024768167879784704   -0.01030776279234287
-0.3964885147449986   0.07042737779836991   0.025968152410414252
-0.3964885147449986   0.07042737779836991   0.025968152410414252
-0.3964885147449986   0.07042737779836991   0.025968152410414252
-0.3964885147449986   0.07042737779836991   0.025968152410414252
-0.7301541825017654   -0.04284060639120629   -0.03634481602913428
-0.7301541825017654   -0.04284060639120629   -0.03634481602913428
-0.7301541825017654   -0.04284060639120629   -0.03634481602913428
-0.7301541825017654   -0.04284060639120629   -0.03634481602913428
-0.5602231609606052   0.001373580220291111   0.0008571589376334815
-0.5602231609606052   0.001373580220291111   0.0008571589376334815
-0.5602231609606052   0.001373580220291111   0.0008571589376334815
-0.5602231609606052   0.001373580220291111   0.0008571589376334815
-0.7091360200365486   0.0065711035326047745   0.01933428637313861
-0.7091360200365486   0.0065711035326047745   0.01933428637313861
-0.7091360200365486   0.0065711035326047745   0.01933428637313861
-0.7091360200365486   0.0065711035326047745   0.01933428637313861
-0.41439366868873134   0.02412867639604279   -0.01725891590592285
-0.41439366868873134   0.02412867639604279   -0.01725891590592285
-0.41439366868873134   0.02412867639604279   -0.01725891590592285
-0.41439366868873134   0.02412867639604279   -0.01725891590592285
-0.39155413854372   0.10210913996032506   0.020651969890317104
-0.39155413854372   0.10210913996032506   0.020651969890317104
-0.39155413854372   0.10210913996032506   0.020651969890317104
-0.39155413854372   0.10210913996032506   0.020651969890317104
-0.722694067393586   -0.012611083634941182   -0.04016352180968062
-0.722694067393586   -0.012611083634941182   -0.04016352180968062
-0.722694067393586   -0.012611083634941182   -0.04016352180968062
-0.722694067393586   -0.012611083634941182   -0.04016352180968062
-0.5559687819090675   0.028867337604593923   0.012810201563473053
-0.5559687819090675   0.028867337604593923   0.012810201563473053
-0.5559687819090675   0.028867337604593923   0.012810201563473053
-0.5559687819090675   0.028867337604593923   0.012810201563473053
-0.432023574302083   -0.08186539650911197   0.0010776832374949363
-0.432023574302083   -0.08186539650911197   0.0010776832374949363
-0.432023574302083   -0.08186539650911197   0.0010776832374949363
-0.432023574302083   -0.08186539650911197   0.0010776832374949363
-0.11193030506196781   -0.009623102542826301   0.017607708989351916
-0.11193030506196781   -0.009623102542826301   0.017607708989351916
-0.11193030506196781   -0.009623102542826301   0.017607708989351916
-0.11193030506196781   -0.009623102542826301   0.017607708989351916
-0.10919656680881121   0.01675192348527465   0.006004989844816861
-0.10919656680881121   0.01675192348527465   0.006004989844816861
-0.10919656680881121   0.01675192348527465   0.006004989844816861
-0.10919656680881121   0.01675192348527465   0.006004989844816861
-0.42728612910029184   -0.04786126180809802   -0.008213806252890532
-0.42728612910029184   -0.04786126180809802   -0.008213806252890532
-0.42728612910029184   -0.04786126180809802   -0.008213806252890532
-0.42728612910029184   -0.04786126180809802   -0.008213806252890532
-0.27057113264681537   -0.029337767819868424   -0.008312255949794081
-0.27057113264681537   -0.029337767819868424   -0.008312255949794081
-0.27057113264681537   -0.029337767819868424   -0.008312255949794081
-0.27057113264681537   -0.029337767819868424   -0.008312255949794081
-0.4265871786873797   -0.04870271671557251   -0.0038775992808504633
-0.4265871786873797   -0.04870271671557251   -0.0038775992808504633
-0.4265871786873797   -0.04870271671557251   -0.0038775992808504633
-0.4265871786873797   -0.04870271671557251   -0.0038775992808504633
-0.107382318298752   0.020106577315721304   0.011721578564666258
-0.107382318298752   0.020106577315721304   0.011721578564666258
-0.107382318298752   0.020106577315721304   0.011721578564666258
-0.107382318298752   0.020106577315721304   0.011721578564666258
-0.1030292064632618   0.05006411323551205   0.0015544940519605505
-0.1030292064632618   0.05006411323551205   0.0015544940519605505
-0.1030292064632618   0.05006411323551205   0.0015544940519605505
-0.1030292064632618   0.05006411323551205   0.0015544940519605505
-0.4221736542717233   -0.017923869513816335   -0.014106297911023427
-0.4221736542717233   -0.017923869513816335   -0.014106297911023427
-0.4221736542717233   -0.017923869513816335   -0.014106297911023427
-0.4221736542717233   -0.017923869513816335   -0.014106297911023427
-0.2639833848710655   0.0005934462905300662   0.003515294488785785
-0.2639833848710655   0.0005934462905300662   0.003515294488785785
-0.2639833848710655   0.0005934462905300662   0.003515294488785785
-0.2639833848710655   0.0005934462905300662   0.003515294488785785
-0.42060290495062586   -0.015497341196852796   -0.008679079622499641
-0.42060290495062586   -0.015497341196852796   -0.008679079622499641
-0.42060290495062586   -0.015497341196852796   -0.008679079622499641
-0.42060290495062586   -0.015497341196852796   -0.008679079622499641
-0.10227946426973283   0.04995807643317494   0.005409241821942471
-0.10227946426973283   0.04995807643317494   0.005409241821942471
-0.10227946426973283   0.04995807643317494   0.005409241821942471
-0.10227946426973283   0.04995807643317494   0.005409241821942471
-0.09749535448309857   0.08385950463259972   -0.003673680510431353
-0.09749535448309857   0.08385950463259972   -0.003673680510431353
-0.09749535448309857   0.08385950463259972   -0.003673680510431353
-0.09749535448309857   0.08385950463259972   -0.003673680510431353
-0.41768880463274766   0.012359548149534196   -0.020271768744027835
-0.41768880463274766   0.012359548149534196   -0.020271768744027835
-0.41768880463274766   0.012359548149534196   -0.020271768744027835
-0.41768880463274766   0.012359548149534196   -0.020271768744027835
-0.25796895774049944   0.03066824267768321   0.014910023918657006
-0.25796895774049944   0.03066824267768321   0.014910023918657006
-0.25796895774049944   0.03066824267768321   0.014910023918657006
-0.25796895774049944   0.03066824267768321   0.014910023918657006
-0.13819529205575626   -0.1001626571839918   -0.023177671338425822
-0.13819529205575626   -0.1001626571839918   -0.023177671338425822
-0.13819529205575626   -0.1001626571839918   -0.023177671338425822
-0.13819529205575626   -0.1001626571839918   -0.023177671338425822
0.19505797707079625   0.01543355528245088   0.03817911965241204
0.19505797707079625   0.01543355528245088   0.03817911965241204
0.19505797707079625   0.01543355528245088   0.03817911965241204
0.19505797707079625   0.01543355528245088   0.03817911965241204
0.18138423909013401   -0.005557790246212634   -0.02134471414997252
0.18138423909013401   -0.005557790246212634   -0.02134471414997252
0.18138423909013401   -0.005557790246212634   -0.02134471414997252
0.18138423909013401   -0.005557790246212634   -0.02134471414997252
-0.11556129528462895   -0.023227383751985665   0.014160654702987427
-0.11556129528462895   -0.023227383751985665   0.014160654702987427
-0.11556129528462895   -0.023227383751985665   0.014160654702987427
-0.11556129528462895   -0.023227383751985665   0.014160654702987427
0.02943957163580297   -0.02759052965260878   -0.005919330169656381
0.02943957163580297   -0.02759052965260878   -0.005919330169656381
0.02943957163580297   -0.02759052965260878   -0.005919330169656381
0.02943957163580297   -0.02759052965260878   -0.005919330169656381
-0.13344721678779226   -0.06996200492063843   -0.028534331644175254
-0.13344721678779226   -0.06996200492063843   -0.028534331644175254
-0.13344721678779226   -0.06996200492063843   -0.028534331644175254
-0.13344721678779226   -0.06996200492063843   -0.028534331644175254
0.2022607787105713   0.044167449039713626   0.03331274466628363
0.2022607787105713   0.044167449039713626   0.03331274466628363
0.2022607787105713   0.044167449039713626   0.03331274466628363
0.2022607787105713   0.044167449039713626   0.03331274466628363
0.1928632919645096   0.02595449190118675   -0.024185656021087257
0.1928632919645096   0.02595449190118675   -0.024185656021087257
0.1928632919645096   0.02595449190118675   -0.024185656021087257
0.1928632919645096   0.02595449190118675   -0.024185656021087257
-0.11111111204202433   0.003545479200659533   0.007663600192999439
-0.11111111204202433   0.003545479200659533   0.007663600192999439
-0.11111111204202433   0.003545479200659533   0.007663600192999439
-0.11111111204202433   0.003545479200659533   0.007663600192999439
0.03554804520507344   -0.00044464301758772017   0.006114654482293527
0.03554804520507344   -0.00044464301758772017   0.006114654482293527
0.03554804520507344   -0.00044464301758772017   0.006114654482293527
0.03554804520507344   -0.00044464301758772017   0.006114654482293527
-0.1283720159752374   -0.04039543878085522   -0.0347000014915501
-0.1283720159752374   -0.04039543878085522   -0.0347000014915501
-0.1283720159752374   -0.04039543878085522   -0.0347000014915501
-0.1283720159752374   -0.04039543878085522   -0.0347000014915501
0.21271798063857497   0.07248919462355141   0.028553084626874878
0.21271798063857497   0.07248919462355141   0.028553084626874878
0.21271798063857497   0.07248919462355141   0.028553084626874878
0.21271798063857497   0.07248919462355141   0.028553084626874878
0.2021085541068456   0.06186394199409241   -0.02795138510540461
0.2021085541068456   0.06186394199409241   -0.02795138510540461
0.2021085541068456   0.06186394199409241   -0.02795138510540461
0.2021085541068456   0.06186394199409241   -0.02795138510540461
-0.10635541485781097   0.03440257152576239   0.0014829507228439516
-0.10635541485781097   0.03440257152576239   0.0014829507228439516
-0.10635541485781097   0.03440257152576239   0.0014829507228439516
-0.10635541485781097   0.03440257152576239   0.0014829507228439516
0.044975499909373905   0.029075005199560838   0.018572887600119596
0.044975499909373905   0.029075005199560838   0.018572887600119596
0.044975499909373905   0.029075005199560838   0.018572887600119596
0.044975499909373905   0.029075005199560838   0.018572887600119596
0.1549410291742449   -0.10120855538665376   -0.04576350916123818
0.1549410291742449   -0.10120855538665376   -0.04576350916123818
0.1549410291742449   -0.10120855538665376   -0.04576350916123818
0.1549410291742449   -0.10120855538665376   -0.04576350916123818
0.4677186647081964   0.04615258518942997   0.04948489213667363
0.4677186647081964   0.04615258518942997   0.04948489213667363
0.4677186647081964   0.04615258518942997   0.04948489213667363
0.4677186647081964   0.04615258518942997   0.04948489213667363
0.46303234487584316   -0.024993757468945686   -0.06025028921509078
0.46303234487584316   -0.024993757468945686   -0.06025028921509078
0.46303234487584316   -0.024993757468945686   -0.06025028921509078
0.46303234487584316   -0.024993757468945686   -0.06025028921509078
0.19583692241318215   0.008427262128880283   0.036933650090175095
0.19583692241318215   0.008427262128880283   0.036933650090175095
0.19583692241318215   0.008427262128880283   0.036933650090175095
0.19583692241318215   0.008427262128880283   0.036933650090175095
0.3036774218164965   -0.02097096544257707   -0.016080978138664978
0.3036774218164965   -0.02097096544257707   -0.016080978138664978
0.3036774218164965   -0.02097096544257707   -0.016080978138664978
0.3036774218164965   -0.02097096544257707   -0.016080978138664978
0.15932210513393374   -0.08427365200812226   -0.05293952216906423
0.15932210513393374   -0.08427365200812226   -0.05293952216906423
0.15932210513393374   -0.08427365200812226   -0.05293952216906423
0.15932210513393374   -0.08427365200812226   -0.05293952216906423
0.5025962671387066   0.07075626165167197   0.041819302978609016
0.5025962671387066   0.07075626165167197   0.041819302978609016
0.5025962671387066   0.07075626165167197   0.041819302978609016
0.5025962671387066   0.07075626165167197   0.041819302978609016
0.4884092296591383   -0.0073431097917582774   -0.07227318475521619
0.4884092296591383   -0.0073431097917582774   -0.07227318475521619
0.4884092296591383   -0.0073431097917582774   -0.07227318475521619
0.4884092296591383   -0.0073431097917582774   -0.07227318475521619
0.20254241585555272   0.021357394206648242   0.028807061128666843
0.20254241585555272   0.021357394206648242   0.028807061128666843
0.20254241585555272   0.021357394206648242   0.028807061128666843
0.20254241585555272   0.021357394206648242   0.028807061128666843
0.3292928564106188   -0.0031675655616347463   -0.0019088222731450388
0.3292928564106188   -0.0031675655616347463   -0.0019088222731450388
0.3292928564106188   -0.0031675655616347463   -0.0019088222731450388
0.3292928564106188   -0.0031675655616347463   -0.0019088222731450388
0.16631163779328453   -0.06958823184090913   -0.06140120313511675
0.16631163779328453   -0.06958823184090913   -0.06140120313511675
0.16631163779328453   -0.06958823184090913   -0.06140120313511675
0.16631163779328453   -0.06958823184090913   -0.06140120313511675
0.5278184354968808   0.08678094403127336   0.030648790610464452
0.5278184354968808   0.08678094403127336   0.030648790610464452
0.5278184354968808   0.08678094403127336   0.030648790610464452
0.5278184354968808   0.08678094403127336   0.030648790610464452
0.5273864294943716   0.03141150620556733   -0.07737746545253033
0.5273864294943716   0.03141150620556733   -0.07737746545253033
0.5273864294943716   0.03141150620556733   -0.07737746545253033
0.5273864294943716   0.03141150620556733   -0.07737746545253033
0.2094039637167209   0.04749763551689192   0.022891969421172158
0.2094039637167209   0.04749763551689192   0.022891969421172158
0.2094039637167209   0.04749763551689192   0.022891969421172158
0.2094039637167209   0.04749763551689192   0.022891969421172158
0.34209924877176673   0.016444714051791917   0.010296082117623548
0.34209924877176673   0.016444714051791917   0.010296082117623548
0.34209924877176673   0.016444714051791917   0.010296082117623548
0.34209924877176673   0.016444714051791917   0.010296082117623548
-0.6309603861325069   -0.010489211909700077   0.06174561455941582
-0.6309603861325069   -0.010489211909700077   0.06174561455941582
-0.6309603861325069   -0.010489211909700077   0.06174561455941582
-0.6309603861325069   -0.010489211909700077   0.06174561455941582
-0.4925436836035463   -0.0625806706433284   -0.03051850813020371
-0.4925436836035463   -0.0625806706433284   -0.03051850813020371
-0.4925436836035463   -0.0625806706433284   -0.03051850813020371
-0.4925436836035463   -0.0625806706433284   -0.03051850813020371
-0.4458234219864808   0.05298881273697043   0.05279056370960358
-0.4458234219864808   0.05298881273697043   0.05279056370960358
-0.4458234219864808   0.05298881273697043   0.05279056370960358
-0.4458234219864808   0.05298881273697043   0.05279056370960358
-0.6283143271656749   -0.06845803725372632   -0.04155107063387199
-0.6283143271656749   -0.06845803725372632   -0.04155107063387199
-0.6283143271656749   -0.06845803725372632   -0.04155107063387199
-0.6283143271656749   -0.06845803725372632   -0.04155107063387199
-0.5284009140715816   -0.014523771264500055   -0.007838045057763796
-0.5284009140715816   -0.014523771264500055   -0.007838045057763796
-0.5284009140715816   -0.014523771264500055   -0.007838045057763796
-0.5284009140715816   -0.014523771264500055   -0.007838045057763796
-0.5894131510098319   0.025510090640585625   0.05898668225103068
-0.5894131510098319   0.025510090640585625   0.05898668225103068
-0.5894131510098319   0.025510090640585625   0.05898668225103068
-0.5894131510098319   0.025510090640585625   0.05898668225103068
-0.4820183915579482   -0.03827310857296527   -0.036922362837793474
-0.4820183915579482   -0.03827310857296527   -0.036922362837793474
-0.4820183915579482   -0.03827310857296527   -0.036922362837793474
-0.4820183915579482   -0.03827310857296527   -0.036922362837793474
-0.43478326636088527   0.06673779041582009   0.04464504656044663
-0.43478326636088527   0.06673779041582009   0.04464504656044663
-0.43478326636088527   0.06673779041582009   0.04464504656044663
-0.43478326636088527   0.06673779041582009   0.04464504656044663
-0.5994543232105164   -0.05287703952593305   -0.05190473322112782
-0.5994543232105164   -0.05287703952593305   -0.05190473322112782
-0.5994543232105164   -0.05287703952593305   -0.05190473322112782
-0.5994543232105164   -0.05287703952593305   -0.05190473322112782
-0.5133136933279971   0.003468505456657934   0.003649026287062332
-0.5133136933279971   0.003468505456657934   0.003649026287062332
-0.5133136933279971   0.003468505456657934   0.003649026287062332
-0.5133136933279971   0.003468505456657934   0.003649026287062332
-0.560528705431683   0.042190797099159724   0.0476555190479426
-0.560528705431683   0.042190797099159724   0.0476555190479426
-0.560528705431683   0.042190797099159724   0.0476555190479426
-0.560528705431683   0.042190797099159724   0.0476555190479426
-0.4711485767574045   -0.025769738826959168   -0.0446739761793703
-0.4711485767574045   -0.025769738826959168   -0.0446739761793703
-0.4711485767574045   -0.025769738826959168   -0.0446739761793703
-0.4711485767574045   -0.025769738826959168   -0.0446739761793703
-0.4258470029502681   0.08387552330685011   0.038503212467341244
-0.4258470029502681   0.08387552330685011   0.038503212467341244
-0.4258470029502681   0.08387552330685011   0.038503212467341244
-0.4258470029502681   0.08387552330685011   0.038503212467341244
-0.5606845575696822   -0.027929633218312294   -0.06006401799900937
-0.5606845575696822   -0.027929633218312294   -0.06006401799900937
-0.5606845575696822   -0.027929633218312294   -0.06006401799900937
-0.5606845575696822   -0.027929633218312294   -0.06006401799900937
-0.4828776826907624   0.021217280272845213   0.017894536665910524
-0.4828776826907624   0.021217280272845213   0.017894536665910524
-0.4828776826907624   0.021217280272845213   0.017894536665910524
-0.4828776826907624   0.021217280272845213   0.017894536665910524
-0.4752363866096622   -0.03572741836807091   0.029164724563959035
-0.4752363866096622   -0.03572741836807091   0.029164724563959035
-0.4752363866096622   -0.03572741836807091   0.029164724563959035
-0.4752363866096622   -0.03572741836807091   0.029164724563959035
-0.34923786685957936   -0.04744327178202909   -0.009033496018367296
-0.34923786685957936   -0.04744327178202909   -0.009033496018367296
-0.34923786685957936   -0.04744327178202909   -0.009033496018367296
-0.34923786685957936   -0.04744327178202909   -0.009033496018367296
-0.3232021342504684   0.024067671059340486   0.02698877929056187
-0.3232021342504684   0.024067671059340486   0.02698877929056187
-0.3232021342504684   0.024067671059340486   0.02698877929056187
-0.3232021342504684   0.024067671059340486   0.02698877929056187
-0.48229569822747725   -0.0505243565267334   -0.02605764823167049
-0.48229569822747725   -0.0505243565267334   -0.02605764823167049
-0.48229569822747725   -0.0505243565267334   -0.02605764823167049
-0.48229569822747725   -0.0505243565267334   -0.02605764823167049
-0.4063759444370579   -0.025241269861934753   -0.010965694455449343
-0.4063759444370579   -0.025241269861934753   -0.010965694455449343
-0.4063759444370579   -0.025241269861934753   -0.010965694455449343
-0.4063759444370579   -0.025241269861934753   -0.010965694455449343
-0.4628757514728891   -0.004301052033624665   0.024818781048156907
-0.4628757514728891   -0.004301052033624665   0.024818781048156907
-0.4628757514728891   -0.004301052033624665   0.024818781048156907
-0.4628757514728891   -0.004301052033624665   0.024818781048156907
-0.3404395225816452   -0.019973075010357146   -0.015157416295621173
-0.3404395225816452   -0.019973075010357146   -0.015157416295621173
-0.3404395225816452   -0.019973075010357146   -0.015157416295621173
-0.3404395225816452   -0.019973075010357146   -0.015157416295621173
-0.3136843388347485   0.052039159754011355   0.02158417102993708
-0.3136843388347485   0.052039159754011355   0.02158417102993708
-0.3136843388347485   0.052039159754011355   0.02158417102993708
-0.3136843388347485   0.052039159754011355   0.02158417102993708
-0.4680275136533142   -0.023640694953000183   -0.031197704532873655
-0.4680275136533142   -0.023640694953000183   -0.031197704532873655
-0.4680275136533142   -0.023640694953000183   -0.031197704532873655
-0.4680275136533142   -0.023640694953000183   -0.031197704532873655
-0.39260347589827166   0.0017197733221789545   0.0011096130512711772
-0.39260347589827166   0.0017197733221789545   0.0011096130512711772
-0.39260347589827166   0.0017197733221789545   0.0011096130512711772
-0.39260347589827166   0.0017197733221789545   0.0011096130512711772
-0.44746739814265446   0.025465124416605766   0.0224970536508151
-0.44746739814265446   0.025465124416605766   0.0224970536508151
-0.44746739814265446   0.025465124416605766   0.0224970536508151
-0.44746739814265446   0.025465124416605766   0.0224970536508151
-0.33172484260387164   0.005452952125941343   -0.02203214018760858
-0.33172484260387164   0.005452952125941343   -0.02203214018760858
-0.33172484260387164   0.005452952125941343   -0.02203214018760858
-0.33172484260387164   0.005452952125941343   -0.02203214018760858
-0.3041965048463937   0.08240842661781633   0.01643646690689938
-0.3041965048463937   0.08240842661781633   0.01643646690689938
-0.3041965048463937   0.08240842661781633   0.01643646690689938
-0.3041965048463937   0.08240842661781633   0.01643646690689938
-0.4562558377696384   0.005730035244806791   -0.035395473567463503
-0.4562558377696384   0.005730035244806791   -0.035395473567463503
-0.4562558377696384   0.005730035244806791   -0.035395473567463503
-0.4562558377696384   0.005730035244806791   -0.035395473567463503
-0.3826467989978017   0.028159611969040342   0.012924217295501528
-0.3826467989978017   0.028159611969040342   0.012924217295501528
-0.3826467989978017   0.028159611969040342   0.012924217295501528
-0.3826467989978017   0.028159611969040342   0.012924217295501528
-0.3488091568326429   -0.05948921518998228   0.005155997524262407
-0.3488091568326429   -0.05948921518998228   0.005155997524262407
-0.3488091568326429   -0.05948921518998228   0.005155997524262407
-0.3488091568326429   -0.05948921518998228   0.005155997524262407
-0.20784085466595167   -0.02507858153299275   0.012804114439501427
-0.20784085466595167   -0.02507858153299275   0.012804114439501427
-0.20784085466595167   -0.02507858153299275   0.012804114439501427
-0.20784085466595167   -0.02507858153299275   0.012804114439501427
-0.20076340580402452   -0.0005841812795503668   0.0016488730935957652
-0.20076340580402452   -0.0005841812795503668   0.0016488730935957652
-0.20076340580402452   -0.0005841812795503668   0.0016488730935957652
-0.20076340580402452   -0.0005841812795503668   0.0016488730935957652
-0.33943726234007093   -0.027112057783375585   -0.0030071323147349144
-0.33943726234007093   -0.027112057783375585   -0.0030071323147349144
-0.33943726234007093   -0.027112057783375585   -0.0030071323147349144
-0.33943726234007093   -0.027112057783375585   -0.0030071323147349144
-0.2746495649739019   -0.026752155715460357   -0.007988740622219104
-0.2746495649739019   -0.026752155715460357   -0.007988740622219104
-0.2746495649739019   -0.026752155715460357   -0.007988740622219104
-0.2746495649739019   -0.026752155715460357   -0.007988740622219104
-0.33902826810365866   -0.028484810117836254   0.0004105912017851321
-0.33902826810365866   -0.028484810117836254   0.0004105912017851321
-0.33902826810365866   -0.028484810117836254   0.0004105912017851321
-0.33902826810365866   -0.028484810117836254   0.0004105912017851321
-0.19900164012175034   0.0029593309735961165   0.006914189251818331
-0.19900164012175034   0.0029593309735961165   0.006914189251818331
-0.19900164012175034   0.0029593309735961165   0.006914189251818331
-0.19900164012175034   0.0029593309735961165   0.006914189251818331
-0.19042226322317882   0.030693878230650604   -0.002768950237233246
-0.19042226322317882   0.030693878230650604   -0.002768950237233246
-0.19042226322317882   0.030693878230650604   -0.002768950237233246
-0.19042226322317882   0.030693878230650604   -0.002768950237233246
-0.3299017282264751   0.0013263552065241463   -0.008789971381210904
-0.3299017282264751   0.0013263552065241463   -0.008789971381210904
-0.3299017282264751   0.0013263552065241463   -0.008789971381210904
-0.3299017282264751   0.0013263552065241463   -0.008789971381210904
-0.26374007318139914   0.0013642497470460653   0.0037238066824168137
-0.26374007318139914   0.0013642497470460653   0.0037238066824168137
-0.26374007318139914   0.0013642497470460653   0.0037238066824168137
-0.26374007318139914   0.0013642497470460653   0.0037238066824168137
-0.32875272680300044   0.002698211458891535   -0.004416820516206926
-0.32875272680300044   0.002698211458891535   -0.004416820516206926
-0.32875272680300044   0.002698211458891535   -0.004416820516206926
-0.32875272680300044   0.002698211458891535   -0.004416820516206926
-0.18960795999074842   0.03128532663418764   0.0007111175213798532
-0.18960795999074842   0.03128532663418764   0.0007111175213798532
-0.18960795999074842   0.03128532663418764   0.0007111175213798532
-0.18960795999074842   0.03128532663418764   0.0007111175213798532
-0.18065432231200879   0.06225971807068215   -0.0078054014590116585
-0.18065432231200879   0.06225971807068215   -0.0078054014590116585
-0.18065432231200879   0.06225971807068215   -0.0078054014590116585
-0.18065432231200879   0.06225971807068215   -0.0078054014590116585
-0.3209634813226837   0.029983724583190798   -0.01497371343992112
-0.3209634813226837   0.029983724583190798   -0.01497371343992112
-0.3209634813226837   0.029983724583190798   -0.01497371343992112
-0.3209634813226837   0.029983724583190798   -0.01497371343992112
-0.2534227638272117   0.029581770547078737   0.014964721093888411
-0.2534227638272117   0.029581770547078737   0.014964721093888411
-0.2534227638272117   0.029581770547078737   0.014964721093888411
-0.2534227638272117   0.029581770547078737   0.014964721093888411
-0.2252331440391356   -0.0800897297182481   -0.019146184241166382
-0.2252331440391356   -0.0800897297182481   -0.019146184241166382
-0.2252331440391356   -0.0800897297182481   -0.019146184241166382
-0.2252331440391356   -0.0800897297182481   -0.019146184241166382
-0.07048248529591203   -0.0013341351053204678   0.03356612557378803
-0.07048248529591203   -0.0013341351053204678   0.03356612557378803
-0.07048248529591203   -0.0013341351053204678   0.03356612557378803
-0.07048248529591203   -0.0013341351053204678   0.03356612557378803
-0.08004202994177417   -0.023897062693052744   -0.02470700534520277
-0.08004202994177417   -0.023897062693052744   -0.02470700534520277
-0.08004202994177417   -0.023897062693052744   -0.02470700534520277
-0.08004202994177417   -0.023897062693052744   -0.02470700534520277
-0.1977415353342567   -0.003054708707963656   0.01922875287084623
-0.1977415353342567   -0.003054708707963656   0.01922875287084623
-0.1977415353342567   -0.003054708707963656   0.01922875287084623
-0.1977415353342567   -0.003054708707963656   0.01922875287084623
-0.14334157991664956   -0.02591279418953263   -0.005766147919070274
-0.14334157991664956   -0.02591279418953263   -0.005766147919070274
-0.14334157991664956   -0.02591279418953263   -0.005766147919070274
-0.14334157991664956   -0.02591279418953263   -0.005766147919070274
-0.21602108487269905   -0.05099684443005276   -0.024226859099277964
-0.21602108487269905   -0.05099684443005276   -0.024226859099277964
-0.21602108487269905   -0.05099684443005276   -0.024226859099277964
-0.21602108487269905   -0.05099684443005276   -0.024226859099277964
-0.05933063336864375   0.026476920063721623   0.028475994763675003
-0.05933063336864375   0.026476920063721623   0.028475994763675003
-0.05933063336864375   0.026476920063721623   0.028475994763675003
-0.05933063336864375   0.026476920063721623   0.028475994763675003
-0.06490465023056553   0.005690922227472956   -0.027815646484392248
-0.06490465023056553   0.005690922227472956   -0.027815646484392248
-0.06490465023056553   0.005690922227472956   -0.027815646484392248
-0.06490465023056553   0.005690922227472956   -0.027815646484392248
-0.1889455152491966   0.02247926652643062   0.012829401336895987
-0.1889455152491966   0.02247926652643062   0.012829401336895987
-0.1889455152491966   0.02247926652643062   0.012829401336895987
-0.1889455152491966   0.02247926652643062   0.012829401336895987
-0.1317296808688393   0.0002790997423986301   0.006171935339317491
-0.1317296808688393   0.0002790997423986301   0.006171935339317491
-0.1317296808688393   0.0002790997423986301   0.006171935339317491
-0.1317296808688393   0.0002790997423986301   0.006171935339317491
-0.20664458175770312   -0.023109389764100596   -0.03007727491510707
-0.20664458175770312   -0.023109389764100596   -0.03007727491510707
-0.20664458175770312   -0.023109389764100596   -0.03007727491510707
-0.20664458175770312   -0.023109389764100596   -0.03007727491510707
-0.04494164576350815   0.05354351647655219   0.02414678160181542
-0.04494164576350815   0.05354351647655219   0.02414678160181542
-0.04494164576350815   0.05354351647655219   0.02414678160181542
-0.04494164576350815   0.05354351647655219   0.02414678160181542
-0.05210162540276286   0.03872396267810699   -0.0311638829704812
-0.05210162540276286   0.03872396267810699   -0.0311638829704812
-0.05210162540276286   0.03872396267810699   -0.0311638829704812
-0.05210162540276286   0.03872396267810699   -0.0311638829704812
-0.17994056696944588   0.051362968771401736   0.006660124553083173
-0.17994056696944588   0.051362968771401736   0.006660124553083173
-0.17994056696944588   0.051362968771401736   0.006660124553083173
-0.17994056696944588   0.051362968771401736   0.006660124553083173
-0.11971742957684045   0.027570275426455106   0.01810770905992097
-0.11971742957684045   0.027570275426455106   0.01810770905992097
-0.11971742957684045   0.027570275426455106   0.01810770905992097
-0.11971742957684045   0.027570275426455106   0.01810770905992097
-0.10247856848783349   -0.08611127081278287   -0.041637154678360655
-0.10247856848783349   -0.08611127081278287   -0.041637154678360655
-0.10247856848783349   -0.08611127081278287   -0.041637154678360655
-0.10247856848783349   -0.08611127081278287   -0.041637154678360655
0.03300263594805203   0.025339712438145392   0.05122188809380748
0.03300263594805203   0.025339712438145392   0.05122188809380748
0.03300263594805203   0.025339712438145392   0.05122188809380748
0.03300263594805203   0.025339712438145392   0.05122188809380748
0.033225312872417215   -0.04251109255310559   -0.055146513778989326
0.033225312872417215   -0.04251109255310559   -0.055146513778989326
0.033225312872417215   -0.04251109255310559   -0.055146513778989326
0.033225312872417215   -0.04251109255310559   -0.055146513778989326
-0.05661775286101498   0.02659284856975741   0.041924468795783015
-0.05661775286101498   0.02659284856975741   0.041924468795783015
-0.05661775286101498   0.02659284856975741   0.041924468795783015
-0.05661775286101498   0.02659284856975741   0.041924468795783015
-0.024282433759917753   -0.018319376196307243   -0.009711949109214796
-0.024282433759917753   -0.018319376196307243   -0.009711949109214796
-0.024282433759917753   -0.018319376196307243   -0.009711949109214796
-0.024282433759917753   -0.018319376196307243   -0.009711949109214796
-0.0931623940533488   -0.06633375741807253   -0.047872131178058
-0.0931623940533488   -0.06633375741807253   -0.047872131178058
-0.0931623940533488   -0.06633375741807253   -0.047872131178058
-0.0931623940533488   -0.06633375741807253   -0.047872131178058
0.07236925985468133   0.05301481922465433   0.0450473093545713
0.07236925985468133   0.05301481922465433   0.0450473093545713
0.07236925985468133   0.05301481922465433   0.0450473093545713
0.07236925985468133   0.05301481922465433   0.0450473093545713
0.06223218360007465   -0.025569810085490807   -0.06551872807655033
0.06223218360007465   -0.025569810085490807   -0.06551872807655033
0.06223218360007465   -0.025569810085490807   -0.06551872807655033
0.06223218360007465   -0.025569810085490807   -0.06551872807655033
-0.0459767742851334   0.03888606075217381   0.033628594718067506
-0.0459767742851334   0.03888606075217381   0.033628594718067506
-0.0459767742851334   0.03888606075217381   0.033628594718067506
-0.0459767742851334   0.03888606075217381   0.033628594718067506
-0.00045573685381901916   -0.0008836331942966777   0.0032192892942808373
-0.00045573685381901916   -0.0008836331942966777   0.0032192892942808373
-0.00045573685381901916   -0.0008836331942966777   0.0032192892942808373
-0.00045573685381901916   -0.0008836331942966777   0.0032192892942808373
-0.08203324253679799   -0.05239390571264299   -0.0553737800754386
-0.08203324253679799   -0.05239390571264299   -0.0553737800754386
-0.08203324253679799   -0.05239390571264299   -0.0553737800754386
-0.08203324253679799   -0.05239390571264299   -0.0553737800754386
0.10089132562886693   0.06831283015645433   0.033894341825469756
0.10089132562886693   0.06831283015645433   0.033894341825469756
0.10089132562886693   0.06831283015645433   0.033894341825469756
0.10089132562886693   0.06831283015645433   0.033894341825469756
0.10290346346811324   0.007584440690236768   -0.07017350446349598
0.10290346346811324   0.007584440690236768   -0.07017350446349598
0.10290346346811324   0.007584440690236768   -0.07017350446349598
0.10290346346811324   0.007584440690236768   -0.07017350446349598
-0.036037647590213814   0.06055090902433932   0.02732905974603171
-0.036037647590213814   0.06055090902433932   0.02732905974603171
-0.036037647590213814   0.06055090902433932   0.02732905974603171
-0.036037647590213814   0.06055090902433932   0.02732905974603171
0.02105136631851531   0.017426279726557317   0.01586750531175008
0.02105136631851531   0.017426279726557317   0.01586750531175008
0.02105136631851531   0.017426279726557317   0.01586750531175008
0.02105136631851531   0.017426279726557317   0.01586750531175008
-0.20844099399783736   0.012048551660356548   0.05852491378251207
-0.20844099399783736   0.012048551660356548   0.05852491378251207
-0.20844099399783736   0.012048551660356548   0.05852491378251207
-0.20844099399783736   0.012048551660356548   0.05852491378251207
-0.24849023378357882   -0.07626023782960668   -0.03445925137812281
-0.24849023378357882   -0.07626023782960668   -0.03445925137812281
-0.24849023378357882   -0.07626023782960668   -0.03445925137812281
-0.24849023378357882   -0.07626023782960668   -0.03445925137812281
-0.19838910335277474   0.035419718797241005   0.04791248580806449
-0.19838910335277474   0.035419718797241005   0.04791248580806449
-0.19838910335277474   0.035419718797241005   0.04791248580806449
-0.19838910335277474   0.035419718797241005   0.04791248580806449
-0.20243125086797142   -0.05005935958183567   -0.04442051432102777
-0.20243125086797142   -0.05005935958183567   -0.04442051432102777
-0.20243125086797142   -0.05005935958183567   -0.04442051432102777
-0.20243125086797142   -0.05005935958183567   -0.04442051432102777
-0.20903905453383684   -0.016075256310091674   -0.01604006751532689
-0.20903905453383684   -0.016075256310091674   -0.01604006751532689
-0.20903905453383684   -0.016075256310091674   -0.01604006751532689
-0.20903905453383684   -0.016075256310091674   -0.01604006751532689
-0.16390681186590114   0.04363512012874908   0.05450720097873126
-0.16390681186590114   0.04363512012874908   0.05450720097873126
-0.16390681186590114   0.04363512012874908   0.05450720097873126
-0.16390681186590114   0.04363512012874908   0.05450720097873126
-0.23449445102448233   -0.05585566958298231   -0.041338864170250136
-0.23449445102448233   -0.05585566958298231   -0.041338864170250136
-0.23449445102448233   -0.05585566958298231   -0.041338864170250136
-0.23449445102448233   -0.05585566958298231   -0.041338864170250136
-0.18296724688258098   0.04886439577735132   0.04031536696734328
-0.18296724688258098   0.04886439577735132   0.04031536696734328
-0.18296724688258098   0.04886439577735132   0.04031536696734328
-0.18296724688258098   0.04886439577735132   0.04031536696734328
-0.1693318301597207   -0.034865127329521454   -0.05532147689294418
-0.1693318301597207   -0.034865127329521454   -0.05532147689294418
-0.1693318301597207   -0.034865127329521454   -0.05532147689294418
-0.1693318301597207   -0.034865127329521454   -0.05532147689294418
-0.18462190346940974   0.0010972721978976547   -0.0033677672061938058
-0.18462190346940974   0.0010972721978976547   -0.0033677672061938058
-0.18462190346940974   0.0010972721978976547   -0.0033677672061938058
-0.18462190346940974   0.0010972721978976547   -0.0033677672061938058
-0.1305901237060878   0.059984277190266264   0.04353765085542484
-0.1305901237060878   0.059984277190266264   0.04353765085542484
-0.1305901237060878   0.059984277190266264   0.04353765085542484
-0.1305901237060878   0.059984277190266264   0.04353765085542484
-0.21942915111380096   -0.04370520652002414   -0.04942455189137734
-0.21942915111380096   -0.04370520652002414   -0.04942455189137734
-0.21942915111380096   -0.04370520652002414   -0.04942455189137734
-0.21942915111380096   -0.04370520652002414   -0.04942455189137734
-0.16886320994933474   0.0694113009323815   0.034819305134112175
-0.16886320994933474   0.0694113009323815   0.034819305134112175
-0.16886320994933474   0.0694113009323815   0.034819305134112175
-0.16886320994933474   0.0694113009323815   0.034819305134112175
-0.12514777946785335   -0.005984174021900232   -0.062317319597309004
-0.12514777946785335   -0.005984174021900232   -0.062317319597309004
-0.12514777946785335   -0.005984174021900232   -0.062317319597309004
-0.12514777946785335   -0.005984174021900232   -0.062317319597309004
-0.155280807675952   0.019047499156917905   0.01019414134464347
-0.155280807675952   0.019047499156917905   0.01019414134464347
-0.155280807675952   0.019047499156917905   0.01019414134464347
-0.155280807675952   0.019047499156917905   0.01019414134464347
-0.22240777229316588   -0.013609991680169027   0.033302809924504254
-0.22240777229316588   -0.013609991680169027   0.033302809924504254
-0.22240777229316588   -0.013609991680169027   0.033302809924504254
-0.22240777229316588   -0.013609991680169027   0.033302809924504254
-0.2765501599674087   -0.06220788027079343   -0.013462240646988657
-0.2765501599674087   -0.06220788027079343   -0.013462240646988657
-0.2765501599674087   -0.06220788027079343   -0.013462240646988657
-0.2765501599674087   -0.06220788027079343   -0.013462240646988657
-0.2466102645983111   0.006271245420304539   0.022234927874353085
-0.2466102645983111   0.006271245420304539   0.022234927874353085
-0.2466102645983111   0.006271245420304539   0.022234927874353085
-0.2466102645983111   0.006271245420304539   0.022234927874353085
-0.22499333488721435   -0.029317607528303383   -0.02037134553858925
-0.22499333488721435   -0.029317607528303383   -0.02037134553858925
-0.22499333488721435   -0.029317607528303383   -0.02037134553858925
-0.22499333488721435   -0.029317607528303383   -0.02037134553858925
-0.24282079496272121   -0.02281750670766689   -0.011273648678086105
-0.24282079496272121   -0.02281750670766689   -0.011273648678086105
-0.24282079496272121   -0.02281750670766689   -0.011273648678086105
-0.24282079496272121   -0.02281750670766689   -0.011273648678086105
-0.20609442420607083   0.015740456659705193   0.029065143679116084
-0.20609442420607083   0.015740456659705193   0.029065143679116084
-0.20609442420607083   0.015740456659705193   0.029065143679116084
-0.20609442420607083   0.015740456659705193   0.029065143679116084
-0.2636139118921244   -0.036891555380374745   -0.01962050779403606
-0.2636139118921244   -0.036891555380374745   -0.01962050779403606
-0.2636139118921244   -0.036891555380374745   -0.01962050779403606
-0.2636139118921244   -0.036891555380374745   -0.01962050779403606
-0.2328425614850164   0.033028286012905445   0.01696224812835672
-0.2328425614850164   0.033028286012905445   0.01696224812835672
-0.2328425614850164   0.033028286012905445   0.01696224812835672
-0.2328425614850164   0.033028286012905445   0.01696224812835672
-0.20656839794773302   -0.0035362274522983293   -0.02528976512876348
-0.20656839794773302   -0.0035362274522983293   -0.02528976512876348
-0.20656839794773302   -0.0035362274522983293   -0.02528976512876348
-0.20656839794773302   -0.0035362274522983293   -0.02528976512876348
-0.22636795924188974   0.0021437183557012508   0.000420637575945966
-0.22636795924188974   0.0021437183557012508   0.000420637575945966
-0.22636795924188974   0.0021437183557012508   0.000420637575945966
-0.22636795924188974   0.0021437183557012508   0.000420637575945966
-0.18674965614009426   0.04408996728970346   0.026177749167424658
-0.18674965614009426   0.04408996728970346   0.026177749167424658
-0.18674965614009426   0.04408996728970346   0.026177749167424658
-0.18674965614009426   0.04408996728970346   0.026177749167424658
-0.25064093337220716   -0.012577538808649626   -0.026423786486045795
-0.25064093337220716   -0.012577538808649626   -0.026423786486045795
-0.25064093337220716   -0.012577538808649626   -0.026423786486045795
-0.25064093337220716   -0.012577538808649626   -0.026423786486045795
-0.21900727630892153   0.06264895706216822   0.01195057405862681
-0.21900727630892153   0.06264895706216822   0.01195057405862681
-0.21900727630892153   0.06264895706216822   0.01195057405862681
-0.21900727630892153   0.06264895706216822   0.01195057405862681
-0.19067585747293042   0.02508351692309794   -0.029916148474578817
-0.19067585747293042   0.02508351692309794   -0.029916148474578817
-0.19067585747293042   0.02508351692309794   -0.029916148474578817
-0.19067585747293042   0.02508351692309794   -0.029916148474578817
-0.21081227880427406   0.02792775129412049   0.012325246107956288
-0.21081227880427406   0.02792775129412049   0.012325246107956288
-0.21081227880427406   0.02792775129412049   0.012325246107956288
-0.21081227880427406   0.02792775129412049   0.012325246107956288
-0.26706473469809844   -0.037610649451307765   0.009367654880073156
-0.26706473469809844   -0.037610649451307765   0.009367654880073156
-0.26706473469809844   -0.037610649451307765   0.009367654880073156
-0.26706473469809844   -0.037610649451307765   0.009367654880073156
-0.3044978541843095   -0.0393245265241849   0.0081374663436974
-0.3044978541843095   -0.0393245265241849   0.0081374663436974
-0.3044978541843095   -0.0393245265241849   0.0081374663436974
-0.3044978541843095   -0.0393245265241849   0.0081374663436974
-0.293473146503629   -0.017894930913989984   -0.0028856138042334945
-0.293473146503629   -0.017894930913989984   -0.0028856138042334945
-0.293473146503629   -0.017894930913989984   -0.0028856138042334945
-0.293473146503629   -0.017894930913989984   -0.0028856138042334945
-0.25284143794376274   -0.005308977703751529   0.0026592842711489206
-0.25284143794376274   -0.005308977703751529   0.0026592842711489206
-0.25284143794376274   -0.005308977703751529   0.0026592842711489206
-0.25284143794376274   -0.005308977703751529   0.0026592842711489206
-0.27988859220612194   -0.02361582964123129   -0.007485733417215548
-0.27988859220612194   -0.02361582964123129   -0.007485733417215548
-0.27988859220612194   -0.02361582964123129   -0.007485733417215548
-0.27988859220612194   -0.02361582964123129   -0.007485733417215548
-0.2530400201829461   -0.008299753178925801   0.004657148550404527
-0.2530400201829461   -0.008299753178925801   0.004657148550404527
-0.2530400201829461   -0.008299753178925801   0.004657148550404527
-0.2530400201829461   -0.008299753178925801   0.004657148550404527
-0.2914870268206585   -0.013116617995028855   0.0022666716916580343
-0.2914870268206585   -0.013116617995028855   0.0022666716916580343
-0.2914870268206585   -0.013116617995028855   0.0022666716916580343
-0.2914870268206585   -0.013116617995028855   0.0022666716916580343
-0.2790080572036857   0.011799262099444473   -0.007319107939398689
-0.2790080572036857   0.011799262099444473   -0.007319107939398689
-0.2790080572036857   0.011799262099444473   -0.007319107939398689
-0.2790080572036857   0.011799262099444473   -0.007319107939398689
-0.2391200811598047   0.021621971949011894   -0.003019036181694794
-0.2391200811598047   0.021621971949011894   -0.003019036181694794
-0.2391200811598047   0.021621971949011894   -0.003019036181694794
-0.2391200811598047   0.021621971949011894   -0.003019036181694794
-0.2647755120656769   0.0029240345054617096   0.004062422839028815
-0.2647755120656769   0.0029240345054617096   0.004062422839028815
-0.2647755120656769   0.0029240345054617096   0.004062422839028815
-0.2647755120656769   0.0029240345054617096   0.004062422839028815
-0.23863215006028676   0.021288986140820778   -0.0002463948759161075
-0.23863215006028676   0.021288986140820778   -0.0002463948759161075
-0.23863215006028676   0.021288986140820778   -0.0002463948759161075
-0.23863215006028676   0.021288986140820778   -0.0002463948759161075
-0.2779363405682949   0.01369189564254355   -0.0038531583055463267
-0.2779363405682949   0.01369189564254355   -0.0038531583055463267
-0.2779363405682949   0.01369189564254355   -0.0038531583055463267
-0.2779363405682949   0.01369189564254355   -0.0038531583055463267
-0.26515710719581714   0.04167561109088963   -0.012320655028293506
-0.26515710719581714   0.04167561109088963   -0.012320655028293506
-0.26515710719581714   0.04167561109088963   -0.012320655028293506
-0.26515710719581714   0.04167561109088963   -0.012320655028293506
-0.2260458665287534   0.04866320448105068   -0.00925662445941498
-0.2260458665287534   0.04866320448105068   -0.00925662445941498
-0.2260458665287534   0.04866320448105068   -0.00925662445941498
-0.2260458665287534   0.04866320448105068   -0.00925662445941498
-0.2503635354570519   0.02951278515023631   0.015069934212542394
-0.2503635354570519   0.02951278515023631   0.015069934212542394
-0.2503635354570519   0.02951278515023631   0.015069934212542394
-0.2503635354570519   0.02951278515023631   0.015069934212542394
-0.3132235083540143   -0.05963219253125108   -0.01518313849776276
-0.3132235083540143   -0.05963219253125108   -0.01518313849776276
-0.3132235083540143   -0.05963219253125108   -0.01518313849776276
-0.3132235083540143   -0.05963219253125108   -0.01518313849776276
-0.3348531222346902   -0.01691089457816872   0.02877437688480186
-0.3348531222346902   -0.01691089457816872   0.02877437688480186
-0.3348531222346902   -0.01691089457816872   0.02877437688480186
-0.3348531222346902   -0.01691089457816872   0.02877437688480186
-0.3402748595402174   -0.04107523809805197   -0.028340569873619333
-0.3402748595402174   -0.04107523809805197   -0.028340569873619333
-0.3402748595402174   -0.04107523809805197   -0.028340569873619333
-0.3402748595402174   -0.04107523809805197   -0.028340569873619333
-0.2808861454468948   0.017858122641191857   0.0242963379242557
-0.2808861454468948   0.017858122641191857   0.0242963379242557
-0.2808861454468948   0.017858122641191857   0.0242963379242557
-0.2808861454468948   0.017858122641191857   0.0242963379242557
-0.31598637288968573   -0.023329116519816843   -0.004706509109824106
-0.31598637288968573   -0.023329116519816843   -0.004706509109824106
-0.31598637288968573   -0.023329116519816843   -0.004706509109824106
-0.31598637288968573   -0.023329116519816843   -0.004706509109824106
-0.2995826809371577   -0.03127860981657247   -0.020049607069296857
-0.2995826809371577   -0.03127860981657247   -0.020049607069296857
-0.2995826809371577   -0.03127860981657247   -0.020049607069296857
-0.2995826809371577   -0.03127860981657247   -0.020049607069296857
-0.31970412070165544   0.009935697708008406   0.023502188513129824
-0.31970412070165544   0.009935697708008406   0.023502188513129824
-0.31970412070165544   0.009935697708008406   0.023502188513129824
-0.31970412070165544   0.009935697708008406   0.023502188513129824
-0.3213043901351975   -0.012917934206897613   -0.031797727443759596
-0.3213043901351975   -0.012917934206897613   -0.031797727443759596
-0.3213043901351975   -0.012917934206897613   -0.031797727443759596
-0.3213043901351975   -0.012917934206897613   -0.031797727443759596
-0.26786611986617437   0.04214638680503305   0.018043454042566867
-0.26786611986617437   0.04214638680503305   0.018043454042566867
-0.26786611986617437   0.04214638680503305   0.018043454042566867
-0.26786611986617437   0.04214638680503305   0.018043454042566867
-0.2988053041697873   0.0022320001121516123   0.007215493987487692
-0.2988053041697873   0.0022320001121516123   0.007215493987487692
-0.2988053041697873   0.0022320001121516123   0.007215493987487692
-0.2988053041697873   0.0022320001121516123   0.007215493987487692
-0.2859828385114424   -0.004644024057621918   -0.025749728321120866
-0.2859828385114424   -0.004644024057621918   -0.025749728321120866
-0.2859828385114424   -0.004644024057621918   -0.025749728321120866
-0.2859828385114424   -0.004644024057621918   -0.025749728321120866
-0.3012936034614275   0.03576654468425673   0.019571727033938405
-0.3012936034614275   0.03576654468425673   0.019571727033938405
-0.3012936034614275   0.03576654468425673   0.019571727033938405
-0.3012936034614275   0.03576654468425673   0.019571727033938405
-0.30470570118100293   0.018098927565703013   -0.03489494726385338
-0.30470570118100293   0.018098927565703013   -0.03489494726385338
-0.30470570118100293   0.018098927565703013   -0.03489494726385338
-0.30470570118100293   0.018098927565703013   -0.03489494726385338
-0.25481038917285215   0.06921241111032318   0.011876135067098142
-0.25481038917285215   0.06921241111032318   0.011876135067098142
-0.25481038917285215   0.06921241111032318   0.011876135067098142
-0.25481038917285215   0.06921241111032318   0.011876135067098142
-0.28422558767511497   0.02758922494880345   0.01861220470505752
-0.28422558767511497   0.02758922494880345   0.01861220470505752
-0.28422558767511497   0.02758922494880345   0.01861220470505752
-0.28422558767511497   0.02758922494880345   0.01861220470505752
-0.35902194930562675   -0.07092142736746877   -0.03805922568058457
-0.35902194930562675   -0.07092142736746877   -0.03805922568058457
-0.35902194930562675   -0.07092142736746877   -0.03805922568058457
-0.35902194930562675   -0.07092142736746877   -0.03805922568058457
-0.39752925389129123   0.005364926278919664   0.051811536270668465
-0.39752925389129123   0.005364926278919664   0.051811536270668465
-0.39752925389129123   0.005364926278919664   0.051811536270668465
-0.39752925389129123   0.005364926278919664   0.051811536270668465
-0.39224907244338414   -0.059059987833637126   -0.050708393638835864
-0.39224907244338414   -0.059059987833637126   -0.050708393638835864
-0.39224907244338414   -0.059059987833637126   -0.050708393638835864
-0.39224907244338414   -0.059059987833637126   -0.050708393638835864
-0.3081583835300428   0.044725890448193625   0.046440681631003816
-0.3081583835300428   0.044725890448193625   0.046440681631003816
-0.3081583835300428   0.044725890448193625   0.046440681631003816
-0.3081583835300428   0.044725890448193625   0.046440681631003816
-0.34963393706669676   -0.015270142195240005   -0.002292913763070767
-0.34963393706669676   -0.015270142195240005   -0.002292913763070767
-0.34963393706669676   -0.015270142195240005   -0.002292913763070767
-0.34963393706669676   -0.015270142195240005   -0.002292913763070767
-0.34471904138223985   -0.048116371941668706   -0.04352034524012267
-0.34471904138223985   -0.048116371941668706   -0.04352034524012267
-0.34471904138223985   -0.048116371941668706   -0.04352034524012267
-0.34471904138223985   -0.048116371941668706   -0.04352034524012267
-0.35370744158991074   0.03576324755750352   0.04717652523739041
-0.35370744158991074   0.03576324755750352   0.04717652523739041
-0.35370744158991074   0.03576324755750352   0.04717652523739041
-0.35370744158991074   0.03576324755750352   0.04717652523739041
-0.359457694722364   -0.04262505350004127   -0.06044605610577728
-0.359457694722364   -0.04262505350004127   -0.06044605610577728
-0.359457694722364   -0.04262505350004127   -0.06044605610577728
-0.359457694722364   -0.04262505350004127   -0.06044605610577728
-0.29349746857908454   0.05630213894488807   0.03801680718501956
-0.29349746857908454   0.05630213894488807   0.03801680718501956
-0.29349746857908454   0.05630213894488807   0.03801680718501956
-0.29349746857908454   0.05630213894488807   0.03801680718501956
-0.32746857058126866   0.0019102473785155803   0.009141988851060379
-0.32746857058126866   0.0019102473785155803   0.009141988851060379
-0.32746857058126866   0.0019102473785155803   0.009141988851060379
-0.32746857058126866   0.0019102473785155803   0.009141988851060379
-0.3293508130820735   -0.034586684356527356   -0.05036109202851356
-0.3293508130820735   -0.034586684356527356   -0.05036109202851356
-0.3293508130820735   -0.034586684356527356   -0.05036109202851356
-0.3293508130820735   -0.034586684356527356   -0.05036109202851356
-0.3215278411017744   0.05034027891897162   0.03623787957815784
-0.3215278411017744   0.05034027891897162   0.03623787957815784
-0.3215278411017744   0.05034027891897162   0.03623787957815784
-0.3215278411017744   0.05034027891897162   0.03623787957815784
-0.3163972890893078   -0.014200021515184402   -0.06606595145249293
-0.3163972890893078   -0.014200021515184402   -0.06606595145249293
-0.3163972890893078   -0.014200021515184402   -0.06606595145249293
-0.3163972890893078   -0.014200021515184402   -0.06606595145249293
-0.28037261510547484   0.07355566242600894   0.03131374825347937
-0.28037261510547484   0.07355566242600894   0.03131374825347937
-0.28037261510547484   0.07355566242600894   0.03131374825347937
-0.28037261510547484   0.07355566242600894   0.03131374825347937
-0.2970869216860439   0.019068637435006194   0.022387713053084637
-0.2970869216860439   0.019068637435006194   0.022387713053084637
-0.2970869216860439   0.019068637435006194   0.022387713053084637
-0.2970869216860439   0.019068637435006194   0.022387713053084637
0.21733854225786753   0.035110865519169365   0.056567489324341795
0.21733854225786753   0.035110865519169365   0.056567489324341795
0.21733854225786753   0.035110865519169365   0.056567489324341795
0.21733854225786753   0.035110865519169365   0.056567489324341795
-0.005077344212929815   -0.09088080922560313   -0.03733523415968348
-0.005077344212929815   -0.09088080922560313   -0.03733523415968348
-0.005077344212929815   -0.09088080922560313   -0.03733523415968348
-0.005077344212929815   -0.09088080922560313   -0.03733523415968348
0.048316228846787955   0.017713601008427088   0.04369680891555731
0.048316228846787955   0.017713601008427088   0.04369680891555731
0.048316228846787955   0.017713601008427088   0.04369680891555731
0.048316228846787955   0.017713601008427088   0.04369680891555731
0.22666922183731733   -0.03174790886130576   -0.046741973181635324
0.22666922183731733   -0.03174790886130576   -0.046741973181635324
0.22666922183731733   -0.03174790886130576   -0.046741973181635324
0.22666922183731733   -0.03174790886130576   -0.046741973181635324
0.11092602485223221   -0.017622714774955167   -0.026963787571589994
0.11092602485223221   -0.017622714774955167   -0.026963787571589994
0.11092602485223221   -0.017622714774955167   -0.026963787571589994
0.11092602485223221   -0.017622714774955167   -0.026963787571589994
0.265082694734579   0.06253585740962277   0.051041625033744605
0.265082694734579   0.06253585740962277   0.051041625033744605
0.265082694734579   0.06253585740962277   0.051041625033744605
0.265082694734579   0.06253585740962277   0.051041625033744605
0.01226970821837636   -0.07420321299365135   -0.044618980224422254
0.01226970821837636   -0.07420321299365135   -0.044618980224422254
0.01226970821837636   -0.07420321299365135   -0.044618980224422254
0.01226970821837636   -0.07420321299365135   -0.044618980224422254
0.06775163636573045   0.030908498748995195   0.03646318697418792
0.06775163636573045   0.030908498748995195   0.03646318697418792
0.06775163636573045   0.030908498748995195   0.03646318697418792
0.06775163636573045   0.030908498748995195   0.03646318697418792
0.2639313572325185   -0.01684317167132035   -0.058462772775093555
0.2639313572325185   -0.01684317167132035   -0.058462772775093555
0.2639313572325185   -0.01684317167132035   -0.058462772775093555
0.2639313572325185   -0.01684317167132035   -0.058462772775093555
0.14455652046024242   -0.001176767990931516   -0.012687985009253062
0.14455652046024242   -0.001176767990931516   -0.012687985009253062
0.14455652046024242   -0.001176767990931516   -0.012687985009253062
0.14455652046024242   -0.001176767990931516   -0.012687985009253062
0.3027624415746846   0.0786565982073585   0.04019287905705033
0.3027624415746846   0.0786565982073585   0.04019287905705033
0.3027624415746846   0.0786565982073585   0.04019287905705033
0.3027624415746846   0.0786565982073585   0.04019287905705033
0.03123400860712102   -0.06227781454612317   -0.05293863852374088
0.03123400860712102   -0.06227781454612317   -0.05293863852374088
0.03123400860712102   -0.06227781454612317   -0.05293863852374088
0.03123400860712102   -0.06227781454612317   -0.05293863852374088
0.08661174374093061   0.0551418002250345   0.0315530284285807
0.08661174374093061   0.0551418002250345   0.0315530284285807
0.08661174374093061   0.0551418002250345   0.0315530284285807
0.08661174374093061   0.0551418002250345   0.0315530284285807
0.31340004819831246   0.01651449771167751   -0.06447067203684302
0.31340004819831246   0.01651449771167751   -0.06447067203684302
0.31340004819831246   0.01651449771167751   -0.06447067203684302
0.31340004819831246   0.01651449771167751   -0.06447067203684302
0.17276197937481647   0.0172607356369272   0.0008048293496297071
0.17276197937481647   0.0172607356369272   0.0008048293496297071
0.17276197937481647   0.0172607356369272   0.0008048293496297071
0.17276197937481647   0.0172607356369272   0.0008048293496297071
0.03015247240364177   0.00950975189360723   0.0384232878039641
0.03015247240364177   0.00950975189360723   0.0384232878039641
0.03015247240364177   0.00950975189360723   0.0384232878039641
0.03015247240364177   0.00950975189360723   0.0384232878039641
-0.20616728261394138   -0.07717138341435109   -0.017129838115072807
-0.20616728261394138   -0.07717138341435109   -0.017129838115072807
-0.20616728261394138   -0.07717138341435109   -0.017129838115072807
-0.20616728261394138   -0.07717138341435109   -0.017129838115072807
-0.17249362411370162   -0.011234653906569615   0.01754371179659752
-0.17249362411370162   -0.011234653906569615   0.01754371179659752
-0.17249362411370162   -0.011234653906569615   0.01754371179659752
-0.17249362411370162   -0.011234653906569615   0.01754371179659752
0.031557894161775846   -0.008791032384545375   -0.013590231116530793
0.031557894161775846   -0.008791032384545375   -0.013590231116530793
0.031557894161775846   -0.008791032384545375   -0.013590231116530793
0.031557894161775846   -0.008791032384545375   -0.013590231116530793
-0.0809416912148199   -0.019945845617956086   -0.012955063103562406
-0.0809416912148199   -0.019945845617956086   -0.012955063103562406
-0.0809416912148199   -0.019945845617956086   -0.012955063103562406
-0.0809416912148199   -0.019945845617956086   -0.012955063103562406
0.050173076654461496   0.03660739473351735   0.03408725422883856
0.050173076654461496   0.03660739473351735   0.03408725422883856
0.050173076654461496   0.03660739473351735   0.03408725422883856
0.050173076654461496   0.03660739473351735   0.03408725422883856
-0.1893844974815346   -0.054908771899773924   -0.023236537049363074
-0.1893844974815346   -0.054908771899773924   -0.023236537049363074
-0.1893844974815346   -0.054908771899773924   -0.023236537049363074
-0.1893844974815346   -0.054908771899773924   -0.023236537049363074
-0.15477426447693304   0.014360102938156033   0.01239775335270836
-0.15477426447693304   0.014360102938156033   0.01239775335270836
-0.15477426447693304   0.014360102938156033   0.01239775335270836
-0.15477426447693304   0.014360102938156033   0.01239775335270836
0.05369761632470861   0.015495284602082889   -0.01839369908400896
0.05369761632470861   0.015495284602082889   -0.01839369908400896
0.05369761632470861   0.015495284602082889   -0.01839369908400896
0.05369761632470861   0.015495284602082889   -0.01839369908400896
-0.06215909704551941   0.0026306342464620463   -0.0015794918720854183
-0.06215909704551941   0.0026306342464620463   -0.0015794918720854183
-0.06215909704551941   0.0026306342464620463   -0.0015794918720854183
-0.06215909704551941   0.0026306342464620463   -0.0015794918720854183
0.07309636713410109   0.06356145541902371   0.030533884146012637
0.07309636713410109   0.06356145541902371   0.030533884146012637
0.07309636713410109   0.06356145541902371   0.030533884146012637
0.07309636713410109   0.06356145541902371   0.030533884146012637
-0.17251314256376915   -0.03204619515622841   -0.029890338987087678
-0.17251314256376915   -0.03204619515622841   -0.029890338987087678
-0.17251314256376915   -0.03204619515622841   -0.029890338987087678
-0.17251314256376915   -0.03204619515622841   -0.029890338987087678
-0.13694838452005811   0.04331071606022612   0.007492374258159164
-0.13694838452005811   0.04331071606022612   0.007492374258159164
-0.13694838452005811   0.04331071606022612   0.007492374258159164
-0.13694838452005811   0.04331071606022612   0.007492374258159164
0.07318372308509077   0.043039881744448595   -0.023485156370032574
0.07318372308509077   0.043039881744448595   -0.023485156370032574
0.07318372308509077   0.043039881744448595   -0.023485156370032574
0.07318372308509077   0.043039881744448595   -0.023485156370032574
-0.04138104646217011   0.02756304711128975   0.010550371718151484
-0.04138104646217011   0.02756304711128975   0.010550371718151484
-0.04138104646217011   0.02756304711128975   0.010550371718151484
-0.04138104646217011   0.02756304711128975   0.010550371718151484
-0.1874975652187885   -0.014785407425459758   0.013832772871802117
-0.1874975652187885   -0.014785407425459758   0.013832772871802117
-0.1874975652187885   -0.014785407425459758   0.013832772871802117
-0.1874975652187885   -0.014785407425459758   0.013832772871802117
-0.40360955745385496   -0.05487258695860394   0.0035444483901491686
-0.40360955745385496   -0.05487258695860394   0.0035444483901491686
-0.40360955745385496   -0.05487258695860394   0.0035444483901491686
-0.40360955745385496   -0.05487258695860394   0.0035444483901491686
-0.38810276299399055   -0.03441335582365329   -0.007601281278132088
-0.38810276299399055   -0.03441335582365329   -0.007601281278132088
-0.38810276299399055   -0.03441335582365329   -0.007601281278132088
-0.38810276299399055   -0.03441335582365329   -0.007601281278132088
-0.16917622537464597   0.01432783464137599   0.008568216943932068
-0.16917622537464597   0.01432783464137599   0.008568216943932068
-0.16917622537464597   0.01432783464137599   0.008568216943932068
-0.16917622537464597   0.01432783464137599   0.008568216943932068
-0.28751573228117766   -0.020602348847973767   -0.007547583395161005
-0.28751573228117766   -0.020602348847973767   -0.007547583395161005
-0.28751573228117766   -0.020602348847973767   -0.007547583395161005
-0.28751573228117766   -0.020602348847973767   -0.007547583395161005
-0.16939269557655426   0.012676378358844756   0.009137322216921866
-0.16939269557655426   0.012676378358844756   0.009137322216921866
-0.16939269557655426   0.012676378358844756   0.009137322216921866
-0.16939269557655426   0.012676378358844756   0.009137322216921866
-0.3864061406135968   -0.03128174736263205   -0.002249777837187994
-0.3864061406135968   -0.03128174736263205   -0.002249777837187994
-0.3864061406135968   -0.03128174736263205   -0.002249777837187994
-0.3864061406135968   -0.03128174736263205   -0.002249777837187994
-0.36946866878075896   -0.006234588499074233   -0.011953250801171142
-0.36946866878075896   -0.006234588499074233   -0.011953250801171142
-0.36946866878075896   -0.006234588499074233   -0.011953250801171142
-0.36946866878075896   -0.006234588499074233   -0.011953250801171142
-0.151632701746637   0.03930841122064605   0.003157258721700435
-0.151632701746637   0.03930841122064605   0.003157258721700435
-0.151632701746637   0.03930841122064605   0.003157258721700435
-0.151632701746637   0.03930841122064605   0.003157258721700435
-0.2682750445808911   0.004146311483808236   0.003914560132522116
-0.2682750445808911   0.004146311483808236   0.003914560132522116
-0.2682750445808911   0.004146311483808236   0.003914560132522116
-0.2682750445808911   0.004146311483808236   0.003914560132522116
-0.15117601099249664   0.04063701496785178   0.004112108745196592
-0.15117601099249664   0.04063701496785178   0.004112108745196592
-0.15117601099249664   0.04063701496785178   0.004112108745196592
-0.15117601099249664   0.04063701496785178   0.004112108745196592
-0.3687416521931334   -0.006379484904514416   -0.008173271457605588
-0.3687416521931334   -0.006379484904514416   -0.008173271457605588
-0.3687416521931334   -0.006379484904514416   -0.008173271457605588
-0.3687416521931334   -0.006379484904514416   -0.008173271457605588
-0.3515862339034337   0.022023075706015534   -0.016916900959879695
-0.3515862339034337   0.022023075706015534   -0.016916900959879695
-0.3515862339034337   0.022023075706015534   -0.016916900959879695
-0.3515862339034337   0.022023075706015534   -0.016916900959879695
-0.13485177116415645   0.0643624856448443   -0.0030763285469506026
-0.13485177116415645   0.0643624856448443   -0.0030763285469506026
-0.13485177116415645   0.0643624856448443   -0.0030763285469506026
-0.13485177116415645   0.0643624856448443   -0.0030763285469506026
-0.2500398562389699   0.02882765981778988   0.014628540682880366
-0.2500398562389699   0.02882765981778988   0.014628540682880366
-0.2500398562389699   0.02882765981778988   0.014628540682880366
-0.2500398562389699   0.02882765981778988   0.014628540682880366
-0.4033802561065146   -0.03867293591320336   -0.011508695918546932
-0.4033802561065146   -0.03867293591320336   -0.011508695918546932
-0.4033802561065146   -0.03867293591320336   -0.011508695918546932
-0.4033802561065146   -0.03867293591320336   -0.011508695918546932
-0.5990647533586124   -0.033913027910733425   0.0238380235343926
-0.5990647533586124   -0.033913027910733425   0.0238380235343926
-0.5990647533586124   -0.033913027910733425   0.0238380235343926
-0.5990647533586124   -0.033913027910733425   0.0238380235343926
-0.5993051766555704   -0.057116377293898415   -0.032157130542520104
-0.5993051766555704   -0.057116377293898415   -0.032157130542520104
-0.5993051766555704   -0.057116377293898415   -0.032157130542520104
-0.5993051766555704   -0.057116377293898415   -0.032157130542520104
-0.366577709521561   0.03640441241002495   0.029206217850333727
-0.366577709521561   0.03640441241002495   0.029206217850333727
-0.366577709521561   0.03640441241002495   0.029206217850333727
-0.366577709521561   0.03640441241002495   0.029206217850333727
-0.48932810108775243   -0.020933788577029596   -0.0031816066118233455
-0.48932810108775243   -0.020933788577029596   -0.0031816066118233455
-0.48932810108775243   -0.020933788577029596   -0.0031816066118233455
-0.48932810108775243   -0.020933788577029596   -0.0031816066118233455
-0.385121071526118   -0.011057805093328842   -0.016048374669093868
-0.385121071526118   -0.011057805093328842   -0.016048374669093868
-0.385121071526118   -0.011057805093328842   -0.016048374669093868
-0.385121071526118   -0.011057805093328842   -0.016048374669093868
-0.5795368198686338   -0.008429165008163632   0.01799744110643292
-0.5795368198686338   -0.008429165008163632   0.01799744110643292
-0.5795368198686338   -0.008429165008163632   0.01799744110643292
-0.5795368198686338   -0.008429165008163632   0.01799744110643292
-0.5759498883423947   -0.030235290218800354   -0.03578116260037979
-0.5759498883423947   -0.030235290218800354   -0.03578116260037979
-0.5759498883423947   -0.030235290218800354   -0.03578116260037979
-0.5759498883423947   -0.030235290218800354   -0.03578116260037979
-0.3493545531558976   0.05913820808098619   0.02324453074307549
-0.3493545531558976   0.05913820808098619   0.02324453074307549
-0.3493545531558976   0.05913820808098619   0.02324453074307549
-0.3493545531558976   0.05913820808098619   0.02324453074307549
-0.46624105664304816   0.004014832965886676   0.008630517193987428
-0.46624105664304816   0.004014832965886676   0.008630517193987428
-0.46624105664304816   0.004014832965886676   0.008630517193987428
-0.46624105664304816   0.004014832965886676   0.008630517193987428
-0.367282709175967   0.014335641566086724   -0.021593682842372112
-0.367282709175967   0.014335641566086724   -0.021593682842372112
-0.367282709175967   0.014335641566086724   -0.021593682842372112
-0.367282709175967   0.014335641566086724   -0.021593682842372112
-0.556644425222948   0.01594458339547644   0.01456627938257718
-0.556644425222948   0.01594458339547644   0.01456627938257718
-0.556644425222948   0.01594458339547644   0.01456627938257718
-0.556644425222948   0.01594458339547644   0.01456627938257718
-0.5550574311918443   -0.0009157227048833122   -0.03851749198997295
-0.5550574311918443   -0.0009157227048833122   -0.03851749198997295
-0.5550574311918443   -0.0009157227048833122   -0.03851749198997295
-0.5550574311918443   -0.0009157227048833122   -0.03851749198997295
-0.3323109076676379   0.08424502624726544   0.017237779677849473
-0.3323109076676379   0.08424502624726544   0.017237779677849473
-0.3323109076676379   0.08424502624726544   0.017237779677849473
-0.3323109076676379   0.08424502624726544   0.017237779677849473
-0.44897278834757476   0.027280334711023584   0.019216423980988495
-0.44897278834757476   0.027280334711023584   0.019216423980988495
-0.44897278834757476   0.027280334711023584   0.019216423980988495
-0.44897278834757476   0.027280334711023584   0.019216423980988495
-0.6151564888563775   -0.05552463695105382   -0.03500904491411262
-0.6151564888563775   -0.05552463695105382   -0.03500904491411262
-0.6151564888563775   -0.05552463695105382   -0.03500904491411262
-0.6151564888563775   -0.05552463695105382   -0.03500904491411262
-0.8219151779445287   -0.01453670864802023   0.05168471407439604
-0.8219151779445287   -0.01453670864802023   0.05168471407439604
-0.8219151779445287   -0.01453670864802023   0.05168471407439604
-0.8219151779445287   -0.01453670864802023   0.05168471407439604
-0.8105333182681076   -0.07438508874761426   -0.0467392796100016
-0.8105333182681076   -0.07438508874761426   -0.0467392796100016
-0.8105333182681076   -0.07438508874761426   -0.0467392796100016
-0.8105333182681076   -0.07438508874761426   -0.0467392796100016
-0.5589528035506272   0.06153778217513425   0.050950575513163204
-0.5589528035506272   0.06153778217513425   0.050950575513163204
-0.5589528035506272   0.06153778217513425   0.050950575513163204
-0.5589528035506272   0.06153778217513425   0.050950575513163204
-0.671387156182101   -0.01192082043438425   0.00559655073114923
-0.671387156182101   -0.01192082043438425   0.00559655073114923
-0.671387156182101   -0.01192082043438425   0.00559655073114923
-0.671387156182101   -0.01192082043438425   0.00559655073114923
-0.5953546101148006   -0.029921355184554913   -0.03959931994801187
-0.5953546101148006   -0.029921355184554913   -0.03959931994801187
-0.5953546101148006   -0.029921355184554913   -0.03959931994801187
-0.5953546101148006   -0.029921355184554913   -0.03959931994801187
-0.773018804749596   0.018186755566411375   0.0482614436685177
-0.773018804749596   0.018186755566411375   0.0482614436685177
-0.773018804749596   0.018186755566411375   0.0482614436685177
-0.773018804749596   0.018186755566411375   0.0482614436685177
-0.7735541562072729   -0.05843922235132304   -0.055633311667847726
-0.7735541562072729   -0.05843922235132304   -0.055633311667847726
-0.7735541562072729   -0.05843922235132304   -0.055633311667847726
-0.7735541562072729   -0.05843922235132304   -0.055633311667847726
-0.5399407456329653   0.07202230981063608   0.0420069509173262
-0.5399407456329653   0.07202230981063608   0.0420069509173262
-0.5399407456329653   0.07202230981063608   0.0420069509173262
-0.5399407456329653   0.07202230981063608   0.0420069509173262
-0.650455727367349   0.004816879620682703   0.015133249022917433
-0.650455727367349   0.004816879620682703   0.015133249022917433
-0.650455727367349   0.004816879620682703   0.015133249022917433
-0.650455727367349   0.004816879620682703   0.015133249022917433
-0.5752530503058798   -0.016798992804001767   -0.04573326983260376
-0.5752530503058798   -0.016798992804001767   -0.04573326983260376
-0.5752530503058798   -0.016798992804001767   -0.04573326983260376
-0.5752530503058798   -0.016798992804001767   -0.04573326983260376
-0.7368818653824104   0.031742066415257224   0.03754685368987698
-0.7368818653824104   0.031742066415257224   0.03754685368987698
-0.7368818653824104   0.031742066415257224   0.03754685368987698
-0.7368818653824104   0.031742066415257224   0.03754685368987698
-0.7279783973913219   -0.03463781372350577   -0.06204785020824714
-0.7279783973913219   -0.03463781372350577   -0.06204785020824714
-0.7279783973913219   -0.03463781372350577   -0.06204785020824714
-0.7279783973913219   -0.03463781372350577   -0.06204785020824714
-0.5232399067851127   0.08466345078979229   0.03499095654900741
-0.5232399067851127   0.08466345078979229   0.03499095654900741
-0.5232399067851127   0.08466345078979229   0.03499095654900741
-0.5232399067851127   0.08466345078979229   0.03499095654900741
-0.6111644255010058   0.020489544766763616   0.028574017498910587
-0.6111644255010058   0.020489544766763616   0.028574017498910587
-0.6111644255010058   0.020489544766763616   0.028574017498910587
-0.6111644255010058   0.020489544766763616   0.028574017498910587
0.6516919033255836   0.05923178759551257   0.056458502407381594
0.6516919033255836   0.05923178759551257   0.056458502407381594
0.6516919033255836   0.05923178759551257   0.056458502407381594
0.6516919033255836   0.05923178759551257   0.056458502407381594
0.23859253555943602   -0.10818355550535624   -0.03715907528662061
0.23859253555943602   -0.10818355550535624   -0.03715907528662061
0.23859253555943602   -0.10818355550535624   -0.03715907528662061
0.23859253555943602   -0.10818355550535624   -0.03715907528662061
0.29450025819693215   -0.000710434707889394   0.04061436122583167
0.29450025819693215   -0.000710434707889394   0.04061436122583167
0.29450025819693215   -0.000710434707889394   0.04061436122583167
0.29450025819693215   -0.000710434707889394   0.04061436122583167
0.663447153565598   -0.014896649955969003   -0.04744563032848456
0.663447153565598   -0.014896649955969003   -0.04744563032848456
0.663447153565598   -0.014896649955969003   -0.04744563032848456
0.663447153565598   -0.014896649955969003   -0.04744563032848456
0.4336385656576449   -0.019542086158438207   -0.04183235093182605
0.4336385656576449   -0.019542086158438207   -0.04183235093182605
0.4336385656576449   -0.019542086158438207   -0.04183235093182605
0.4336385656576449   -0.019542086158438207   -0.04183235093182605
0.7022357416694951   0.08252826815705212   0.049072392077976285
0.7022357416694951   0.08252826815705212   0.049072392077976285
0.7022357416694951   0.08252826815705212   0.049072392077976285
0.7022357416694951   0.08252826815705212   0.049072392077976285
0.2584612520061232   -0.09538577090781723   -0.04490533352828156
0.2584612520061232   -0.09538577090781723   -0.04490533352828156
0.2584612520061232   -0.09538577090781723   -0.04490533352828156
0.2584612520061232   -0.09538577090781723   -0.04490533352828156
0.31652670197336485   0.012065691725973868   0.03348619947050048
0.31652670197336485   0.012065691725973868   0.03348619947050048
0.31652670197336485   0.012065691725973868   0.03348619947050048
0.31652670197336485   0.012065691725973868   0.03348619947050048
0.7036529757772407   -0.00037849655283350714   -0.059750583388949396
0.7036529757772407   -0.00037849655283350714   -0.059750583388949396
0.7036529757772407   -0.00037849655283350714   -0.059750583388949396
0.7036529757772407   -0.00037849655283350714   -0.059750583388949396
0.4756396190776283   -0.0038649043938208325   -0.025347456451350225
0.4756396190776283   -0.0038649043938208325   -0.025347456451350225
0.4756396190776283   -0.0038649043938208325   -0.025347456451350225
0.4756396190776283   -0.0038649043938208325   -0.025347456451350225
0.7428679714668754   0.09818823785987768   0.037757660646508845
0.7428679714668754   0.09818823785987768   0.037757660646508845
0.7428679714668754   0.09818823785987768   0.037757660646508845
0.7428679714668754   0.09818823785987768   0.037757660646508845
0.2802335535555989   -0.08357919541486919   -0.05233465547748597
0.2802335535555989   -0.08357919541486919   -0.05233465547748597
0.2802335535555989   -0.08357919541486919   -0.05233465547748597
0.2802335535555989   -0.08357919541486919   -0.05233465547748597
0.33852341162213306   0.04023777687657021   0.029022360363799828
0.33852341162213306   0.04023777687657021   0.029022360363799828
0.33852341162213306   0.04023777687657021   0.029022360363799828
0.33852341162213306   0.04023777687657021   0.029022360363799828
0.7564583689659415   0.03748257966836685   -0.06444880273436382
0.7564583689659415   0.03748257966836685   -0.06444880273436382
0.7564583689659415   0.03748257966836685   -0.06444880273436382
0.7564583689659415   0.03748257966836685   -0.06444880273436382
0.5015133666260269   0.015215765065090023   -0.011097247960525775
0.5015133666260269   0.015215765065090023   -0.011097247960525775
0.5015133666260269   0.015215765065090023   -0.011097247960525775
0.5015133666260269   0.015215765065090023   -0.011097247960525775
0.2833301900363343   0.03318600588101729   0.04515963571149343
0.2833301900363343   0.03318600588101729   0.04515963571149343
0.2833301900363343   0.03318600588101729   0.04515963571149343
0.2833301900363343   0.03318600588101729   0.04515963571149343
-0.13821392972544   -0.10094715102633633   -0.019472067399020673
-0.13821392972544   -0.10094715102633633   -0.019472067399020673
-0.13821392972544   -0.10094715102633633   -0.019472067399020673
-0.13821392972544   -0.10094715102633633   -0.019472067399020673
-0.09978731565203336   -0.02961035597079706   0.013658360766019985
-0.09978731565203336   -0.02961035597079706   0.013658360766019985
-0.09978731565203336   -0.02961035597079706   0.013658360766019985
-0.09978731565203336   -0.02961035597079706   0.013658360766019985
0.28552015916767076   0.0009502256962814724   -0.005946794324646107
0.28552015916767076   0.0009502256962814724   -0.005946794324646107
0.28552015916767076   0.0009502256962814724   -0.005946794324646107
0.28552015916767076   0.0009502256962814724   -0.005946794324646107
0.07898372025707093   -0.021305228162721235   -0.017811214581391566
0.07898372025707093   -0.021305228162721235   -0.017811214581391566
0.07898372025707093   -0.021305228162721235   -0.017811214581391566
0.07898372025707093   -0.021305228162721235   -0.017811214581391566
0.30596140203067035   0.056874703791555264   0.04033494189507786
0.30596140203067035   0.056874703791555264   0.04033494189507786
0.30596140203067035   0.056874703791555264   0.04033494189507786
0.30596140203067035   0.056874703791555264   0.04033494189507786
-0.11856902451892426   -0.08387530006996252   -0.02598523946927103
-0.11856902451892426   -0.08387530006996252   -0.02598523946927103
-0.11856902451892426   -0.08387530006996252   -0.02598523946927103
-0.11856902451892426   -0.08387530006996252   -0.02598523946927103
-0.07926964381928019   -0.005693531247192254   0.00862948181360414
-0.07926964381928019   -0.005693531247192254   0.00862948181360414
-0.07926964381928019   -0.005693531247192254   0.00862948181360414
-0.07926964381928019   -0.005693531247192254   0.00862948181360414
0.30967627132360753   0.022404094525757614   -0.011104356578069727
0.30967627132360753   0.022404094525757614   -0.011104356578069727
0.30967627132360753   0.022404094525757614   -0.011104356578069727
0.30967627132360753   0.022404094525757614   -0.011104356578069727
0.09880295970263628   -0.0024094604971571015   -0.007081051966171276
0.09880295970263628   -0.0024094604971571015   -0.007081051966171276
0.09880295970263628   -0.0024094604971571015   -0.007081051966171276
0.09880295970263628   -0.0024094604971571015   -0.007081051966171276
0.3309360885428561   0.0817845697260836   0.035814254317847107
0.3309360885428561   0.0817845697260836   0.035814254317847107
0.3309360885428561   0.0817845697260836   0.035814254317847107
0.3309360885428561   0.0817845697260836   0.035814254317847107
-0.0988667443787507   -0.06341128978773508   -0.031638262443205584
-0.0988667443787507   -0.06341128978773508   -0.031638262443205584
-0.0988667443787507   -0.06341128978773508   -0.031638262443205584
-0.0988667443787507   -0.06341128978773508   -0.031638262443205584
-0.059007961201188015   0.022023503567223116   0.0036246370301188484
-0.059007961201188015   0.022023503567223116   0.0036246370301188484
-0.059007961201188015   0.022023503567223116   0.0036246370301188484
-0.059007961201188015   0.022023503567223116   0.0036246370301188484
0.33109187708526694   0.04795801353718158   -0.015855548981142206
0.33109187708526694   0.04795801353718158   -0.015855548981142206
0.33109187708526694   0.04795801353718158   -0.015855548981142206
0.33109187708526694   0.04795801353718158   -0.015855548981142206
0.12330615102428248   0.020771297942278746   0.005448627973642758
0.12330615102428248   0.020771297942278746   0.005448627973642758
0.12330615102428248   0.020771297942278746   0.005448627973642758
0.12330615102428248   0.020771297942278746   0.005448627973642758
-0.10884500394909807   0.007213763462990436   0.019211646993364157
-0.10884500394909807   0.007213763462990436   0.019211646993364157
-0.10884500394909807   0.007213763462990436   0.019211646993364157
-0.10884500394909807   0.007213763462990436   0.019211646993364157
-0.5075443857606841   -0.08915637569012183   -0.002587969427899295
-0.5075443857606841   -0.08915637569012183   -0.002587969427899295
-0.5075443857606841   -0.08915637569012183   -0.002587969427899295
-0.5075443857606841   -0.08915637569012183   -0.002587969427899295
-0.4832253671759582   -0.05257966285435093   -0.011920128733420896
-0.4832253671759582   -0.05257966285435093   -0.011920128733420896
-0.4832253671759582   -0.05257966285435093   -0.011920128733420896
-0.4832253671759582   -0.05257966285435093   -0.011920128733420896
-0.0913676615816719   0.013383048926690042   0.012763226220338219
-0.0913676615816719   0.013383048926690042   0.012763226220338219
-0.0913676615816719   0.013383048926690042   0.012763226220338219
-0.0913676615816719   0.013383048926690042   0.012763226220338219
-0.2982680204956439   -0.027398416335468863   -0.011122633312746356
-0.2982680204956439   -0.027398416335468863   -0.011122633312746356
-0.2982680204956439   -0.027398416335468863   -0.011122633312746356
-0.2982680204956439   -0.027398416335468863   -0.011122633312746356
-0.0873100314694151   0.031895262646082154   0.01453916306223204
-0.0873100314694151   0.031895262646082154   0.01453916306223204
-0.0873100314694151   0.031895262646082154   0.01453916306223204
-0.0873100314694151   0.031895262646082154   0.01453916306223204
-0.4861713822877024   -0.0699802615732352   -0.009249605573257463
-0.4861713822877024   -0.0699802615732352   -0.009249605573257463
-0.4861713822877024   -0.0699802615732352   -0.009249605573257463
-0.4861713822877024   -0.0699802615732352   -0.009249605573257463
-0.46060981874651946   -0.026338850751999727   -0.016101934141646054
-0.46060981874651946   -0.026338850751999727   -0.016101934141646054
-0.46060981874651946   -0.026338850751999727   -0.016101934141646054
-0.46060981874651946   -0.026338850751999727   -0.016101934141646054
-0.07139842511147522   0.03505675306602156   0.007235291039415214
-0.07139842511147522   0.03505675306602156   0.007235291039415214
-0.07139842511147522   0.03505675306602156   0.007235291039415214
-0.07139842511147522   0.03505675306602156   0.007235291039415214
-0.27545627488437735   -0.005444431919424529   -0.00016858030635760052
-0.27545627488437735   -0.005444431919424529   -0.00016858030635760052
-0.27545627488437735   -0.005444431919424529   -0.00016858030635760052
-0.27545627488437735   -0.005444431919424529   -0.00016858030635760052
-0.06650064092991798   0.05754963720191198   0.009231327811311016
-0.06650064092991798   0.05754963720191198   0.009231327811311016
-0.06650064092991798   0.05754963720191198   0.009231327811311016
-0.06650064092991798   0.05754963720191198   0.009231327811311016
-0.4644757513851912   -0.04779988334500462   -0.013970564741999814
-0.4644757513851912   -0.04779988334500462   -0.013970564741999814
-0.4644757513851912   -0.04779988334500462   -0.013970564741999814
-0.4644757513851912   -0.04779988334500462   -0.013970564741999814
-0.4395568895990061   -0.00018266325449058443   -0.02109695460877538
-0.4395568895990061   -0.00018266325449058443   -0.02109695460877538
-0.4395568895990061   -0.00018266325449058443   -0.02109695460877538
-0.4395568895990061   -0.00018266325449058443   -0.02109695460877538
-0.052342246576084724   0.057189848873319835   0.0017868648495385905
-0.052342246576084724   0.057189848873319835   0.0017868648495385905
-0.052342246576084724   0.057189848873319835   0.0017868648495385905
-0.052342246576084724   0.057189848873319835   0.0017868648495385905
-0.2545036860438825   0.016427613324550974   0.010253679287730369
-0.2545036860438825   0.016427613324550974   0.010253679287730369
-0.2545036860438825   0.016427613324550974   0.010253679287730369
-0.2545036860438825   0.016427613324550974   0.010253679287730369
-0.4945580198948808   -0.019284824235554866   -0.007527691553446195
-0.4945580198948808   -0.019284824235554866   -0.007527691553446195
-0.4945580198948808   -0.019284824235554866   -0.007527691553446195
-0.4945580198948808   -0.019284824235554866   -0.007527691553446195
-0.8685695682280213   -0.07227778419156948   0.01668565607710268
-0.8685695682280213   -0.07227778419156948   0.01668565607710268
-0.8685695682280213   -0.07227778419156948   0.01668565607710268
-0.8685695682280213   -0.07227778419156948   0.01668565607710268
-0.8567999451276341   -0.0746526668007326   -0.03585694259741157
-0.8567999451276341   -0.0746526668007326   -0.03585694259741157
-0.8567999451276341   -0.0746526668007326   -0.03585694259741157
-0.8567999451276341   -0.0746526668007326   -0.03585694259741157
-0.45718122459433025   0.03367081948081328   0.032050101839558864
-0.45718122459433025   0.03367081948081328   0.032050101839558864
-0.45718122459433025   0.03367081948081328   0.032050101839558864
-0.45718122459433025   0.03367081948081328   0.032050101839558864
-0.6646473159026121   -0.028970959531255218   -0.0038806299116210807
-0.6646473159026121   -0.028970959531255218   -0.0038806299116210807
-0.6646473159026121   -0.028970959531255218   -0.0038806299116210807
-0.6646473159026121   -0.028970959531255218   -0.0038806299116210807
-0.4711486458142456   0.007354787187988786   -0.011470971967193197
-0.4711486458142456   0.007354787187988786   -0.011470971967193197
-0.4711486458142456   0.007354787187988786   -0.011470971967193197
-0.4711486458142456   0.007354787187988786   -0.011470971967193197
-0.8427660551760671   -0.048270165776256375   0.007930006135947382
-0.8427660551760671   -0.048270165776256375   0.007930006135947382
-0.8427660551760671   -0.048270165776256375   0.007930006135947382
-0.8427660551760671   -0.048270165776256375   0.007930006135947382
-0.8272373912327659   -0.049019410120786165   -0.039660722188917974
-0.8272373912327659   -0.049019410120786165   -0.039660722188917974
-0.8272373912327659   -0.049019410120786165   -0.039660722188917974
-0.8272373912327659   -0.049019410120786165   -0.039660722188917974
-0.436131240209669   0.05433136052801114   0.02562074726259811
-0.436131240209669   0.05433136052801114   0.02562074726259811
-0.436131240209669   0.05433136052801114   0.02562074726259811
-0.436131240209669   0.05433136052801114   0.02562074726259811
-0.6345625908086544   -0.004707897789975789   0.007108571172399242
-0.6345625908086544   -0.004707897789975789   0.007108571172399242
-0.6345625908086544   -0.004707897789975789   0.007108571172399242
-0.6345625908086544   -0.004707897789975789   0.007108571172399242
-0.44924318848491374   0.031158373457870855   -0.016766007043484993
-0.44924318848491374   0.031158373457870855   -0.016766007043484993
-0.44924318848491374   0.031158373457870855   -0.016766007043484993
-0.44924318848491374   0.031158373457870855   -0.016766007043484993
-0.8134221744611019   -0.025143154554226582   0.005539106102842334
-0.8134221744611019   -0.025143154554226582   0.005539106102842334
-0.8134221744611019   -0.025143154554226582   0.005539106102842334
-0.8134221744611019   -0.025143154554226582   0.005539106102842334
-0.8008042498891442   -0.02124179018599709   -0.0417029602669568
-0.8008042498891442   -0.02124179018599709   -0.0417029602669568
-0.8008042498891442   -0.02124179018599709   -0.0417029602669568
-0.8008042498891442   -0.02124179018599709   -0.0417029602669568
-0.41574386814856823   0.07704141734550024   0.020744072043426515
-0.41574386814856823   0.07704141734550024   0.020744072043426515
-0.41574386814856823   0.07704141734550024   0.020744072043426515
-0.41574386814856823   0.07704141734550024   0.020744072043426515
-0.6142405920892815   0.01602878629455913   0.016586191026735725
-0.6142405920892815   0.01602878629455913   0.016586191026735725
-0.6142405920892815   0.01602878629455913   0.016586191026735725
-0.6142405920892815   0.01602878629455913   0.016586191026735725
-0.8721837795850669   -0.041383340642455066   -0.032279844257239954
-0.8721837795850669   -0.041383340642455066   -0.032279844257239954
-0.8721837795850669   -0.041383340642455066   -0.032279844257239954
-0.8721837795850669   -0.041383340642455066   -0.032279844257239954
-1.2433190344260134   -0.04486896237565598   0.05592406237191211
-1.2433190344260134   -0.04486896237565598   0.05592406237191211
-1.2433190344260134   -0.04486896237565598   0.05592406237191211
-1.2433190344260134   -0.04486896237565598   0.05592406237191211
-1.2195618002286668   -0.08933498541007484   -0.04280426573484253
-1.2195618002286668   -0.08933498541007484   -0.04280426573484253
-1.2195618002286668   -0.08933498541007484   -0.04280426573484253
-1.2195618002286668   -0.08933498541007484   -0.04280426573484253
-0.8094322793691041   0.06946670725608244   0.05686201213841652
-0.8094322793691041   0.06946670725608244   0.05686201213841652
-0.8094322793691041   0.06946670725608244   0.05686201213841652
-0.8094322793691041   0.06946670725608244   0.05686201213841652
-0.9901602282285199   -0.012236837362627637   0.011521803644086004
-0.9901602282285199   -0.012236837362627637   0.011521803644086004
-0.9901602282285199   -0.012236837362627637   0.011521803644086004
-0.9901602282285199   -0.012236837362627637   0.011521803644086004
-0.8444620075354434   -0.012931798343250471   -0.03588812309394407
-0.8444620075354434   -0.012931798343250471   -0.03588812309394407
-0.8444620075354434   -0.012931798343250471   -0.03588812309394407
-0.8444620075354434   -0.012931798343250471   -0.03588812309394407
-1.1839466533855634   -0.0063510611339739065   0.05228754420456333
-1.1839466533855634   -0.0063510611339739065   0.05228754420456333
-1.1839466533855634   -0.0063510611339739065   0.05228754420456333
-1.1839466533855634   -0.0063510611339739065   0.05228754420456333
-1.1747901466591253   -0.07343228723270326   -0.05041663327321036
-1.1747901466591253   -0.07343228723270326   -0.05041663327321036
-1.1747901466591253   -0.07343228723270326   -0.05041663327321036
-1.1747901466591253   -0.07343228723270326   -0.05041663327321036
-0.7846334079632465   0.07927434608677483   0.045065437951117754
-0.7846334079632465   0.07927434608677483   0.045065437951117754
-0.7846334079632465   0.07927434608677483   0.045065437951117754
-0.7846334079632465   0.07927434608677483   0.045065437951117754
-0.9671214908582986   0.005124164630869933   0.020655505134998448
-0.9671214908582986   0.005124164630869933   0.020655505134998448
-0.9671214908582986   0.005124164630869933   0.020655505134998448
-0.9671214908582986   0.005124164630869933   0.020655505134998448
-0.8176917062726283   -9.9678335470893e-05   -0.04085202917354566
-0.8176917062726283   -9.9678335470893e-05   -0.04085202917354566
-0.8176917062726283   -9.9678335470893e-05   -0.04085202917354566
-0.8176917062726283   -9.9678335470893e-05   -0.04085202917354566
-1.1411467583560195   0.006526827183263376   0.03784119382633355
-1.1411467583560195   0.006526827183263376   0.03784119382633355
-1.1411467583560195   0.006526827183263376   0.03784119382633355
-1.1411467583560195   0.006526827183263376   0.03784119382633355
-1.1258352127370062   -0.05434609117000684   -0.05746144729809466
-1.1258352127370062   -0.05434609117000684   -0.05746144729809466
-1.1258352127370062   -0.05434609117000684   -0.05746144729809466
-1.1258352127370062   -0.05434609117000684   -0.05746144729809466
-0.7628485162335614   0.08845954097146741   0.03837437685348924
-0.7628485162335614   0.08845954097146741   0.03837437685348924
-0.7628485162335614   0.08845954097146741   0.03837437685348924
-0.7628485162335614   0.08845954097146741   0.03837437685348924
-0.9177041260935577   0.01954944378932176   0.03447719590833159
-0.9177041260935577   0.01954944378932176   0.03447719590833159
-0.9177041260935577   0.01954944378932176   0.03447719590833159
-0.9177041260935577   0.01954944378932176   0.03447719590833159
1.0931594419902908   0.08172590865382119   0.05782133907841164
1.0931594419902908   0.08172590865382119   0.05782133907841164
1.0931594419902908   0.08172590865382119   0.05782133907841164
1.0931594419902908   0.08172590865382119   0.05782133907841164
0.4820549361056826   -0.12857028323929318   -0.026609771112770256
0.4820549361056826   -0.12857028323929318   -0.026609771112770256
0.4820549361056826   -0.12857028323929318   -0.026609771112770256
0.4820549361056826   -0.12857028323929318   -0.026609771112770256
0.5373877795504644   -0.022679231011209843   0.039700838410414316
0.5373877795504644   -0.022679231011209843   0.039700838410414316
0.5373877795504644   -0.022679231011209843   0.039700838410414316
0.5373877795504644   -0.022679231011209843   0.039700838410414316
1.105151764785512   -0.0018566950840964574   -0.04168091639122298
1.105151764785512   -0.0018566950840964574   -0.04168091639122298
1.105151764785512   -0.0018566950840964574   -0.04168091639122298
1.105151764785512   -0.0018566950840964574   -0.04168091639122298
0.7573282904905111   -0.02289223285270872   -0.05917552800858397
0.7573282904905111   -0.02289223285270872   -0.05917552800858397
0.7573282904905111   -0.02289223285270872   -0.05917552800858397
0.7573282904905111   -0.02289223285270872   -0.05917552800858397
1.1435929762458592   0.1002961081758901   0.048372337650519015
1.1435929762458592   0.1002961081758901   0.048372337650519015
1.1435929762458592   0.1002961081758901   0.048372337650519015
1.1435929762458592   0.1002961081758901   0.048372337650519015
0.502639671786423   -0.121138930574891   -0.03558000084610673
0.502639671786423   -0.121138930574891   -0.03558000084610673
0.502639671786423   -0.121138930574891   -0.03558000084610673
0.502639671786423   -0.121138930574891   -0.03558000084610673
0.5590000093869957   -0.010940686174168091   0.03209143489462278
0.5590000093869957   -0.010940686174168091   0.03209143489462278
0.5590000093869957   -0.010940686174168091   0.03209143489462278
0.5590000093869957   -0.010940686174168091   0.03209143489462278
1.1429588623684932   0.011084274479288003   -0.05206212862572657
1.1429588623684932   0.011084274479288003   -0.05206212862572657
1.1429588623684932   0.011084274479288003   -0.05206212862572657
1.1429588623684932   0.011084274479288003   -0.05206212862572657
0.8048315557069993   -0.009067534265221708   -0.04026234859443961
0.8048315557069993   -0.009067534265221708   -0.04026234859443961
0.8048315557069993   -0.009067534265221708   -0.04026234859443961
0.8048315557069993   -0.009067534265221708   -0.04026234859443961
1.1811727125831684   0.11424487239294119   0.03584652453399645
1.1811727125831684   0.11424487239294119   0.03584652453399645
1.1811727125831684   0.11424487239294119   0.03584652453399645
1.1811727125831684   0.11424487239294119   0.03584652453399645
0.5240169855045455   -0.11087045775559631   -0.04289391293620039
0.5240169855045455   -0.11087045775559631   -0.04289391293620039
0.5240169855045455   -0.11087045775559631   -0.04289391293620039
0.5240169855045455   -0.11087045775559631   -0.04289391293620039
0.5785818245208532   0.020424165506176727   0.028135670899774035
0.5785818245208532   0.020424165506176727   0.028135670899774035
0.5785818245208532   0.020424165506176727   0.028135670899774035
0.5785818245208532   0.020424165506176727   0.028135670899774035
1.189485727826243   0.04895432651416694   -0.05451372056681297
1.189485727826243   0.04895432651416694   -0.05451372056681297
1.189485727826243   0.04895432651416694   -0.05451372056681297
1.189485727826243   0.04895432651416694   -0.05451372056681297
0.8225427215891256   0.009554608563697477   -0.02718019945422598
0.8225427215891256   0.009554608563697477   -0.02718019945422598
0.8225427215891256   0.009554608563697477   -0.02718019945422598
0.8225427215891256   0.009554608563697477   -0.02718019945422598
0.5332536013904184   0.04783618590913427   0.05297708616247397
0.5332536013904184   0.04783618590913427   0.05297708616247397
0.5332536013904184   0.04783618590913427   0.05297708616247397
0.5332536013904184   0.04783618590913427   0.05297708616247397
-0.066227541859051   -0.15834674936758888   -0.015163203737757279
-0.066227541859051   -0.15834674936758888   -0.015163203737757279
-0.066227541859051   -0.15834674936758888   -0.015163203737757279
-0.066227541859051   -0.15834674936758888   -0.015163203737757279
-0.01860096742641222   -0.05599651010875169   0.013440653244301808
-0.01860096742641222   -0.05599651010875169   0.013440653244301808
-0.01860096742641222   -0.05599651010875169   0.013440653244301808
-0.01860096742641222   -0.05599651010875169   0.013440653244301808
0.5287219055278062   -0.028954535111332134   0.002646772397246283
0.5287219055278062   -0.028954535111332134   0.002646772397246283
0.5287219055278062   -0.028954535111332134   0.002646772397246283
0.5287219055278062   -0.028954535111332134   0.002646772397246283
0.2376657050483595   -0.04406483821667908   -0.02817109074498552
0.2376657050483595   -0.04406483821667908   -0.02817109074498552
0.2376657050483595   -0.04406483821667908   -0.02817109074498552
0.2376657050483595   -0.04406483821667908   -0.02817109074498552
0.5565135986839495   0.06572367756482261   0.046927025501811645
0.5565135986839495   0.06572367756482261   0.046927025501811645
0.5565135986839495   0.06572367756482261   0.046927025501811645
0.5565135986839495   0.06572367756482261   0.046927025501811645
-0.04444340908282753   -0.14872547128517785   -0.02304259386134858
-0.04444340908282753   -0.14872547128517785   -0.02304259386134858
-0.04444340908282753   -0.14872547128517785   -0.02304259386134858
-0.04444340908282753   -0.14872547128517785   -0.02304259386134858
0.003435981164272779   -0.03498429984814287   0.008193961711731923
0.003435981164272779   -0.03498429984814287   0.008193961711731923
0.003435981164272779   -0.03498429984814287   0.008193961711731923
0.003435981164272779   -0.03498429984814287   0.008193961711731923
0.5512993479982939   -0.013110232278582955   -0.004242325944471326
0.5512993479982939   -0.013110232278582955   -0.004242325944471326
0.5512993479982939   -0.013110232278582955   -0.004242325944471326
0.5512993479982939   -0.013110232278582955   -0.004242325944471326
0.2567967608544235   -0.031161247342860847   -0.018255508709497242
0.2567967608544235   -0.031161247342860847   -0.018255508709497242
0.2567967608544235   -0.031161247342860847   -0.018255508709497242
0.2567967608544235   -0.031161247342860847   -0.018255508709497242
0.5805843397340676   0.08718421634552712   0.041888184110287024
0.5805843397340676   0.08718421634552712   0.041888184110287024
0.5805843397340676   0.08718421634552712   0.041888184110287024
0.5805843397340676   0.08718421634552712   0.041888184110287024
-0.02468686177175171   -0.13411659967249862   -0.03328795314403476
-0.02468686177175171   -0.13411659967249862   -0.03328795314403476
-0.02468686177175171   -0.13411659967249862   -0.03328795314403476
-0.02468686177175171   -0.13411659967249862   -0.03328795314403476
0.020736073251698347   -0.010363672526268167   0.0028918245351776057
0.020736073251698347   -0.010363672526268167   0.0028918245351776057
0.020736073251698347   -0.010363672526268167   0.0028918245351776057
0.020736073251698347   -0.010363672526268167   0.0028918245351776057
0.5681987382087849   0.0071065630748599964   -0.010462158229261637
0.5681987382087849   0.0071065630748599964   -0.010462158229261637
0.5681987382087849   0.0071065630748599964   -0.010462158229261637
0.5681987382087849   0.0071065630748599964   -0.010462158229261637
0.28026200296747394   -0.011855710014714332   -0.007609484981712732
0.28026200296747394   -0.011855710014714332   -0.007609484981712732
0.28026200296747394   -0.011855710014714332   -0.007609484981712732
0.28026200296747394   -0.011855710014714332   -0.007609484981712732
-0.02357554468138992   0.013420827473252149   0.026329205309707036
-0.02357554468138992   0.013420827473252149   0.026329205309707036
-0.02357554468138992   0.013420827473252149   0.026329205309707036
-0.02357554468138992   0.013420827473252149   0.026329205309707036
-0.6102643354772179   -0.1986557130126649   -0.012175132905290986
-0.6102643354772179   -0.1986557130126649   -0.012175132905290986
-0.6102643354772179   -0.1986557130126649   -0.012175132905290986
-0.6102643354772179   -0.1986557130126649   -0.012175132905290986
-0.5621238462818452   -0.08589099014190363   -0.012850784422487493
-0.5621238462818452   -0.08589099014190363   -0.012850784422487493
-0.5621238462818452   -0.08589099014190363   -0.012850784422487493
-0.5621238462818452   -0.08589099014190363   -0.012850784422487493
-0.021306542554350223   -0.06797839875070044   0.011894666246560562
-0.021306542554350223   -0.06797839875070044   0.011894666246560562
-0.021306542554350223   -0.06797839875070044   0.011894666246560562
-0.021306542554350223   -0.06797839875070044   0.011894666246560562
-0.30569560653094985   -0.08023067835799623   -0.02515677831976952
-0.30569560653094985   -0.08023067835799623   -0.02515677831976952
-0.30569560653094985   -0.08023067835799623   -0.02515677831976952
-0.30569560653094985   -0.08023067835799623   -0.02515677831976952
0.0009023270092722918   0.033563770386343256   0.021396844927629437
0.0009023270092722918   0.033563770386343256   0.021396844927629437
0.0009023270092722918   0.033563770386343256   0.021396844927629437
0.0009023270092722918   0.033563770386343256   0.021396844927629437
-0.5829238644285712   -0.18602430786205093   -0.016717557435970753
-0.5829238644285712   -0.18602430786205093   -0.016717557435970753
-0.5829238644285712   -0.18602430786205093   -0.016717557435970753
-0.5829238644285712   -0.18602430786205093   -0.016717557435970753
-0.5347879839269967   -0.06256624127318719   -0.01749012184110707
-0.5347879839269967   -0.06256624127318719   -0.01749012184110707
-0.5347879839269967   -0.06256624127318719   -0.01749012184110707
-0.5347879839269967   -0.06256624127318719   -0.01749012184110707
-0.0007788571549191426   -0.05274995042803237   0.004885420695661811
-0.0007788571549191426   -0.05274995042803237   0.004885420695661811
-0.0007788571549191426   -0.05274995042803237   0.004885420695661811
-0.0007788571549191426   -0.05274995042803237   0.004885420695661811
-0.27915908040623605   -0.06345747795460611   -0.013958900463735206
-0.27915908040623605   -0.06345747795460611   -0.013958900463735206
-0.27915908040623605   -0.06345747795460611   -0.013958900463735206
-0.27915908040623605   -0.06345747795460611   -0.013958900463735206
0.023300810954651387   0.05588025352871689   0.016653557286765226
0.023300810954651387   0.05588025352871689   0.016653557286765226
0.023300810954651387   0.05588025352871689   0.016653557286765226
0.023300810954651387   0.05588025352871689   0.016653557286765226
-0.5588695573935099   -0.17119835058688423   -0.029265879859976057
-0.5588695573935099   -0.17119835058688423   -0.029265879859976057
-0.5588695573935099   -0.17119835058688423   -0.029265879859976057
-0.5588695573935099   -0.17119835058688423   -0.029265879859976057
-0.5154691420159794   -0.040327871275414706   -0.022674840454239467
-0.5154691420159794   -0.040327871275414706   -0.022674840454239467
-0.5154691420159794   -0.040327871275414706   -0.022674840454239467
-0.5154691420159794   -0.040327871275414706   -0.022674840454239467
0.01269615764649995   -0.04056949724266488   -0.007101928774417681
0.01269615764649995   -0.04056949724266488   -0.007101928774417681
0.01269615764649995   -0.04056949724266488   -0.007101928774417681
0.01269615764649995   -0.04056949724266488   -0.007101928774417681
-0.2596971241870017   -0.047807671130612045   -0.006939977497583252
-0.2596971241870017   -0.047807671130612045   -0.006939977497583252
-0.2596971241870017   -0.047807671130612045   -0.006939977497583252
-0.2596971241870017   -0.047807671130612045   -0.006939977497583252
-0.5715393011315634   -0.016374997354695803   -0.0008306768349868598
-0.5715393011315634   -0.016374997354695803   -0.0008306768349868598
-0.5715393011315634   -0.016374997354695803   -0.0008306768349868598
-0.5715393011315634   -0.016374997354695803   -0.0008306768349868598
-1.1568795502065652   -0.2135786277025937   -0.009772130232559684
-1.1568795502065652   -0.2135786277025937   -0.009772130232559684
-1.1568795502065652   -0.2135786277025937   -0.009772130232559684
-1.1568795502065652   -0.2135786277025937   -0.009772130232559684
-1.1052195991780878   -0.10998399422788477   -0.038185592120174056
-1.1052195991780878   -0.10998399422788477   -0.038185592120174056
-1.1052195991780878   -0.10998399422788477   -0.038185592120174056
-1.1052195991780878   -0.10998399422788477   -0.038185592120174056
-0.5514647111867679   -0.07063502803694732   0.02518892894794253
-0.5514647111867679   -0.07063502803694732   0.02518892894794253
-0.5514647111867679   -0.07063502803694732   0.02518892894794253
-0.5514647111867679   -0.07063502803694732   0.02518892894794253
-0.8388737250318589   -0.09648876670787078   -0.017726626534813772
-0.8388737250318589   -0.09648876670787078   -0.017726626534813772
-0.8388737250318589   -0.09648876670787078   -0.017726626534813772
-0.8388737250318589   -0.09648876670787078   -0.017726626534813772
-0.5413400550681021   0.00955372443251001   -0.004376542928185664
-0.5413400550681021   0.00955372443251001   -0.004376542928185664
-0.5413400550681021   0.00955372443251001   -0.004376542928185664
-0.5413400550681021   0.00955372443251001   -0.004376542928185664
-1.115778546949329   -0.1906070383499161   -0.010357286854340175
-1.115778546949329   -0.1906070383499161   -0.010357286854340175
-1.115778546949329   -0.1906070383499161   -0.010357286854340175
-1.115778546949329   -0.1906070383499161   -0.010357286854340175
-1.0661330263295647   -0.08563647618373732   -0.044216650176248345
-1.0661330263295647   -0.08563647618373732   -0.044216650176248345
-1.0661330263295647   -0.08563647618373732   -0.044216650176248345
-1.0661330263295647   -0.08563647618373732   -0.044216650176248345
-0.5249259073293265   -0.05236072973518902   0.021614749609250583
-0.5249259073293265   -0.05236072973518902   0.021614749609250583
-0.5249259073293265   -0.05236072973518902   0.021614749609250583
-0.5249259073293265   -0.05236072973518902   0.021614749609250583
-0.798687349160971   -0.07312856404884782   -0.0057990358034653855
-0.798687349160971   -0.07312856404884782   -0.0057990358034653855
-0.798687349160971   -0.07312856404884782   -0.0057990358034653855
-0.798687349160971   -0.07312856404884782   -0.0057990358034653855
-0.5139413399708566   0.032067135380446074   -0.007890278714039675
-0.5139413399708566   0.032067135380446074   -0.007890278714039675
-0.5139413399708566   0.032067135380446074   -0.007890278714039675
-0.5139413399708566   0.032067135380446074   -0.007890278714039675
-1.0789912327504534   -0.1719379803617901   -0.022206178102627927
-1.0789912327504534   -0.1719379803617901   -0.022206178102627927
-1.0789912327504534   -0.1719379803617901   -0.022206178102627927
-1.0789912327504534   -0.1719379803617901   -0.022206178102627927
-1.034440113559412   -0.05997272531932162   -0.04563039586983905
-1.034440113559412   -0.05997272531932162   -0.04563039586983905
-1.034440113559412   -0.05997272531932162   -0.04563039586983905
-1.034440113559412   -0.05997272531932162   -0.04563039586983905
-0.5096847039838214   -0.0407427354234988   0.006662213854639526
-0.5096847039838214   -0.0407427354234988   0.006662213854639526
-0.5096847039838214   -0.0407427354234988   0.006662213854639526
-0.5096847039838214   -0.0407427354234988   0.006662213854639526
-0.7765688789778155   -0.05889133606717433   -0.001900446482852397
-0.7765688789778155   -0.05889133606717433   -0.001900446482852397
-0.7765688789778155   -0.05889133606717433   -0.001900446482852397
-0.7765688789778155   -0.05889133606717433   -0.001900446482852397
-1.1253812321894305   -0.038031706643848265   -0.02782746120563223
-1.1253812321894305   -0.038031706643848265   -0.02782746120563223
-1.1253812321894305   -0.038031706643848265   -0.02782746120563223
-1.1253812321894305   -0.038031706643848265   -0.02782746120563223
-1.6969808038947392   -0.14458418791082728   0.06396485447277084
-1.6969808038947392   -0.14458418791082728   0.06396485447277084
-1.6969808038947392   -0.14458418791082728   0.06396485447277084
-1.6969808038947392   -0.14458418791082728   0.06396485447277084
-1.638963249635254   -0.11526884048311622   -0.03728475629142691
-1.638963249635254   -0.11526884048311622   -0.03728475629142691
-1.638963249635254   -0.11526884048311622   -0.03728475629142691
-1.638963249635254   -0.11526884048311622   -0.03728475629142691
-1.0577356227447698   0.030398262515168833   0.058852033303351925
-1.0577356227447698   0.030398262515168833   0.058852033303351925
-1.0577356227447698   0.030398262515168833   0.058852033303351925
-1.0577356227447698   0.030398262515168833   0.058852033303351925
-1.3180143459247764   -0.04531969532945304   0.006418701196147625
-1.3180143459247764   -0.04531969532945304   0.006418701196147625
-1.3180143459247764   -0.04531969532945304   0.006418701196147625
-1.3180143459247764   -0.04531969532945304   0.006418701196147625
-1.0822846435014646   -0.0026459413258840825   -0.030848866639055395
-1.0822846435014646   -0.0026459413258840825   -0.030848866639055395
-1.0822846435014646   -0.0026459413258840825   -0.030848866639055395
-1.0822846435014646   -0.0026459413258840825   -0.030848866639055395
-1.6104557308296   -0.07826613859310394   0.06825013584681822
-1.6104557308296   -0.07826613859310394   0.06825013584681822
-1.6104557308296   -0.07826613859310394   0.06825013584681822
-1.6104557308296   -0.07826613859310394   0.06825013584681822
-1.5767116309196332   -0.09703482698939284   -0.044402204473333984
-1.5767116309196332   -0.09703482698939284   -0.044402204473333984
-1.5767116309196332   -0.09703482698939284   -0.044402204473333984
-1.5767116309196332   -0.09703482698939284   -0.044402204473333984
-1.0190891625642167   0.048553495645074995   0.05681269682168055
-1.0190891625642167   0.048553495645074995   0.05681269682168055
-1.0190891625642167   0.048553495645074995   0.05681269682168055
-1.0190891625642167   0.048553495645074995   0.05681269682168055
-1.281364273031404   -0.018279760846556345   0.026281999159527336
-1.281364273031404   -0.018279760846556345   0.026281999159527336
-1.281364273031404   -0.018279760846556345   0.026281999159527336
-1.281364273031404   -0.018279760846556345   0.026281999159527336
-1.0445026367319912   0.01162264755698414   -0.033323825929091055
-1.0445026367319912   0.01162264755698414   -0.033323825929091055
-1.0445026367319912   0.01162264755698414   -0.033323825929091055
-1.0445026367319912   0.01162264755698414   -0.033323825929091055
-1.5504908715316588   -0.05929669368109794   0.04896345915825795
-1.5504908715316588   -0.05929669368109794   0.04896345915825795
-1.5504908715316588   -0.05929669368109794   0.04896345915825795
-1.5504908715316588   -0.05929669368109794   0.04896345915825795
-1.5123205078496245   -0.07984324690026144   -0.053667570889091964
-1.5123205078496245   -0.07984324690026144   -0.053667570889091964
-1.5123205078496245   -0.07984324690026144   -0.053667570889091964
-1.5123205078496245   -0.07984324690026144   -0.053667570889091964
-0.9904881918369184   0.07022871772572893   0.04392776969758366
-0.9904881918369184   0.07022871772572893   0.04392776969758366
-0.9904881918369184   0.07022871772572893   0.04392776969758366
-0.9904881918369184   0.07022871772572893   0.04392776969758366
-1.2120746116188474   0.004823268787973095   0.04621365076531242
-1.2120746116188474   0.004823268787973095   0.04621365076531242
-1.2120746116188474   0.004823268787973095   0.04621365076531242
-1.2120746116188474   0.004823268787973095   0.04621365076531242
1.4920609133642657   0.08954928844088214   0.053982110029523134
1.4920609133642657   0.08954928844088214   0.053982110029523134
1.4920609133642657   0.08954928844088214   0.053982110029523134
1.4920609133642657   0.08954928844088214   0.053982110029523134
0.7110690499204704   -0.13304560845489577   0.01196882252042722
0.7110690499204704   -0.13304560845489577   0.01196882252042722
0.7110690499204704   -0.13304560845489577   0.01196882252042722
0.7110690499204704   -0.13304560845489577   0.01196882252042722
0.7502115898971006   -0.05620981617172898   0.041493653059025803
0.7502115898971006   -0.05620981617172898   0.041493653059025803
0.7502115898971006   -0.05620981617172898   0.041493653059025803
0.7502115898971006   -0.05620981617172898   0.041493653059025803
1.4998664309887488   0.01295244752555079   -0.012104471181879461
1.4998664309887488   0.01295244752555079   -0.012104471181879461
1.4998664309887488   0.01295244752555079   -0.012104471181879461
1.4998664309887488   0.01295244752555079   -0.012104471181879461
1.0488923602615985   -0.028518567490129737   -0.06962689984861506
1.0488923602615985   -0.028518567490129737   -0.06962689984861506
1.0488923602615985   -0.028518567490129737   -0.06962689984861506
1.0488923602615985   -0.028518567490129737   -0.06962689984861506
1.5281571450338396   0.09961739463136544   0.04268415193775893
1.5281571450338396   0.09961739463136544   0.04268415193775893
1.5281571450338396   0.09961739463136544   0.04268415193775893
1.5281571450338396   0.09961739463136544   0.04268415193775893
0.7287018641951776   -0.13609377493437602   0.013828983312057883
0.7287018641951776   -0.13609377493437602   0.013828983312057883
0.7287018641951776   -0.13609377493437602   0.013828983312057883
0.7287018641951776   -0.13609377493437602   0.013828983312057883
0.7650152233787368   -0.04777859216255326   0.03156717715482356
0.7650152233787368   -0.04777859216255326   0.03156717715482356
0.7650152233787368   -0.04777859216255326   0.03156717715482356
0.7650152233787368   -0.04777859216255326   0.03156717715482356
1.5260699755084968   0.022454006704939133   -0.003784217149444824
1.5260699755084968   0.022454006704939133   -0.003784217149444824
1.5260699755084968   0.022454006704939133   -0.003784217149444824
1.5260699755084968   0.022454006704939133   -0.003784217149444824
1.0920809086121692   -0.022537123125651967   -0.04758712228790368
1.0920809086121692   -0.022537123125651967   -0.04758712228790368
1.0920809086121692   -0.022537123125651967   -0.04758712228790368
1.0920809086121692   -0.022537123125651967   -0.04758712228790368
1.5500131296348418   0.10882055474595588   0.02956500544126417
1.5500131296348418   0.10882055474595588   0.02956500544126417
1.5500131296348418   0.10882055474595588   0.02956500544126417
1.5500131296348418   0.10882055474595588   0.02956500544126417
0.7457888900548545   -0.12942831940110716   0.01708523777396588
0.7457888900548545   -0.12942831940110716   0.01708523777396588
0.7457888900548545   -0.12942831940110716   0.01708523777396588
0.7457888900548545   -0.12942831940110716   0.01708523777396588
0.7868128727284073   -0.014905863729270281   0.0288581833138368
0.7868128727284073   -0.014905863729270281   0.0288581833138368
0.7868128727284073   -0.014905863729270281   0.0288581833138368
0.7868128727284073   -0.014905863729270281   0.0288581833138368
1.5533398394956368   0.04426460508764091   -0.0007101874156199006
1.5533398394956368   0.04426460508764091   -0.0007101874156199006
1.5533398394956368   0.04426460508764091   -0.0007101874156199006
1.5533398394956368   0.04426460508764091   -0.0007101874156199006
1.0973737198553308   -0.01034761826068857   -0.035600381621845534
1.0973737198553308   -0.01034761826068857   -0.035600381621845534
1.0973737198553308   -0.01034761826068857   -0.035600381621845534
1.0973737198553308   -0.01034761826068857   -0.035600381621845534
0.7504895351375502   0.019362029007890753   0.056663611143039666
0.7504895351375502   0.019362029007890753   0.056663611143039666
0.7504895351375502   0.019362029007890753   0.056663611143039666
0.7504895351375502   0.019362029007890753   0.056663611143039666
0.038959406065503875   -0.2646857450938341   0.02706724220901932
0.038959406065503875   -0.2646857450938341   0.02706724220901932
0.038959406065503875   -0.2646857450938341   0.02706724220901932
0.038959406065503875   -0.2646857450938341   0.02706724220901932
0.08992538425844523   -0.11218317455500171   0.025300096448259403
0.08992538425844523   -0.11218317455500171   0.025300096448259403
0.08992538425844523   -0.11218317455500171   0.025300096448259403
0.08992538425844523   -0.11218317455500171   0.025300096448259403
0.7312659104626299   -0.1267182305040867   0.01727367021902053
0.7312659104626299   -0.1267182305040867   0.01727367021902053
0.7312659104626299   -0.1267182305040867   0.01727367021902053
0.7312659104626299   -0.1267182305040867   0.01727367021902053
0.38959210894840657   -0.11848634945325262   -0.04443881039447063
0.38959210894840657   -0.11848634945325262   -0.04443881039447063
0.38959210894840657   -0.11848634945325262   -0.04443881039447063
0.38959210894840657   -0.11848634945325262   -0.04443881039447063
0.768197463970502   0.027878219623849208   0.04733498763045711
0.768197463970502   0.027878219623849208   0.04733498763045711
0.768197463970502   0.027878219623849208   0.04733498763045711
0.768197463970502   0.027878219623849208   0.04733498763045711
0.06274517259517627   -0.2570282828383427   0.03424414641525556
0.06274517259517627   -0.2570282828383427   0.03424414641525556
0.06274517259517627   -0.2570282828383427   0.03424414641525556
0.06274517259517627   -0.2570282828383427   0.03424414641525556
0.11040081917322561   -0.09677833713054461   0.018315678620788697
0.11040081917322561   -0.09677833713054461   0.018315678620788697
0.11040081917322561   -0.09677833713054461   0.018315678620788697
0.11040081917322561   -0.09677833713054461   0.018315678620788697
0.74879854140092   -0.11863491553074611   0.021340090633932343
0.74879854140092   -0.11863491553074611   0.021340090633932343
0.74879854140092   -0.11863491553074611   0.021340090633932343
0.74879854140092   -0.11863491553074611   0.021340090633932343
0.40700424792840656   -0.11257741484042467   -0.022222180355608467
0.40700424792840656   -0.11257741484042467   -0.022222180355608467
0.40700424792840656   -0.11257741484042467   -0.022222180355608467
0.40700424792840656   -0.11257741484042467   -0.022222180355608467
0.7847181028738331   0.04240215031581312   0.03990083215193904
0.7847181028738331   0.04240215031581312   0.03990083215193904
0.7847181028738331   0.04240215031581312   0.03990083215193904
0.7847181028738331   0.04240215031581312   0.03990083215193904
0.08386131418705332   -0.24843534649035748   0.037275163049742065
0.08386131418705332   -0.24843534649035748   0.037275163049742065
0.08386131418705332   -0.24843534649035748   0.037275163049742065
0.08386131418705332   -0.24843534649035748   0.037275163049742065
0.14183841213862297   -0.07365102726958954   0.012110216118621987
0.14183841213862297   -0.07365102726958954   0.012110216118621987
0.14183841213862297   -0.07365102726958954   0.012110216118621987
0.14183841213862297   -0.07365102726958954   0.012110216118621987
0.76797906961082   -0.10635469464062305   0.026137998637255452
0.76797906961082   -0.10635469464062305   0.026137998637255452
0.76797906961082   -0.10635469464062305   0.026137998637255452
0.76797906961082   -0.10635469464062305   0.026137998637255452
0.43759625654467993   -0.09828347493080074   0.0036391110257020937
0.43759625654467993   -0.09828347493080074   0.0036391110257020937
0.43759625654467993   -0.09828347493080074   0.0036391110257020937
0.43759625654467993   -0.09828347493080074   0.0036391110257020937
0.08375451715035415   -0.050121254498504145   0.036478307037940694
0.08375451715035415   -0.050121254498504145   0.036478307037940694
0.08375451715035415   -0.050121254498504145   0.036478307037940694
0.08375451715035415   -0.050121254498504145   0.036478307037940694
-0.6385990507911515   -0.4544004919580621   0.039295431707958406
-0.6385990507911515   -0.4544004919580621   0.039295431707958406
-0.6385990507911515   -0.4544004919580621   0.039295431707958406
-0.6385990507911515   -0.4544004919580621   0.039295431707958406
-0.5580690434325531   -0.17719876932751893   0.0025553142406711526
-0.5580690434325531   -0.17719876932751893   0.0025553142406711526
-0.5580690434325531   -0.17719876932751893   0.0025553142406711526
-0.5580690434325531   -0.17719876932751893   0.0025553142406711526
0.04431695319057969   -0.3300009450823928   0.015075711636322736
0.04431695319057969   -0.3300009450823928   0.015075711636322736
0.04431695319057969   -0.3300009450823928   0.015075711636322736
0.04431695319057969   -0.3300009450823928   0.015075711636322736
-0.2754640712307273   -0.2547375947517997   -0.05331897686093452
-0.2754640712307273   -0.2547375947517997   -0.05331897686093452
-0.2754640712307273   -0.2547375947517997   -0.05331897686093452
-0.2754640712307273   -0.2547375947517997   -0.05331897686093452
0.1051953217339679   -0.039303031073478954   0.028769640344349902
0.1051953217339679   -0.039303031073478954   0.028769640344349902
0.1051953217339679   -0.039303031073478954   0.028769640344349902
0.1051953217339679   -0.039303031073478954   0.028769640344349902
-0.6048215634581469   -0.45377083481864766   0.045364779603836
-0.6048215634581469   -0.45377083481864766   0.045364779603836
-0.6048215634581469   -0.45377083481864766   0.045364779603836
-0.6048215634581469   -0.45377083481864766   0.045364779603836
-0.5270037482157859   -0.1589976534411927   -0.00012820330924243062
-0.5270037482157859   -0.1589976534411927   -0.00012820330924243062
-0.5270037482157859   -0.1589976534411927   -0.00012820330924243062
-0.5270037482157859   -0.1589976534411927   -0.00012820330924243062
0.06590692554218938   -0.32267856686438523   0.021746440199450066
0.06590692554218938   -0.32267856686438523   0.021746440199450066
0.06590692554218938   -0.32267856686438523   0.021746440199450066
0.06590692554218938   -0.32267856686438523   0.021746440199450066
-0.24398838124463432   -0.24597937833981623   -0.01984566824928158
-0.24398838124463432   -0.24597937833981623   -0.01984566824928158
-0.24398838124463432   -0.24597937833981623   -0.01984566824928158
-0.24398838124463432   -0.24597937833981623   -0.01984566824928158
0.12479857764148174   -0.02492193403465446   0.018448067866181146
0.12479857764148174   -0.02492193403465446   0.018448067866181146
0.12479857764148174   -0.02492193403465446   0.018448067866181146
0.12479857764148174   -0.02492193403465446   0.018448067866181146
-0.5731578691215311   -0.4440167550773848   0.05412029379823355
-0.5731578691215311   -0.4440167550773848   0.05412029379823355
-0.5731578691215311   -0.4440167550773848   0.05412029379823355
-0.5731578691215311   -0.4440167550773848   0.05412029379823355
-0.47573718635755424   -0.1380372160371602   -0.006007178742840125
-0.47573718635755424   -0.1380372160371602   -0.006007178742840125
-0.47573718635755424   -0.1380372160371602   -0.006007178742840125
-0.47573718635755424   -0.1380372160371602   -0.006007178742840125
0.09960543487512627   -0.3023472949615675   0.02964159749311466
0.09960543487512627   -0.3023472949615675   0.02964159749311466
0.09960543487512627   -0.3023472949615675   0.02964159749311466
0.09960543487512627   -0.3023472949615675   0.02964159749311466
-0.20315420763193281   -0.2264632866350637   0.01515194096260361
-0.20315420763193281   -0.2264632866350637   0.01515194096260361
-0.20315420763193281   -0.2264632866350637   0.01515194096260361
-0.20315420763193281   -0.2264632866350637   0.01515194096260361
-0.5702643249407232   -0.09082286900208875   0.017391438004123183
-0.5702643249407232   -0.09082286900208875   0.017391438004123183
-0.5702643249407232   -0.09082286900208875   0.017391438004123183
-0.5702643249407232   -0.09082286900208875   0.017391438004123183
-1.4196292263846004   -0.7069728485918445   -0.03302198726655109
-1.4196292263846004   -0.7069728485918445   -0.03302198726655109
-1.4196292263846004   -0.7069728485918445   -0.03302198726655109
-1.4196292263846004   -0.7069728485918445   -0.03302198726655109
-1.2867807897978472   -0.23056600007376157   -0.03914985262504961
-1.2867807897978472   -0.23056600007376157   -0.03914985262504961
-1.2867807897978472   -0.23056600007376157   -0.03914985262504961
-1.2867807897978472   -0.23056600007376157   -0.03914985262504961
-0.6388729762504769   -0.5906532201534755   0.011990100977009532
-0.6388729762504769   -0.5906532201534755   0.011990100977009532
-0.6388729762504769   -0.5906532201534755   0.011990100977009532
-0.6388729762504769   -0.5906532201534755   0.011990100977009532
-0.9777918262891669   -0.41819143236106704   -0.05603754714136955
-0.9777918262891669   -0.41819143236106704   -0.05603754714136955
-0.9777918262891669   -0.41819143236106704   -0.05603754714136955
-0.9777918262891669   -0.41819143236106704   -0.05603754714136955
-0.5335747789521564   -0.06877437826382193   0.016602245578958008
-0.5335747789521564   -0.06877437826382193   0.016602245578958008
-0.5335747789521564   -0.06877437826382193   0.016602245578958008
-0.5335747789521564   -0.06877437826382193   0.016602245578958008
-1.388800643365876   -0.7491664982331117   -0.030648622305833928
-1.388800643365876   -0.7491664982331117   -0.030648622305833928
-1.388800643365876   -0.7491664982331117   -0.030648622305833928
-1.388800643365876   -0.7491664982331117   -0.030648622305833928
-1.245391113698374   -0.20875874941424566   -0.03991014241701585
-1.245391113698374   -0.20875874941424566   -0.03991014241701585
-1.245391113698374   -0.20875874941424566   -0.03991014241701585
-1.245391113698374   -0.20875874941424566   -0.03991014241701585
-0.6087311138271307   -0.5859164344174356   0.01815374961028049
-0.6087311138271307   -0.5859164344174356   0.01815374961028049
-0.6087311138271307   -0.5859164344174356   0.01815374961028049
-0.6087311138271307   -0.5859164344174356   0.01815374961028049
-0.9343042769330261   -0.4067693919103782   -0.03915461046548119
-0.9343042769330261   -0.4067693919103782   -0.03915461046548119
-0.9343042769330261   -0.4067693919103782   -0.03915461046548119
-0.9343042769330261   -0.4067693919103782   -0.03915461046548119
-0.5043514177549622   -0.05145135219285216   0.005587147746539914
-0.5043514177549622   -0.05145135219285216   0.005587147746539914
-0.5043514177549622   -0.05145135219285216   0.005587147746539914
-0.5043514177549622   -0.05145135219285216   0.005587147746539914
-1.3496523219176446   -0.7431053437859192   -0.026869589141685524
-1.3496523219176446   -0.7431053437859192   -0.026869589141685524
-1.3496523219176446   -0.7431053437859192   -0.026869589141685524
-1.3496523219176446   -0.7431053437859192   -0.026869589141685524
-1.180792367728195   -0.18534632577965116   -0.04524807418174848
-1.180792367728195   -0.18534632577965116   -0.04524807418174848
-1.180792367728195   -0.18534632577965116   -0.04524807418174848
-1.180792367728195   -0.18534632577965116   -0.04524807418174848
-0.5435142098609839   -0.5264849074691339   0.04355539517199283
-0.5435142098609839   -0.5264849074691339   0.04355539517199283
-0.5435142098609839   -0.5264849074691339   0.04355539517199283
-0.5435142098609839   -0.5264849074691339   0.04355539517199283
-0.8858390775912174   -0.3684964182101749   -0.021593697721864924
-0.8858390775912174   -0.3684964182101749   -0.021593697721864924
-0.8858390775912174   -0.3684964182101749   -0.021593697721864924
-0.8858390775912174   -0.3684964182101749   -0.021593697721864924
-1.288939591535789   -0.07756520721371082   -0.008981454400627864
-1.288939591535789   -0.07756520721371082   -0.008981454400627864
-1.288939591535789   -0.07756520721371082   -0.008981454400627864
-1.288939591535789   -0.07756520721371082   -0.008981454400627864
-2.2731920956526075   -0.4499954725038984   0.023214733133115728
-2.2731920956526075   -0.4499954725038984   0.023214733133115728
-2.2731920956526075   -0.4499954725038984   0.023214733133115728
-2.2731920956526075   -0.4499954725038984   0.023214733133115728
-2.18390326186499   -0.2161523248722586   -0.0477332645135648
-2.18390326186499   -0.2161523248722586   -0.0477332645135648
-2.18390326186499   -0.2161523248722586   -0.0477332645135648
-2.18390326186499   -0.2161523248722586   -0.0477332645135648
-1.2608477914732226   -0.23348310875815192   0.093432247682463
-1.2608477914732226   -0.23348310875815192   0.093432247682463
-1.2608477914732226   -0.23348310875815192   0.093432247682463
-1.2608477914732226   -0.23348310875815192   0.093432247682463
-1.6807940865605928   -0.260888902245671   0.023873665146128986
-1.6807940865605928   -0.260888902245671   0.023873665146128986
-1.6807940865605928   -0.260888902245671   0.023873665146128986
-1.6807940865605928   -0.260888902245671   0.023873665146128986
-1.2361821295620505   -0.017004963177435384   0.00028241165761166975
-1.2361821295620505   -0.017004963177435384   0.00028241165761166975
-1.2361821295620505   -0.017004963177435384   0.00028241165761166975
-1.2361821295620505   -0.017004963177435384   0.00028241165761166975
-2.217027982991951   -0.44108952966876536   0.011580334648123802
-2.217027982991951   -0.44108952966876536   0.011580334648123802
-2.217027982991951   -0.44108952966876536   0.011580334648123802
-2.217027982991951   -0.44108952966876536   0.011580334648123802
-2.1348539829754722   -0.19808048455652633   -0.06059238377503989
-2.1348539829754722   -0.19808048455652633   -0.06059238377503989
-2.1348539829754722   -0.19808048455652633   -0.06059238377503989
-2.1348539829754722   -0.19808048455652633   -0.06059238377503989
-1.2182457042540364   -0.2218645914772667   0.10892274686770298
-1.2182457042540364   -0.2218645914772667   0.10892274686770298
-1.2182457042540364   -0.2218645914772667   0.10892274686770298
-1.2182457042540364   -0.2218645914772667   0.10892274686770298
-1.6550171315276854   -0.2149061175904463   0.022999306495332106
-1.6550171315276854   -0.2149061175904463   0.022999306495332106
-1.6550171315276854   -0.2149061175904463   0.022999306495332106
-1.6550171315276854   -0.2149061175904463   0.022999306495332106
-1.1982335800041923   -0.0010118098994372632   -0.011869413460905143
-1.1982335800041923   -0.0010118098994372632   -0.011869413460905143
-1.1982335800041923   -0.0010118098994372632   -0.011869413460905143
-1.1982335800041923   -0.0010118098994372632   -0.011869413460905143
-2.157932131255768   -0.42199929016480586   0.047935680431739014
-2.157932131255768   -0.42199929016480586   0.047935680431739014
-2.157932131255768   -0.42199929016480586   0.047935680431739014
-2.157932131255768   -0.42199929016480586   0.047935680431739014
-2.0329855572269   -0.16061618452156723   -0.06779937614888493
-2.0329855572269   -0.16061618452156723   -0.06779937614888493
-2.0329855572269   -0.16061618452156723   -0.06779937614888493
-2.0329855572269   -0.16061618452156723   -0.06779937614888493
-1.1519477797068438   -0.20638653992691353   0.12001508007227618
-1.1519477797068438   -0.20638653992691353   0.12001508007227618
-1.1519477797068438   -0.20638653992691353   0.12001508007227618
-1.1519477797068438   -0.20638653992691353   0.12001508007227618
-1.556286353130922   -0.1643245535453134   0.047342931728887316
-1.556286353130922   -0.1643245535453134   0.047342931728887316
-1.556286353130922   -0.1643245535453134   0.047342931728887316
-1.556286353130922   -0.1643245535453134   0.047342931728887316
1.6342910974230107   0.0537948240223952   0.022948937404341785
1.6342910974230107   0.0537948240223952   0.022948937404341785
1.6342910974230107   0.0537948240223952   0.022948937404341785
1.6342910974230107   0.0537948240223952   0.022948937404341785
0.8341074315656167   -0.04408213317675352   0.0167907205256701
0.8341074315656167   -0.04408213317675352   0.0167907205256701
0.8341074315656167   -0.04408213317675352   0.0167907205256701
0.8341074315656167   -0.04408213317675352   0.0167907205256701
0.8016292109501243   -0.11764177808576126   0.03316162080018489
0.8016292109501243   -0.11764177808576126   0.03316162080018489
0.8016292109501243   -0.11764177808576126   0.03316162080018489
0.8016292109501243   -0.11764177808576126   0.03316162080018489
1.6224419419149767   0.09139632746537023   0.012116389003522743
1.6224419419149767   0.09139632746537023   0.012116389003522743
1.6224419419149767   0.09139632746537023   0.012116389003522743
1.6224419419149767   0.09139632746537023   0.012116389003522743
1.1579323758126154   -0.016381668452869064   -0.042779582924600545
1.1579323758126154   -0.016381668452869064   -0.042779582924600545
1.1579323758126154   -0.016381668452869064   -0.042779582924600545
1.1579323758126154   -0.016381668452869064   -0.042779582924600545
1.6135746212380104   0.04162516869049271   0.017550944393568635
1.6135746212380104   0.04162516869049271   0.017550944393568635
1.6135746212380104   0.04162516869049271   0.017550944393568635
1.6135746212380104   0.04162516869049271   0.017550944393568635
0.8078452620559369   -0.07052188888203759   0.017121987125523652
0.8078452620559369   -0.07052188888203759   0.017121987125523652
0.8078452620559369   -0.07052188888203759   0.017121987125523652
0.8078452620559369   -0.07052188888203759   0.017121987125523652
0.780899943992322   -0.12033925553826504   0.02741950315070897
0.780899943992322   -0.12033925553826504   0.02741950315070897
0.780899943992322   -0.12033925553826504   0.02741950315070897
0.780899943992322   -0.12033925553826504   0.02741950315070897
1.603512978434115   0.08746161439734491   0.021031423425383944
1.603512978434115   0.08746161439734491   0.021031423425383944
1.603512978434115   0.08746161439734491   0.021031423425383944
1.603512978434115   0.08746161439734491   0.021031423425383944
1.1545594587217307   -0.022593757850373195   -0.049468869450355224
1.1545594587217307   -0.022593757850373195   -0.049468869450355224
1.1545594587217307   -0.022593757850373195   -0.049468869450355224
1.1545594587217307   -0.022593757850373195   -0.049468869450355224
1.5902842394942036   0.037102976297162915   0.005246366825997828
1.5902842394942036   0.037102976297162915   0.005246366825997828
1.5902842394942036   0.037102976297162915   0.005246366825997828
1.5902842394942036   0.037102976297162915   0.005246366825997828
0.7893591536731728   -0.07475014669715072   0.024126442713848145
0.7893591536731728   -0.07475014669715072   0.024126442713848145
0.7893591536731728   -0.07475014669715072   0.024126442713848145
0.7893591536731728   -0.07475014669715072   0.024126442713848145
0.7590408507505008   -0.10971760043708237   0.023677773705899727
0.7590408507505008   -0.10971760043708237   0.023677773705899727
0.7590408507505008   -0.10971760043708237   0.023677773705899727
0.7590408507505008   -0.10971760043708237   0.023677773705899727
1.5743555098437165   0.08851833688846686   0.030295830508110466
1.5743555098437165   0.08851833688846686   0.030295830508110466
1.5743555098437165   0.08851833688846686   0.030295830508110466
1.5743555098437165   0.08851833688846686   0.030295830508110466
1.111254820032399   -0.022740093562262448   -0.06674421699691002
1.111254820032399   -0.022740093562262448   -0.06674421699691002
1.111254820032399   -0.022740093562262448   -0.06674421699691002
1.111254820032399   -0.022740093562262448   -0.06674421699691002
0.8268710877394186   -0.10434290296439144   0.040869771182317716
0.8268710877394186   -0.10434290296439144   0.040869771182317716
0.8268710877394186   -0.10434290296439144   0.040869771182317716
0.8268710877394186   -0.10434290296439144   0.040869771182317716
0.15974618729603998   -0.09845081209572171   0.008646397202558893
0.15974618729603998   -0.09845081209572171   0.008646397202558893
0.15974618729603998   -0.09845081209572171   0.008646397202558893
0.15974618729603998   -0.09845081209572171   0.008646397202558893
0.1037289570867651   -0.24696739055902955   0.043564823320232475
0.1037289570867651   -0.24696739055902955   0.043564823320232475
0.1037289570867651   -0.24696739055902955   0.043564823320232475
0.1037289570867651   -0.24696739055902955   0.043564823320232475
0.8313248917157467   0.0324563394595745   0.03154190708296173
0.8313248917157467   0.0324563394595745   0.03154190708296173
0.8313248917157467   0.0324563394595745   0.03154190708296173
0.8313248917157467   0.0324563394595745   0.03154190708296173
0.4730297268433394   -0.10474626414964705   -0.0018339448940345726
0.4730297268433394   -0.10474626414964705   -0.0018339448940345726
0.4730297268433394   -0.10474626414964705   -0.0018339448940345726
0.4730297268433394   -0.10474626414964705   -0.0018339448940345726
0.8036061634578959   -0.10885332741516097   0.034257932668444555
0.8036061634578959   -0.10885332741516097   0.034257932668444555
0.8036061634578959   -0.10885332741516097   0.034257932668444555
0.8036061634578959   -0.10885332741516097   0.034257932668444555
0.1244450649843543   -0.11266034404455581   0.01283831629370268
0.1244450649843543   -0.11266034404455581   0.01283831629370268
0.1244450649843543   -0.11266034404455581   0.01283831629370268
0.1244450649843543   -0.11266034404455581   0.01283831629370268
0.0786240921535785   -0.2491382355500833   0.03899793978458789
0.0786240921535785   -0.2491382355500833   0.03899793978458789
0.0786240921535785   -0.2491382355500833   0.03899793978458789
0.0786240921535785   -0.2491382355500833   0.03899793978458789
0.812210016299265   0.02627607783046812   0.03735453131669042
0.812210016299265   0.02627607783046812   0.03735453131669042
0.812210016299265   0.02627607783046812   0.03735453131669042
0.812210016299265   0.02627607783046812   0.03735453131669042
0.4389202682411848   -0.11162742652811285   -0.022636785738629983
0.4389202682411848   -0.11162742652811285   -0.022636785738629983
0.4389202682411848   -0.11162742652811285   -0.022636785738629983
0.4389202682411848   -0.11162742652811285   -0.022636785738629983
0.7830794609957918   -0.11037598601049065   0.028353818640276293
0.7830794609957918   -0.11037598601049065   0.028353818640276293
0.7830794609957918   -0.11037598601049065   0.028353818640276293
0.7830794609957918   -0.11037598601049065   0.028353818640276293
0.10014277163454138   -0.12009804753162576   0.017551149170944722
0.10014277163454138   -0.12009804753162576   0.017551149170944722
0.10014277163454138   -0.12009804753162576   0.017551149170944722
0.10014277163454138   -0.12009804753162576   0.017551149170944722
0.05053612470198718   -0.24897025464550065   0.0305031435217002
0.05053612470198718   -0.24897025464550065   0.0305031435217002
0.05053612470198718   -0.24897025464550065   0.0305031435217002
0.05053612470198718   -0.24897025464550065   0.0305031435217002
0.7905163741294828   0.0266915616826578   0.04464622848107186
0.7905163741294828   0.0266915616826578   0.04464622848107186
0.7905163741294828   0.0266915616826578   0.04464622848107186
0.7905163741294828   0.0266915616826578   0.04464622848107186
0.418113730903992   -0.11073101000195479   -0.040320186381364614
0.418113730903992   -0.11073101000195479   -0.040320186381364614
0.418113730903992   -0.11073101000195479   -0.040320186381364614
0.418113730903992   -0.11073101000195479   -0.040320186381364614
0.12458361749220902   -0.3022887478545377   0.036671483942220015
0.12458361749220902   -0.3022887478545377   0.036671483942220015
0.12458361749220902   -0.3022887478545377   0.036671483942220015
0.12458361749220902   -0.3022887478545377   0.036671483942220015
-0.48860982869585373   -0.1526453849751011   0.00045726373820942356
-0.48860982869585373   -0.1526453849751011   0.00045726373820942356
-0.48860982869585373   -0.1526453849751011   0.00045726373820942356
-0.48860982869585373   -0.1526453849751011   0.00045726373820942356
-0.5899524405675957   -0.4498843705546336   0.0499279780333553
-0.5899524405675957   -0.4498843705546336   0.0499279780333553
-0.5899524405675957   -0.4498843705546336   0.0499279780333553
-0.5899524405675957   -0.4498843705546336   0.0499279780333553
0.14331940060929674   -0.025417959925412886   0.01996761029927201
0.14331940060929674   -0.025417959925412886   0.01996761029927201
0.14331940060929674   -0.025417959925412886   0.01996761029927201
0.14331940060929674   -0.025417959925412886   0.01996761029927201
-0.19996990753951194   -0.2292811279345186   0.008640507096188604
-0.19996990753951194   -0.2292811279345186   0.008640507096188604
-0.19996990753951194   -0.2292811279345186   0.008640507096188604
-0.19996990753951194   -0.2292811279345186   0.008640507096188604
0.0857942145983928   -0.3194465758868554   0.02637029620619672
0.0857942145983928   -0.3194465758868554   0.02637029620619672
0.0857942145983928   -0.3194465758868554   0.02637029620619672
0.0857942145983928   -0.3194465758868554   0.02637029620619672
-0.542234550825072   -0.1656630508615717   0.004296107052907949
-0.542234550825072   -0.1656630508615717   0.004296107052907949
-0.542234550825072   -0.1656630508615717   0.004296107052907949
-0.542234550825072   -0.1656630508615717   0.004296107052907949
-0.6249079201472306   -0.4570525927043977   0.04069115668886927
-0.6249079201472306   -0.4570525927043977   0.04069115668886927
-0.6249079201472306   -0.4570525927043977   0.04069115668886927
-0.6249079201472306   -0.4570525927043977   0.04069115668886927
0.11979373073939037   -0.0322768509083806   0.027984748071944555
0.11979373073939037   -0.0322768509083806   0.027984748071944555
0.11979373073939037   -0.0322768509083806   0.027984748071944555
0.11979373073939037   -0.0322768509083806   0.027984748071944555
-0.24365681466872977   -0.24318794125813073   -0.020531370277462227
-0.24365681466872977   -0.24318794125813073   -0.020531370277462227
-0.24365681466872977   -0.24318794125813073   -0.020531370277462227
-0.24365681466872977   -0.24318794125813073   -0.020531370277462227
0.05905259297899959   -0.32499856645382563   0.017000774815437686
0.05905259297899959   -0.32499856645382563   0.017000774815437686
0.05905259297899959   -0.32499856645382563   0.017000774815437686
0.05905259297899959   -0.32499856645382563   0.017000774815437686
-0.5758437281095045   -0.176007822881607   0.004967347054707416
-0.5758437281095045   -0.176007822881607   0.004967347054707416
-0.5758437281095045   -0.176007822881607   0.004967347054707416
-0.5758437281095045   -0.176007822881607   0.004967347054707416
-0.6628055241641031   -0.45391560781978857   0.034210992241238414
-0.6628055241641031   -0.45391560781978857   0.034210992241238414
-0.6628055241641031   -0.45391560781978857   0.034210992241238414
-0.6628055241641031   -0.45391560781978857   0.034210992241238414
0.09362177117801548   -0.036087864441353035   0.033048985697694086
0.09362177117801548   -0.036087864441353035   0.033048985697694086
0.09362177117801548   -0.036087864441353035   0.033048985697694086
0.09362177117801548   -0.036087864441353035   0.033048985697694086
-0.27911317963942445   -0.24845960856421895   -0.04969547903362089
-0.27911317963942445   -0.24845960856421895   -0.04969547903362089
-0.27911317963942445   -0.24845960856421895   -0.04969547903362089
-0.27911317963942445   -0.24845960856421895   -0.04969547903362089
-0.5531211342771443   -0.5183464687880925   0.04360181964475299
-0.5531211342771443   -0.5183464687880925   0.04360181964475299
-0.5531211342771443   -0.5183464687880925   0.04360181964475299
-0.5531211342771443   -0.5183464687880925   0.04360181964475299
-1.2253190145439958   -0.19000629392977092   -0.028318156878397116
-1.2253190145439958   -0.19000629392977092   -0.028318156878397116
-1.2253190145439958   -0.19000629392977092   -0.028318156878397116
-1.2253190145439958   -0.19000629392977092   -0.028318156878397116
-1.4024556997973099   -0.7535482578170589   -0.038902363794135864
-1.4024556997973099   -0.7535482578170589   -0.038902363794135864
-1.4024556997973099   -0.7535482578170589   -0.038902363794135864
-1.4024556997973099   -0.7535482578170589   -0.038902363794135864
-0.5149719095919759   -0.04230638516432428   0.017252647521140335
-0.5149719095919759   -0.04230638516432428   0.017252647521140335
-0.5149719095919759   -0.04230638516432428   0.017252647521140335
-0.5149719095919759   -0.04230638516432428   0.017252647521140335
-0.9150938800556949   -0.36137806972207753   -0.0309432578743892
-0.9150938800556949   -0.36137806972207753   -0.0309432578743892
-0.9150938800556949   -0.36137806972207753   -0.0309432578743892
-0.9150938800556949   -0.36137806972207753   -0.0309432578743892
-0.6244550094702626   -0.5872179119997982   0.014748674965181618
-0.6244550094702626   -0.5872179119997982   0.014748674965181618
-0.6244550094702626   -0.5872179119997982   0.014748674965181618
-0.6244550094702626   -0.5872179119997982   0.014748674965181618
-1.290205047944209   -0.20586917900678256   -0.025328183338918064
-1.290205047944209   -0.20586917900678256   -0.025328183338918064
-1.290205047944209   -0.20586917900678256   -0.025328183338918064
-1.290205047944209   -0.20586917900678256   -0.025328183338918064
-1.4440485728329322   -0.765607976928296   -0.044986503938282074
-1.4440485728329322   -0.765607976928296   -0.044986503938282074
-1.4440485728329322   -0.765607976928296   -0.044986503938282074
-1.4440485728329322   -0.765607976928296   -0.044986503938282074
-0.5472081582375407   -0.05358051850817408   0.02571789204109376
-0.5472081582375407   -0.05358051850817408   0.02571789204109376
-0.5472081582375407   -0.05358051850817408   0.02571789204109376
-0.5472081582375407   -0.05358051850817408   0.02571789204109376
-0.9659394510518675   -0.40046508491466815   -0.04394818155747443
-0.9659394510518675   -0.40046508491466815   -0.04394818155747443
-0.9659394510518675   -0.40046508491466815   -0.04394818155747443
-0.9659394510518675   -0.40046508491466815   -0.04394818155747443
-0.6602189651979299   -0.5986900723895474   0.005773411120520544
-0.6602189651979299   -0.5986900723895474   0.005773411120520544
-0.6602189651979299   -0.5986900723895474   0.005773411120520544
-0.6602189651979299   -0.5986900723895474   0.005773411120520544
-1.3312750500770547   -0.22073570725144664   -0.025991159835755007
-1.3312750500770547   -0.22073570725144664   -0.025991159835755007
-1.3312750500770547   -0.22073570725144664   -0.025991159835755007
-1.3312750500770547   -0.22073570725144664   -0.025991159835755007
-1.479505409023335   -0.7325396394761777   -0.05072706570087532
-1.479505409023335   -0.7325396394761777   -0.05072706570087532
-1.479505409023335   -0.7325396394761777   -0.05072706570087532
-1.479505409023335   -0.7325396394761777   -0.05072706570087532
-0.5879994410036328   -0.06950997402366818   0.023835774247469493
-0.5879994410036328   -0.06950997402366818   0.023835774247469493
-0.5879994410036328   -0.06950997402366818   0.023835774247469493
-0.5879994410036328   -0.06950997402366818   0.023835774247469493
-1.0128069649578326   -0.41376552362111674   -0.056408883648076336
-1.0128069649578326   -0.41376552362111674   -0.056408883648076336
-1.0128069649578326   -0.41376552362111674   -0.056408883648076336
-1.0128069649578326   -0.41376552362111674   -0.056408883648076336
-1.2039772416113044   -0.21926547129267254   0.10764988514794177
-1.2039772416113044   -0.21926547129267254   0.10764988514794177
-1.2039772416113044   -0.21926547129267254   0.10764988514794177
-1.2039772416113044   -0.21926547129267254   0.10764988514794177
-2.118479800233667   -0.1583346303795776   -0.03744851508422553
-2.118479800233667   -0.1583346303795776   -0.03744851508422553
-2.118479800233667   -0.1583346303795776   -0.03744851508422553
-2.118479800233667   -0.1583346303795776   -0.03744851508422553
-2.2479424515713218   -0.44368306148357695   0.029527144153437157
-2.2479424515713218   -0.44368306148357695   0.029527144153437157
-2.2479424515713218   -0.44368306148357695   0.029527144153437157
-2.2479424515713218   -0.44368306148357695   0.029527144153437157
-1.2382208682243   0.01801733756862363   0.010706198685220214
-1.2382208682243   0.01801733756862363   0.010706198685220214
-1.2382208682243   0.01801733756862363   0.010706198685220214
-1.2382208682243   0.01801733756862363   0.010706198685220214
-1.6210969409319316   -0.15584344273157014   0.032543497403130395
-1.6210969409319316   -0.15584344273157014   0.032543497403130395
-1.6210969409319316   -0.15584344273157014   0.032543497403130395
-1.6210969409319316   -0.15584344273157014   0.032543497403130395
-1.2719215266350854   -0.235283547072529   0.09550379127244035
-1.2719215266350854   -0.235283547072529   0.09550379127244035
-1.2719215266350854   -0.235283547072529   0.09550379127244035
-1.2719215266350854   -0.235283547072529   0.09550379127244035
-2.208608078242351   -0.18474846192423577   -0.03273558876102595
-2.208608078242351   -0.18474846192423577   -0.03273558876102595
-2.208608078242351   -0.18474846192423577   -0.03273558876102595
-2.208608078242351   -0.18474846192423577   -0.03273558876102595
-2.3027755582181655   -0.462526423475319   -0.009856559158429867
-2.3027755582181655   -0.462526423475319   -0.009856559158429867
-2.3027755582181655   -0.462526423475319   -0.009856559158429867
-2.3027755582181655   -0.462526423475319   -0.009856559158429867
-1.276945723299529   0.005351874507544735   0.019567892292883415
-1.276945723299529   0.005351874507544735   0.019567892292883415
-1.276945723299529   0.005351874507544735   0.019567892292883415
-1.276945723299529   0.005351874507544735   0.019567892292883415
-1.7178402841153904   -0.20568677798565715   0.013366848568362122
-1.7178402841153904   -0.20568677798565715   0.013366848568362122
-1.7178402841153904   -0.20568677798565715   0.013366848568362122
-1.7178402841153904   -0.20568677798565715   0.013366848568362122
-1.315565767399842   -0.24729103685016324   0.0791105831490258
-1.315565767399842   -0.24729103685016324   0.0791105831490258
-1.315565767399842   -0.24729103685016324   0.0791105831490258
-1.315565767399842   -0.24729103685016324   0.0791105831490258
-2.252807834688524   -0.19853583268827998   -0.02400853229724531
-2.252807834688524   -0.19853583268827998   -0.02400853229724531
-2.252807834688524   -0.19853583268827998   -0.02400853229724531
-2.252807834688524   -0.19853583268827998   -0.02400853229724531
-2.3503799561992387   -0.4701112464006735   -0.00017627580412860056
-2.3503799561992387   -0.4701112464006735   -0.00017627580412860056
-2.3503799561992387   -0.4701112464006735   -0.00017627580412860056
-2.3503799561992387   -0.4701112464006735   -0.00017627580412860056
-1.331345593837589   -0.05050791842563125   0.00804028917730154
-1.331345593837589   -0.05050791842563125   0.00804028917730154
-1.331345593837589   -0.05050791842563125   0.00804028917730154
-1.331345593837589   -0.05050791842563125   0.00804028917730154
-1.7385940198892873   -0.24845929763308394   0.0210874204568946
-1.7385940198892873   -0.24845929763308394   0.0210874204568946
-1.7385940198892873   -0.24845929763308394   0.0210874204568946
-1.7385940198892873   -0.24845929763308394   0.0210874204568946
1.4322894790217866   0.06599735249552975   -0.030993898569083356
1.4322894790217866   0.06599735249552975   -0.030993898569083356
1.4322894790217866   0.06599735249552975   -0.030993898569083356
1.4322894790217866   0.06599735249552975   -0.030993898569083356
0.7206786609694725   -0.014673222374802418   0.015203697497928464
0.7206786609694725   -0.014673222374802418   0.015203697497928464
0.7206786609694725   -0.014673222374802418   0.015203697497928464
0.7206786609694725   -0.014673222374802418   0.015203697497928464
0.6749474683022905   -0.10601126474605503   -0.027427098440855835
0.6749474683022905   -0.10601126474605503   -0.027427098440855835
0.6749474683022905   -0.10601126474605503   -0.027427098440855835
0.6749474683022905   -0.10601126474605503   -0.027427098440855835
1.4157375620874897   0.10333491151707583   0.017788121092127684
1.4157375620874897   0.10333491151707583   0.017788121092127684
1.4157375620874897   0.10333491151707583   0.017788121092127684
1.4157375620874897   0.10333491151707583   0.017788121092127684
1.0053020971725022   0.0024692311915719967   -0.038828916917456296
1.0053020971725022   0.0024692311915719967   -0.038828916917456296
1.0053020971725022   0.0024692311915719967   -0.038828916917456296
1.0053020971725022   0.0024692311915719967   -0.038828916917456296
1.3926036078898156   0.0367466959864919   -0.03129343436564619
1.3926036078898156   0.0367466959864919   -0.03129343436564619
1.3926036078898156   0.0367466959864919   -0.03129343436564619
1.3926036078898156   0.0367466959864919   -0.03129343436564619
0.6968001329318997   -0.04070433878353511   0.01652929874466294
0.6968001329318997   -0.04070433878353511   0.01652929874466294
0.6968001329318997   -0.04070433878353511   0.01652929874466294
0.6968001329318997   -0.04070433878353511   0.01652929874466294
0.6503190675188454   -0.11191586174154505   -0.02266204635379615
0.6503190675188454   -0.11191586174154505   -0.02266204635379615
0.6503190675188454   -0.11191586174154505   -0.02266204635379615
0.6503190675188454   -0.11191586174154505   -0.02266204635379615
1.3815352796043827   0.0949602150260337   0.026030385955622515
1.3815352796043827   0.0949602150260337   0.026030385955622515
1.3815352796043827   0.0949602150260337   0.026030385955622515
1.3815352796043827   0.0949602150260337   0.026030385955622515
0.9919089642416118   -0.010022806086444944   -0.04631227218175246
0.9919089642416118   -0.010022806086444944   -0.04631227218175246
0.9919089642416118   -0.010022806086444944   -0.04631227218175246
0.9919089642416118   -0.010022806086444944   -0.04631227218175246
1.3582284535609235   0.029241432408751572   -0.024784961644391257
1.3582284535609235   0.029241432408751572   -0.024784961644391257
1.3582284535609235   0.029241432408751572   -0.024784961644391257
1.3582284535609235   0.029241432408751572   -0.024784961644391257
0.6718441285523403   -0.047978844134227164   0.021026241206360638
0.6718441285523403   -0.047978844134227164   0.021026241206360638
0.6718441285523403   -0.047978844134227164   0.021026241206360638
0.6718441285523403   -0.047978844134227164   0.021026241206360638
0.626473826153535   -0.11022633816803037   -0.015545861084255347
0.626473826153535   -0.11022633816803037   -0.015545861084255347
0.626473826153535   -0.11022633816803037   -0.015545861084255347
0.626473826153535   -0.11022633816803037   -0.015545861084255347
1.33919380737498   0.08931652431863156   0.033895299074488294
1.33919380737498   0.08931652431863156   0.033895299074488294
1.33919380737498   0.08931652431863156   0.033895299074488294
1.33919380737498   0.08931652431863156   0.033895299074488294
0.9429396121875102   -0.01747810652911022   -0.060804379699041816
0.9429396121875102   -0.01747810652911022   -0.060804379699041816
0.9429396121875102   -0.01747810652911022   -0.060804379699041816
0.9429396121875102   -0.01747810652911022   -0.060804379699041816
0.7247073876755125   0.01412247522527181   0.0065516334280539545
0.7247073876755125   0.01412247522527181   0.0065516334280539545
0.7247073876755125   0.01412247522527181   0.0065516334280539545
0.7247073876755125   0.01412247522527181   0.0065516334280539545
0.06928322734141187   -0.04350166776163118   -0.0016955750545992352
0.06928322734141187   -0.04350166776163118   -0.0016955750545992352
0.06928322734141187   -0.04350166776163118   -0.0016955750545992352
0.06928322734141187   -0.04350166776163118   -0.0016955750545992352
0.026189034553126374   -0.1401606120572061   -0.026406993338320705
0.026189034553126374   -0.1401606120572061   -0.026406993338320705
0.026189034553126374   -0.1401606120572061   -0.026406993338320705
0.026189034553126374   -0.1401606120572061   -0.026406993338320705
0.7255487191541784   0.08371294788557584   0.035854943186945265
0.7255487191541784   0.08371294788557584   0.035854943186945265
0.7255487191541784   0.08371294788557584   0.035854943186945265
0.7255487191541784   0.08371294788557584   0.035854943186945265
0.3793413902876628   -0.019624125008032834   -0.015004789051945688
0.3793413902876628   -0.019624125008032834   -0.015004789051945688
0.3793413902876628   -0.019624125008032834   -0.015004789051945688
0.3793413902876628   -0.019624125008032834   -0.015004789051945688
0.7044669044303529   0.0030067700638189976   0.011152047389578174
0.7044669044303529   0.0030067700638189976   0.011152047389578174
0.7044669044303529   0.0030067700638189976   0.011152047389578174
0.7044669044303529   0.0030067700638189976   0.011152047389578174
0.0480733433895813   -0.05865194012281921   0.0015058789095670887
0.0480733433895813   -0.05865194012281921   0.0015058789095670887
0.0480733433895813   -0.05865194012281921   0.0015058789095670887
0.0480733433895813   -0.05865194012281921   0.0015058789095670887
0.002441975843298339   -0.14682758653038594   -0.018395750031674537
0.002441975843298339   -0.14682758653038594   -0.018395750031674537
0.002441975843298339   -0.14682758653038594   -0.018395750031674537
0.002441975843298339   -0.14682758653038594   -0.018395750031674537
0.6994805802564639   0.07168616635539049   0.03954348923736087
0.6994805802564639   0.07168616635539049   0.03954348923736087
0.6994805802564639   0.07168616635539049   0.03954348923736087
0.6994805802564639   0.07168616635539049   0.03954348923736087
0.35199841538376786   -0.030700378877506776   -0.02124414540388525
0.35199841538376786   -0.030700378877506776   -0.02124414540388525
0.35199841538376786   -0.030700378877506776   -0.02124414540388525
0.35199841538376786   -0.030700378877506776   -0.02124414540388525
0.6795851128271063   -0.004474454531746268   0.01622677297771577
0.6795851128271063   -0.004474454531746268   0.01622677297771577
0.6795851128271063   -0.004474454531746268   0.01622677297771577
0.6795851128271063   -0.004474454531746268   0.01622677297771577
0.022226337995698973   -0.0707780709202051   0.004476545120147802
0.022226337995698973   -0.0707780709202051   0.004476545120147802
0.022226337995698973   -0.0707780709202051   0.004476545120147802
0.022226337995698973   -0.0707780709202051   0.004476545120147802
-0.023046818304695245   -0.147462244127625   -0.012559608136102452
-0.023046818304695245   -0.147462244127625   -0.012559608136102452
-0.023046818304695245   -0.147462244127625   -0.012559608136102452
-0.023046818304695245   -0.147462244127625   -0.012559608136102452
0.6731791111620267   0.06405434936252602   0.04369987642764894
0.6731791111620267   0.06405434936252602   0.04369987642764894
0.6731791111620267   0.06405434936252602   0.04369987642764894
0.6731791111620267   0.06405434936252602   0.04369987642764894
0.33063131610198115   -0.03509489676373631   -0.0265964583360086
0.33063131610198115   -0.03509489676373631   -0.0265964583360086
0.33063131610198115   -0.03509489676373631   -0.0265964583360086
0.33063131610198115   -0.03509489676373631   -0.0265964583360086
0.07073976494376566   -0.04037485829642651   0.0024603034919630637
0.07073976494376566   -0.04037485829642651   0.0024603034919630637
0.07073976494376566   -0.04037485829642651   0.0024603034919630637
0.07073976494376566   -0.04037485829642651   0.0024603034919630637
-0.5604153358635738   -0.06473969962519602   -0.01762466912945082
-0.5604153358635738   -0.06473969962519602   -0.01762466912945082
-0.5604153358635738   -0.06473969962519602   -0.01762466912945082
-0.5604153358635738   -0.06473969962519602   -0.01762466912945082
-0.6083249348234194   -0.18576217205237439   -0.030109114902758027
-0.6083249348234194   -0.18576217205237439   -0.030109114902758027
-0.6083249348234194   -0.18576217205237439   -0.030109114902758027
-0.6083249348234194   -0.18576217205237439   -0.030109114902758027
0.07589379621105084   0.06135777551870026   0.020598427375395228
0.07589379621105084   0.06135777551870026   0.020598427375395228
0.07589379621105084   0.06135777551870026   0.020598427375395228
0.07589379621105084   0.06135777551870026   0.020598427375395228
-0.25627770622816204   -0.05463328073477754   -0.014883164512343575
-0.25627770622816204   -0.05463328073477754   -0.014883164512343575
-0.25627770622816204   -0.05463328073477754   -0.014883164512343575
-0.25627770622816204   -0.05463328073477754   -0.014883164512343575
0.052893397924317576   -0.04508820019181439   0.01204241165224362
0.052893397924317576   -0.04508820019181439   0.01204241165224362
0.052893397924317576   -0.04508820019181439   0.01204241165224362
0.052893397924317576   -0.04508820019181439   0.01204241165224362
-0.5835615387441158   -0.07755319854927911   -0.014501108009335018
-0.5835615387441158   -0.07755319854927911   -0.014501108009335018
-0.5835615387441158   -0.07755319854927911   -0.014501108009335018
-0.5835615387441158   -0.07755319854927911   -0.014501108009335018
-0.6361700696464443   -0.19306066448724912   -0.019970519436501993
-0.6361700696464443   -0.19306066448724912   -0.019970519436501993
-0.6361700696464443   -0.19306066448724912   -0.019970519436501993
-0.6361700696464443   -0.19306066448724912   -0.019970519436501993
0.04984100107079281   0.04848499258753224   0.023286796987879686
0.04984100107079281   0.04848499258753224   0.023286796987879686
0.04984100107079281   0.04848499258753224   0.023286796987879686
0.04984100107079281   0.04848499258753224   0.023286796987879686
-0.2793168896629596   -0.062290059415845256   -0.01784896090889622
-0.2793168896629596   -0.062290059415845256   -0.01784896090889622
-0.2793168896629596   -0.062290059415845256   -0.01784896090889622
-0.2793168896629596   -0.062290059415845256   -0.01784896090889622
0.028237841750709928   -0.05286148310458842   0.016617476079585893
0.028237841750709928   -0.05286148310458842   0.016617476079585893
0.028237841750709928   -0.05286148310458842   0.016617476079585893
0.028237841750709928   -0.05286148310458842   0.016617476079585893
-0.6141950795667567   -0.09134235803551344   -0.011813875489799341
-0.6141950795667567   -0.09134235803551344   -0.011813875489799341
-0.6141950795667567   -0.09134235803551344   -0.011813875489799341
-0.6141950795667567   -0.09134235803551344   -0.011813875489799341
-0.6670628795511025   -0.19838497443559755   -0.01775191354441033
-0.6670628795511025   -0.19838497443559755   -0.01775191354441033
-0.6670628795511025   -0.19838497443559755   -0.01775191354441033
-0.6670628795511025   -0.19838497443559755   -0.01775191354441033
0.021660466151072963   0.03749632089987468   0.026018249115238944
0.021660466151072963   0.03749632089987468   0.026018249115238944
0.021660466151072963   0.03749632089987468   0.026018249115238944
0.021660466151072963   0.03749632089987468   0.026018249115238944
-0.3092445886963458   -0.07145667288524411   -0.024998528042170766
-0.3092445886963458   -0.07145667288524411   -0.024998528042170766
-0.3092445886963458   -0.07145667288524411   -0.024998528042170766
-0.3092445886963458   -0.07145667288524411   -0.024998528042170766
-0.551761222673184   -0.04787488728372542   0.008781084481018497
-0.551761222673184   -0.04787488728372542   0.008781084481018497
-0.551761222673184   -0.04787488728372542   0.008781084481018497
-0.551761222673184   -0.04787488728372542   0.008781084481018497
-1.1751464402039657   -0.07577489366331283   -0.031031792621548066
-1.1751464402039657   -0.07577489366331283   -0.031031792621548066
-1.1751464402039657   -0.07577489366331283   -0.031031792621548066
-1.1751464402039657   -0.07577489366331283   -0.031031792621548066
-1.2295947443589446   -0.19470405253440892   -0.030112854562314384
-1.2295947443589446   -0.19470405253440892   -0.030112854562314384
-1.2295947443589446   -0.19470405253440892   -0.030112854562314384
-1.2295947443589446   -0.19470405253440892   -0.030112854562314384
-0.5545972203239077   0.04690032636575403   0.005866959176672418
-0.5545972203239077   0.04690032636575403   0.005866959176672418
-0.5545972203239077   0.04690032636575403   0.005866959176672418
-0.5545972203239077   0.04690032636575403   0.005866959176672418
-0.8705497858190965   -0.06472056324008482   -0.012483946657042416
-0.8705497858190965   -0.06472056324008482   -0.012483946657042416
-0.8705497858190965   -0.06472056324008482   -0.012483946657042416
-0.8705497858190965   -0.06472056324008482   -0.012483946657042416
-0.5715248930804145   -0.05286810584521802   0.020997027605110186
-0.5715248930804145   -0.05286810584521802   0.020997027605110186
-0.5715248930804145   -0.05286810584521802   0.020997027605110186
-0.5715248930804145   -0.05286810584521802   0.020997027605110186
-1.2092158029174263   -0.09148435163842199   -0.03143784825071966
-1.2092158029174263   -0.09148435163842199   -0.03143784825071966
-1.2092158029174263   -0.09148435163842199   -0.03143784825071966
-1.2092158029174263   -0.09148435163842199   -0.03143784825071966
-1.2681077726424432   -0.2071364565550156   -0.02116218378821122
-1.2681077726424432   -0.2071364565550156   -0.02116218378821122
-1.2681077726424432   -0.2071364565550156   -0.02116218378821122
-1.2681077726424432   -0.2071364565550156   -0.02116218378821122
-0.5855706820279739   0.032798375937376306   0.007167378231224861
-0.5855706820279739   0.032798375937376306   0.007167378231224861
-0.5855706820279739   0.032798375937376306   0.007167378231224861
-0.5855706820279739   0.032798375937376306   0.007167378231224861
-0.8948755113359765   -0.07158924037150113   -0.012510543553687886
-0.8948755113359765   -0.07158924037150113   -0.012510543553687886
-0.8948755113359765   -0.07158924037150113   -0.012510543553687886
-0.8948755113359765   -0.07158924037150113   -0.012510543553687886
-0.6022778165174254   -0.0653766768567509   0.021806758578094443
-0.6022778165174254   -0.0653766768567509   0.021806758578094443
-0.6022778165174254   -0.0653766768567509   0.021806758578094443
-0.6022778165174254   -0.0653766768567509   0.021806758578094443
-1.2490865801522777   -0.10664734576017608   -0.026545332132233257
-1.2490865801522777   -0.10664734576017608   -0.026545332132233257
-1.2490865801522777   -0.10664734576017608   -0.026545332132233257
-1.2490865801522777   -0.10664734576017608   -0.026545332132233257
-1.311679521610014   -0.22353971618006457   -0.022632855928070073
-1.311679521610014   -0.22353971618006457   -0.022632855928070073
-1.311679521610014   -0.22353971618006457   -0.022632855928070073
-1.311679521610014   -0.22353971618006457   -0.022632855928070073
-0.6190462037416669   0.01538509982070261   0.008561391246462241
-0.6190462037416669   0.01538509982070261   0.008561391246462241
-0.6190462037416669   0.01538509982070261   0.008561391246462241
-0.6190462037416669   0.01538509982070261   0.008561391246462241
-0.9381379741952214   -0.08842763662583147   -0.020365410975122178
-0.9381379741952214   -0.08842763662583147   -0.020365410975122178
-0.9381379741952214   -0.08842763662583147   -0.020365410975122178
-0.9381379741952214   -0.08842763662583147   -0.020365410975122178
-1.1354284650798938   0.05343498127926834   0.03834820805623046
-1.1354284650798938   0.05343498127926834   0.03834820805623046
-1.1354284650798938   0.05343498127926834   0.03834820805623046
-1.1354284650798938   0.05343498127926834   0.03834820805623046
-1.760370821493183   -0.08769490086612264   -0.023571391547140608
-1.760370821493183   -0.08769490086612264   -0.023571391547140608
-1.760370821493183   -0.08769490086612264   -0.023571391547140608
-1.760370821493183   -0.08769490086612264   -0.023571391547140608
-1.8035062608901353   -0.08931078846823767   0.039350961166748966
-1.8035062608901353   -0.08931078846823767   0.039350961166748966
-1.8035062608901353   -0.08931078846823767   0.039350961166748966
-1.8035062608901353   -0.08931078846823767   0.039350961166748966
-1.1791776797074256   0.03662623162536666   -0.009357815464504121
-1.1791776797074256   0.03662623162536666   -0.009357815464504121
-1.1791776797074256   0.03662623162536666   -0.009357815464504121
-1.1791776797074256   0.03662623162536666   -0.009357815464504121
-1.4011213951442523   0.0010215486873107887   0.035582864324789576
-1.4011213951442523   0.0010215486873107887   0.035582864324789576
-1.4011213951442523   0.0010215486873107887   0.035582864324789576
-1.4011213951442523   0.0010215486873107887   0.035582864324789576
-1.1669773661751852   0.03981566250484504   0.048454321317212556
-1.1669773661751852   0.03981566250484504   0.048454321317212556
-1.1669773661751852   0.03981566250484504   0.048454321317212556
-1.1669773661751852   0.03981566250484504   0.048454321317212556
-1.8148990376762284   -0.09169268260156987   -0.015231028630384003
-1.8148990376762284   -0.09169268260156987   -0.015231028630384003
-1.8148990376762284   -0.09169268260156987   -0.015231028630384003
-1.8148990376762284   -0.09169268260156987   -0.015231028630384003
-1.8579406634704225   -0.104053306947481   0.05353692518870995
-1.8579406634704225   -0.104053306947481   0.05353692518870995
-1.8579406634704225   -0.104053306947481   0.05353692518870995
-1.8579406634704225   -0.104053306947481   0.05353692518870995
-1.21908542553888   0.02660666468492022   -0.009793569510341993
-1.21908542553888   0.02660666468492022   -0.009793569510341993
-1.21908542553888   0.02660666468492022   -0.009793569510341993
-1.21908542553888   0.02660666468492022   -0.009793569510341993
-1.4714297283962012   -0.01622340972329636   0.019525772135341013
-1.4714297283962012   -0.01622340972329636   0.019525772135341013
-1.4714297283962012   -0.01622340972329636   0.019525772135341013
-1.4714297283962012   -0.01622340972329636   0.019525772135341013
-1.20793159609899   0.024797974969901423   0.047784267404127945
-1.20793159609899   0.024797974969901423   0.047784267404127945
-1.20793159609899   0.024797974969901423   0.047784267404127945
-1.20793159609899   0.024797974969901423   0.047784267404127945
-1.8711952203973972   -0.104345344719533   -0.012443821674091027
-1.8711952203973972   -0.104345344719533   -0.012443821674091027
-1.8711952203973972   -0.104345344719533   -0.012443821674091027
-1.8711952203973972   -0.104345344719533   -0.012443821674091027
-1.9353480038479143   -0.1636232689390107   0.04646594662072978
-1.9353480038479143   -0.1636232689390107   0.04646594662072978
-1.9353480038479143   -0.1636232689390107   0.04646594662072978
-1.9353480038479143   -0.1636232689390107   0.04646594662072978
-1.2650984215315257   -0.004040700383043883   -0.009226371332655692
-1.2650984215315257   -0.004040700383043883   -0.009226371332655692
-1.2650984215315257   -0.004040700383043883   -0.009226371332655692
-1.2650984215315257   -0.004040700383043883   -0.009226371332655692
-1.5012312789571418   -0.03796093442477595   0.005436647606106404
-1.5012312789571418   -0.03796093442477595   0.005436647606106404
-1.5012312789571418   -0.03796093442477595   0.005436647606106404
-1.5012312789571418   -0.03796093442477595   0.005436647606106404
1.1616062980087203   0.062219315341721954   -0.04126125095869737
1.1616062980087203   0.062219315341721954   -0.04126125095869737
1.1616062980087203   0.062219315341721954   -0.04126125095869737
1.1616062980087203   0.062219315341721954   -0.04126125095869737
0.5756329688612514   -0.0007504910937347065   0.014908337582194009
0.5756329688612514   -0.0007504910937347065   0.014908337582194009
0.5756329688612514   -0.0007504910937347065   0.014908337582194009
0.5756329688612514   -0.0007504910937347065   0.014908337582194009
0.5262676977634899   -0.0856931830206302   -0.03788248727243326
0.5262676977634899   -0.0856931830206302   -0.03788248727243326
0.5262676977634899   -0.0856931830206302   -0.03788248727243326
0.5262676977634899   -0.0856931830206302   -0.03788248727243326
1.1398099010646752   0.09385354304949166   0.018702430617181298
1.1398099010646752   0.09385354304949166   0.018702430617181298
1.1398099010646752   0.09385354304949166   0.018702430617181298
1.1398099010646752   0.09385354304949166   0.018702430617181298
0.8068423215677022   0.007119290119475694   -0.026557842478662497
0.8068423215677022   0.007119290119475694   -0.026557842478662497
0.8068423215677022   0.007119290119475694   -0.026557842478662497
0.8068423215677022   0.007119290119475694   -0.026557842478662497
1.1157099686766796   0.03181919246819098   -0.03976288074148632
1.1157099686766796   0.03181919246819098   -0.03976288074148632
1.1157099686766796   0.03181919246819098   -0.03976288074148632
1.1157099686766796   0.03181919246819098   -0.03976288074148632
0.5493378539158721   -0.02468860867494814   0.01646371914378536
0.5493378539158721   -0.02468860867494814   0.01646371914378536
0.5493378539158721   -0.02468860867494814   0.01646371914378536
0.5493378539158721   -0.02468860867494814   0.01646371914378536
0.5015789574361071   -0.09282493783157267   -0.03293905616410309
0.5015789574361071   -0.09282493783157267   -0.03293905616410309
0.5015789574361071   -0.09282493783157267   -0.03293905616410309
0.5015789574361071   -0.09282493783157267   -0.03293905616410309
1.102886534281516   0.0840431214230461   0.025595091245595697
1.102886534281516   0.0840431214230461   0.025595091245595697
1.102886534281516   0.0840431214230461   0.025595091245595697
1.102886534281516   0.0840431214230461   0.025595091245595697
0.7875873278032371   -0.005751974606387988   -0.03483669140082954
0.7875873278032371   -0.005751974606387988   -0.03483669140082954
0.7875873278032371   -0.005751974606387988   -0.03483669140082954
0.7875873278032371   -0.005751974606387988   -0.03483669140082954
1.0792988560113705   0.023039014483244566   -0.03133919316531103
1.0792988560113705   0.023039014483244566   -0.03133919316531103
1.0792988560113705   0.023039014483244566   -0.03133919316531103
1.0792988560113705   0.023039014483244566   -0.03133919316531103
0.5242399134325646   -0.03274755316545175   0.020288339152057966
0.5242399134325646   -0.03274755316545175   0.020288339152057966
0.5242399134325646   -0.03274755316545175   0.020288339152057966
0.5242399134325646   -0.03274755316545175   0.020288339152057966
0.47904331840926995   -0.09487527467551006   -0.02691320693050961
0.47904331840926995   -0.09487527467551006   -0.02691320693050961
0.47904331840926995   -0.09487527467551006   -0.02691320693050961
0.47904331840926995   -0.09487527467551006   -0.02691320693050961
1.0612615333932114   0.07549121231871041   0.031875101757638524
1.0612615333932114   0.07549121231871041   0.031875101757638524
1.0612615333932114   0.07549121231871041   0.031875101757638524
1.0612615333932114   0.07549121231871041   0.031875101757638524
0.742506091691633   -0.014594984602501096   -0.04728964071500913
0.742506091691633   -0.014594984602501096   -0.04728964071500913
0.742506091691633   -0.014594984602501096   -0.04728964071500913
0.742506091691633   -0.014594984602501096   -0.04728964071500913
0.5856080582817329   0.060757560129605294   0.0032757334612620592
0.5856080582817329   0.060757560129605294   0.0032757334612620592
0.5856080582817329   0.060757560129605294   0.0032757334612620592
0.5856080582817329   0.060757560129605294   0.0032757334612620592
0.019695136733268483   -0.01930307650276488   -0.002432317804972377
0.019695136733268483   -0.01930307650276488   -0.002432317804972377
0.019695136733268483   -0.01930307650276488   -0.002432317804972377
0.019695136733268483   -0.01930307650276488   -0.002432317804972377
-0.017516380949159697   -0.0772313472964148   -0.02580143261966989
-0.017516380949159697   -0.0772313472964148   -0.02580143261966989
-0.017516380949159697   -0.0772313472964148   -0.02580143261966989
-0.017516380949159697   -0.0772313472964148   -0.02580143261966989
0.5743487723509351   0.08502342178772909   0.03180628085642351
0.5743487723509351   0.08502342178772909   0.03180628085642351
0.5743487723509351   0.08502342178772909   0.03180628085642351
0.5743487723509351   0.08502342178772909   0.03180628085642351
0.28600565647718823   0.012113521093547578   -0.0032554985891113802
0.28600565647718823   0.012113521093547578   -0.0032554985891113802
0.28600565647718823   0.012113521093547578   -0.0032554985891113802
0.28600565647718823   0.012113521093547578   -0.0032554985891113802
0.5612982451724325   0.04500606483513845   0.006571001916504199
0.5612982451724325   0.04500606483513845   0.006571001916504199
0.5612982451724325   0.04500606483513845   0.006571001916504199
0.5612982451724325   0.04500606483513845   0.006571001916504199
-0.004233018718960256   -0.03698115529212682   0.00036518652703931495
-0.004233018718960256   -0.03698115529212682   0.00036518652703931495
-0.004233018718960256   -0.03698115529212682   0.00036518652703931495
-0.004233018718960256   -0.03698115529212682   0.00036518652703931495
-0.04090323090880988   -0.08876156594817289   -0.02231136111518227
-0.04090323090880988   -0.08876156594817289   -0.02231136111518227
-0.04090323090880988   -0.08876156594817289   -0.02231136111518227
-0.04090323090880988   -0.08876156594817289   -0.02231136111518227
0.5478549974287346   0.07042611365509058   0.03519009231236561
0.5478549974287346   0.07042611365509058   0.03519009231236561
0.5478549974287346   0.07042611365509058   0.03519009231236561
0.5478549974287346   0.07042611365509058   0.03519009231236561
0.2574240242842462   -0.0022779229293298925   -0.01143101073921974
0.2574240242842462   -0.0022779229293298925   -0.01143101073921974
0.2574240242842462   -0.0022779229293298925   -0.01143101073921974
0.2574240242842462   -0.0022779229293298925   -0.01143101073921974
0.5352948782556464   0.03291954177346065   0.009896068328559826
0.5352948782556464   0.03291954177346065   0.009896068328559826
0.5352948782556464   0.03291954177346065   0.009896068328559826
0.5352948782556464   0.03291954177346065   0.009896068328559826
-0.028320977503483422   -0.051232859834308926   0.003071199797586067
-0.028320977503483422   -0.051232859834308926   0.003071199797586067
-0.028320977503483422   -0.051232859834308926   0.003071199797586067
-0.028320977503483422   -0.051232859834308926   0.003071199797586067
-0.06405083885739099   -0.0956836157710137   -0.017759999220631907
-0.06405083885739099   -0.0956836157710137   -0.017759999220631907
-0.06405083885739099   -0.0956836157710137   -0.017759999220631907
-0.06405083885739099   -0.0956836157710137   -0.017759999220631907
0.5226563733001569   0.058129709241451694   0.038147083606957136
0.5226563733001569   0.058129709241451694   0.038147083606957136
0.5226563733001569   0.058129709241451694   0.038147083606957136
0.5226563733001569   0.058129709241451694   0.038147083606957136
0.2363143283932856   -0.01146299830908198   -0.01745012337532883
0.2363143283932856   -0.01146299830908198   -0.01745012337532883
0.2363143283932856   -0.01146299830908198   -0.01745012337532883
0.2363143283932856   -0.01146299830908198   -0.01745012337532883
0.03894035466169925   0.06129542614386006   0.013195269190556486
0.03894035466169925   0.06129542614386006   0.013195269190556486
0.03894035466169925   0.06129542614386006   0.013195269190556486
0.03894035466169925   0.06129542614386006   0.013195269190556486
-0.5190419815267387   -0.033681870370887525   -0.017846812448038582
-0.5190419815267387   -0.033681870370887525   -0.017846812448038582
-0.5190419815267387   -0.033681870370887525   -0.017846812448038582
-0.5190419815267387   -0.033681870370887525   -0.017846812448038582
-0.5480727620279073   -0.07083006717877077   -0.01637422787303247
-0.5480727620279073   -0.07083006717877077   -0.01637422787303247
-0.5480727620279073   -0.07083006717877077   -0.01637422787303247
-0.5480727620279073   -0.07083006717877077   -0.01637422787303247
0.02010342173539546   0.0696302325089039   0.01543600099778716
0.02010342173539546   0.0696302325089039   0.01543600099778716
0.02010342173539546   0.0696302325089039   0.01543600099778716
0.02010342173539546   0.0696302325089039   0.01543600099778716
-0.25170081800524946   0.007774043885756709   0.0009684043374833043
-0.25170081800524946   0.007774043885756709   0.0009684043374833043
-0.25170081800524946   0.007774043885756709   0.0009684043374833043
-0.25170081800524946   0.007774043885756709   0.0009684043374833043
0.016122674776072453   0.0485969712488724   0.01656552746120364
0.016122674776072453   0.0485969712488724   0.01656552746120364
0.016122674776072453   0.0485969712488724   0.01656552746120364
0.016122674776072453   0.0485969712488724   0.01656552746120364
-0.5434534115161382   -0.0491582023662932   -0.014949340126664643
-0.5434534115161382   -0.0491582023662932   -0.014949340126664643
-0.5434534115161382   -0.0491582023662932   -0.014949340126664643
-0.5434534115161382   -0.0491582023662932   -0.014949340126664643
-0.5731693824151232   -0.08349671970203834   -0.013611380974087928
-0.5731693824151232   -0.08349671970203834   -0.013611380974087928
-0.5731693824151232   -0.08349671970203834   -0.013611380974087928
-0.5731693824151232   -0.08349671970203834   -0.013611380974087928
-0.0040202220560922874   0.05461511690182879   0.01872700029840403
-0.0040202220560922874   0.05461511690182879   0.01872700029840403
-0.0040202220560922874   0.05461511690182879   0.01872700029840403
-0.0040202220560922874   0.05461511690182879   0.01872700029840403
-0.27574640671859907   -0.004630572826755755   -0.0051721503532861784
-0.27574640671859907   -0.004630572826755755   -0.0051721503532861784
-0.27574640671859907   -0.004630572826755755   -0.0051721503532861784
-0.27574640671859907   -0.004630572826755755   -0.0051721503532861784
-0.007418960362139583   0.03637110503114603   0.019977320638850316
-0.007418960362139583   0.03637110503114603   0.019977320638850316
-0.007418960362139583   0.03637110503114603   0.019977320638850316
-0.007418960362139583   0.03637110503114603   0.019977320638850316
-0.5692232134419837   -0.06470527716425825   -0.012671978646170506
-0.5692232134419837   -0.06470527716425825   -0.012671978646170506
-0.5692232134419837   -0.06470527716425825   -0.012671978646170506
-0.5692232134419837   -0.06470527716425825   -0.012671978646170506
-0.5980941866141627   -0.09346177555692659   -0.009017580403562375
-0.5980941866141627   -0.09346177555692659   -0.009017580403562375
-0.5980941866141627   -0.09346177555692659   -0.009017580403562375
-0.5980941866141627   -0.09346177555692659   -0.009017580403562375
-0.029013334815124338   0.040470504097975195   0.021273401121714323
-0.029013334815124338   0.040470504097975195   0.021273401121714323
-0.029013334815124338   0.040470504097975195   0.021273401121714323
-0.029013334815124338   0.040470504097975195   0.021273401121714323
-0.3016198985772778   -0.017245575718139207   -0.01188447410253532
-0.3016198985772778   -0.017245575718139207   -0.01188447410253532
-0.3016198985772778   -0.017245575718139207   -0.01188447410253532
-0.3016198985772778   -0.017245575718139207   -0.01188447410253532
-0.48946608027270033   0.07236475128125897   0.02398607217001486
-0.48946608027270033   0.07236475128125897   0.02398607217001486
-0.48946608027270033   0.07236475128125897   0.02398607217001486
-0.48946608027270033   0.07236475128125897   0.02398607217001486
-1.04004463485873   -0.04629462856556766   -0.029227349667861946
-1.04004463485873   -0.04629462856556766   -0.029227349667861946
-1.04004463485873   -0.04629462856556766   -0.029227349667861946
-1.04004463485873   -0.04629462856556766   -0.029227349667861946
-1.062674755643318   -0.05683861242584117   -0.004750199461923815
-1.062674755643318   -0.05683861242584117   -0.004750199461923815
-1.062674755643318   -0.05683861242584117   -0.004750199461923815
-1.062674755643318   -0.05683861242584117   -0.004750199461923815
-0.5202561079285308   0.05269353258275199   -0.0008145571376687172
-0.5202561079285308   0.05269353258275199   -0.0008145571376687172
-0.5202561079285308   0.05269353258275199   -0.0008145571376687172
-0.5202561079285308   0.05269353258275199   -0.0008145571376687172
-0.7724884920649924   0.007857123784836328   0.005638479711882555
-0.7724884920649924   0.007857123784836328   0.005638479711882555
-0.7724884920649924   0.007857123784836328   0.005638479711882555
-0.7724884920649924   0.007857123784836328   0.005638479711882555
-0.5133776094515663   0.05935429189239602   0.026917175937510335
-0.5133776094515663   0.05935429189239602   0.026917175937510335
-0.5133776094515663   0.05935429189239602   0.026917175937510335
-0.5133776094515663   0.05935429189239602   0.026917175937510335
-1.0686888778658206   -0.0626349954810233   -0.02902442751925527
-1.0686888778658206   -0.0626349954810233   -0.02902442751925527
-1.0686888778658206   -0.0626349954810233   -0.02902442751925527
-1.0686888778658206   -0.0626349954810233   -0.02902442751925527
-1.0935794412165374   -0.07108290902412402   -0.00423028738768233
-1.0935794412165374   -0.07108290902412402   -0.00423028738768233
-1.0935794412165374   -0.07108290902412402   -0.00423028738768233
-1.0935794412165374   -0.07108290902412402   -0.00423028738768233
-0.5456515939980472   0.038365147965871746   0.0021156934433869123
-0.5456515939980472   0.038365147965871746   0.0021156934433869123
-0.5456515939980472   0.038365147965871746   0.0021156934433869123
-0.5456515939980472   0.038365147965871746   0.0021156934433869123
-0.7941075012289092   -0.003479242411629252   0.0006032818978377041
-0.7941075012289092   -0.003479242411629252   0.0006032818978377041
-0.7941075012289092   -0.003479242411629252   0.0006032818978377041
-0.7941075012289092   -0.003479242411629252   0.0006032818978377041
-0.5381162223311725   0.04707277681600997   0.031084922927622577
-0.5381162223311725   0.04707277681600997   0.031084922927622577
-0.5381162223311725   0.04707277681600997   0.031084922927622577
-0.5381162223311725   0.04707277681600997   0.031084922927622577
-1.099354898013752   -0.0780306230046019   -0.026159857393276614
-1.099354898013752   -0.0780306230046019   -0.026159857393276614
-1.099354898013752   -0.0780306230046019   -0.026159857393276614
-1.099354898013752   -0.0780306230046019   -0.026159857393276614
-1.1220305330827665   -0.08633851563549476   0.0029276433066056096
-1.1220305330827665   -0.08633851563549476   0.0029276433066056096
-1.1220305330827665   -0.08633851563549476   0.0029276433066056096
-1.1220305330827665   -0.08633851563549476   0.0029276433066056096
-0.5725645357765563   0.02130673825647994   0.0038621599710626092
-0.5725645357765563   0.02130673825647994   0.0038621599710626092
-0.5725645357765563   0.02130673825647994   0.0038621599710626092
-0.5725645357765563   0.02130673825647994   0.0038621599710626092
-0.8279035765888312   -0.019414488102158692   -0.006175135546863969
-0.8279035765888312   -0.019414488102158692   -0.006175135546863969
-0.8279035765888312   -0.019414488102158692   -0.006175135546863969
-0.8279035765888312   -0.019414488102158692   -0.006175135546863969
-1.0031985947095334   0.07516288941878707   0.033545333093758345
-1.0031985947095334   0.07516288941878707   0.033545333093758345
-1.0031985947095334   0.07516288941878707   0.033545333093758345
-1.0031985947095334   0.07516288941878707   0.033545333093758345
-1.5353888015628252   -0.07103985059946778   -0.026899241034469168
-1.5353888015628252   -0.07103985059946778   -0.026899241034469168
-1.5353888015628252   -0.07103985059946778   -0.026899241034469168
-1.5353888015628252   -0.07103985059946778   -0.026899241034469168
-1.5563745683561327   -0.031237724125813993   0.028519294428330788
-1.5563745683561327   -0.031237724125813993   0.028519294428330788
-1.5563745683561327   -0.031237724125813993   0.028519294428330788
-1.5563745683561327   -0.031237724125813993   0.028519294428330788
-1.0470428056822287   0.031615830030941115   -0.015044892113259933
-1.0470428056822287   0.031615830030941115   -0.015044892113259933
-1.0470428056822287   0.031615830030941115   -0.015044892113259933
-1.0470428056822287   0.031615830030941115   -0.015044892113259933
-1.2286793902256943   0.015604679807572325   0.02826524699369154
-1.2286793902256943   0.015604679807572325   0.02826524699369154
-1.2286793902256943   0.015604679807572325   0.02826524699369154
-1.2286793902256943   0.015604679807572325   0.02826524699369154
-1.027331238817458   0.0765773644538048   0.03855140778771898
-1.027331238817458   0.0765773644538048   0.03855140778771898
-1.027331238817458   0.0765773644538048   0.03855140778771898
-1.027331238817458   0.0765773644538048   0.03855140778771898
-1.5749231011836125   -0.07503622451138116   -0.020424869323487693
-1.5749231011836125   -0.07503622451138116   -0.020424869323487693
-1.5749231011836125   -0.07503622451138116   -0.020424869323487693
-1.5749231011836125   -0.07503622451138116   -0.020424869323487693
-1.5947618888091726   -0.03869054847333503   0.03939682796867411
-1.5947618888091726   -0.03869054847333503   0.03939682796867411
-1.5947618888091726   -0.03869054847333503   0.03939682796867411
-1.5947618888091726   -0.03869054847333503   0.03939682796867411
-1.076517765732498   0.02338198917064801   -0.013386808162256042
-1.076517765732498   0.02338198917064801   -0.013386808162256042
-1.076517765732498   0.02338198917064801   -0.013386808162256042
-1.076517765732498   0.02338198917064801   -0.013386808162256042
-1.2815573281938424   0.007705561370069752   0.01820329697968237
-1.2815573281938424   0.007705561370069752   0.01820329697968237
-1.2815573281938424   0.007705561370069752   0.01820329697968237
-1.2815573281938424   0.007705561370069752   0.01820329697968237
-1.054745358608799   0.07100402941532354   0.04785318721156279
-1.054745358608799   0.07100402941532354   0.04785318721156279
-1.054745358608799   0.07100402941532354   0.04785318721156279
-1.054745358608799   0.07100402941532354   0.04785318721156279
-1.615409046564519   -0.08518733934965045   -0.017342169931727214
-1.615409046564519   -0.08518733934965045   -0.017342169931727214
-1.615409046564519   -0.08518733934965045   -0.017342169931727214
-1.615409046564519   -0.08518733934965045   -0.017342169931727214
-1.6468308184882965   -0.07071070830993746   0.03915598598964709
-1.6468308184882965   -0.07071070830993746   0.03915598598964709
-1.6468308184882965   -0.07071070830993746   0.03915598598964709
-1.6468308184882965   -0.07071070830993746   0.03915598598964709
-1.1081347544127833   -0.0013518957556795178   -0.012580083223298427
-1.1081347544127833   -0.0013518957556795178   -0.012580083223298427
-1.1081347544127833   -0.0013518957556795178   -0.012580083223298427
-1.1081347544127833   -0.0013518957556795178   -0.012580083223298427
-1.296862312113615   -0.0036836543811618744   0.014889905908518852
-1.296862312113615   -0.0036836543811618744   0.014889905908518852
-1.296862312113615   -0.0036836543811618744   0.014889905908518852
-1.296862312113615   -0.0036836543811618744   0.014889905908518852
0.8814072558318956   0.049034309766771686   -0.041941945085918225
0.8814072558318956   0.049034309766771686   -0.041941945085918225
0.8814072558318956   0.049034309766771686   -0.041941945085918225
0.8814072558318956   0.049034309766771686   -0.041941945085918225
0.4190043263066598   0.008276225924682485   0.015960726715431625
0.4190043263066598   0.008276225924682485   0.015960726715431625
0.4190043263066598   0.008276225924682485   0.015960726715431625
0.4190043263066598   0.008276225924682485   0.015960726715431625
0.3724216809355   -0.07133474110064089   -0.03985077000433711
0.3724216809355   -0.07133474110064089   -0.03985077000433711
0.3724216809355   -0.07133474110064089   -0.03985077000433711
0.3724216809355   -0.07133474110064089   -0.03985077000433711
0.8623922066573518   0.08094558038146665   0.01974094524650924
0.8623922066573518   0.08094558038146665   0.01974094524650924
0.8623922066573518   0.08094558038146665   0.01974094524650924
0.8623922066573518   0.08094558038146665   0.01974094524650924
0.601072978630037   0.008123609584664307   -0.017777527025488682
0.601072978630037   0.008123609584664307   -0.017777527025488682
0.601072978630037   0.008123609584664307   -0.017777527025488682
0.601072978630037   0.008123609584664307   -0.017777527025488682
0.838716623040231   0.021963435691373726   -0.039654828148994986
0.838716623040231   0.021963435691373726   -0.039654828148994986
0.838716623040231   0.021963435691373726   -0.039654828148994986
0.838716623040231   0.021963435691373726   -0.039654828148994986
0.3956317579475677   -0.012818103015600369   0.017682976970958234
0.3956317579475677   -0.012818103015600369   0.017682976970958234
0.3956317579475677   -0.012818103015600369   0.017682976970958234
0.3956317579475677   -0.012818103015600369   0.017682976970958234
0.3506657696718428   -0.07831942181460406   -0.03399686033295128
0.3506657696718428   -0.07831942181460406   -0.03399686033295128
0.3506657696718428   -0.07831942181460406   -0.03399686033295128
0.3506657696718428   -0.07831942181460406   -0.03399686033295128
0.8285623197241446   0.07095813135376994   0.025982011970887092
0.8285623197241446   0.07095813135376994   0.025982011970887092
0.8285623197241446   0.07095813135376994   0.025982011970887092
0.8285623197241446   0.07095813135376994   0.025982011970887092
0.5816410535994074   -0.003999167788978637   -0.024926379395436876
0.5816410535994074   -0.003999167788978637   -0.024926379395436876
0.5816410535994074   -0.003999167788978637   -0.024926379395436876
0.5816410535994074   -0.003999167788978637   -0.024926379395436876
0.8054356981027   0.013079452484704726   -0.031772417267264486
0.8054356981027   0.013079452484704726   -0.031772417267264486
0.8054356981027   0.013079452484704726   -0.031772417267264486
0.8054356981027   0.013079452484704726   -0.031772417267264486
0.3732020570207479   -0.021031077218077884   0.0213962318150447
0.3732020570207479   -0.021031077218077884   0.0213962318150447
0.3732020570207479   -0.021031077218077884   0.0213962318150447
0.3732020570207479   -0.021031077218077884   0.0213962318150447
0.3310642338411087   -0.08258617205195054   -0.028314520543532964
0.3310642338411087   -0.08258617205195054   -0.028314520543532964
0.3310642338411087   -0.08258617205195054   -0.028314520543532964
0.3310642338411087   -0.08258617205195054   -0.028314520543532964
0.7904079997944179   0.06017101292388452   0.03088086209861446
0.7904079997944179   0.06017101292388452   0.03088086209861446
0.7904079997944179   0.06017101292388452   0.03088086209861446
0.7904079997944179   0.06017101292388452   0.03088086209861446
0.5430974375433513   -0.013147180695904072   -0.03552730687860292
0.5430974375433513   -0.013147180695904072   -0.03552730687860292
0.5430974375433513   -0.013147180695904072   -0.03552730687860292
0.5430974375433513   -0.013147180695904072   -0.03552730687860292
0.4260566513485582   0.06196283795934183   -0.0024642601097285555
0.4260566513485582   0.06196283795934183   -0.0024642601097285555
0.4260566513485582   0.06196283795934183   -0.0024642601097285555
0.4260566513485582   0.06196283795934183   -0.0024642601097285555
-0.027971479070975525   -0.006135397751575253   -0.00025424956819042853
-0.027971479070975525   -0.006135397751575253   -0.00025424956819042853
-0.027971479070975525   -0.006135397751575253   -0.00025424956819042853
-0.027971479070975525   -0.006135397751575253   -0.00025424956819042853
-0.06078765594215015   -0.05343622109383273   -0.025355505258269673
-0.06078765594215015   -0.05343622109383273   -0.025355505258269673
-0.06078765594215015   -0.05343622109383273   -0.025355505258269673
-0.06078765594215015   -0.05343622109383273   -0.025355505258269673
0.4150230436985692   0.07359339808457338   0.02822790462579168
0.4150230436985692   0.07359339808457338   0.02822790462579168
0.4150230436985692   0.07359339808457338   0.02822790462579168
0.4150230436985692   0.07359339808457338   0.02822790462579168
0.18517998069057987   0.0181431611000852   0.0013300382463414598
0.18517998069057987   0.0181431611000852   0.0013300382463414598
0.18517998069057987   0.0181431611000852   0.0013300382463414598
0.18517998069057987   0.0181431611000852   0.0013300382463414598
0.4038781705188418   0.04482286051030569   0.0012740763014304768
0.4038781705188418   0.04482286051030569   0.0012740763014304768
0.4038781705188418   0.04482286051030569   0.0012740763014304768
0.4038781705188418   0.04482286051030569   0.0012740763014304768
-0.049452638721097286   -0.024475539478238217   0.002358899231400119
-0.049452638721097286   -0.024475539478238217   0.002358899231400119
-0.049452638721097286   -0.024475539478238217   0.002358899231400119
-0.049452638721097286   -0.024475539478238217   0.002358899231400119
-0.08127873225405814   -0.0666335372585959   -0.020974432573274082
-0.08127873225405814   -0.0666335372585959   -0.020974432573274082
-0.08127873225405814   -0.0666335372585959   -0.020974432573274082
-0.08127873225405814   -0.0666335372585959   -0.020974432573274082
0.39086443685935623   0.05781993369464378   0.03085712009536476
0.39086443685935623   0.05781993369464378   0.03085712009536476
0.39086443685935623   0.05781993369464378   0.03085712009536476
0.39086443685935623   0.05781993369464378   0.03085712009536476
0.1599137170470818   0.002541527979026804   -0.006501281832180857
0.1599137170470818   0.002541527979026804   -0.006501281832180857
0.1599137170470818   0.002541527979026804   -0.006501281832180857
0.1599137170470818   0.002541527979026804   -0.006501281832180857
0.38008974089192266   0.030663132229853184   0.004140441722990565
0.38008974089192266   0.030663132229853184   0.004140441722990565
0.38008974089192266   0.030663132229853184   0.004140441722990565
0.38008974089192266   0.030663132229853184   0.004140441722990565
-0.07066215939775754   -0.03963485890493775   0.0051097533545708534
-0.07066215939775754   -0.03963485890493775   0.0051097533545708534
-0.07066215939775754   -0.03963485890493775   0.0051097533545708534
-0.07066215939775754   -0.03963485890493775   0.0051097533545708534
-0.1015000182029207   -0.07770270109962832   -0.016858576595365268
-0.1015000182029207   -0.07770270109962832   -0.016858576595365268
-0.1015000182029207   -0.07770270109962832   -0.016858576595365268
-0.1015000182029207   -0.07770270109962832   -0.016858576595365268
0.36855900951861825   0.043249456694856685   0.033323729097205684
0.36855900951861825   0.043249456694856685   0.033323729097205684
0.36855900951861825   0.043249456694856685   0.033323729097205684
0.36855900951861825   0.043249456694856685   0.033323729097205684
0.1405544075689447   -0.009265741991836279   -0.013019219322018792
0.1405544075689447   -0.009265741991836279   -0.013019219322018792
0.1405544075689447   -0.009265741991836279   -0.013019219322018792
0.1405544075689447   -0.009265741991836279   -0.013019219322018792
-0.009885844404191699   0.07377202062172235   0.010266505392433031
-0.009885844404191699   0.07377202062172235   0.010266505392433031
-0.009885844404191699   0.07377202062172235   0.010266505392433031
-0.009885844404191699   0.07377202062172235   0.010266505392433031
-0.46543769195999396   -0.020287275002952805   -0.015436735280151243
-0.46543769195999396   -0.020287275002952805   -0.015436735280151243
-0.46543769195999396   -0.020287275002952805   -0.015436735280151243
-0.46543769195999396   -0.020287275002952805   -0.015436735280151243
-0.4865856909882823   -0.037206902383982325   -0.012060560742966256
-0.4865856909882823   -0.037206902383982325   -0.012060560742966256
-0.4865856909882823   -0.037206902383982325   -0.012060560742966256
-0.4865856909882823   -0.037206902383982325   -0.012060560742966256
-0.030679364709411138   0.05943206413096262   0.012317665680630023
-0.030679364709411138   0.05943206413096262   0.012317665680630023
-0.030679364709411138   0.05943206413096262   0.012317665680630023
-0.030679364709411138   0.05943206413096262   0.012317665680630023
-0.24755846935061626   0.019049339484585995   0.004854047114362846
-0.24755846935061626   0.019049339484585995   0.004854047114362846
-0.24755846935061626   0.019049339484585995   0.004854047114362846
-0.24755846935061626   0.019049339484585995   0.004854047114362846
-0.03027413149872072   0.05935225069627683   0.014423645168767952
-0.03027413149872072   0.05935225069627683   0.014423645168767952
-0.03027413149872072   0.05935225069627683   0.014423645168767952
-0.03027413149872072   0.05935225069627683   0.014423645168767952
-0.48659615459624006   -0.036732319346563944   -0.012587461820173812
-0.48659615459624006   -0.036732319346563944   -0.012587461820173812
-0.48659615459624006   -0.036732319346563944   -0.012587461820173812
-0.48659615459624006   -0.036732319346563944   -0.012587461820173812
-0.507575169147183   -0.05148925292915317   -0.008239901765445617
-0.507575169147183   -0.05148925292915317   -0.008239901765445617
-0.507575169147183   -0.05148925292915317   -0.008239901765445617
-0.507575169147183   -0.05148925292915317   -0.008239901765445617
-0.05204421688573497   0.04319076292968839   0.015373844080057522
-0.05204421688573497   0.04319076292968839   0.015373844080057522
-0.05204421688573497   0.04319076292968839   0.015373844080057522
-0.05204421688573497   0.04319076292968839   0.015373844080057522
-0.2687640858586616   0.004950409028880309   -0.001496276993468694
-0.2687640858586616   0.004950409028880309   -0.001496276993468694
-0.2687640858586616   0.004950409028880309   -0.001496276993468694
-0.2687640858586616   0.004950409028880309   -0.001496276993468694
-0.051214673508951564   0.04497774277525726   0.01773458111840568
-0.051214673508951564   0.04497774277525726   0.01773458111840568
-0.051214673508951564   0.04497774277525726   0.01773458111840568
-0.051214673508951564   0.04497774277525726   0.01773458111840568
-0.5082904562731295   -0.05316197652388954   -0.010143613800437518
-0.5082904562731295   -0.05316197652388954   -0.010143613800437518
-0.5082904562731295   -0.05316197652388954   -0.010143613800437518
-0.5082904562731295   -0.05316197652388954   -0.010143613800437518
-0.5283149968491487   -0.0645357963667947   -0.004456439168110782
-0.5283149968491487   -0.0645357963667947   -0.004456439168110782
-0.5283149968491487   -0.0645357963667947   -0.004456439168110782
-0.5283149968491487   -0.0645357963667947   -0.004456439168110782
-0.0734979905555191   0.027482751365006643   0.017966109177007805
-0.0734979905555191   0.027482751365006643   0.017966109177007805
-0.0734979905555191   0.027482751365006643   0.017966109177007805
-0.0734979905555191   0.027482751365006643   0.017966109177007805
-0.2909429749684459   -0.009266193066328497   -0.008569713982956528
-0.2909429749684459   -0.009266193066328497   -0.008569713982956528
-0.2909429749684459   -0.009266193066328497   -0.008569713982956528
-0.2909429749684459   -0.009266193066328497   -0.008569713982956528
-0.43692050926173676   0.08462337260753255   0.022238530600645817
-0.43692050926173676   0.08462337260753255   0.022238530600645817
-0.43692050926173676   0.08462337260753255   0.022238530600645817
-0.43692050926173676   0.08462337260753255   0.022238530600645817
-0.893007896182213   -0.03475155743414036   -0.027806642580255003
-0.893007896182213   -0.03475155743414036   -0.027806642580255003
-0.893007896182213   -0.03475155743414036   -0.027806642580255003
-0.893007896182213   -0.03475155743414036   -0.027806642580255003
-0.9045604286331029   -0.02351951736724301   0.002424513816928403
-0.9045604286331029   -0.02351951736724301   0.002424513816928403
-0.9045604286331029   -0.02351951736724301   0.002424513816928403
-0.9045604286331029   -0.02351951736724301   0.002424513816928403
-0.4688993900762703   0.04269638444660941   -0.0035323430134940603
-0.4688993900762703   0.04269638444660941   -0.0035323430134940603
-0.4688993900762703   0.04269638444660941   -0.0035323430134940603
-0.4688993900762703   0.04269638444660941   -0.0035323430134940603
-0.6714517443504793   0.018110918143744305   0.008223862917593944
-0.6714517443504793   0.018110918143744305   0.008223862917593944
-0.6714517443504793   0.018110918143744305   0.008223862917593944
-0.6714517443504793   0.018110918143744305   0.008223862917593944
-0.45734670700159913   0.07068651296413796   0.026240943842329403
-0.45734670700159913   0.07068651296413796   0.026240943842329403
-0.45734670700159913   0.07068651296413796   0.026240943842329403
-0.45734670700159913   0.07068651296413796   0.026240943842329403
-0.9160089879514687   -0.05140552212846873   -0.026932278013686417
-0.9160089879514687   -0.05140552212846873   -0.026932278013686417
-0.9160089879514687   -0.05140552212846873   -0.026932278013686417
-0.9160089879514687   -0.05140552212846873   -0.026932278013686417
-0.9290036288688834   -0.03795882648094323   0.0038478560801482042
-0.9290036288688834   -0.03795882648094323   0.0038478560801482042
-0.9290036288688834   -0.03795882648094323   0.0038478560801482042
-0.9290036288688834   -0.03795882648094323   0.0038478560801482042
-0.490184238013576   0.027653429673140804   -0.000427928699700042
-0.490184238013576   0.027653429673140804   -0.000427928699700042
-0.490184238013576   0.027653429673140804   -0.000427928699700042
-0.490184238013576   0.027653429673140804   -0.000427928699700042
-0.6893645493016883   0.005545376731045111   0.002315616406156157
-0.6893645493016883   0.005545376731045111   0.002315616406156157
-0.6893645493016883   0.005545376731045111   0.002315616406156157
-0.6893645493016883   0.005545376731045111   0.002315616406156157
-0.47814758480032643   0.057437137103896835   0.029971629935791555
-0.47814758480032643   0.057437137103896835   0.029971629935791555
-0.47814758480032643   0.057437137103896835   0.029971629935791555
-0.47814758480032643   0.057437137103896835   0.029971629935791555
-0.9404220160950686   -0.06712426792463547   -0.024078638607088865
-0.9404220160950686   -0.06712426792463547   -0.024078638607088865
-0.9404220160950686   -0.06712426792463547   -0.024078638607088865
-0.9404220160950686   -0.06712426792463547   -0.024078638607088865
-0.9511691501422969   -0.05351034714009765   0.008381347353915242
-0.9511691501422969   -0.05351034714009765   0.008381347353915242
-0.9511691501422969   -0.05351034714009765   0.008381347353915242
-0.9511691501422969   -0.05351034714009765   0.008381347353915242
-0.5120662866618607   0.010431416645786475   0.001819898755751434
-0.5120662866618607   0.010431416645786475   0.001819898755751434
-0.5120662866618607   0.010431416645786475   0.001819898755751434
-0.5120662866618607   0.010431416645786475   0.001819898755751434
-0.7167011744725417   -0.010238150231138173   -0.005195535243736754
-0.7167011744725417   -0.010238150231138173   -0.005195535243736754
-0.7167011744725417   -0.010238150231138173   -0.005195535243736754
-0.7167011744725417   -0.010238150231138173   -0.005195535243736754
-0.8590352121612075   0.07589313292156322   0.03141208716906835
-0.8590352121612075   0.07589313292156322   0.03141208716906835
-0.8590352121612075   0.07589313292156322   0.03141208716906835
-0.8590352121612075   0.07589313292156322   0.03141208716906835
-1.2998498199900503   -0.06000550777189613   -0.030575627803098915
-1.2998498199900503   -0.06000550777189613   -0.030575627803098915
-1.2998498199900503   -0.06000550777189613   -0.030575627803098915
-1.2998498199900503   -0.06000550777189613   -0.030575627803098915
-1.3142323573386747   -0.013026144053803548   0.028934789119493376
-1.3142323573386747   -0.013026144053803548   0.028934789119493376
-1.3142323573386747   -0.013026144053803548   0.028934789119493376
-1.3142323573386747   -0.013026144053803548   0.028934789119493376
-0.8995895901826805   0.021609882162765374   -0.01785069346096735
-0.8995895901826805   0.021609882162765374   -0.01785069346096735
-0.8995895901826805   0.021609882162765374   -0.01785069346096735
-0.8995895901826805   0.021609882162765374   -0.01785069346096735
-1.0448017157341651   0.017018612165427563   0.02562060216684403
-1.0448017157341651   0.017018612165427563   0.02562060216684403
-1.0448017157341651   0.017018612165427563   0.02562060216684403
-1.0448017157341651   0.017018612165427563   0.02562060216684403
-0.8778033319311083   0.07584233266312032   0.03684814729651559
-0.8778033319311083   0.07584233266312032   0.03684814729651559
-0.8778033319311083   0.07584233266312032   0.03684814729651559
-0.8778033319311083   0.07584233266312032   0.03684814729651559
-1.3356538220087089   -0.06689380097261802   -0.024304877311855766
-1.3356538220087089   -0.06689380097261802   -0.024304877311855766
-1.3356538220087089   -0.06689380097261802   -0.024304877311855766
-1.3356538220087089   -0.06689380097261802   -0.024304877311855766
-1.3462379940212423   -0.020646682762913773   0.03619006045867945
-1.3462379940212423   -0.020646682762913773   0.03619006045867945
-1.3462379940212423   -0.020646682762913773   0.03619006045867945
-1.3462379940212423   -0.020646682762913773   0.03619006045867945
-0.922566795397383   0.013363276694902185   -0.015290079738194684
-0.922566795397383   0.013363276694902185   -0.015290079738194684
-0.922566795397383   0.013363276694902185   -0.015290079738194684
-0.922566795397383   0.013363276694902185   -0.015290079738194684
-1.0895810361104357   0.008519756244234844   0.015621595354110673
-1.0895810361104357   0.008519756244234844   0.015621595354110673
-1.0895810361104357   0.008519756244234844   0.015621595354110673
-1.0895810361104357   0.008519756244234844   0.015621595354110673
-0.8994571078874736   0.07016317439446249   0.04345846011179197
-0.8994571078874736   0.07016317439446249   0.04345846011179197
-0.8994571078874736   0.07016317439446249   0.04345846011179197
-0.8994571078874736   0.07016317439446249   0.04345846011179197
-1.3687423285045361   -0.07684122743586236   -0.02013706728483361
-1.3687423285045361   -0.07684122743586236   -0.02013706728483361
-1.3687423285045361   -0.07684122743586236   -0.02013706728483361
-1.3687423285045361   -0.07684122743586236   -0.02013706728483361
-1.3884814658044888   -0.04780110267845741   0.03552059355451742
-1.3884814658044888   -0.04780110267845741   0.03552059355451742
-1.3884814658044888   -0.04780110267845741   0.03552059355451742
-1.3884814658044888   -0.04780110267845741   0.03552059355451742
-0.9468366937317504   -0.009608330986628812   -0.01385838674682352
-0.9468366937317504   -0.009608330986628812   -0.01385838674682352
-0.9468366937317504   -0.009608330986628812   -0.01385838674682352
-0.9468366937317504   -0.009608330986628812   -0.01385838674682352
-1.1010346960451995   -0.002069980907318178   0.012302551384761162
-1.1010346960451995   -0.002069980907318178   0.012302551384761162
-1.1010346960451995   -0.002069980907318178   0.012302551384761162
-1.1010346960451995   -0.002069980907318178   0.012302551384761162
0.6062723124666389   0.03437838320834678   -0.04079647302625675
0.6062723124666389   0.03437838320834678   -0.04079647302625675
0.6062723124666389   0.03437838320834678   -0.04079647302625675
0.6062723124666389   0.03437838320834678   -0.04079647302625675
0.25895633477506924   0.01641039387670524   0.017479616553916943
0.25895633477506924   0.01641039387670524   0.017479616553916943
0.25895633477506924   0.01641039387670524   0.017479616553916943
0.25895633477506924   0.01641039387670524   0.017479616553916943
0.21692919227788035   -0.05970533395706422   -0.03805061206667361
0.21692919227788035   -0.05970533395706422   -0.03805061206667361
0.21692919227788035   -0.05970533395706422   -0.03805061206667361
0.21692919227788035   -0.05970533395706422   -0.03805061206667361
0.5921255492730454   0.06878259370889173   0.02124096661975787
0.5921255492730454   0.06878259370889173   0.02124096661975787
0.5921255492730454   0.06878259370889173   0.02124096661975787
0.5921255492730454   0.06878259370889173   0.02124096661975787
0.3964068788899435   0.008782484770162538   -0.010828087417593113
0.3964068788899435   0.008782484770162538   -0.010828087417593113
0.3964068788899435   0.008782484770162538   -0.010828087417593113
0.3964068788899435   0.008782484770162538   -0.010828087417593113
0.568633394607018   0.010631821934832912   -0.03806903493632566
0.568633394607018   0.010631821934832912   -0.03806903493632566
0.568633394607018   0.010631821934832912   -0.03806903493632566
0.568633394607018   0.010631821934832912   -0.03806903493632566
0.23997975059694432   -0.0019961585299690266   0.019493004101555293
0.23997975059694432   -0.0019961585299690266   0.019493004101555293
0.23997975059694432   -0.0019961585299690266   0.019493004101555293
0.23997975059694432   -0.0019961585299690266   0.019493004101555293
0.1990355678298808   -0.06662307240536673   -0.03239725493053243
0.1990355678298808   -0.06662307240536673   -0.03239725493053243
0.1990355678298808   -0.06662307240536673   -0.03239725493053243
0.1990355678298808   -0.06662307240536673   -0.03239725493053243
0.562680718041868   0.05896524390537691   0.02739241215100713
0.562680718041868   0.05896524390537691   0.02739241215100713
0.562680718041868   0.05896524390537691   0.02739241215100713
0.562680718041868   0.05896524390537691   0.02739241215100713
0.3779426330755441   -0.0026365279719721656   -0.017599612553434535
0.3779426330755441   -0.0026365279719721656   -0.017599612553434535
0.3779426330755441   -0.0026365279719721656   -0.017599612553434535
0.3779426330755441   -0.0026365279719721656   -0.017599612553434535
0.5395697421922462   0.0017698073457224212   -0.03096703053745209
0.5395697421922462   0.0017698073457224212   -0.03096703053745209
0.5395697421922462   0.0017698073457224212   -0.03096703053745209
0.5395697421922462   0.0017698073457224212   -0.03096703053745209
0.22149314090452848   -0.010081038620686805   0.02334857665802811
0.22149314090452848   -0.010081038620686805   0.02334857665802811
0.22149314090452848   -0.010081038620686805   0.02334857665802811
0.22149314090452848   -0.010081038620686805   0.02334857665802811
0.1830458465066394   -0.07287848866897939   -0.027004492577957295
0.1830458465066394   -0.07287848866897939   -0.027004492577957295
0.1830458465066394   -0.07287848866897939   -0.027004492577957295
0.1830458465066394   -0.07287848866897939   -0.027004492577957295
0.5282985314694618   0.046078235605879925   0.03127806888690718
0.5282985314694618   0.046078235605879925   0.03127806888690718
0.5282985314694618   0.046078235605879925   0.03127806888690718
0.5282985314694618   0.046078235605879925   0.03127806888690718
0.34660283499050193   -0.011994629588433423   -0.026915317488689694
0.34660283499050193   -0.011994629588433423   -0.026915317488689694
0.34660283499050193   -0.011994629588433423   -0.026915317488689694
0.34660283499050193   -0.011994629588433423   -0.026915317488689694
0.26075769305588997   0.05020053912865016   -0.0073037372939288026
0.26075769305588997   0.05020053912865016   -0.0073037372939288026
0.26075769305588997   0.05020053912865016   -0.0073037372939288026
0.26075769305588997   0.05020053912865016   -0.0073037372939288026
-0.07989554228762118   0.004251784427807846   0.002340845943067174
-0.07989554228762118   0.004251784427807846   0.002340845943067174
-0.07989554228762118   0.004251784427807846   0.002340845943067174
-0.07989554228762118   0.004251784427807846   0.002340845943067174
-0.10862770475179541   -0.041472932876526813   -0.023453001729344718
-0.10862770475179541   -0.041472932876526813   -0.023453001729344718
-0.10862770475179541   -0.041472932876526813   -0.023453001729344718
-0.10862770475179541   -0.041472932876526813   -0.023453001729344718
0.2535856866143822   0.0603359312602809   0.02519059439849467
0.2535856866143822   0.0603359312602809   0.02519059439849467
0.2535856866143822   0.0603359312602809   0.02519059439849467
0.2535856866143822   0.0603359312602809   0.02519059439849467
0.07966990052003757   0.01743675861266755   0.003059586608919987
0.07966990052003757   0.01743675861266755   0.003059586608919987
0.07966990052003757   0.01743675861266755   0.003059586608919987
0.07966990052003757   0.01743675861266755   0.003059586608919987
0.24221805009299527   0.03260373920722831   -0.003915396155390528
0.24221805009299527   0.03260373920722831   -0.003915396155390528
0.24221805009299527   0.03260373920722831   -0.003915396155390528
0.24221805009299527   0.03260373920722831   -0.003915396155390528
-0.09742974559706574   -0.01391041819012654   0.004974279357905339
-0.09742974559706574   -0.01391041819012654   0.004974279357905339
-0.09742974559706574   -0.01391041819012654   0.004974279357905339
-0.09742974559706574   -0.01391041819012654   0.004974279357905339
-0.1252685225641687   -0.05537491264317444   -0.01898415217020141
-0.1252685225641687   -0.05537491264317444   -0.01898415217020141
-0.1252685225641687   -0.05537491264317444   -0.01898415217020141
-0.1252685225641687   -0.05537491264317444   -0.01898415217020141
0.2331738378299265   0.044283307841821586   0.027387714822509852
0.2331738378299265   0.044283307841821586   0.027387714822509852
0.2331738378299265   0.044283307841821586   0.027387714822509852
0.2331738378299265   0.044283307841821586   0.027387714822509852
0.05913780908689921   0.0017003482311569295   -0.004499533013996419
0.05913780908689921   0.0017003482311569295   -0.004499533013996419
0.05913780908689921   0.0017003482311569295   -0.004499533013996419
0.05913780908689921   0.0017003482311569295   -0.004499533013996419
0.2221656087073483   0.017695599546213858   -0.0010657224947768704
0.2221656087073483   0.017695599546213858   -0.0010657224947768704
0.2221656087073483   0.017695599546213858   -0.0010657224947768704
0.2221656087073483   0.017695599546213858   -0.0010657224947768704
-0.11468770202538524   -0.029214612931361718   0.007759650811905119
-0.11468770202538524   -0.029214612931361718   0.007759650811905119
-0.11468770202538524   -0.029214612931361718   0.007759650811905119
-0.11468770202538524   -0.029214612931361718   0.007759650811905119
-0.14168673493813344   -0.06843549584421281   -0.014855289141359345
-0.14168673493813344   -0.06843549584421281   -0.014855289141359345
-0.14168673493813344   -0.06843549584421281   -0.014855289141359345
-0.14168673493813344   -0.06843549584421281   -0.014855289141359345
0.2147540611665963   0.02886760301522776   0.029790489037624584
0.2147540611665963   0.02886760301522776   0.029790489037624584
0.2147540611665963   0.02886760301522776   0.029790489037624584
0.2147540611665963   0.02886760301522776   0.029790489037624584
0.042669399252684384   -0.011347446688379025   -0.011172109415577603
0.042669399252684384   -0.011347446688379025   -0.011172109415577603
0.042669399252684384   -0.011347446688379025   -0.011172109415577603
0.042669399252684384   -0.011347446688379025   -0.011172109415577603
-0.06733376033494175   0.06358430533745225   0.005817234796821829
-0.06733376033494175   0.06358430533745225   0.005817234796821829
-0.06733376033494175   0.06358430533745225   0.005817234796821829
-0.06733376033494175   0.06358430533745225   0.005817234796821829
-0.41370527171345944   -0.010533516725893366   -0.01258861562337149
-0.41370527171345944   -0.010533516725893366   -0.01258861562337149
-0.41370527171345944   -0.010533516725893366   -0.01258861562337149
-0.41370527171345944   -0.010533516725893366   -0.01258861562337149
-0.4301302215475564   -0.024776247512715698   -0.009273035699616308
-0.4301302215475564   -0.024776247512715698   -0.009273035699616308
-0.4301302215475564   -0.024776247512715698   -0.009273035699616308
-0.4301302215475564   -0.024776247512715698   -0.009273035699616308
-0.08448785115197946   0.0460010884238119   0.009772244969396326
-0.08448785115197946   0.0460010884238119   0.009772244969396326
-0.08448785115197946   0.0460010884238119   0.009772244969396326
-0.08448785115197946   0.0460010884238119   0.009772244969396326
-0.2483065490498926   0.01827600778149431   0.004917562050537054
-0.2483065490498926   0.01827600778149431   0.004917562050537054
-0.2483065490498926   0.01827600778149431   0.004917562050537054
-0.2483065490498926   0.01827600778149431   0.004917562050537054
-0.08397809236513853   0.048311009107644756   0.010011118219768082
-0.08397809236513853   0.048311009107644756   0.010011118219768082
-0.08397809236513853   0.048311009107644756   0.010011118219768082
-0.08397809236513853   0.048311009107644756   0.010011118219768082
-0.43068889258243315   -0.02713508044458369   -0.009707557942127937
-0.43068889258243315   -0.02713508044458369   -0.009707557942127937
-0.43068889258243315   -0.02713508044458369   -0.009707557942127937
-0.43068889258243315   -0.02713508044458369   -0.009707557942127937
-0.4469441513558227   -0.039923033584266854   -0.00529520401963092
-0.4469441513558227   -0.039923033584266854   -0.00529520401963092
-0.4469441513558227   -0.039923033584266854   -0.00529520401963092
-0.4469441513558227   -0.039923033584266854   -0.00529520401963092
-0.10195078273666142   0.029481232296789374   0.012748402027369387
-0.10195078273666142   0.029481232296789374   0.012748402027369387
-0.10195078273666142   0.029481232296789374   0.012748402027369387
-0.10195078273666142   0.029481232296789374   0.012748402027369387
-0.26559271953106617   0.003523409882974074   -0.0015782336718644444
-0.26559271953106617   0.003523409882974074   -0.0015782336718644444
-0.26559271953106617   0.003523409882974074   -0.0015782336718644444
-0.26559271953106617   0.003523409882974074   -0.0015782336718644444
-0.1010813455277893   0.03301994371580886   0.013556876652714205
-0.1010813455277893   0.03301994371580886   0.013556876652714205
-0.1010813455277893   0.03301994371580886   0.013556876652714205
-0.1010813455277893   0.03301994371580886   0.013556876652714205
-0.44808510364426984   -0.04373326008285495   -0.00718973896327442
-0.44808510364426984   -0.04373326008285495   -0.00718973896327442
-0.44808510364426984   -0.04373326008285495   -0.00718973896327442
-0.44808510364426984   -0.04373326008285495   -0.00718973896327442
-0.4634722896662455   -0.05439046596603188   -0.0014256783674891638
-0.4634722896662455   -0.05439046596603188   -0.0014256783674891638
-0.4634722896662455   -0.05439046596603188   -0.0014256783674891638
-0.4634722896662455   -0.05439046596603188   -0.0014256783674891638
-0.11926810391638587   0.013429897585990403   0.01537247253717542
-0.11926810391638587   0.013429897585990403   0.01537247253717542
-0.11926810391638587   0.013429897585990403   0.01537247253717542
-0.11926810391638587   0.013429897585990403   0.01537247253717542
-0.28359320536069754   -0.011244704359002943   -0.008620680829421398
-0.28359320536069754   -0.011244704359002943   -0.008620680829421398
-0.28359320536069754   -0.011244704359002943   -0.008620680829421398
-0.28359320536069754   -0.011244704359002943   -0.008620680829421398
-0.3903343812621191   0.07507578170618574   0.01865653820125107
-0.3903343812621191   0.07507578170618574   0.01865653820125107
-0.3903343812621191   0.07507578170618574   0.01865653820125107
-0.3903343812621191   0.07507578170618574   0.01865653820125107
-0.7417023378564731   -0.02525288239728845   -0.025592902869850415
-0.7417023378564731   -0.02525288239728845   -0.025592902869850415
-0.7417023378564731   -0.02525288239728845   -0.025592902869850415
-0.7417023378564731   -0.02525288239728845   -0.025592902869850415
-0.7478678011115545   -0.011204678722507973   0.0059307521762031745
-0.7478678011115545   -0.011204678722507973   0.0059307521762031745
-0.7478678011115545   -0.011204678722507973   0.0059307521762031745
-0.7478678011115545   -0.011204678722507973   0.0059307521762031745
-0.4184079640495632   0.02998704585253667   -0.0054250415749064335
-0.4184079640495632   0.02998704585253667   -0.0054250415749064335
-0.4184079640495632   0.02998704585253667   -0.0054250415749064335
-0.4184079640495632   0.02998704585253667   -0.0054250415749064335
-0.5711613268644948   0.01731606922279777   0.0071343155276454295
-0.5711613268644948   0.01731606922279777   0.0071343155276454295
-0.5711613268644948   0.01731606922279777   0.0071343155276454295
-0.5711613268644948   0.01731606922279777   0.0071343155276454295
-0.40667235988539274   0.06041355342265148   0.022826471675838747
-0.40667235988539274   0.06041355342265148   0.022826471675838747
-0.40667235988539274   0.06041355342265148   0.022826471675838747
-0.40667235988539274   0.06041355342265148   0.022826471675838747
-0.760119364013708   -0.04214714503060513   -0.024384596026470695
-0.760119364013708   -0.04214714503060513   -0.024384596026470695
-0.760119364013708   -0.04214714503060513   -0.024384596026470695
-0.760119364013708   -0.04214714503060513   -0.024384596026470695
-0.7676919947391215   -0.026208428042846718   0.007770539445907831
-0.7676919947391215   -0.026208428042846718   0.007770539445907831
-0.7676919947391215   -0.026208428042846718   0.007770539445907831
-0.7676919947391215   -0.026208428042846718   0.007770539445907831
-0.43540257302912594   0.014760776643443625   -0.002271122613861032
-0.43540257302912594   0.014760776643443625   -0.002271122613861032
-0.43540257302912594   0.014760776643443625   -0.002271122613861032
-0.43540257302912594   0.014760776643443625   -0.002271122613861032
-0.5856994948915697   0.003947135268575368   0.0006241694030182654
-0.5856994948915697   0.003947135268575368   0.0006241694030182654
-0.5856994948915697   0.003947135268575368   0.0006241694030182654
-0.5856994948915697   0.003947135268575368   0.0006241694030182654
-0.42324424432372604   0.04648606138530732   0.026795236171282558
-0.42324424432372604   0.04648606138530732   0.026795236171282558
-0.42324424432372604   0.04648606138530732   0.026795236171282558
-0.42324424432372604   0.04648606138530732   0.026795236171282558
-0.7798970506734303   -0.05798044001361934   -0.021482728254871547
-0.7798970506734303   -0.05798044001361934   -0.021482728254871547
-0.7798970506734303   -0.05798044001361934   -0.021482728254871547
-0.7798970506734303   -0.05798044001361934   -0.021482728254871547
-0.7853371273604398   -0.04220217989597174   0.011922756745570001
-0.7853371273604398   -0.04220217989597174   0.011922756745570001
-0.7853371273604398   -0.04220217989597174   0.011922756745570001
-0.7853371273604398   -0.04220217989597174   0.011922756745570001
-0.45269549433623996   -0.002139168832002731   0.000207001148501626
-0.45269549433623996   -0.002139168832002731   0.000207001148501626
-0.45269549433623996   -0.002139168832002731   0.000207001148501626
-0.45269549433623996   -0.002139168832002731   0.000207001148501626
-0.6075624694482522   -0.011590661410899622   -0.006940093856249413
-0.6075624694482522   -0.011590661410899622   -0.006940093856249413
-0.6075624694482522   -0.011590661410899622   -0.006940093856249413
-0.6075624694482522   -0.011590661410899622   -0.006940093856249413
-0.7117521925784535   0.06959177624636254   0.02931316487659749
-0.7117521925784535   0.06959177624636254   0.02931316487659749
-0.7117521925784535   0.06959177624636254   0.02931316487659749
-0.7117521925784535   0.06959177624636254   0.02931316487659749
-1.0504728994978159   -0.04840691988450696   -0.03316794613894464
-1.0504728994978159   -0.04840691988450696   -0.03316794613894464
-1.0504728994978159   -0.04840691988450696   -0.03316794613894464
-1.0504728994978159   -0.04840691988450696   -0.03316794613894464
-1.0605582949313055   -0.0012051711897502898   0.029042744525079572
-1.0605582949313055   -0.0012051711897502898   0.029042744525079572
-1.0605582949313055   -0.0012051711897502898   0.029042744525079572
-1.0605582949313055   -0.0012051711897502898   0.029042744525079572
-0.7487283095306769   0.01030921006942094   -0.01988567871134969
-0.7487283095306769   0.01030921006942094   -0.01988567871134969
-0.7487283095306769   0.01030921006942094   -0.01988567871134969
-0.7487283095306769   0.01030921006942094   -0.01988567871134969
-0.8535740119559219   0.016096289076132815   0.021641368155678936
-0.8535740119559219   0.016096289076132815   0.021641368155678936
-0.8535740119559219   0.016096289076132815   0.021641368155678936
-0.8535740119559219   0.016096289076132815   0.021641368155678936
-0.7265565278653827   0.06670260104610769   0.034579838638446464
-0.7265565278653827   0.06670260104610769   0.034579838638446464
-0.7265565278653827   0.06670260104610769   0.034579838638446464
-0.7265565278653827   0.06670260104610769   0.034579838638446464
-1.0831716388065185   -0.05804012437634836   -0.027189021664385554
-1.0831716388065185   -0.05804012437634836   -0.027189021664385554
-1.0831716388065185   -0.05804012437634836   -0.027189021664385554
-1.0831716388065185   -0.05804012437634836   -0.027189021664385554
-1.088576876662599   -0.009461322104295997   0.036597007531030346
-1.088576876662599   -0.009461322104295997   0.036597007531030346
-1.088576876662599   -0.009461322104295997   0.036597007531030346
-1.088576876662599   -0.009461322104295997   0.036597007531030346
-0.7670001952045934   0.001960368611847056   -0.01693925953615713
-0.7670001952045934   0.001960368611847056   -0.01693925953615713
-0.7670001952045934   0.001960368611847056   -0.01693925953615713
-0.7670001952045934   0.001960368611847056   -0.01693925953615713
-0.8914215547751683   0.006612282916810534   0.011380246382113685
-0.8914215547751683   0.006612282916810534   0.011380246382113685
-0.8914215547751683   0.006612282916810534   0.011380246382113685
-0.8914215547751683   0.006612282916810534   0.011380246382113685
-0.7437923328222403   0.06032355779587947   0.040736863191579764
-0.7437923328222403   0.06032355779587947   0.040736863191579764
-0.7437923328222403   0.06032355779587947   0.040736863191579764
-0.7437923328222403   0.06032355779587947   0.040736863191579764
-1.1121032079246589   -0.06814298016804247   -0.022352990715539145
-1.1121032079246589   -0.06814298016804247   -0.022352990715539145
-1.1121032079246589   -0.06814298016804247   -0.022352990715539145
-1.1121032079246589   -0.06814298016804247   -0.022352990715539145
-1.1260595169316203   -0.03534132309776422   0.03669947589736955
-1.1260595169316203   -0.03534132309776422   0.03669947589736955
-1.1260595169316203   -0.03534132309776422   0.03669947589736955
-1.1260595169316203   -0.03534132309776422   0.03669947589736955
-0.7861241038516332   -0.01923521226550045   -0.014979093340888566
-0.7861241038516332   -0.01923521226550045   -0.014979093340888566
-0.7861241038516332   -0.01923521226550045   -0.014979093340888566
-0.7861241038516332   -0.01923521226550045   -0.014979093340888566
-0.9020459132294669   -0.004224439711479122   0.006514786182121868
-0.9020459132294669   -0.004224439711479122   0.006514786182121868
-0.9020459132294669   -0.004224439711479122   0.006514786182121868
-0.9020459132294669   -0.004224439711479122   0.006514786182121868
0.3347367455439352   0.0200748855688818   -0.03997833575406619
0.3347367455439352   0.0200748855688818   -0.03997833575406619
0.3347367455439352   0.0200748855688818   -0.03997833575406619
0.3347367455439352   0.0200748855688818   -0.03997833575406619
0.09769043706577085   0.02396681745782223   0.01909337761592406
0.09769043706577085   0.02396681745782223   0.01909337761592406
0.09769043706577085   0.02396681745782223   0.01909337761592406
0.09769043706577085   0.02396681745782223   0.01909337761592406
0.06049391669136078   -0.04884470343649592   -0.03526388652546498
0.06049391669136078   -0.04884470343649592   -0.03526388652546498
0.06049391669136078   -0.04884470343649592   -0.03526388652546498
0.06049391669136078   -0.04884470343649592   -0.03526388652546498
0.32559283897566627   0.056856748930074676   0.02297160409248565
0.32559283897566627   0.056856748930074676   0.02297160409248565
0.32559283897566627   0.056856748930074676   0.02297160409248565
0.32559283897566627   0.056856748930074676   0.02297160409248565
0.19269164093666194   0.009489754170891282   -0.004446297505889325
0.19269164093666194   0.009489754170891282   -0.004446297505889325
0.19269164093666194   0.009489754170891282   -0.004446297505889325
0.19269164093666194   0.009489754170891282   -0.004446297505889325
0.3021336621601395   -0.0007979027072187624   -0.036669628347857905
0.3021336621601395   -0.0007979027072187624   -0.036669628347857905
0.3021336621601395   -0.0007979027072187624   -0.036669628347857905
0.3021336621601395   -0.0007979027072187624   -0.036669628347857905
0.08322119313207353   0.00807804782598304   0.021449744415620264
0.08322119313207353   0.00807804782598304   0.021449744415620264
0.08322119313207353   0.00807804782598304   0.021449744415620264
0.08322119313207353   0.00807804782598304   0.021449744415620264
0.046456051975335914   -0.05575070054321406   -0.029962644025415583
0.046456051975335914   -0.05575070054321406   -0.029962644025415583
0.046456051975335914   -0.05575070054321406   -0.029962644025415583
0.046456051975335914   -0.05575070054321406   -0.029962644025415583
0.30035849828137207   0.04732880364918813   0.02952778612161993
0.30035849828137207   0.04732880364918813   0.02952778612161993
0.30035849828137207   0.04732880364918813   0.02952778612161993
0.30035849828137207   0.04732880364918813   0.02952778612161993
0.17510926995489134   -0.001304679404228827   -0.011439079091933743
0.17510926995489134   -0.001304679404228827   -0.011439079091933743
0.17510926995489134   -0.001304679404228827   -0.011439079091933743
0.17510926995489134   -0.001304679404228827   -0.011439079091933743
0.27702834851319025   -0.00966878687048411   -0.03012537219962015
0.27702834851319025   -0.00966878687048411   -0.03012537219962015
0.27702834851319025   -0.00966878687048411   -0.03012537219962015
0.27702834851319025   -0.00966878687048411   -0.03012537219962015
0.06880459883998316   0.0002652870729232923   0.025764102681684675
0.06880459883998316   0.0002652870729232923   0.025764102681684675
0.06880459883998316   0.0002652870729232923   0.025764102681684675
0.06880459883998316   0.0002652870729232923   0.025764102681684675
0.03390789281300804   -0.06404787390627083   -0.024961840017392788
0.03390789281300804   -0.06404787390627083   -0.024961840017392788
0.03390789281300804   -0.06404787390627083   -0.024961840017392788
0.03390789281300804   -0.06404787390627083   -0.024961840017392788
0.2691013221802821   0.03210898545672205   0.03279751482701943
0.2691013221802821   0.03210898545672205   0.03279751482701943
0.2691013221802821   0.03210898545672205   0.03279751482701943
0.2691013221802821   0.03210898545672205   0.03279751482701943
0.15071833569244453   -0.010903757016611731   -0.020003966693262605
0.15071833569244453   -0.010903757016611731   -0.020003966693262605
0.15071833569244453   -0.010903757016611731   -0.020003966693262605
0.15071833569244453   -0.010903757016611731   -0.020003966693262605
0.09402294075676869   0.03625987879484949   -0.011537165266114507
0.09402294075676869   0.03625987879484949   -0.011537165266114507
0.09402294075676869   0.03625987879484949   -0.011537165266114507
0.09402294075676869   0.03625987879484949   -0.011537165266114507
-0.13502797659615698   0.01158737641325302   0.004612069885714339
-0.13502797659615698   0.01158737641325302   0.004612069885714339
-0.13502797659615698   0.01158737641325302   0.004612069885714339
-0.13502797659615698   0.01158737641325302   0.004612069885714339
-0.1589923245350321   -0.031337045133016876   -0.02059627641857996
-0.1589923245350321   -0.031337045133016876   -0.02059627641857996
-0.1589923245350321   -0.031337045133016876   -0.02059627641857996
-0.1589923245350321   -0.031337045133016876   -0.02059627641857996
0.09069346367755468   0.04499043793524395   0.021898707033765168
0.09069346367755468   0.04499043793524395   0.021898707033765168
0.09069346367755468   0.04499043793524395   0.021898707033765168
0.09069346367755468   0.04499043793524395   0.021898707033765168
-0.028129409617093475   0.014724367778928035   0.003759364993308382
-0.028129409617093475   0.014724367778928035   0.003759364993308382
-0.028129409617093475   0.014724367778928035   0.003759364993308382
-0.028129409617093475   0.014724367778928035   0.003759364993308382
0.07937208318913257   0.018759616834093128   -0.008477374307194627
0.07937208318913257   0.018759616834093128   -0.008477374307194627
0.07937208318913257   0.018759616834093128   -0.008477374307194627
0.07937208318913257   0.018759616834093128   -0.008477374307194627
-0.14829673204867272   -0.005732012033923676   0.007276652914123757
-0.14829673204867272   -0.005732012033923676   0.007276652914123757
-0.14829673204867272   -0.005732012033923676   0.007276652914123757
-0.14829673204867272   -0.005732012033923676   0.007276652914123757
-0.17154876566849972   -0.04536692086045507   -0.016140825190447163
-0.17154876566849972   -0.04536692086045507   -0.016140825190447163
-0.17154876566849972   -0.04536692086045507   -0.016140825190447163
-0.17154876566849972   -0.04536692086045507   -0.016140825190447163
0.07421935634942185   0.02922450817325675   0.023878669128544666
0.07421935634942185   0.02922450817325675   0.023878669128544666
0.07421935634942185   0.02922450817325675   0.023878669128544666
0.07421935634942185   0.02922450817325675   0.023878669128544666
-0.0436516730421322   -0.00042372722856831623   -0.0035011250969147305
-0.0436516730421322   -0.00042372722856831623   -0.0035011250969147305
-0.0436516730421322   -0.00042372722856831623   -0.0035011250969147305
-0.0436516730421322   -0.00042372722856831623   -0.0035011250969147305
0.06323112140801147   0.0037080184265718494   -0.005546015831823757
0.06323112140801147   0.0037080184265718494   -0.005546015831823757
0.06323112140801147   0.0037080184265718494   -0.005546015831823757
0.06323112140801147   0.0037080184265718494   -0.005546015831823757
-0.16137076467316624   -0.020660665059846997   0.01004292398561401
-0.16137076467316624   -0.020660665059846997   0.01004292398561401
-0.16137076467316624   -0.020660665059846997   0.01004292398561401
-0.16137076467316624   -0.020660665059846997   0.01004292398561401
-0.1840082905130571   -0.059265910404270004   -0.012114726380210904
-0.1840082905130571   -0.059265910404270004   -0.012114726380210904
-0.1840082905130571   -0.059265910404270004   -0.012114726380210904
-0.1840082905130571   -0.059265910404270004   -0.012114726380210904
0.05979497044641679   0.013763795545828635   0.02666187869755247
0.05979497044641679   0.013763795545828635   0.02666187869755247
0.05979497044641679   0.013763795545828635   0.02666187869755247
0.05979497044641679   0.013763795545828635   0.02666187869755247
-0.0570699237635931   -0.013966484777360825   -0.01035174785390357
-0.0570699237635931   -0.013966484777360825   -0.01035174785390357
-0.0570699237635931   -0.013966484777360825   -0.01035174785390357
-0.0570699237635931   -0.013966484777360825   -0.01035174785390357
-0.1280212792131386   0.049472992951380745   0.0017599402626782626
-0.1280212792131386   0.049472992951380745   0.0017599402626782626
-0.1280212792131386   0.049472992951380745   0.0017599402626782626
-0.1280212792131386   0.049472992951380745   0.0017599402626782626
-0.36460671403595707   -0.004445499019810423   -0.010045162613268294
-0.36460671403595707   -0.004445499019810423   -0.010045162613268294
-0.36460671403595707   -0.004445499019810423   -0.010045162613268294
-0.36460671403595707   -0.004445499019810423   -0.010045162613268294
-0.375923030224892   -0.015443217896610142   -0.006014107559801349
-0.375923030224892   -0.015443217896610142   -0.006014107559801349
-0.375923030224892   -0.015443217896610142   -0.006014107559801349
-0.375923030224892   -0.015443217896610142   -0.006014107559801349
-0.14128767680611667   0.02962271877658732   0.006967198316389259
-0.14128767680611667   0.02962271877658732   0.006967198316389259
-0.14128767680611667   0.02962271877658732   0.006967198316389259
-0.14128767680611667   0.02962271877658732   0.006967198316389259
-0.2518582758312461   0.014485136568027846   0.0038899691455636515
-0.2518582758312461   0.014485136568027846   0.0038899691455636515
-0.2518582758312461   0.014485136568027846   0.0038899691455636515
-0.2518582758312461   0.014485136568027846   0.0038899691455636515
-0.14062114420088295   0.034003747369984766   0.005918832749164153
-0.14062114420088295   0.034003747369984766   0.005918832749164153
-0.14062114420088295   0.034003747369984766   0.005918832749164153
-0.14062114420088295   0.034003747369984766   0.005918832749164153
-0.37713827439220077   -0.020372958052082033   -0.0071605882408734
-0.37713827439220077   -0.020372958052082033   -0.0071605882408734
-0.37713827439220077   -0.020372958052082033   -0.0071605882408734
-0.37713827439220077   -0.020372958052082033   -0.0071605882408734
-0.38842625034314276   -0.03075952532401188   -0.001979918470155509
-0.38842625034314276   -0.03075952532401188   -0.001979918470155509
-0.38842625034314276   -0.03075952532401188   -0.001979918470155509
-0.38842625034314276   -0.03075952532401188   -0.001979918470155509
-0.15454045179807166   0.013632926608507791   0.009900896692730268
-0.15454045179807166   0.013632926608507791   0.009900896692730268
-0.15454045179807166   0.013632926608507791   0.009900896692730268
-0.15454045179807166   0.013632926608507791   0.009900896692730268
-0.26490170611653296   -6.580285274681436e-05   -0.002616585607382274
-0.26490170611653296   -6.580285274681436e-05   -0.002616585607382274
-0.26490170611653296   -6.580285274681436e-05   -0.002616585607382274
-0.26490170611653296   -6.580285274681436e-05   -0.002616585607382274
-0.15364640099760452   0.01849436974986833   0.009509707553707274
-0.15364640099760452   0.01849436974986833   0.009509707553707274
-0.15364640099760452   0.01849436974986833   0.009509707553707274
-0.15364640099760452   0.01849436974986833   0.009509707553707274
-0.3901000598033666   -0.03640072712512878   -0.004707763970157652
-0.3901000598033666   -0.03640072712512878   -0.004707763970157652
-0.3901000598033666   -0.03640072712512878   -0.004707763970157652
-0.3901000598033666   -0.03640072712512878   -0.004707763970157652
-0.40068703968361663   -0.0455427905268806   0.0019279677400511064
-0.40068703968361663   -0.0455427905268806   0.0019279677400511064
-0.40068703968361663   -0.0455427905268806   0.0019279677400511064
-0.40068703968361663   -0.0455427905268806   0.0019279677400511064
-0.16756931276485565   -0.0017675795189342671   0.012581831475458674
-0.16756931276485565   -0.0017675795189342671   0.012581831475458674
-0.16756931276485565   -0.0017675795189342671   0.012581831475458674
-0.16756931276485565   -0.0017675795189342671   0.012581831475458674
-0.2786276995003432   -0.01465011838685976   -0.009682212978528185
-0.2786276995003432   -0.01465011838685976   -0.009682212978528185
-0.2786276995003432   -0.01465011838685976   -0.009682212978528185
-0.2786276995003432   -0.01465011838685976   -0.009682212978528185
-0.3462136163958027   0.0620486731519619   0.015426153415730906
-0.3462136163958027   0.0620486731519619   0.015426153415730906
-0.3462136163958027   0.0620486731519619   0.015426153415730906
-0.3462136163958027   0.0620486731519619   0.015426153415730906
-0.589262149041068   -0.017634534838293383   -0.022883512906082135
-0.589262149041068   -0.017634534838293383   -0.022883512906082135
-0.589262149041068   -0.017634534838293383   -0.022883512906082135
-0.589262149041068   -0.017634534838293383   -0.022883512906082135
-0.590378593928186   -0.0014349868012016528   0.009435425035024758
-0.590378593928186   -0.0014349868012016528   0.009435425035024758
-0.590378593928186   -0.0014349868012016528   0.009435425035024758
-0.590378593928186   -0.0014349868012016528   0.009435425035024758
-0.37002140109017384   0.015241517031104365   -0.007190696813928685
-0.37002140109017384   0.015241517031104365   -0.007190696813928685
-0.37002140109017384   0.015241517031104365   -0.007190696813928685
-0.37002140109017384   0.015241517031104365   -0.007190696813928685
-0.47154222582035205   0.014522414765142475   0.005107769146397864
-0.47154222582035205   0.014522414765142475   0.005107769146397864
-0.47154222582035205   0.014522414765142475   0.005107769146397864
-0.47154222582035205   0.014522414765142475   0.005107769146397864
-0.35830982691492663   0.04701118317760759   0.01959750791581162
-0.35830982691492663   0.04701118317760759   0.01959750791581162
-0.35830982691492663   0.04701118317760759   0.01959750791581162
-0.35830982691492663   0.04701118317760759   0.01959750791581162
-0.6031424469654924   -0.034256931809764087   -0.021561895142952314
-0.6031424469654924   -0.034256931809764087   -0.021561895142952314
-0.6031424469654924   -0.034256931809764087   -0.021561895142952314
-0.6031424469654924   -0.034256931809764087   -0.021561895142952314
-0.6057739954235891   -0.016538022888689476   0.011606302119936601
-0.6057739954235891   -0.016538022888689476   0.011606302119936601
-0.6057739954235891   -0.016538022888689476   0.011606302119936601
-0.6057739954235891   -0.016538022888689476   0.011606302119936601
-0.3825903342036453   0.0005137879133850776   -0.004073651010069068
-0.3825903342036453   0.0005137879133850776   -0.004073651010069068
-0.3825903342036453   0.0005137879133850776   -0.004073651010069068
-0.3825903342036453   0.0005137879133850776   -0.004073651010069068
-0.4826152992855053   0.000968295890469404   -0.0017117712732737378
-0.4826152992855053   0.000968295890469404   -0.0017117712732737378
-0.4826152992855053   0.000968295890469404   -0.0017117712732737378
-0.4826152992855053   0.000968295890469404   -0.0017117712732737378
-0.3705677768841777   0.03291045424611935   0.023642469254538695
-0.3705677768841777   0.03291045424611935   0.023642469254538695
-0.3705677768841777   0.03291045424611935   0.023642469254538695
-0.3705677768841777   0.03291045424611935   0.023642469254538695
-0.6184529807952064   -0.049591117273569005   -0.018735530353278407
-0.6184529807952064   -0.049591117273569005   -0.018735530353278407
-0.6184529807952064   -0.049591117273569005   -0.018735530353278407
-0.6184529807952064   -0.049591117273569005   -0.018735530353278407
-0.6190667136177443   -0.0322905494647979   0.015821317266030144
-0.6190667136177443   -0.0322905494647979   0.015821317266030144
-0.6190667136177443   -0.0322905494647979   0.015821317266030144
-0.6190667136177443   -0.0322905494647979   0.015821317266030144
-0.39531804913186047   -0.01524887801435491   -0.0015209920137014693
-0.39531804913186047   -0.01524887801435491   -0.0015209920137014693
-0.39531804913186047   -0.01524887801435491   -0.0015209920137014693
-0.39531804913186047   -0.01524887801435491   -0.0015209920137014693
-0.49911960005468725   -0.013820141535566273   -0.00915188940619148
-0.49911960005468725   -0.013820141535566273   -0.00915188940619148
-0.49911960005468725   -0.013820141535566273   -0.00915188940619148
-0.49911960005468725   -0.013820141535566273   -0.00915188940619148
-0.5634763243180605   0.061090166294476285   0.02732090957618545
-0.5634763243180605   0.061090166294476285   0.02732090957618545
-0.5634763243180605   0.061090166294476285   0.02732090957618545
-0.5634763243180605   0.061090166294476285   0.02732090957618545
-0.793582269940285   -0.03658009968618039   -0.03465270270828125
-0.793582269940285   -0.03658009968618039   -0.03465270270828125
-0.793582269940285   -0.03658009968618039   -0.03465270270828125
-0.793582269940285   -0.03658009968618039   -0.03465270270828125
-0.799361783357019   0.00990289922880392   0.02871624091187655
-0.799361783357019   0.00990289922880392   0.02871624091187655
-0.799361783357019   0.00990289922880392   0.02871624091187655
-0.799361783357019   0.00990289922880392   0.02871624091187655
-0.5965477365388384   -0.0016929594845571765   -0.02115231533488897
-0.5965477365388384   -0.0016929594845571765   -0.02115231533488897
-0.5965477365388384   -0.0016929594845571765   -0.02115231533488897
-0.5965477365388384   -0.0016929594845571765   -0.02115231533488897
-0.6586409564338688   0.014590278312311099   0.01599567848459213
-0.6586409564338688   0.014590278312311099   0.01599567848459213
-0.6586409564338688   0.014590278312311099   0.01599567848459213
-0.6586409564338688   0.014590278312311099   0.01599567848459213
-0.5743927813332161   0.055616126410763404   0.03231337479790178
-0.5743927813332161   0.055616126410763404   0.03231337479790178
-0.5743927813332161   0.055616126410763404   0.03231337479790178
-0.5743927813332161   0.055616126410763404   0.03231337479790178
-0.8226377341481946   -0.04852718225207382   -0.02923343156311603
-0.8226377341481946   -0.04852718225207382   -0.02923343156311603
-0.8226377341481946   -0.04852718225207382   -0.02923343156311603
-0.8226377341481946   -0.04852718225207382   -0.02923343156311603
-0.8233506099272159   0.0014112285123988391   0.03666545468922419
-0.8233506099272159   0.0014112285123988391   0.03666545468922419
-0.8233506099272159   0.0014112285123988391   0.03666545468922419
-0.8233506099272159   0.0014112285123988391   0.03666545468922419
-0.6103985684407696   -0.009910710648840183   -0.018143875205823154
-0.6103985684407696   -0.009910710648840183   -0.018143875205823154
-0.6103985684407696   -0.009910710648840183   -0.018143875205823154
-0.6103985684407696   -0.009910710648840183   -0.018143875205823154
-0.6893505963400759   0.0045545187487105315   0.005828806536640252
-0.6893505963400759   0.0045545187487105315   0.005828806536640252
-0.6893505963400759   0.0045545187487105315   0.005828806536640252
-0.6893505963400759   0.0045545187487105315   0.005828806536640252
-0.5873082154546716   0.0489717102368516   0.038425468838974575
-0.5873082154546716   0.0489717102368516   0.038425468838974575
-0.5873082154546716   0.0489717102368516   0.038425468838974575
-0.5873082154546716   0.0489717102368516   0.038425468838974575
-0.8474997714755756   -0.05853000093556385   -0.024139123604604684
-0.8474997714755756   -0.05853000093556385   -0.024139123604604684
-0.8474997714755756   -0.05853000093556385   -0.024139123604604684
-0.8474997714755756   -0.05853000093556385   -0.024139123604604684
-0.8565146730299659   -0.022748796847480754   0.03784355292751185
-0.8565146730299659   -0.022748796847480754   0.03784355292751185
-0.8565146730299659   -0.022748796847480754   0.03784355292751185
-0.8565146730299659   -0.022748796847480754   0.03784355292751185
-0.6246948257809168   -0.028786764265775783   -0.01582302874886185
-0.6246948257809168   -0.028786764265775783   -0.01582302874886185
-0.6246948257809168   -0.028786764265775783   -0.01582302874886185
-0.6246948257809168   -0.028786764265775783   -0.01582302874886185
-0.6992893526251928   -0.006134249193348443   -0.00020255372085739576
-0.6992893526251928   -0.006134249193348443   -0.00020255372085739576
-0.6992893526251928   -0.006134249193348443   -0.00020255372085739576
-0.6992893526251928   -0.006134249193348443   -0.00020255372085739576
0.06264656963829995   0.005147467225982   -0.0399595061158062
0.06264656963829995   0.005147467225982   -0.0399595061158062
0.06264656963829995   0.005147467225982   -0.0399595061158062
0.06264656963829995   0.005147467225982   -0.0399595061158062
-0.06369689104045693   0.02990534338951724   0.020401476504773957
-0.06369689104045693   0.02990534338951724   0.020401476504773957
-0.06369689104045693   0.02990534338951724   0.020401476504773957
-0.06369689104045693   0.02990534338951724   0.020401476504773957
-0.0962655367038611   -0.03854946161484107   -0.03220107295253499
-0.0962655367038611   -0.03854946161484107   -0.03220107295253499
-0.0962655367038611   -0.03854946161484107   -0.03220107295253499
-0.0962655367038611   -0.03854946161484107   -0.03220107295253499
0.05771238457443167   0.04254895724409014   0.025030548766545483
0.05771238457443167   0.04254895724409014   0.025030548766545483
0.05771238457443167   0.04254895724409014   0.025030548766545483
0.05771238457443167   0.04254895724409014   0.025030548766545483
-0.011363162523740358   0.009341346809896022   0.003458139543838053
-0.011363162523740358   0.009341346809896022   0.003458139543838053
-0.011363162523740358   0.009341346809896022   0.003458139543838053
-0.011363162523740358   0.009341346809896022   0.003458139543838053
0.034422255428101144   -0.013121597118454188   -0.035749542602562814
0.034422255428101144   -0.013121597118454188   -0.035749542602562814
0.034422255428101144   -0.013121597118454188   -0.035749542602562814
0.034422255428101144   -0.013121597118454188   -0.035749542602562814
-0.07434674294862395   0.015749757356609877   0.02309367685219976
-0.07434674294862395   0.015749757356609877   0.02309367685219976
-0.07434674294862395   0.015749757356609877   0.02309367685219976
-0.07434674294862395   0.015749757356609877   0.02309367685219976
-0.10700920423088076   -0.04551321146044374   -0.027314586914255857
-0.10700920423088076   -0.04551321146044374   -0.027314586914255857
-0.10700920423088076   -0.04551321146044374   -0.027314586914255857
-0.10700920423088076   -0.04551321146044374   -0.027314586914255857
0.03562375548982135   0.03309901907474035   0.034353050069202334
0.03562375548982135   0.03309901907474035   0.034353050069202334
0.03562375548982135   0.03309901907474035   0.034353050069202334
0.03562375548982135   0.03309901907474035   0.034353050069202334
-0.02875097947576771   -0.0010949735420354824   -0.004575091620921804
-0.02875097947576771   -0.0010949735420354824   -0.004575091620921804
-0.02875097947576771   -0.0010949735420354824   -0.004575091620921804
-0.02875097947576771   -0.0010949735420354824   -0.004575091620921804
0.011788990753427665   -0.022195838323608247   -0.029525916214417525
0.011788990753427665   -0.022195838323608247   -0.029525916214417525
0.011788990753427665   -0.022195838323608247   -0.029525916214417525
0.011788990753427665   -0.022195838323608247   -0.029525916214417525
-0.08507987535286093   0.007876210079535949   0.028942635935862618
-0.08507987535286093   0.007876210079535949   0.028942635935862618
-0.08507987535286093   0.007876210079535949   0.028942635935862618
-0.08507987535286093   0.007876210079535949   0.028942635935862618
-0.11684801927300888   -0.05617112653170805   -0.022653703661840004
-0.11684801927300888   -0.05617112653170805   -0.022653703661840004
-0.11684801927300888   -0.05617112653170805   -0.022653703661840004
-0.11684801927300888   -0.05617112653170805   -0.022653703661840004
0.004946304807630399   0.013321469658619352   0.039187322213839346
0.004946304807630399   0.013321469658619352   0.039187322213839346
0.004946304807630399   0.013321469658619352   0.039187322213839346
0.004946304807630399   0.013321469658619352   0.039187322213839346
-0.04752236036926366   -0.011583258264557701   -0.013856809289201789
-0.04752236036926366   -0.011583258264557701   -0.013856809289201789
-0.04752236036926366   -0.011583258264557701   -0.013856809289201789
-0.04752236036926366   -0.011583258264557701   -0.013856809289201789
-0.07294459322519825   0.019912750753682346   -0.01584444178309774
-0.07294459322519825   0.019912750753682346   -0.01584444178309774
-0.07294459322519825   0.019912750753682346   -0.01584444178309774
-0.07294459322519825   0.019912750753682346   -0.01584444178309774
-0.19105018431504908   0.008046427344326172   0.005303534464634073
-0.19105018431504908   0.008046427344326172   0.005303534464634073
-0.19105018431504908   0.008046427344326172   0.005303534464634073
-0.19105018431504908   0.008046427344326172   0.005303534464634073
-0.20787669340867942   -0.022456629834004226   -0.016766474726241605
-0.20787669340867942   -0.022456629834004226   -0.016766474726241605
-0.20787669340867942   -0.022456629834004226   -0.016766474726241605
-0.20787669340867942   -0.022456629834004226   -0.016766474726241605
-0.07503515799844467   0.019373837103694273   0.01602752185601182
-0.07503515799844467   0.019373837103694273   0.01602752185601182
-0.07503515799844467   0.019373837103694273   0.01602752185601182
-0.07503515799844467   0.019373837103694273   0.01602752185601182
-0.1364565121951359   0.005823799043619541   0.0031196616977752015
-0.1364565121951359   0.005823799043619541   0.0031196616977752015
-0.1364565121951359   0.005823799043619541   0.0031196616977752015
-0.1364565121951359   0.005823799043619541   0.0031196616977752015
-0.08411106087348716   0.003045133779317552   -0.013023289194824974
-0.08411106087348716   0.003045133779317552   -0.013023289194824974
-0.08411106087348716   0.003045133779317552   -0.013023289194824974
-0.08411106087348716   0.003045133779317552   -0.013023289194824974
-0.19993040496990183   -0.007257540945892572   0.00776587857953475
-0.19993040496990183   -0.007257540945892572   0.00776587857953475
-0.19993040496990183   -0.007257540945892572   0.00776587857953475
-0.19993040496990183   -0.007257540945892572   0.00776587857953475
-0.2162466020519578   -0.03612270944653939   -0.0123914605690564
-0.2162466020519578   -0.03612270944653939   -0.0123914605690564
-0.2162466020519578   -0.03612270944653939   -0.0123914605690564
-0.2162466020519578   -0.03612270944653939   -0.0123914605690564
-0.08797531815370763   0.00426968472608674   0.018071947285078396
-0.08797531815370763   0.00426968472608674   0.018071947285078396
-0.08797531815370763   0.00426968472608674   0.018071947285078396
-0.08797531815370763   0.00426968472608674   0.018071947285078396
-0.14702860156139608   -0.007905022244491869   -0.0037738264183763658
-0.14702860156139608   -0.007905022244491869   -0.0037738264183763658
-0.14702860156139608   -0.007905022244491869   -0.0037738264183763658
-0.14702860156139608   -0.007905022244491869   -0.0037738264183763658
-0.09672765267972104   -0.011687196318384302   -0.009732844300517686
-0.09672765267972104   -0.011687196318384302   -0.009732844300517686
-0.09672765267972104   -0.011687196318384302   -0.009732844300517686
-0.09672765267972104   -0.011687196318384302   -0.009732844300517686
-0.20870767767994017   -0.02137923855606416   0.01055969040055646
-0.20870767767994017   -0.02137923855606416   0.01055969040055646
-0.20870767767994017   -0.02137923855606416   0.01055969040055646
-0.20870767767994017   -0.02137923855606416   0.01055969040055646
-0.22467165537642517   -0.05016555165298321   -0.00851823147366483
-0.22467165537642517   -0.05016555165298321   -0.00851823147366483
-0.22467165537642517   -0.05016555165298321   -0.00851823147366483
-0.22467165537642517   -0.05016555165298321   -0.00851823147366483
-0.0988008436289774   -0.011010126865102665   0.022421174891711602
-0.0988008436289774   -0.011010126865102665   0.022421174891711602
-0.0988008436289774   -0.011010126865102665   0.022421174891711602
-0.0988008436289774   -0.011010126865102665   0.022421174891711602
-0.15757421698295163   -0.021458924400775514   -0.010777868211136701
-0.15757421698295163   -0.021458924400775514   -0.010777868211136701
-0.15757421698295163   -0.021458924400775514   -0.010777868211136701
-0.15757421698295163   -0.021458924400775514   -0.010777868211136701
-0.1875265667986208   0.03264431069044238   -0.0016762612993405576
-0.1875265667986208   0.03264431069044238   -0.0016762612993405576
-0.1875265667986208   0.03264431069044238   -0.0016762612993405576
-0.1875265667986208   0.03264431069044238   -0.0016762612993405576
-0.3171580449308281   -0.010918725985875257   -0.008994716486143708
-0.3171580449308281   -0.010918725985875257   -0.008994716486143708
-0.3171580449308281   -0.010918725985875257   -0.008994716486143708
-0.3171580449308281   -0.010918725985875257   -0.008994716486143708
-0.32051168559425   -0.008003056321364693   -0.001937668385237526
-0.32051168559425   -0.008003056321364693   -0.001937668385237526
-0.32051168559425   -0.008003056321364693   -0.001937668385237526
-0.32051168559425   -0.008003056321364693   -0.001937668385237526
-0.1991364648583327   0.0020008710869795273   0.0024771671045081198
-0.1991364648583327   0.0020008710869795273   0.0024771671045081198
-0.1991364648583327   0.0020008710869795273   0.0024771671045081198
-0.1991364648583327   0.0020008710869795273   0.0024771671045081198
-0.2555444393862665   0.0036756662263226995   0.0010923102014620406
-0.2555444393862665   0.0036756662263226995   0.0010923102014620406
-0.2555444393862665   0.0036756662263226995   0.0010923102014620406
-0.2555444393862665   0.0036756662263226995   0.0010923102014620406
-0.19598863160592922   0.017777107536706666   0.0024400969167985356
-0.19598863160592922   0.017777107536706666   0.0024400969167985356
-0.19598863160592922   0.017777107536706666   0.0024400969167985356
-0.19598863160592922   0.017777107536706666   0.0024400969167985356
-0.32474747472584614   -0.02486724865028455   -0.006252421714298809
-0.32474747472584614   -0.02486724865028455   -0.006252421714298809
-0.32474747472584614   -0.02486724865028455   -0.006252421714298809
-0.32474747472584614   -0.02486724865028455   -0.006252421714298809
-0.3283627526840486   -0.022685303505207297   0.0021320470101317823
-0.3283627526840486   -0.022685303505207297   0.0021320470101317823
-0.3283627526840486   -0.022685303505207297   0.0021320470101317823
-0.3283627526840486   -0.022685303505207297   0.0021320470101317823
-0.20800798028574102   -0.012435777408381102   0.005114716223869199
-0.20800798028574102   -0.012435777408381102   0.005114716223869199
-0.20800798028574102   -0.012435777408381102   0.005114716223869199
-0.20800798028574102   -0.012435777408381102   0.005114716223869199
-0.26405104984466404   -0.009677633882015691   -0.005237992494431944
-0.26405104984466404   -0.009677633882015691   -0.005237992494431944
-0.26405104984466404   -0.009677633882015691   -0.005237992494431944
-0.26405104984466404   -0.009677633882015691   -0.005237992494431944
-0.20476806239821163   0.0028191090004673017   0.006059419252667793
-0.20476806239821163   0.0028191090004673017   0.006059419252667793
-0.20476806239821163   0.0028191090004673017   0.006059419252667793
-0.20476806239821163   0.0028191090004673017   0.006059419252667793
-0.3329147175088472   -0.03925223685132491   -0.004060843767743641
-0.3329147175088472   -0.03925223685132491   -0.004060843767743641
-0.3329147175088472   -0.03925223685132491   -0.004060843767743641
-0.3329147175088472   -0.03925223685132491   -0.004060843767743641
-0.33600772113733657   -0.03676401838636176   0.0060380455108021425
-0.33600772113733657   -0.03676401838636176   0.0060380455108021425
-0.33600772113733657   -0.03676401838636176   0.0060380455108021425
-0.33600772113733657   -0.03676401838636176   0.0060380455108021425
-0.2165324597014286   -0.026048655382615696   0.008060850630948461
-0.2165324597014286   -0.026048655382615696   0.008060850630948461
-0.2165324597014286   -0.026048655382615696   0.008060850630948461
-0.2165324597014286   -0.026048655382615696   0.008060850630948461
-0.27320473903507825   -0.02311101359948617   -0.012117090763093558
-0.27320473903507825   -0.02311101359948617   -0.012117090763093558
-0.27320473903507825   -0.02311101359948617   -0.012117090763093558
-0.27320473903507825   -0.02311101359948617   -0.012117090763093558
-0.3011504300546329   0.0471578649350019   0.01296676697395921
-0.3011504300546329   0.0471578649350019   0.01296676697395921
-0.3011504300546329   0.0471578649350019   0.01296676697395921
-0.3011504300546329   0.0471578649350019   0.01296676697395921
-0.43838281213249536   -0.018210381112949432   -0.02015758354859086
-0.43838281213249536   -0.018210381112949432   -0.02015758354859086
-0.43838281213249536   -0.018210381112949432   -0.02015758354859086
-0.43838281213249536   -0.018210381112949432   -0.02015758354859086
-0.4325475976546705   0.006845497863287364   0.013355403911513686
-0.4325475976546705   0.006845497863287364   0.013355403911513686
-0.4325475976546705   0.006845497863287364   0.013355403911513686
-0.4325475976546705   0.006845497863287364   0.013355403911513686
-0.32156368871499336   -0.006257200220431431   -0.008943540089887903
-0.32156368871499336   -0.006257200220431431   -0.008943540089887903
-0.32156368871499336   -0.006257200220431431   -0.008943540089887903
-0.32156368871499336   -0.006257200220431431   -0.008943540089887903
-0.37210358180170616   0.007430560478198102   0.001825418077204849
-0.37210358180170616   0.007430560478198102   0.001825418077204849
-0.37210358180170616   0.007430560478198102   0.001825418077204849
-0.37210358180170616   0.007430560478198102   0.001825418077204849
-0.3086301577088378   0.032376073345202386   0.01709084137525607
-0.3086301577088378   0.032376073345202386   0.01709084137525607
-0.3086301577088378   0.032376073345202386   0.01709084137525607
-0.3086301577088378   0.032376073345202386   0.01709084137525607
-0.44707031440706596   -0.03337696144858762   -0.019035720538596285
-0.44707031440706596   -0.03337696144858762   -0.019035720538596285
-0.44707031440706596   -0.03337696144858762   -0.019035720538596285
-0.44707031440706596   -0.03337696144858762   -0.019035720538596285
-0.4430641820799294   -0.0076096068964950705   0.015783222816814296
-0.4430641820799294   -0.0076096068964950705   0.015783222816814296
-0.4430641820799294   -0.0076096068964950705   0.015783222816814296
-0.4430641820799294   -0.0076096068964950705   0.015783222816814296
-0.3293463101335138   -0.01939358723052182   -0.006077456511879797
-0.3293463101335138   -0.01939358723052182   -0.006077456511879797
-0.3293463101335138   -0.01939358723052182   -0.006077456511879797
-0.3293463101335138   -0.01939358723052182   -0.006077456511879797
-0.3792435534847358   -0.005435013988772056   -0.00503622549602982
-0.3792435534847358   -0.005435013988772056   -0.00503622549602982
-0.3792435534847358   -0.005435013988772056   -0.00503622549602982
-0.3792435534847358   -0.005435013988772056   -0.00503622549602982
-0.3162692853245717   0.018812953293067956   0.02110112700924105
-0.3162692853245717   0.018812953293067956   0.02110112700924105
-0.3162692853245717   0.018812953293067956   0.02110112700924105
-0.3162692853245717   0.018812953293067956   0.02110112700924105
-0.45739614527371725   -0.04707108580492808   -0.016415114243707618
-0.45739614527371725   -0.04707108580492808   -0.016415114243707618
-0.45739614527371725   -0.04707108580492808   -0.016415114243707618
-0.45739614527371725   -0.04707108580492808   -0.016415114243707618
-0.451611493652626   -0.022180385843518113   0.020114913361248057
-0.451611493652626   -0.022180385843518113   0.020114913361248057
-0.451611493652626   -0.022180385843518113   0.020114913361248057
-0.451611493652626   -0.022180385843518113   0.020114913361248057
-0.3371593741536313   -0.032854091858831536   -0.003630146098201781
-0.3371593741536313   -0.032854091858831536   -0.003630146098201781
-0.3371593741536313   -0.032854091858831536   -0.003630146098201781
-0.3371593741536313   -0.032854091858831536   -0.003630146098201781
-0.3900043249964234   -0.01857371182858489   -0.012075008459061301
-0.3900043249964234   -0.01857371182858489   -0.012075008459061301
-0.3900043249964234   -0.01857371182858489   -0.012075008459061301
-0.3900043249964234   -0.01857371182858489   -0.012075008459061301
-0.41535393280206284   0.05112616223437065   0.02565026975625169
-0.41535393280206284   0.05112616223437065   0.02565026975625169
-0.41535393280206284   0.05112616223437065   0.02565026975625169
-0.41535393280206284   0.05112616223437065   0.02565026975625169
-0.5354014737335748   -0.026844577958953456   -0.03363513741567774
-0.5354014737335748   -0.026844577958953456   -0.03363513741567774
-0.5354014737335748   -0.026844577958953456   -0.03363513741567774
-0.5354014737335748   -0.026844577958953456   -0.03363513741567774
-0.5358482610908669   0.020332731741440187   0.02827666534712632
-0.5358482610908669   0.020332731741440187   0.02827666534712632
-0.5358482610908669   0.020332731741440187   0.02827666534712632
-0.5358482610908669   0.020332731741440187   0.02827666534712632
-0.44369744168465075   -0.014974904282223388   -0.02057341409287672
-0.44369744168465075   -0.014974904282223388   -0.02057341409287672
-0.44369744168465075   -0.014974904282223388   -0.02057341409287672
-0.44369744168465075   -0.014974904282223388   -0.02057341409287672
-0.46302353995828444   0.01206736745286248   0.009018093403033875
-0.46302353995828444   0.01206736745286248   0.009018093403033875
-0.46302353995828444   0.01206736745286248   0.009018093403033875
-0.46302353995828444   0.01206736745286248   0.009018093403033875
-0.42182946681561756   0.043532890600902104   0.03025866536915589
-0.42182946681561756   0.043532890600902104   0.03025866536915589
-0.42182946681561756   0.043532890600902104   0.03025866536915589
-0.42182946681561756   0.043532890600902104   0.03025866536915589
-0.5593693569919542   -0.03982818417373569   -0.029167898243134732
-0.5593693569919542   -0.03982818417373569   -0.029167898243134732
-0.5593693569919542   -0.03982818417373569   -0.029167898243134732
-0.5593693569919542   -0.03982818417373569   -0.029167898243134732
-0.5549736521426726   0.012087512405858772   0.03642232376957469
-0.5549736521426726   0.012087512405858772   0.03642232376957469
-0.5549736521426726   0.012087512405858772   0.03642232376957469
-0.5549736521426726   0.012087512405858772   0.03642232376957469
-0.4528072816437898   -0.02252846683563918   -0.018013415063351454
-0.4528072816437898   -0.02252846683563918   -0.018013415063351454
-0.4528072816437898   -0.02252846683563918   -0.018013415063351454
-0.4528072816437898   -0.02252846683563918   -0.018013415063351454
-0.4858163102083154   0.0020497039753339247   -0.000519611200181791
-0.4858163102083154   0.0020497039753339247   -0.000519611200181791
-0.4858163102083154   0.0020497039753339247   -0.000519611200181791
-0.4858163102083154   0.0020497039753339247   -0.000519611200181791
-0.4300345982541716   0.03704597119954829   0.03627556384955201
-0.4300345982541716   0.03704597119954829   0.03627556384955201
-0.4300345982541716   0.03704597119954829   0.03627556384955201
-0.4300345982541716   0.03704597119954829   0.03627556384955201
-0.5794278954675078   -0.04916848556454961   -0.024592894884185604
-0.5794278954675078   -0.04916848556454961   -0.024592894884185604
-0.5794278954675078   -0.04916848556454961   -0.024592894884185604
-0.5794278954675078   -0.04916848556454961   -0.024592894884185604
-0.5832067805900643   -0.009624431797823858   0.038500588400045194
-0.5832067805900643   -0.009624431797823858   0.038500588400045194
-0.5832067805900643   -0.009624431797823858   0.038500588400045194
-0.5832067805900643   -0.009624431797823858   0.038500588400045194
-0.46195635915354355   -0.03823071677348221   -0.015559083213383687
-0.46195635915354355   -0.03823071677348221   -0.015559083213383687
-0.46195635915354355   -0.03823071677348221   -0.015559083213383687
-0.46195635915354355   -0.03823071677348221   -0.015559083213383687
-0.4945258586856307   -0.00788817089156383   -0.007275903752409149
-0.4945258586856307   -0.00788817089156383   -0.007275903752409149
-0.4945258586856307   -0.00788817089156383   -0.007275903752409149
-0.4945258586856307   -0.00788817089156383   -0.007275903752409149
-0.2228780090110674   -0.014511083109827207   -0.042499538021337796
-0.2228780090110674   -0.014511083109827207   -0.042499538021337796
-0.2228780090110674   -0.014511083109827207   -0.042499538021337796
-0.2228780090110674   -0.014511083109827207   -0.042499538021337796
-0.2221622341270431   0.03244473130943304   0.019093606785966333
-0.2221622341270431   0.03244473130943304   0.019093606785966333
-0.2221622341270431   0.03244473130943304   0.019093606785966333
-0.2221622341270431   0.03244473130943304   0.019093606785966333
-0.2502433501848291   -0.029818829439033228   -0.028852649889810577
-0.2502433501848291   -0.029818829439033228   -0.028852649889810577
-0.2502433501848291   -0.029818829439033228   -0.028852649889810577
-0.2502433501848291   -0.029818829439033228   -0.028852649889810577
-0.22760010667402442   0.01723883395458029   0.028621509612436896
-0.22760010667402442   0.01723883395458029   0.028621509612436896
-0.22760010667402442   0.01723883395458029   0.028621509612436896
-0.22760010667402442   0.01723883395458029   0.028621509612436896
-0.21913162005892522   0.005533855241731861   0.019481262078287993
-0.21913162005892522   0.005533855241731861   0.019481262078287993
-0.21913162005892522   0.005533855241731861   0.019481262078287993
-0.21913162005892522   0.005533855241731861   0.019481262078287993
-0.25013328772709115   -0.031156166090988705   -0.03564939560732594
-0.25013328772709115   -0.031156166090988705   -0.03564939560732594
-0.25013328772709115   -0.031156166090988705   -0.03564939560732594
-0.25013328772709115   -0.031156166090988705   -0.03564939560732594
-0.23049226533794373   0.015794074400354716   0.024289870505228364
-0.23049226533794373   0.015794074400354716   0.024289870505228364
-0.23049226533794373   0.015794074400354716   0.024289870505228364
-0.23049226533794373   0.015794074400354716   0.024289870505228364
-0.2587397428151796   -0.03753256824852809   -0.02444138824213895
-0.2587397428151796   -0.03753256824852809   -0.02444138824213895
-0.2587397428151796   -0.03753256824852809   -0.02444138824213895
-0.2587397428151796   -0.03753256824852809   -0.02444138824213895
-0.249381396979004   0.006754979785841737   0.053283654606175956
-0.249381396979004   0.006754979785841737   0.053283654606175956
-0.249381396979004   0.006754979785841737   0.053283654606175956
-0.249381396979004   0.006754979785841737   0.053283654606175956
-0.2391631370939066   -0.007711392306389037   0.007818135990541944
-0.2391631370939066   -0.007711392306389037   0.007818135990541944
-0.2391631370939066   -0.007711392306389037   0.007818135990541944
-0.2391631370939066   -0.007711392306389037   0.007818135990541944
-0.2752552972628068   -0.04151131241251777   -0.027819554614475453
-0.2752552972628068   -0.04151131241251777   -0.027819554614475453
-0.2752552972628068   -0.04151131241251777   -0.027819554614475453
-0.2752552972628068   -0.04151131241251777   -0.027819554614475453
-0.23947511789787662   0.004124448583334599   0.03022471951251289
-0.23947511789787662   0.004124448583334599   0.03022471951251289
-0.23947511789787662   0.004124448583334599   0.03022471951251289
-0.23947511789787662   0.004124448583334599   0.03022471951251289
-0.2657051434862061   -0.0524977254002693   -0.01925720478676743
-0.2657051434862061   -0.0524977254002693   -0.01925720478676743
-0.2657051434862061   -0.0524977254002693   -0.01925720478676743
-0.2657051434862061   -0.0524977254002693   -0.01925720478676743
-0.2832160854464001   -0.027891781713981836   0.04985248248926333
-0.2832160854464001   -0.027891781713981836   0.04985248248926333
-0.2832160854464001   -0.027891781713981836   0.04985248248926333
-0.2832160854464001   -0.027891781713981836   0.04985248248926333
-0.2566183574855495   -0.023360224908724178   -0.010699370267953937
-0.2566183574855495   -0.023360224908724178   -0.010699370267953937
-0.2566183574855495   -0.023360224908724178   -0.010699370267953937
-0.2566183574855495   -0.023360224908724178   -0.010699370267953937
-0.23820112878753358   -0.006813079570423442   -0.02184305563662951
-0.23820112878753358   -0.006813079570423442   -0.02184305563662951
-0.23820112878753358   -0.006813079570423442   -0.02184305563662951
-0.23820112878753358   -0.006813079570423442   -0.02184305563662951
-0.24260215174634006   -0.029854481865417965   -0.0012782414653049606
-0.24260215174634006   -0.029854481865417965   -0.0012782414653049606
-0.24260215174634006   -0.029854481865417965   -0.0012782414653049606
-0.24260215174634006   -0.029854481865417965   -0.0012782414653049606
-0.2444499683559231   -0.01990809468904682   -0.010967326750215223
-0.2444499683559231   -0.01990809468904682   -0.010967326750215223
-0.2444499683559231   -0.01990809468904682   -0.010967326750215223
-0.2444499683559231   -0.01990809468904682   -0.010967326750215223
-0.24665667456015997   -0.040369894702461995   -0.0003682065030360532
-0.24665667456015997   -0.040369894702461995   -0.0003682065030360532
-0.24665667456015997   -0.040369894702461995   -0.0003682065030360532
-0.24665667456015997   -0.040369894702461995   -0.0003682065030360532
-0.24091599353256157   -0.025291221373995493   -0.0007897762043206219
-0.24091599353256157   -0.025291221373995493   -0.0007897762043206219
-0.24091599353256157   -0.025291221373995493   -0.0007897762043206219
-0.24091599353256157   -0.025291221373995493   -0.0007897762043206219
-0.24667993860373771   -0.021942923061033966   -0.01891149836235166
-0.24667993860373771   -0.021942923061033966   -0.01891149836235166
-0.24667993860373771   -0.021942923061033966   -0.01891149836235166
-0.24667993860373771   -0.021942923061033966   -0.01891149836235166
-0.24598463768643314   -0.039892999704559895   0.0013442316127476178
-0.24598463768643314   -0.039892999704559895   0.0013442316127476178
-0.24598463768643314   -0.039892999704559895   0.0013442316127476178
-0.24598463768643314   -0.039892999704559895   0.0013442316127476178
-0.24862042228634312   -0.03289359260038968   -0.0070993352146528355
-0.24862042228634312   -0.03289359260038968   -0.0070993352146528355
-0.24862042228634312   -0.03289359260038968   -0.0070993352146528355
-0.24862042228634312   -0.03289359260038968   -0.0070993352146528355
-0.25570707679237187   -0.052415599759083525   0.005604973382455095
-0.25570707679237187   -0.052415599759083525   0.005604973382455095
-0.25570707679237187   -0.052415599759083525   0.005604973382455095
-0.25570707679237187   -0.052415599759083525   0.005604973382455095
-0.2465432482539992   -0.035794070170131205   -0.006820076981194474
-0.2465432482539992   -0.035794070170131205   -0.006820076981194474
-0.2465432482539992   -0.035794070170131205   -0.006820076981194474
-0.2465432482539992   -0.035794070170131205   -0.006820076981194474
-0.2563183550494021   -0.035822263035355684   -0.014044754626423933
-0.2563183550494021   -0.035822263035355684   -0.014044754626423933
-0.2563183550494021   -0.035822263035355684   -0.014044754626423933
-0.2563183550494021   -0.035822263035355684   -0.014044754626423933
-0.2500005017394021   -0.051478287034207273   0.004584961953866526
-0.2500005017394021   -0.051478287034207273   0.004584961953866526
-0.2500005017394021   -0.051478287034207273   0.004584961953866526
-0.2500005017394021   -0.051478287034207273   0.004584961953866526
-0.25237432872221066   -0.04686314300149132   -0.0032704206969830646
-0.25237432872221066   -0.04686314300149132   -0.0032704206969830646
-0.25237432872221066   -0.04686314300149132   -0.0032704206969830646
-0.25237432872221066   -0.04686314300149132   -0.0032704206969830646
-0.2626434573119812   -0.06767721769078283   0.011230718374868498
-0.2626434573119812   -0.06767721769078283   0.011230718374868498
-0.2626434573119812   -0.06767721769078283   0.011230718374868498
-0.2626434573119812   -0.06767721769078283   0.011230718374868498
-0.2542442929352281   -0.04844740922554635   -0.014475397606685078
-0.2542442929352281   -0.04844740922554635   -0.014475397606685078
-0.2542442929352281   -0.04844740922554635   -0.014475397606685078
-0.2542442929352281   -0.04844740922554635   -0.014475397606685078
-0.23591286560124602   0.0063266622135164634   -0.004012954818767157
-0.23591286560124602   0.0063266622135164634   -0.004012954818767157
-0.23591286560124602   0.0063266622135164634   -0.004012954818767157
-0.23591286560124602   0.0063266622135164634   -0.004012954818767157
-0.26789814464232614   -0.050872603341560185   -0.012866521887540137
-0.26789814464232614   -0.050872603341560185   -0.012866521887540137
-0.26789814464232614   -0.050872603341560185   -0.012866521887540137
-0.26789814464232614   -0.050872603341560185   -0.012866521887540137
-0.25703452245143144   -0.009407736678291315   0.003332185871252613
-0.25703452245143144   -0.009407736678291315   0.003332185871252613
-0.25703452245143144   -0.009407736678291315   0.003332185871252613
-0.25703452245143144   -0.009407736678291315   0.003332185871252613
-0.25081565436241443   -0.05479483821356879   -0.007909013258149904
-0.25081565436241443   -0.05479483821356879   -0.007909013258149904
-0.25081565436241443   -0.05479483821356879   -0.007909013258149904
-0.25081565436241443   -0.05479483821356879   -0.007909013258149904
-0.2527378847042361   -0.028051015776507995   -0.005679258292644596
-0.2527378847042361   -0.028051015776507995   -0.005679258292644596
-0.2527378847042361   -0.028051015776507995   -0.005679258292644596
-0.2527378847042361   -0.028051015776507995   -0.005679258292644596
-0.23960092718662346   -0.006594581598444213   -3.563399431981418e-05
-0.23960092718662346   -0.006594581598444213   -3.563399431981418e-05
-0.23960092718662346   -0.006594581598444213   -3.563399431981418e-05
-0.23960092718662346   -0.006594581598444213   -3.563399431981418e-05
-0.269665295944021   -0.05902403961021516   -0.010205378659775145
-0.269665295944021   -0.05902403961021516   -0.010205378659775145
-0.269665295944021   -0.05902403961021516   -0.010205378659775145
-0.269665295944021   -0.05902403961021516   -0.010205378659775145
-0.260051835538458   -0.022432771388594994   0.007173601575516733
-0.260051835538458   -0.022432771388594994   0.007173601575516733
-0.260051835538458   -0.022432771388594994   0.007173601575516733
-0.260051835538458   -0.022432771388594994   0.007173601575516733
-0.2547197514519651   -0.06505448536975786   -0.005435088273398364
-0.2547197514519651   -0.06505448536975786   -0.005435088273398364
-0.2547197514519651   -0.06505448536975786   -0.005435088273398364
-0.2547197514519651   -0.06505448536975786   -0.005435088273398364
-0.2559352034583561   -0.03796670819261469   -0.010850743896928812
-0.2559352034583561   -0.03796670819261469   -0.010850743896928812
-0.2559352034583561   -0.03796670819261469   -0.010850743896928812
-0.2559352034583561   -0.03796670819261469   -0.010850743896928812
-0.24382427717821803   -0.019853683738778726   0.0038414814643580736
-0.24382427717821803   -0.019853683738778726   0.0038414814643580736
-0.24382427717821803   -0.019853683738778726   0.0038414814643580736
-0.24382427717821803   -0.019853683738778726   0.0038414814643580736
-0.2725292291979363   -0.06921549240530533   -0.008430645705164566
-0.2725292291979363   -0.06921549240530533   -0.008430645705164566
-0.2725292291979363   -0.06921549240530533   -0.008430645705164566
-0.2725292291979363   -0.06921549240530533   -0.008430645705164566
-0.2625208221160137   -0.03467168901615082   0.01093404487785797
-0.2625208221160137   -0.03467168901615082   0.01093404487785797
-0.2625208221160137   -0.03467168901615082   0.01093404487785797
-0.2625208221160137   -0.03467168901615082   0.01093404487785797
-0.2576486577558165   -0.0748801641866056   -0.0016250446798960344
-0.2576486577558165   -0.0748801641866056   -0.0016250446798960344
-0.2576486577558165   -0.0748801641866056   -0.0016250446798960344
-0.2576486577558165   -0.0748801641866056   -0.0016250446798960344
-0.25973628000831817   -0.048333676730969145   -0.016531807808908526
-0.25973628000831817   -0.048333676730969145   -0.016531807808908526
-0.25973628000831817   -0.048333676730969145   -0.016531807808908526
-0.25973628000831817   -0.048333676730969145   -0.016531807808908526
-0.24735637296265534   0.026516975053822858   0.012452758115430562
-0.24735637296265534   0.026516975053822858   0.012452758115430562
-0.24735637296265534   0.026516975053822858   0.012452758115430562
-0.24735637296265534   0.026516975053822858   0.012452758115430562
-0.2932239802806777   -0.03806745889180986   -0.017968554130577172
-0.2932239802806777   -0.03806745889180986   -0.017968554130577172
-0.2932239802806777   -0.03806745889180986   -0.017968554130577172
-0.2932239802806777   -0.03806745889180986   -0.017968554130577172
-0.2775280228137438   0.007780969880568679   0.017211644513863075
-0.2775280228137438   0.007780969880568679   0.017211644513863075
-0.2775280228137438   0.007780969880568679   0.017211644513863075
-0.2775280228137438   0.007780969880568679   0.017211644513863075
-0.26644472469739056   -0.04227103733882772   -0.010855524698006526
-0.26644472469739056   -0.04227103733882772   -0.010855524698006526
-0.26644472469739056   -0.04227103733882772   -0.010855524698006526
-0.26644472469739056   -0.04227103733882772   -0.010855524698006526
-0.27110079663281955   -0.011229073270864564   -0.0033907587392489266
-0.27110079663281955   -0.011229073270864564   -0.0033907587392489266
-0.27110079663281955   -0.011229073270864564   -0.0033907587392489266
-0.27110079663281955   -0.011229073270864564   -0.0033907587392489266
-0.24993413351628405   0.013118914675856373   0.016307479192841798
-0.24993413351628405   0.013118914675856373   0.016307479192841798
-0.24993413351628405   0.013118914675856373   0.016307479192841798
-0.24993413351628405   0.013118914675856373   0.016307479192841798
-0.2959210506697397   -0.04949141880900489   -0.017481106076543122
-0.2959210506697397   -0.04949141880900489   -0.017481106076543122
-0.2959210506697397   -0.04949141880900489   -0.017481106076543122
-0.2959210506697397   -0.04949141880900489   -0.017481106076543122
-0.2827129747402638   -0.004947084283957796   0.01952172282769031
-0.2827129747402638   -0.004947084283957796   0.01952172282769031
-0.2827129747402638   -0.004947084283957796   0.01952172282769031
-0.2827129747402638   -0.004947084283957796   0.01952172282769031
-0.26907946939769   -0.05176161140064359   -0.008635727708594575
-0.26907946939769   -0.05176161140064359   -0.008635727708594575
-0.26907946939769   -0.05176161140064359   -0.008635727708594575
-0.26907946939769   -0.05176161140064359   -0.008635727708594575
-0.2737412308642778   -0.021983017562850662   -0.009458020458738857
-0.2737412308642778   -0.021983017562850662   -0.009458020458738857
-0.2737412308642778   -0.021983017562850662   -0.009458020458738857
-0.2737412308642778   -0.021983017562850662   -0.009458020458738857
-0.2527600814168107   0.0011492249785245295   0.02005037581663354
-0.2527600814168107   0.0011492249785245295   0.02005037581663354
-0.2527600814168107   0.0011492249785245295   0.02005037581663354
-0.2527600814168107   0.0011492249785245295   0.02005037581663354
-0.3006631506329248   -0.05948870857490508   -0.01568753234466727
-0.3006631506329248   -0.05948870857490508   -0.01568753234466727
-0.3006631506329248   -0.05948870857490508   -0.01568753234466727
-0.3006631506329248   -0.05948870857490508   -0.01568753234466727
-0.2861600156647668   -0.01716554705583495   0.023813219427901294
-0.2861600156647668   -0.01716554705583495   0.023813219427901294
-0.2861600156647668   -0.01716554705583495   0.023813219427901294
-0.2861600156647668   -0.01716554705583495   0.023813219427901294
-0.27135539858056595   -0.061298121133687156   -0.006612405327366996
-0.27135539858056595   -0.061298121133687156   -0.006612405327366996
-0.27135539858056595   -0.061298121133687156   -0.006612405327366996
-0.27135539858056595   -0.061298121133687156   -0.006612405327366996
-0.2783336064848336   -0.0321329314134975   -0.01534189659418781
-0.2783336064848336   -0.0321329314134975   -0.01534189659418781
-0.2783336064848336   -0.0321329314134975   -0.01534189659418781
-0.2783336064848336   -0.0321329314134975   -0.01534189659418781
-0.2694286975926128   0.038054237363301664   0.024886163054635875
-0.2694286975926128   0.038054237363301664   0.024886163054635875
-0.2694286975926128   0.038054237363301664   0.024886163054635875
-0.2694286975926128   0.038054237363301664   0.024886163054635875
-0.2890096106074092   -0.023085325659346425   -0.026005163031537923
-0.2890096106074092   -0.023085325659346425   -0.026005163031537923
-0.2890096106074092   -0.023085325659346425   -0.026005163031537923
-0.2890096106074092   -0.023085325659346425   -0.026005163031537923
-0.2826423153303661   0.026883256019333113   0.02766226106062112
-0.2826423153303661   0.026883256019333113   0.02766226106062112
-0.2826423153303661   0.026883256019333113   0.02766226106062112
-0.2826423153303661   0.026883256019333113   0.02766226106062112
-0.29157800986693   -0.029359543835028125   -0.015897777036471286
-0.29157800986693   -0.029359543835028125   -0.015897777036471286
-0.29157800986693   -0.029359543835028125   -0.015897777036471286
-0.29157800986693   -0.029359543835028125   -0.015897777036471286
-0.273501239139964   0.006739465820812579   0.0011447185123730982
-0.273501239139964   0.006739465820812579   0.0011447185123730982
-0.273501239139964   0.006739465820812579   0.0011447185123730982
-0.273501239139964   0.006739465820812579   0.0011447185123730982
-0.2708814392401956   0.029456737898064644   0.02876879436410825
-0.2708814392401956   0.029456737898064644   0.02876879436410825
-0.2708814392401956   0.029456737898064644   0.02876879436410825
-0.2708814392401956   0.029456737898064644   0.02876879436410825
-0.3048775323951469   -0.033471672151806034   -0.023158896092143937
-0.3048775323951469   -0.033471672151806034   -0.023158896092143937
-0.3048775323951469   -0.033471672151806034   -0.023158896092143937
-0.3048775323951469   -0.033471672151806034   -0.023158896092143937
-0.29508755518545515   0.01973852214508385   0.035601803381929004
-0.29508755518545515   0.01973852214508385   0.035601803381929004
-0.29508755518545515   0.01973852214508385   0.035601803381929004
-0.29508755518545515   0.01973852214508385   0.035601803381929004
-0.2955168199320275   -0.03495217603990514   -0.014492411375180723
-0.2955168199320275   -0.03495217603990514   -0.014492411375180723
-0.2955168199320275   -0.03495217603990514   -0.014492411375180723
-0.2955168199320275   -0.03495217603990514   -0.014492411375180723
-0.28691856498825963   -0.0019101476561257241   -0.006038232941157365
-0.28691856498825963   -0.0019101476561257241   -0.006038232941157365
-0.28691856498825963   -0.0019101476561257241   -0.006038232941157365
-0.28691856498825963   -0.0019101476561257241   -0.006038232941157365
-0.27399933481061955   0.023720310985046567   0.03442252720690704
-0.27399933481061955   0.023720310985046567   0.03442252720690704
-0.27399933481061955   0.023720310985046567   0.03442252720690704
-0.27399933481061955   0.023720310985046567   0.03442252720690704
-0.31860385635195315   -0.04093278092495665   -0.02130839938051262
-0.31860385635195315   -0.04093278092495665   -0.02130839938051262
-0.31860385635195315   -0.04093278092495665   -0.02130839938051262
-0.31860385635195315   -0.04093278092495665   -0.02130839938051262
-0.3169525000775779   0.0014885916101318973   0.03803359962873651
-0.3169525000775779   0.0014885916101318973   0.03803359962873651
-0.3169525000775779   0.0014885916101318973   0.03803359962873651
-0.3169525000775779   0.0014885916101318973   0.03803359962873651
-0.2991178537760776   -0.04555065577181505   -0.012590862412679912
-0.2991178537760776   -0.04555065577181505   -0.012590862412679912
-0.2991178537760776   -0.04555065577181505   -0.012590862412679912
-0.2991178537760776   -0.04555065577181505   -0.012590862412679912
-0.29327534714432013   -0.009882527178363945   -0.012501934157976242
-0.29327534714432013   -0.009882527178363945   -0.012501934157976242
-0.29327534714432013   -0.009882527178363945   -0.012501934157976242
-0.29327534714432013   -0.009882527178363945   -0.012501934157976242
-0.5729878954860695   -0.052416547195565794   -0.054387124380001414
-0.5729878954860695   -0.052416547195565794   -0.054387124380001414
-0.5729878954860695   -0.052416547195565794   -0.054387124380001414
-0.5729878954860695   -0.052416547195565794   -0.054387124380001414
-0.36417803914937663   0.030826884524125683   0.012799503109672747
-0.36417803914937663   0.030826884524125683   0.012799503109672747
-0.36417803914937663   0.030826884524125683   0.012799503109672747
-0.36417803914937663   0.030826884524125683   0.012799503109672747
-0.38248960079178207   -0.024328676409613698   -0.02432654809079074
-0.38248960079178207   -0.024328676409613698   -0.02432654809079074
-0.38248960079178207   -0.024328676409613698   -0.02432654809079074
-0.38248960079178207   -0.024328676409613698   -0.02432654809079074
-0.6095346649156934   -0.06902275306252761   0.06079662142670933
-0.6095346649156934   -0.06902275306252761   0.06079662142670933
-0.6095346649156934   -0.06902275306252761   0.06079662142670933
-0.6095346649156934   -0.06902275306252761   0.06079662142670933
-0.4432970160395924   -0.016993423613238454   0.05904066085269116
-0.4432970160395924   -0.016993423613238454   0.05904066085269116
-0.4432970160395924   -0.016993423613238454   0.05904066085269116
-0.4432970160395924   -0.016993423613238454   0.05904066085269116
-0.6313095174840037   -0.07720619085447741   -0.03989420362288772
-0.6313095174840037   -0.07720619085447741   -0.03989420362288772
-0.6313095174840037   -0.07720619085447741   -0.03989420362288772
-0.6313095174840037   -0.07720619085447741   -0.03989420362288772
-0.376038691959861   -0.031469182354052924   0.015068502013250343
-0.376038691959861   -0.031469182354052924   0.015068502013250343
-0.376038691959861   -0.031469182354052924   0.015068502013250343
-0.376038691959861   -0.031469182354052924   0.015068502013250343
-0.388474890798758   -0.035222441450776396   -0.017509957757160674
-0.388474890798758   -0.035222441450776396   -0.017509957757160674
-0.388474890798758   -0.035222441450776396   -0.017509957757160674
-0.388474890798758   -0.035222441450776396   -0.017509957757160674
-0.6291037466733899   -0.0963981550355921   0.001408978404343758
-0.6291037466733899   -0.0963981550355921   0.001408978404343758
-0.6291037466733899   -0.0963981550355921   0.001408978404343758
-0.6291037466733899   -0.0963981550355921   0.001408978404343758
-0.49104204440228283   -0.058163213009955805   0.013674598575309324
-0.49104204440228283   -0.058163213009955805   0.013674598575309324
-0.49104204440228283   -0.058163213009955805   0.013674598575309324
-0.49104204440228283   -0.058163213009955805   0.013674598575309324
-0.6339930725574495   -0.08725937288449227   -0.032176433167048546
-0.6339930725574495   -0.08725937288449227   -0.032176433167048546
-0.6339930725574495   -0.08725937288449227   -0.032176433167048546
-0.6339930725574495   -0.08725937288449227   -0.032176433167048546
-0.3882161817911347   -0.048991840478312176   -0.002447013691511707
-0.3882161817911347   -0.048991840478312176   -0.002447013691511707
-0.3882161817911347   -0.048991840478312176   -0.002447013691511707
-0.3882161817911347   -0.048991840478312176   -0.002447013691511707
-0.3888431763640324   -0.06154422164045622   -0.012782626225476337
-0.3888431763640324   -0.06154422164045622   -0.012782626225476337
-0.3888431763640324   -0.06154422164045622   -0.012782626225476337
-0.3888431763640324   -0.06154422164045622   -0.012782626225476337
-0.6443650437848827   -0.14713910253540605   0.009522598246359704
-0.6443650437848827   -0.14713910253540605   0.009522598246359704
-0.6443650437848827   -0.14713910253540605   0.009522598246359704
-0.6443650437848827   -0.14713910253540605   0.009522598246359704
-0.4906435152976689   -0.07992572359100175   0.0010666919024384103
-0.4906435152976689   -0.07992572359100175   0.0010666919024384103
-0.4906435152976689   -0.07992572359100175   0.0010666919024384103
-0.4906435152976689   -0.07992572359100175   0.0010666919024384103
-0.3932373784939309   -0.06671661728306015   -0.034953691805909765
-0.3932373784939309   -0.06671661728306015   -0.034953691805909765
-0.3932373784939309   -0.06671661728306015   -0.034953691805909765
-0.3932373784939309   -0.06671661728306015   -0.034953691805909765
-0.27075488267515235   -0.1756452003649917   -0.03289888427328304
-0.27075488267515235   -0.1756452003649917   -0.03289888427328304
-0.27075488267515235   -0.1756452003649917   -0.03289888427328304
-0.27075488267515235   -0.1756452003649917   -0.03289888427328304
-0.2377818910717097   -0.03894787009961127   -0.0021328669772173944
-0.2377818910717097   -0.03894787009961127   -0.0021328669772173944
-0.2377818910717097   -0.03894787009961127   -0.0021328669772173944
-0.2377818910717097   -0.03894787009961127   -0.0021328669772173944
-0.41826476765638143   -0.18612319943904268   -0.04140785938436188
-0.41826476765638143   -0.18612319943904268   -0.04140785938436188
-0.41826476765638143   -0.18612319943904268   -0.04140785938436188
-0.41826476765638143   -0.18612319943904268   -0.04140785938436188
-0.3261948269260982   -0.12398838548345276   -0.009525781729487176
-0.3261948269260982   -0.12398838548345276   -0.009525781729487176
-0.3261948269260982   -0.12398838548345276   -0.009525781729487176
-0.3261948269260982   -0.12398838548345276   -0.009525781729487176
-0.3929915648233008   -0.07483020032173832   -0.02633484433626153
-0.3929915648233008   -0.07483020032173832   -0.02633484433626153
-0.3929915648233008   -0.07483020032173832   -0.02633484433626153
-0.3929915648233008   -0.07483020032173832   -0.02633484433626153
-0.2646452568585694   -0.1518310321706948   -0.023566533840434514
-0.2646452568585694   -0.1518310321706948   -0.023566533840434514
-0.2646452568585694   -0.1518310321706948   -0.023566533840434514
-0.2646452568585694   -0.1518310321706948   -0.023566533840434514
-0.24057341671071067   -0.050446715905709864   0.00031573256766219415
-0.24057341671071067   -0.050446715905709864   0.00031573256766219415
-0.24057341671071067   -0.050446715905709864   0.00031573256766219415
-0.24057341671071067   -0.050446715905709864   0.00031573256766219415
-0.4198435394718799   -0.18514750962933935   -0.024428132944210715
-0.4198435394718799   -0.18514750962933935   -0.024428132944210715
-0.4198435394718799   -0.18514750962933935   -0.024428132944210715
-0.4198435394718799   -0.18514750962933935   -0.024428132944210715
-0.32263151421362724   -0.11621907555679103   -0.010121550518463251
-0.32263151421362724   -0.11621907555679103   -0.010121550518463251
-0.32263151421362724   -0.11621907555679103   -0.010121550518463251
-0.32263151421362724   -0.11621907555679103   -0.010121550518463251
-0.3991149915362115   -0.08617063163615275   -0.019762271259051417
-0.3991149915362115   -0.08617063163615275   -0.019762271259051417
-0.3991149915362115   -0.08617063163615275   -0.019762271259051417
-0.3991149915362115   -0.08617063163615275   -0.019762271259051417
-0.2646041957380562   -0.1527258249905733   -0.017559053484204334
-0.2646041957380562   -0.1527258249905733   -0.017559053484204334
-0.2646041957380562   -0.1527258249905733   -0.017559053484204334
-0.2646041957380562   -0.1527258249905733   -0.017559053484204334
-0.24057884072818395   -0.06474734139209036   0.0038154832845335857
-0.24057884072818395   -0.06474734139209036   0.0038154832845335857
-0.24057884072818395   -0.06474734139209036   0.0038154832845335857
-0.24057884072818395   -0.06474734139209036   0.0038154832845335857
-0.41888776688183943   -0.18813903153415118   -0.036410768920820444
-0.41888776688183943   -0.18813903153415118   -0.036410768920820444
-0.41888776688183943   -0.18813903153415118   -0.036410768920820444
-0.41888776688183943   -0.18813903153415118   -0.036410768920820444
-0.3275923961036363   -0.1249893168290606   -0.0188117911159372
-0.3275923961036363   -0.1249893168290606   -0.0188117911159372
-0.3275923961036363   -0.1249893168290606   -0.0188117911159372
-0.3275923961036363   -0.1249893168290606   -0.0188117911159372
-0.23824745771348052   -0.04297546128688843   -0.0030314985430269503
-0.23824745771348052   -0.04297546128688843   -0.0030314985430269503
-0.23824745771348052   -0.04297546128688843   -0.0030314985430269503
-0.23824745771348052   -0.04297546128688843   -0.0030314985430269503
-0.20039177409207684   -0.13450279335990703   -0.023217495492596413
-0.20039177409207684   -0.13450279335990703   -0.023217495492596413
-0.20039177409207684   -0.13450279335990703   -0.023217495492596413
-0.20039177409207684   -0.13450279335990703   -0.023217495492596413
-0.17272022084646327   -0.03575545015704133   0.009192493508536202
-0.17272022084646327   -0.03575545015704133   0.009192493508536202
-0.17272022084646327   -0.03575545015704133   0.009192493508536202
-0.17272022084646327   -0.03575545015704133   0.009192493508536202
-0.26390489961243857   -0.14607994349394435   -0.025615836286530955
-0.26390489961243857   -0.14607994349394435   -0.025615836286530955
-0.26390489961243857   -0.14607994349394435   -0.025615836286530955
-0.26390489961243857   -0.14607994349394435   -0.025615836286530955
-0.21785938531764626   -0.091064584071306   -0.010701964065692168
-0.21785938531764626   -0.091064584071306   -0.010701964065692168
-0.21785938531764626   -0.091064584071306   -0.010701964065692168
-0.21785938531764626   -0.091064584071306   -0.010701964065692168
-0.2396647556177455   -0.0509015564786725   0.00040649667166264836
-0.2396647556177455   -0.0509015564786725   0.00040649667166264836
-0.2396647556177455   -0.0509015564786725   0.00040649667166264836
-0.2396647556177455   -0.0509015564786725   0.00040649667166264836
-0.1983736488843677   -0.13234712121552453   -0.022482975622502746
-0.1983736488843677   -0.13234712121552453   -0.022482975622502746
-0.1983736488843677   -0.13234712121552453   -0.022482975622502746
-0.1983736488843677   -0.13234712121552453   -0.022482975622502746
-0.172853561271015   -0.045210285874494105   0.011919719021970268
-0.172853561271015   -0.045210285874494105   0.011919719021970268
-0.172853561271015   -0.045210285874494105   0.011919719021970268
-0.172853561271015   -0.045210285874494105   0.011919719021970268
-0.264808359182434   -0.14839395652133144   -0.022911739175334803
-0.264808359182434   -0.14839395652133144   -0.022911739175334803
-0.264808359182434   -0.14839395652133144   -0.022911739175334803
-0.264808359182434   -0.14839395652133144   -0.022911739175334803
-0.21753174320568197   -0.0946107203005125   -0.013889574166921083
-0.21753174320568197   -0.0946107203005125   -0.013889574166921083
-0.21753174320568197   -0.0946107203005125   -0.013889574166921083
-0.21753174320568197   -0.0946107203005125   -0.013889574166921083
-0.24175879941347297   -0.06048904723146256   0.004431150379601317
-0.24175879941347297   -0.06048904723146256   0.004431150379601317
-0.24175879941347297   -0.06048904723146256   0.004431150379601317
-0.24175879941347297   -0.06048904723146256   0.004431150379601317
-0.19668148810882277   -0.13389356223321233   -0.01853663880835043
-0.19668148810882277   -0.13389356223321233   -0.01853663880835043
-0.19668148810882277   -0.13389356223321233   -0.01853663880835043
-0.19668148810882277   -0.13389356223321233   -0.01853663880835043
-0.17089972147391255   -0.05422676784385977   0.01489300075192921
-0.17089972147391255   -0.05422676784385977   0.01489300075192921
-0.17089972147391255   -0.05422676784385977   0.01489300075192921
-0.17089972147391255   -0.05422676784385977   0.01489300075192921
-0.26174204045243127   -0.15025533274985717   -0.01649252397893619
-0.26174204045243127   -0.15025533274985717   -0.01649252397893619
-0.26174204045243127   -0.15025533274985717   -0.01649252397893619
-0.26174204045243127   -0.15025533274985717   -0.01649252397893619
-0.21696126143779407   -0.09929547571618066   -0.01611348962039985
-0.21696126143779407   -0.09929547571618066   -0.01611348962039985
-0.21696126143779407   -0.09929547571618066   -0.01611348962039985
-0.21696126143779407   -0.09929547571618066   -0.01611348962039985
-0.16675894155184068   -0.005909971291826273   0.016353845140503732
-0.16675894155184068   -0.005909971291826273   0.016353845140503732
-0.16675894155184068   -0.005909971291826273   0.016353845140503732
-0.16675894155184068   -0.005909971291826273   0.016353845140503732
-0.1582269881477123   -0.07130964610870459   -0.013949120478098861
-0.1582269881477123   -0.07130964610870459   -0.013949120478098861
-0.1582269881477123   -0.07130964610870459   -0.013949120478098861
-0.1582269881477123   -0.07130964610870459   -0.013949120478098861
-0.13650238786401697   -0.010326681048258658   0.01892391992146522
-0.13650238786401697   -0.010326681048258658   0.01892391992146522
-0.13650238786401697   -0.010326681048258658   0.01892391992146522
-0.13650238786401697   -0.010326681048258658   0.01892391992146522
-0.18583390340995806   -0.08227167231815646   -0.009859697147822734
-0.18583390340995806   -0.08227167231815646   -0.009859697147822734
-0.18583390340995806   -0.08227167231815646   -0.009859697147822734
-0.18583390340995806   -0.08227167231815646   -0.009859697147822734
-0.16236629820184006   -0.04205324237575977   -0.005810692494436047
-0.16236629820184006   -0.04205324237575977   -0.005810692494436047
-0.16236629820184006   -0.04205324237575977   -0.005810692494436047
-0.16236629820184006   -0.04205324237575977   -0.005810692494436047
-0.16691917140992366   -0.016421969695745386   0.018864260229938278
-0.16691917140992366   -0.016421969695745386   0.018864260229938278
-0.16691917140992366   -0.016421969695745386   0.018864260229938278
-0.16691917140992366   -0.016421969695745386   0.018864260229938278
-0.156926430402814   -0.07768569420943364   -0.015837279611344943
-0.156926430402814   -0.07768569420943364   -0.015837279611344943
-0.156926430402814   -0.07768569420943364   -0.015837279611344943
-0.156926430402814   -0.07768569420943364   -0.015837279611344943
-0.13676856127389012   -0.01950286366799587   0.020347102830828794
-0.13676856127389012   -0.01950286366799587   0.020347102830828794
-0.13676856127389012   -0.01950286366799587   0.020347102830828794
-0.13676856127389012   -0.01950286366799587   0.020347102830828794
-0.18584712381720797   -0.08729177768126899   -0.010966601902219701
-0.18584712381720797   -0.08729177768126899   -0.010966601902219701
-0.18584712381720797   -0.08729177768126899   -0.010966601902219701
-0.18584712381720797   -0.08729177768126899   -0.010966601902219701
-0.16171928584810022   -0.049414736696270944   -0.009870347857562363
-0.16171928584810022   -0.049414736696270944   -0.009870347857562363
-0.16171928584810022   -0.049414736696270944   -0.009870347857562363
-0.16171928584810022   -0.049414736696270944   -0.009870347857562363
-0.16696724026831686   -0.02531984366738121   0.021460881828344165
-0.16696724026831686   -0.02531984366738121   0.021460881828344165
-0.16696724026831686   -0.02531984366738121   0.021460881828344165
-0.16696724026831686   -0.02531984366738121   0.021460881828344165
-0.15656280582574206   -0.08238915868484895   -0.01573782491157772
-0.15656280582574206   -0.08238915868484895   -0.01573782491157772
-0.15656280582574206   -0.08238915868484895   -0.01573782491157772
-0.15656280582574206   -0.08238915868484895   -0.01573782491157772
-0.13567346630508245   -0.028122525381191355   0.02358364115964385
-0.13567346630508245   -0.028122525381191355   0.02358364115964385
-0.13567346630508245   -0.028122525381191355   0.02358364115964385
-0.13567346630508245   -0.028122525381191355   0.02358364115964385
-0.18299017017093833   -0.0923052898357735   -0.007480720741285814
-0.18299017017093833   -0.0923052898357735   -0.007480720741285814
-0.18299017017093833   -0.0923052898357735   -0.007480720741285814
-0.18299017017093833   -0.0923052898357735   -0.007480720741285814
-0.16131153527258923   -0.05576076473177414   -0.012703853154889491
-0.16131153527258923   -0.05576076473177414   -0.012703853154889491
-0.16131153527258923   -0.05576076473177414   -0.012703853154889491
-0.16131153527258923   -0.05576076473177414   -0.012703853154889491
-0.1323593268191803   0.01855139309648312   0.02552814695938091
-0.1323593268191803   0.01855139309648312   0.02552814695938091
-0.1323593268191803   0.01855139309648312   0.02552814695938091
-0.1323593268191803   0.01855139309648312   0.02552814695938091
-0.08869497469562694   -0.02353366872172571   -0.00861620582112107
-0.08869497469562694   -0.02353366872172571   -0.00861620582112107
-0.08869497469562694   -0.02353366872172571   -0.00861620582112107
-0.08869497469562694   -0.02353366872172571   -0.00861620582112107
-0.07762462893117805   0.021654653590140748   0.025219829153605742
-0.07762462893117805   0.021654653590140748   0.025219829153605742
-0.07762462893117805   0.021654653590140748   0.025219829153605742
-0.07762462893117805   0.021654653590140748   0.025219829153605742
-0.146285750461407   -0.03585052532887205   -0.004469048784871393
-0.146285750461407   -0.03585052532887205   -0.004469048784871393
-0.146285750461407   -0.03585052532887205   -0.004469048784871393
-0.146285750461407   -0.03585052532887205   -0.004469048784871393
-0.10968338844040611   -0.002316454806769239   -0.004568352991202909
-0.10968338844040611   -0.002316454806769239   -0.004568352991202909
-0.10968338844040611   -0.002316454806769239   -0.004568352991202909
-0.10968338844040611   -0.002316454806769239   -0.004568352991202909
-0.1303195392193811   0.01164500176754682   0.02786648032883914
-0.1303195392193811   0.01164500176754682   0.02786648032883914
-0.1303195392193811   0.01164500176754682   0.02786648032883914
-0.1303195392193811   0.01164500176754682   0.02786648032883914
-0.09375084708021438   -0.026000880413288557   -0.007755727588146525
-0.09375084708021438   -0.026000880413288557   -0.007755727588146525
-0.09375084708021438   -0.026000880413288557   -0.007755727588146525
-0.09375084708021438   -0.026000880413288557   -0.007755727588146525
-0.08111732340283054   0.017170522466985923   0.03172158463007764
-0.08111732340283054   0.017170522466985923   0.03172158463007764
-0.08111732340283054   0.017170522466985923   0.03172158463007764
-0.08111732340283054   0.017170522466985923   0.03172158463007764
-0.145711246642817   -0.03817673638695855   -0.00569245129485068
-0.145711246642817   -0.03817673638695855   -0.00569245129485068
-0.145711246642817   -0.03817673638695855   -0.00569245129485068
-0.145711246642817   -0.03817673638695855   -0.00569245129485068
-0.11304158618602858   -0.007210937008912879   -0.006506901413375104
-0.11304158618602858   -0.007210937008912879   -0.006506901413375104
-0.11304158618602858   -0.007210937008912879   -0.006506901413375104
-0.11304158618602858   -0.007210937008912879   -0.006506901413375104
-0.1289880907520507   0.007667808687944921   0.03207878308407745
-0.1289880907520507   0.007667808687944921   0.03207878308407745
-0.1289880907520507   0.007667808687944921   0.03207878308407745
-0.1289880907520507   0.007667808687944921   0.03207878308407745
-0.09898550310569629   -0.02981904642001569   -0.010629744997257124
-0.09898550310569629   -0.02981904642001569   -0.010629744997257124
-0.09898550310569629   -0.02981904642001569   -0.010629744997257124
-0.09898550310569629   -0.02981904642001569   -0.010629744997257124
-0.09277850377907378   0.004837533514513088   0.033010734021957006
-0.09277850377907378   0.004837533514513088   0.033010734021957006
-0.09277850377907378   0.004837533514513088   0.033010734021957006
-0.09277850377907378   0.004837533514513088   0.033010734021957006
-0.14377706184671438   -0.040295014625753856   -0.004761847303953265
-0.14377706184671438   -0.040295014625753856   -0.004761847303953265
-0.14377706184671438   -0.040295014625753856   -0.004761847303953265
-0.14377706184671438   -0.040295014625753856   -0.004761847303953265
-0.11469492304403776   -0.010770772235813178   -0.009610578692140534
-0.11469492304403776   -0.010770772235813178   -0.009610578692140534
-0.11469492304403776   -0.010770772235813178   -0.009610578692140534
-0.11469492304403776   -0.010770772235813178   -0.009610578692140534
-1.3560641876245503   -0.1927616586389112   -0.11325706423033804
-1.3560641876245503   -0.1927616586389112   -0.11325706423033804
-1.3560641876245503   -0.1927616586389112   -0.11325706423033804
-1.3560641876245503   -0.1927616586389112   -0.11325706423033804
-0.4714458540602638   -0.7483885614936655   -0.08852096491572495
-0.4714458540602638   -0.7483885614936655   -0.08852096491572495
-0.4714458540602638   -0.7483885614936655   -0.08852096491572495
-0.4714458540602638   -0.7483885614936655   -0.08852096491572495
-0.36342229937249243   -0.03187765563248372   0.0004097430337277608
-0.36342229937249243   -0.03187765563248372   0.0004097430337277608
-0.36342229937249243   -0.03187765563248372   0.0004097430337277608
-0.36342229937249243   -0.03187765563248372   0.0004097430337277608
-1.449722377966741   -0.8782537206690871   -0.46559521972716567
-1.449722377966741   -0.8782537206690871   -0.46559521972716567
-1.449722377966741   -0.8782537206690871   -0.46559521972716567
-1.449722377966741   -0.8782537206690871   -0.46559521972716567
-0.8873797789923796   -0.4367140048592018   -0.06366156106835275
-0.8873797789923796   -0.4367140048592018   -0.06366156106835275
-0.8873797789923796   -0.4367140048592018   -0.06366156106835275
-0.8873797789923796   -0.4367140048592018   -0.06366156106835275
-1.260160040324596   -0.2420955023889643   -0.15394174979657158
-1.260160040324596   -0.2420955023889643   -0.15394174979657158
-1.260160040324596   -0.2420955023889643   -0.15394174979657158
-1.260160040324596   -0.2420955023889643   -0.15394174979657158
-0.5093865911385371   -0.6244378280365072   -0.13685154339246966
-0.5093865911385371   -0.6244378280365072   -0.13685154339246966
-0.5093865911385371   -0.6244378280365072   -0.13685154339246966
-0.5093865911385371   -0.6244378280365072   -0.13685154339246966
-0.37099332265963747   -0.04227456608842789   0.01391649912642011
-0.37099332265963747   -0.04227456608842789   0.01391649912642011
-0.37099332265963747   -0.04227456608842789   0.01391649912642011
-0.37099332265963747   -0.04227456608842789   0.01391649912642011
-1.3567703038887085   -0.7842170731052369   -0.42819747539878905
-1.3567703038887085   -0.7842170731052369   -0.42819747539878905
-1.3567703038887085   -0.7842170731052369   -0.42819747539878905
-1.3567703038887085   -0.7842170731052369   -0.42819747539878905
-0.8359335360942294   -0.39405705347064196   0.03363556036596749
-0.8359335360942294   -0.39405705347064196   0.03363556036596749
-0.8359335360942294   -0.39405705347064196   0.03363556036596749
-0.8359335360942294   -0.39405705347064196   0.03363556036596749
-1.1833848196174925   -0.2305279922790615   -0.114959134868893
-1.1833848196174925   -0.2305279922790615   -0.114959134868893
-1.1833848196174925   -0.2305279922790615   -0.114959134868893
-1.1833848196174925   -0.2305279922790615   -0.114959134868893
-0.49590833770623555   -0.5474931776899862   -0.10543996450500835
-0.49590833770623555   -0.5474931776899862   -0.10543996450500835
-0.49590833770623555   -0.5474931776899862   -0.10543996450500835
-0.49590833770623555   -0.5474931776899862   -0.10543996450500835
-0.4268925439216331   -0.11002698522543683   -0.022389315067036078
-0.4268925439216331   -0.11002698522543683   -0.022389315067036078
-0.4268925439216331   -0.11002698522543683   -0.022389315067036078
-0.4268925439216331   -0.11002698522543683   -0.022389315067036078
-1.2366924698051696   -0.6601282689332455   -0.379364147747683
-1.2366924698051696   -0.6601282689332455   -0.379364147747683
-1.2366924698051696   -0.6601282689332455   -0.379364147747683
-1.2366924698051696   -0.6601282689332455   -0.379364147747683
-0.774476920233107   -0.34182907065449925   0.14361932470573063
-0.774476920233107   -0.34182907065449925   0.14361932470573063
-0.774476920233107   -0.34182907065449925   0.14361932470573063
-0.774476920233107   -0.34182907065449925   0.14361932470573063
-0.34769458557058947   -0.19007000073468905   -0.0280831832263327
-0.34769458557058947   -0.19007000073468905   -0.0280831832263327
-0.34769458557058947   -0.19007000073468905   -0.0280831832263327
-0.34769458557058947   -0.19007000073468905   -0.0280831832263327
-0.16152374042384415   -0.2385856261788221   -0.03994593455700396
-0.16152374042384415   -0.2385856261788221   -0.03994593455700396
-0.16152374042384415   -0.2385856261788221   -0.03994593455700396
-0.16152374042384415   -0.2385856261788221   -0.03994593455700396
-0.14199904264092555   -0.12186689353934226   0.003607945098692125
-0.14199904264092555   -0.12186689353934226   0.003607945098692125
-0.14199904264092555   -0.12186689353934226   0.003607945098692125
-0.14199904264092555   -0.12186689353934226   0.003607945098692125
-0.42654093929763287   -0.34766570213332487   0.0006045899088693851
-0.42654093929763287   -0.34766570213332487   0.0006045899088693851
-0.42654093929763287   -0.34766570213332487   0.0006045899088693851
-0.42654093929763287   -0.34766570213332487   0.0006045899088693851
-0.22876307181048477   -0.16840617339498054   0.07356723199006221
-0.22876307181048477   -0.16840617339498054   0.07356723199006221
-0.22876307181048477   -0.16840617339498054   0.07356723199006221
-0.22876307181048477   -0.16840617339498054   0.07356723199006221
-0.3961481846016183   -0.1770314822500805   -0.018065856494306573
-0.3961481846016183   -0.1770314822500805   -0.018065856494306573
-0.3961481846016183   -0.1770314822500805   -0.018065856494306573
-0.3961481846016183   -0.1770314822500805   -0.018065856494306573
-0.18451505636110935   -0.3046243724467565   -0.026214644594812528
-0.18451505636110935   -0.3046243724467565   -0.026214644594812528
-0.18451505636110935   -0.3046243724467565   -0.026214644594812528
-0.18451505636110935   -0.3046243724467565   -0.026214644594812528
-0.15359325295320053   -0.12626021985604594   0.0037580294035691325
-0.15359325295320053   -0.12626021985604594   0.0037580294035691325
-0.15359325295320053   -0.12626021985604594   0.0037580294035691325
-0.15359325295320053   -0.12626021985604594   0.0037580294035691325
-0.4476842093445662   -0.34349083246689494   -0.06832166791975305
-0.4476842093445662   -0.34349083246689494   -0.06832166791975305
-0.4476842093445662   -0.34349083246689494   -0.06832166791975305
-0.4476842093445662   -0.34349083246689494   -0.06832166791975305
-0.2732058383338685   -0.21577654253542358   0.033382738613790625
-0.2732058383338685   -0.21577654253542358   0.033382738613790625
-0.2732058383338685   -0.21577654253542358   0.033382738613790625
-0.2732058383338685   -0.21577654253542358   0.033382738613790625
-0.40905150595907935   -0.1848610608581491   -0.03378792260106794
-0.40905150595907935   -0.1848610608581491   -0.03378792260106794
-0.40905150595907935   -0.1848610608581491   -0.03378792260106794
-0.40905150595907935   -0.1848610608581491   -0.03378792260106794
-0.1911064950205138   -0.28377053014661874   -0.026297870642424448
-0.1911064950205138   -0.28377053014661874   -0.026297870642424448
-0.1911064950205138   -0.28377053014661874   -0.026297870642424448
-0.1911064950205138   -0.28377053014661874   -0.026297870642424448
-0.17154282645648214   -0.1302793881154886   0.005542507747127556
-0.17154282645648214   -0.1302793881154886   0.005542507747127556
-0.17154282645648214   -0.1302793881154886   0.005542507747127556
-0.17154282645648214   -0.1302793881154886   0.005542507747127556
-0.4790740063477411   -0.3339576247730856   -0.05936598764992933
-0.4790740063477411   -0.3339576247730856   -0.05936598764992933
-0.4790740063477411   -0.3339576247730856   -0.05936598764992933
-0.4790740063477411   -0.3339576247730856   -0.05936598764992933
-0.28615572369486814   -0.20341709523524626   0.035279681374337415
-0.28615572369486814   -0.20341709523524626   0.035279681374337415
-0.28615572369486814   -0.20341709523524626   0.035279681374337415
-0.28615572369486814   -0.20341709523524626   0.035279681374337415
-0.12685264450415065   -0.1134889038093952   0.008312822672036611
-0.12685264450415065   -0.1134889038093952   0.008312822672036611
-0.12685264450415065   -0.1134889038093952   0.008312822672036611
-0.12685264450415065   -0.1134889038093952   0.008312822672036611
-0.0781124916180387   -0.07550421406606657   -0.019556013376659784
-0.0781124916180387   -0.07550421406606657   -0.019556013376659784
-0.0781124916180387   -0.07550421406606657   -0.019556013376659784
-0.0781124916180387   -0.07550421406606657   -0.019556013376659784
-0.07553733324358583   -0.10161715905526142   0.00833051953803092
-0.07553733324358583   -0.10161715905526142   0.00833051953803092
-0.07553733324358583   -0.10161715905526142   0.00833051953803092
-0.07553733324358583   -0.10161715905526142   0.00833051953803092
-0.1406634742228536   -0.1029369585577074   -0.008644147792582796
-0.1406634742228536   -0.1029369585577074   -0.008644147792582796
-0.1406634742228536   -0.1029369585577074   -0.008644147792582796
-0.1406634742228536   -0.1029369585577074   -0.008644147792582796
-0.08884751735595563   -0.08293663995030717   0.03693936571900852
-0.08884751735595563   -0.08293663995030717   0.03693936571900852
-0.08884751735595563   -0.08293663995030717   0.03693936571900852
-0.08884751735595563   -0.08293663995030717   0.03693936571900852
-0.139398912266642   -0.11425603173443838   0.008997735165202254
-0.139398912266642   -0.11425603173443838   0.008997735165202254
-0.139398912266642   -0.11425603173443838   0.008997735165202254
-0.139398912266642   -0.11425603173443838   0.008997735165202254
-0.07806535525938739   -0.09156154593812099   -0.014365203658117373
-0.07806535525938739   -0.09156154593812099   -0.014365203658117373
-0.07806535525938739   -0.09156154593812099   -0.014365203658117373
-0.07806535525938739   -0.09156154593812099   -0.014365203658117373
-0.07650672096465612   -0.10466595229354168   0.007426643745836202
-0.07650672096465612   -0.10466595229354168   0.007426643745836202
-0.07650672096465612   -0.10466595229354168   0.007426643745836202
-0.07650672096465612   -0.10466595229354168   0.007426643745836202
-0.14954961458891597   -0.11998943073335952   0.01770543210230561
-0.14954961458891597   -0.11998943073335952   0.01770543210230561
-0.14954961458891597   -0.11998943073335952   0.01770543210230561
-0.14954961458891597   -0.11998943073335952   0.01770543210230561
-0.09681433545487013   -0.09245350089606734   0.03116840180281015
-0.09681433545487013   -0.09245350089606734   0.03116840180281015
-0.09681433545487013   -0.09245350089606734   0.03116840180281015
-0.09681433545487013   -0.09245350089606734   0.03116840180281015
-0.15036506823307685   -0.11849600322230397   0.012134736370445535
-0.15036506823307685   -0.11849600322230397   0.012134736370445535
-0.15036506823307685   -0.11849600322230397   0.012134736370445535
-0.15036506823307685   -0.11849600322230397   0.012134736370445535
-0.082215233007236   -0.11268334549133802   -0.013098523269266912
-0.082215233007236   -0.11268334549133802   -0.013098523269266912
-0.082215233007236   -0.11268334549133802   -0.013098523269266912
-0.082215233007236   -0.11268334549133802   -0.013098523269266912
-0.07759290284113343   -0.10803650238900615   0.010452490214028776
-0.07759290284113343   -0.10803650238900615   0.010452490214028776
-0.07759290284113343   -0.10803650238900615   0.010452490214028776
-0.07759290284113343   -0.10803650238900615   0.010452490214028776
-0.1752327312238222   -0.1473478269594159   0.004161422754354507
-0.1752327312238222   -0.1473478269594159   0.004161422754354507
-0.1752327312238222   -0.1473478269594159   0.004161422754354507
-0.1752327312238222   -0.1473478269594159   0.004161422754354507
-0.10831949619536993   -0.10530214589008519   0.014554502419773213
-0.10831949619536993   -0.10530214589008519   0.014554502419773213
-0.10831949619536993   -0.10530214589008519   0.014554502419773213
-0.10831949619536993   -0.10530214589008519   0.014554502419773213
-0.06375410858436506   -0.04523242379607121   0.02196411152171311
-0.06375410858436506   -0.04523242379607121   0.02196411152171311
-0.06375410858436506   -0.04523242379607121   0.02196411152171311
-0.06375410858436506   -0.04523242379607121   0.02196411152171311
-0.045112703453058234   -0.0009272557984492029   -0.004416852421444216
-0.045112703453058234   -0.0009272557984492029   -0.004416852421444216
-0.045112703453058234   -0.0009272557984492029   -0.004416852421444216
-0.045112703453058234   -0.0009272557984492029   -0.004416852421444216
-0.04278340111645715   -0.048968049166577765   0.013607916316577526
-0.04278340111645715   -0.048968049166577765   0.013607916316577526
-0.04278340111645715   -0.048968049166577765   0.013607916316577526
-0.04278340111645715   -0.048968049166577765   0.013607916316577526
-0.05932127531486381   -0.009591185475674129   -0.002615164397946318
-0.05932127531486381   -0.009591185475674129   -0.002615164397946318
-0.05932127531486381   -0.009591185475674129   -0.002615164397946318
-0.05932127531486381   -0.009591185475674129   -0.002615164397946318
-0.04874787606142149   -0.025092064810076548   0.010892631464076881
-0.04874787606142149   -0.025092064810076548   0.010892631464076881
-0.04874787606142149   -0.025092064810076548   0.010892631464076881
-0.04874787606142149   -0.025092064810076548   0.010892631464076881
-0.06305327643602318   -0.051597398824740334   0.02073104334532306
-0.06305327643602318   -0.051597398824740334   0.02073104334532306
-0.06305327643602318   -0.051597398824740334   0.02073104334532306
-0.06305327643602318   -0.051597398824740334   0.02073104334532306
-0.03796124671471961   -0.00587168253693083   -0.005377678304374025
-0.03796124671471961   -0.00587168253693083   -0.005377678304374025
-0.03796124671471961   -0.00587168253693083   -0.005377678304374025
-0.03796124671471961   -0.00587168253693083   -0.005377678304374025
-0.03931329078824681   -0.0532783263170243   0.012566821890050262
-0.03931329078824681   -0.0532783263170243   0.012566821890050262
-0.03931329078824681   -0.0532783263170243   0.012566821890050262
-0.03931329078824681   -0.0532783263170243   0.012566821890050262
-0.05989304469510287   -0.018127079035252465   0.003956151835313244
-0.05989304469510287   -0.018127079035252465   0.003956151835313244
-0.05989304469510287   -0.018127079035252465   0.003956151835313244
-0.05989304469510287   -0.018127079035252465   0.003956151835313244
-0.04485876628110245   -0.028791124788734683   0.012892917329452077
-0.04485876628110245   -0.028791124788734683   0.012892917329452077
-0.04485876628110245   -0.028791124788734683   0.012892917329452077
-0.04485876628110245   -0.028791124788734683   0.012892917329452077
-0.06349613841605233   -0.055887949484610636   0.023701553679924096
-0.06349613841605233   -0.055887949484610636   0.023701553679924096
-0.06349613841605233   -0.055887949484610636   0.023701553679924096
-0.06349613841605233   -0.055887949484610636   0.023701553679924096
-0.03607902607797552   -0.015886284878344297   -0.008653895997273287
-0.03607902607797552   -0.015886284878344297   -0.008653895997273287
-0.03607902607797552   -0.015886284878344297   -0.008653895997273287
-0.03607902607797552   -0.015886284878344297   -0.008653895997273287
-0.03305646365676822   -0.058056405555048436   0.0138299941481771
-0.03305646365676822   -0.058056405555048436   0.0138299941481771
-0.03305646365676822   -0.058056405555048436   0.0138299941481771
-0.03305646365676822   -0.058056405555048436   0.0138299941481771
-0.0647992955597195   -0.03878109090534308   0.005165115137435353
-0.0647992955597195   -0.03878109090534308   0.005165115137435353
-0.0647992955597195   -0.03878109090534308   0.005165115137435353
-0.0647992955597195   -0.03878109090534308   0.005165115137435353
-0.04331695948837851   -0.03628182643402189   0.011039246139718722
-0.04331695948837851   -0.03628182643402189   0.011039246139718722
-0.04331695948837851   -0.03628182643402189   0.011039246139718722
-0.04331695948837851   -0.03628182643402189   0.011039246139718722
-0.041191320411530924   -0.007880946085946007   0.022143753073689123
-0.041191320411530924   -0.007880946085946007   0.022143753073689123
-0.041191320411530924   -0.007880946085946007   0.022143753073689123
-0.041191320411530924   -0.007880946085946007   0.022143753073689123
-0.00751750115884243   0.004647274301351199   -0.0004474106678848264
-0.00751750115884243   0.004647274301351199   -0.0004474106678848264
-0.00751750115884243   0.004647274301351199   -0.0004474106678848264
-0.00751750115884243   0.004647274301351199   -0.0004474106678848264
0.0020569605400747844   -0.0025416566432572983   0.013732583641712957
0.0020569605400747844   -0.0025416566432572983   0.013732583641712957
0.0020569605400747844   -0.0025416566432572983   0.013732583641712957
0.0020569605400747844   -0.0025416566432572983   0.013732583641712957
-0.03535685999751204   0.0033773377628151108   -0.0016047650180821159
-0.03535685999751204   0.0033773377628151108   -0.0016047650180821159
-0.03535685999751204   0.0033773377628151108   -0.0016047650180821159
-0.03535685999751204   0.0033773377628151108   -0.0016047650180821159
-0.02083214261420732   -0.0015981341970848551   -0.0016847663624509784
-0.02083214261420732   -0.0015981341970848551   -0.0016847663624509784
-0.02083214261420732   -0.0015981341970848551   -0.0016847663624509784
-0.02083214261420732   -0.0015981341970848551   -0.0016847663624509784
-0.03262775509842784   -0.0076179142093939015   0.023036011449540233
-0.03262775509842784   -0.0076179142093939015   0.023036011449540233
-0.03262775509842784   -0.0076179142093939015   0.023036011449540233
-0.03262775509842784   -0.0076179142093939015   0.023036011449540233
0.0005511400808937638   0.009676879768852339   -0.006015055066301782
0.0005511400808937638   0.009676879768852339   -0.006015055066301782
0.0005511400808937638   0.009676879768852339   -0.006015055066301782
0.0005511400808937638   0.009676879768852339   -0.006015055066301782
0.006825374050170797   -0.0031447744221595898   0.0169307378361563
0.006825374050170797   -0.0031447744221595898   0.0169307378361563
0.006825374050170797   -0.0031447744221595898   0.0169307378361563
0.006825374050170797   -0.0031447744221595898   0.0169307378361563
-0.03115281412550377   0.0024437784715715086   -0.0023528995848303394
-0.03115281412550377   0.0024437784715715086   -0.0023528995848303394
-0.03115281412550377   0.0024437784715715086   -0.0023528995848303394
-0.03115281412550377   0.0024437784715715086   -0.0023528995848303394
-0.013808389526721001   -0.00043977644190868305   0.0021535677979049195
-0.013808389526721001   -0.00043977644190868305   0.0021535677979049195
-0.013808389526721001   -0.00043977644190868305   0.0021535677979049195
-0.013808389526721001   -0.00043977644190868305   0.0021535677979049195
-0.027924274561192376   -0.008528446975003212   0.024762023683301354
-0.027924274561192376   -0.008528446975003212   0.024762023683301354
-0.027924274561192376   -0.008528446975003212   0.024762023683301354
-0.027924274561192376   -0.008528446975003212   0.024762023683301354
0.004685324107217455   0.008915940645773186   -0.0058302269465431815
0.004685324107217455   0.008915940645773186   -0.0058302269465431815
0.004685324107217455   0.008915940645773186   -0.0058302269465431815
0.004685324107217455   0.008915940645773186   -0.0058302269465431815
0.011633269663528035   -0.00496772405707973   0.016464274029174934
0.011633269663528035   -0.00496772405707973   0.016464274029174934
0.011633269663528035   -0.00496772405707973   0.016464274029174934
0.011633269663528035   -0.00496772405707973   0.016464274029174934
-0.02428034791427884   0.002309225578700518   -0.002655058273124987
-0.02428034791427884   0.002309225578700518   -0.002655058273124987
-0.02428034791427884   0.002309225578700518   -0.002655058273124987
-0.02428034791427884   0.002309225578700518   -0.002655058273124987
-0.007559456589654863   0.00023698352385158328   0.00549798769691467
-0.007559456589654863   0.00023698352385158328   0.00549798769691467
-0.007559456589654863   0.00023698352385158328   0.00549798769691467
-0.007559456589654863   0.00023698352385158328   0.00549798769691467
              </DataArray>   
             <DataArray type="Float64" NumberOfComponents="3" Name="Displacements" format="ascii">   
0.0   0.0   0.0
-0.0037798758972987932   -0.002483362510002722   -0.0012664316147621964
0.0   0.0   0.0
0.0   0.0   0.0
-0.0037798758972987932   -0.002483362510002722   -0.0012664316147621964
-0.00240494877739363   -0.0022323286991456784   -0.0009304939640054144
0.0   0.0   0.0
-0.002357214046336678   -0.0023441497855906683   -0.0007796162269431223
0.0   0.0   0.0
0.0   0.0   0.0
-0.002357214046336678   -0.0023441497855906683   -0.0007796162269431223
0.0   0.0   0.0
0.0   0.0   0.0
-0.002357214046336678   -0.0023441497855906683   -0.0007796162269431223
-0.0039556055431960785   -0.002645502789677211   -0.001016860044378573
-0.0037798758972987932   -0.002483362510002722   -0.0012664316147621964
0.0   0.0   0.0
-0.002357214046336678   -0.0023441497855906683   -0.0007796162269431223
-0.0037798758972987932   -0.002483362510002722   -0.0012664316147621964
0.0   0.0   0.0
0.0   0.0   0.0
-0.0039556055431960785   -0.002645502789677211   -0.001016860044378573
0.0   0.0   0.0
0.0   0.0   0.0
-0.0039556055431960785   -0.002645502789677211   -0.001016860044378573
-0.002357214046336678   -0.0023441497855906683   -0.0007796162269431223
0.0   0.0   0.0
-0.0023636751406082394   -0.0024014760923831294   -0.0006289771087945199
0.0   0.0   0.0
0.0   0.0   0.0
-0.0023636751406082394   -0.0024014760923831294   -0.0006289771087945199
0.0   0.0   0.0
0.0   0.0   0.0
-0.0023636751406082394   -0.0024014760923831294   -0.0006289771087945199
-0.0040789330567993255   -0.002724357546541435   -0.0007777720709804012
-0.0039556055431960785   -0.002645502789677211   -0.001016860044378573
0.0   0.0   0.0
-0.0023636751406082394   -0.0024014760923831294   -0.0006289771087945199
-0.0039556055431960785   -0.002645502789677211   -0.001016860044378573
0.0   0.0   0.0
0.0   0.0   0.0
-0.0040789330567993255   -0.002724357546541435   -0.0007777720709804012
0.0   0.0   0.0
0.0   0.0   0.0
-0.0040789330567993255   -0.002724357546541435   -0.0007777720709804012
-0.0023636751406082394   -0.0024014760923831294   -0.0006289771087945199
0.0   0.0   0.0
-0.002362222315512534   -0.0024162361022447595   -0.00047324080520824073
0.0   0.0   0.0
0.0   0.0   0.0
-0.002362222315512534   -0.0024162361022447595   -0.00047324080520824073
0.0   0.0   0.0
0.0   0.0   0.0
-0.002362222315512534   -0.0024162361022447595   -0.00047324080520824073
-0.004344799742996435   -0.002784148971448772   -0.000500422291199723
-0.0040789330567993255   -0.002724357546541435   -0.0007777720709804012
0.0   0.0   0.0
-0.002362222315512534   -0.0024162361022447595   -0.00047324080520824073
-0.0040789330567993255   -0.002724357546541435   -0.0007777720709804012
0.0   0.0   0.0
0.0   0.0   0.0
-0.00240494877739363   -0.0022323286991456784   -0.0009304939640054144
0.0   0.0   0.0
0.0   0.0   0.0
-0.00240494877739363   -0.0022323286991456784   -0.0009304939640054144
-0.0010954425443420277   -0.002140299664144132   -0.0007078329525138351
0.0   0.0   0.0
-0.0010533992093594796   -0.0022130601471178255   -0.0006365825703824693
0.0   0.0   0.0
0.0   0.0   0.0
-0.0010533992093594796   -0.0022130601471178255   -0.0006365825703824693
0.0   0.0   0.0
0.0   0.0   0.0
-0.0010533992093594796   -0.0022130601471178255   -0.0006365825703824693
-0.002357214046336678   -0.0023441497855906683   -0.0007796162269431223
-0.00240494877739363   -0.0022323286991456784   -0.0009304939640054144
0.0   0.0   0.0
-0.0010533992093594796   -0.0022130601471178255   -0.0006365825703824693
-0.00240494877739363   -0.0022323286991456784   -0.0009304939640054144
0.0   0.0   0.0
0.0   0.0   0.0
-0.002357214046336678   -0.0023441497855906683   -0.0007796162269431223
0.0   0.0   0.0
0.0   0.0   0.0
-0.002357214046336678   -0.0023441497855906683   -0.0007796162269431223
-0.0010533992093594796   -0.0022130601471178255   -0.0006365825703824693
0.0   0.0   0.0
-0.0010297100733796692   -0.0022408014195635577   -0.0005672138194891632
0.0   0.0   0.0
0.0   0.0   0.0
-0.0010297100733796692   -0.0022408014195635577   -0.0005672138194891632
0.0   0.0   0.0
0.0   0.0   0.0
-0.0010297100733796692   -0.0022408014195635577   -0.0005672138194891632
-0.0023636751406082394   -0.0024014760923831294   -0.0006289771087945199
-0.002357214046336678   -0.0023441497855906683   -0.0007796162269431223
0.0   0.0   0.0
-0.0010297100733796692   -0.0022408014195635577   -0.0005672138194891632
-0.002357214046336678   -0.0023441497855906683   -0.0007796162269431223
0.0   0.0   0.0
0.0   0.0   0.0
-0.0023636751406082394   -0.0024014760923831294   -0.0006289771087945199
0.0   0.0   0.0
0.0   0.0   0.0
-0.0023636751406082394   -0.0024014760923831294   -0.0006289771087945199
-0.0010297100733796692   -0.0022408014195635577   -0.0005672138194891632
0.0   0.0   0.0
-0.0010081084232931587   -0.0022292458017757846   -0.0004955209859681502
0.0   0.0   0.0
0.0   0.0   0.0
-0.0010081084232931587   -0.0022292458017757846   -0.0004955209859681502
0.0   0.0   0.0
0.0   0.0   0.0
-0.0010081084232931587   -0.0022292458017757846   -0.0004955209859681502
-0.002362222315512534   -0.0024162361022447595   -0.00047324080520824073
-0.0023636751406082394   -0.0024014760923831294   -0.0006289771087945199
0.0   0.0   0.0
-0.0010081084232931587   -0.0022292458017757846   -0.0004955209859681502
-0.0023636751406082394   -0.0024014760923831294   -0.0006289771087945199
0.0   0.0   0.0
0.0   0.0   0.0
-0.0010954425443420277   -0.002140299664144132   -0.0007078329525138351
0.0   0.0   0.0
0.0   0.0   0.0
-0.0010954425443420277   -0.002140299664144132   -0.0007078329525138351
0.00014163531636433976   -0.0021521202643886073   -0.0005660089706788469
0.0   0.0   0.0
0.00016855803809412415   -0.0021898065109572326   -0.0005758139847742332
0.0   0.0   0.0
0.0   0.0   0.0
0.00016855803809412415   -0.0021898065109572326   -0.0005758139847742332
0.0   0.0   0.0
0.0   0.0   0.0
0.00016855803809412415   -0.0021898065109572326   -0.0005758139847742332
-0.0010533992093594796   -0.0022130601471178255   -0.0006365825703824693
-0.0010954425443420277   -0.002140299664144132   -0.0007078329525138351
0.0   0.0   0.0
0.00016855803809412415   -0.0021898065109572326   -0.0005758139847742332
-0.0010954425443420277   -0.002140299664144132   -0.0007078329525138351
0.0   0.0   0.0
0.0   0.0   0.0
-0.0010533992093594796   -0.0022130601471178255   -0.0006365825703824693
0.0   0.0   0.0
0.0   0.0   0.0
-0.0010533992093594796   -0.0022130601471178255   -0.0006365825703824693
0.00016855803809412415   -0.0021898065109572326   -0.0005758139847742332
0.0   0.0   0.0
0.00018983182917955762   -0.002186659327717402   -0.0005846888651156353
0.0   0.0   0.0
0.0   0.0   0.0
0.00018983182917955762   -0.002186659327717402   -0.0005846888651156353
0.0   0.0   0.0
0.0   0.0   0.0
0.00018983182917955762   -0.002186659327717402   -0.0005846888651156353
-0.0010297100733796692   -0.0022408014195635577   -0.0005672138194891632
-0.0010533992093594796   -0.0022130601471178255   -0.0006365825703824693
0.0   0.0   0.0
0.00018983182917955762   -0.002186659327717402   -0.0005846888651156353
-0.0010533992093594796   -0.0022130601471178255   -0.0006365825703824693
0.0   0.0   0.0
0.0   0.0   0.0
-0.0010297100733796692   -0.0022408014195635577   -0.0005672138194891632
0.0   0.0   0.0
0.0   0.0   0.0
-0.0010297100733796692   -0.0022408014195635577   -0.0005672138194891632
0.00018983182917955762   -0.002186659327717402   -0.0005846888651156353
0.0   0.0   0.0
0.00021839385165466717   -0.0021393336651019308   -0.0005938321020109654
0.0   0.0   0.0
0.0   0.0   0.0
0.00021839385165466717   -0.0021393336651019308   -0.0005938321020109654
0.0   0.0   0.0
0.0   0.0   0.0
0.00021839385165466717   -0.0021393336651019308   -0.0005938321020109654
-0.0010081084232931587   -0.0022292458017757846   -0.0004955209859681502
-0.0010297100733796692   -0.0022408014195635577   -0.0005672138194891632
0.0   0.0   0.0
0.00021839385165466717   -0.0021393336651019308   -0.0005938321020109654
-0.0010297100733796692   -0.0022408014195635577   -0.0005672138194891632
0.0   0.0   0.0
0.0   0.0   0.0
0.00014163531636433976   -0.0021521202643886073   -0.0005660089706788469
0.0   0.0   0.0
0.0   0.0   0.0
0.00014163531636433976   -0.0021521202643886073   -0.0005660089706788469
0.0014846234274071691   -0.002256599552897351   -0.000495954592471284
0.0   0.0   0.0
0.001487475137626091   -0.0022685384989997778   -0.0005910497334553342
0.0   0.0   0.0
0.0   0.0   0.0
0.001487475137626091   -0.0022685384989997778   -0.0005910497334553342
0.0   0.0   0.0
0.0   0.0   0.0
0.001487475137626091   -0.0022685384989997778   -0.0005910497334553342
0.00016855803809412415   -0.0021898065109572326   -0.0005758139847742332
0.00014163531636433976   -0.0021521202643886073   -0.0005660089706788469
0.0   0.0   0.0
0.001487475137626091   -0.0022685384989997778   -0.0005910497334553342
0.00014163531636433976   -0.0021521202643886073   -0.0005660089706788469
0.0   0.0   0.0
0.0   0.0   0.0
0.00016855803809412415   -0.0021898065109572326   -0.0005758139847742332
0.0   0.0   0.0
0.0   0.0   0.0
0.00016855803809412415   -0.0021898065109572326   -0.0005758139847742332
0.001487475137626091   -0.0022685384989997778   -0.0005910497334553342
0.0   0.0   0.0
0.0014812870225404879   -0.002236146143122836   -0.0006823059015554427
0.0   0.0   0.0
0.0   0.0   0.0
0.0014812870225404879   -0.002236146143122836   -0.0006823059015554427
0.0   0.0   0.0
0.0   0.0   0.0
0.0014812870225404879   -0.002236146143122836   -0.0006823059015554427
0.00018983182917955762   -0.002186659327717402   -0.0005846888651156353
0.00016855803809412415   -0.0021898065109572326   -0.0005758139847742332
0.0   0.0   0.0
0.0014812870225404879   -0.002236146143122836   -0.0006823059015554427
0.00016855803809412415   -0.0021898065109572326   -0.0005758139847742332
0.0   0.0   0.0
0.0   0.0   0.0
0.00018983182917955762   -0.002186659327717402   -0.0005846888651156353
0.0   0.0   0.0
0.0   0.0   0.0
0.00018983182917955762   -0.002186659327717402   -0.0005846888651156353
0.0014812870225404879   -0.002236146143122836   -0.0006823059015554427
0.0   0.0   0.0
0.0015101504773996648   -0.002149528172059988   -0.0007718477824496101
0.0   0.0   0.0
0.0   0.0   0.0
0.0015101504773996648   -0.002149528172059988   -0.0007718477824496101
0.0   0.0   0.0
0.0   0.0   0.0
0.0015101504773996648   -0.002149528172059988   -0.0007718477824496101
0.00021839385165466717   -0.0021393336651019308   -0.0005938321020109654
0.00018983182917955762   -0.002186659327717402   -0.0005846888651156353
0.0   0.0   0.0
0.0015101504773996648   -0.002149528172059988   -0.0007718477824496101
0.00018983182917955762   -0.002186659327717402   -0.0005846888651156353
0.0   0.0   0.0
0.0   0.0   0.0
0.0014846234274071691   -0.002256599552897351   -0.000495954592471284
0.0   0.0   0.0
0.0   0.0   0.0
0.0014846234274071691   -0.002256599552897351   -0.000495954592471284
0.003352869256830234   -0.002521539558580845   -0.0004681765121043134
0.0   0.0   0.0
0.0031491604261580223   -0.0024938931644137357   -0.0006838576372667523
0.0   0.0   0.0
0.0   0.0   0.0
0.0031491604261580223   -0.0024938931644137357   -0.0006838576372667523
0.0   0.0   0.0
0.0   0.0   0.0
0.0031491604261580223   -0.0024938931644137357   -0.0006838576372667523
0.001487475137626091   -0.0022685384989997778   -0.0005910497334553342
0.0014846234274071691   -0.002256599552897351   -0.000495954592471284
0.0   0.0   0.0
0.0031491604261580223   -0.0024938931644137357   -0.0006838576372667523
0.0014846234274071691   -0.002256599552897351   -0.000495954592471284
0.0   0.0   0.0
0.0   0.0   0.0
0.001487475137626091   -0.0022685384989997778   -0.0005910497334553342
0.0   0.0   0.0
0.0   0.0   0.0
0.001487475137626091   -0.0022685384989997778   -0.0005910497334553342
0.0031491604261580223   -0.0024938931644137357   -0.0006838576372667523
0.0   0.0   0.0
0.0030553045839222617   -0.0024420457615592205   -0.0008662671540808115
0.0   0.0   0.0
0.0   0.0   0.0
0.0030553045839222617   -0.0024420457615592205   -0.0008662671540808115
0.0   0.0   0.0
0.0   0.0   0.0
0.0030553045839222617   -0.0024420457615592205   -0.0008662671540808115
0.0014812870225404879   -0.002236146143122836   -0.0006823059015554427
0.001487475137626091   -0.0022685384989997778   -0.0005910497334553342
0.0   0.0   0.0
0.0030553045839222617   -0.0024420457615592205   -0.0008662671540808115
0.001487475137626091   -0.0022685384989997778   -0.0005910497334553342
0.0   0.0   0.0
0.0   0.0   0.0
0.0014812870225404879   -0.002236146143122836   -0.0006823059015554427
0.0   0.0   0.0
0.0   0.0   0.0
0.0014812870225404879   -0.002236146143122836   -0.0006823059015554427
0.0030553045839222617   -0.0024420457615592205   -0.0008662671540808115
0.0   0.0   0.0
0.0029154520598215048   -0.002309479424323378   -0.0010593480205538354
0.0   0.0   0.0
0.0   0.0   0.0
0.0029154520598215048   -0.002309479424323378   -0.0010593480205538354
0.0   0.0   0.0
0.0   0.0   0.0
0.0029154520598215048   -0.002309479424323378   -0.0010593480205538354
0.0015101504773996648   -0.002149528172059988   -0.0007718477824496101
0.0014812870225404879   -0.002236146143122836   -0.0006823059015554427
0.0   0.0   0.0
0.0029154520598215048   -0.002309479424323378   -0.0010593480205538354
0.0014812870225404879   -0.002236146143122836   -0.0006823059015554427
0.0   0.0   0.0
-0.0037798758972987932   -0.002483362510002722   -0.0012664316147621964
-0.007057513419005132   -0.006927205920462332   -0.0017063377310401861
-0.00240494877739363   -0.0022323286991456784   -0.0009304939640054144
-0.0039556055431960785   -0.002645502789677211   -0.001016860044378573
-0.007057513419005132   -0.006927205920462332   -0.0017063377310401861
-0.004504423487143268   -0.006701526067467929   -0.001404771850862934
-0.00240494877739363   -0.0022323286991456784   -0.0009304939640054144
-0.004509419244714953   -0.00681588599048368   -0.0012652915283545205
-0.0039556055431960785   -0.002645502789677211   -0.001016860044378573
-0.002357214046336678   -0.0023441497855906683   -0.0007796162269431223
-0.004509419244714953   -0.00681588599048368   -0.0012652915283545205
-0.00240494877739363   -0.0022323286991456784   -0.0009304939640054144
-0.0039556055431960785   -0.002645502789677211   -0.001016860044378573
-0.004509419244714953   -0.00681588599048368   -0.0012652915283545205
-0.00726852868196769   -0.007086817308508399   -0.0014798931605887568
-0.007057513419005132   -0.006927205920462332   -0.0017063377310401861
-0.0039556055431960785   -0.002645502789677211   -0.001016860044378573
-0.004509419244714953   -0.00681588599048368   -0.0012652915283545205
-0.007057513419005132   -0.006927205920462332   -0.0017063377310401861
-0.00240494877739363   -0.0022323286991456784   -0.0009304939640054144
-0.0039556055431960785   -0.002645502789677211   -0.001016860044378573
-0.00726852868196769   -0.007086817308508399   -0.0014798931605887568
-0.002357214046336678   -0.0023441497855906683   -0.0007796162269431223
-0.0040789330567993255   -0.002724357546541435   -0.0007777720709804012
-0.00726852868196769   -0.007086817308508399   -0.0014798931605887568
-0.004509419244714953   -0.00681588599048368   -0.0012652915283545205
-0.002357214046336678   -0.0023441497855906683   -0.0007796162269431223
-0.0045268289290846435   -0.0068856309393547   -0.0011312779806445605
-0.0040789330567993255   -0.002724357546541435   -0.0007777720709804012
-0.0023636751406082394   -0.0024014760923831294   -0.0006289771087945199
-0.0045268289290846435   -0.0068856309393547   -0.0011312779806445605
-0.002357214046336678   -0.0023441497855906683   -0.0007796162269431223
-0.0040789330567993255   -0.002724357546541435   -0.0007777720709804012
-0.0045268289290846435   -0.0068856309393547   -0.0011312779806445605
-0.0074150029370556566   -0.007176987968510084   -0.0012581947075001264
-0.00726852868196769   -0.007086817308508399   -0.0014798931605887568
-0.0040789330567993255   -0.002724357546541435   -0.0007777720709804012
-0.0045268289290846435   -0.0068856309393547   -0.0011312779806445605
-0.00726852868196769   -0.007086817308508399   -0.0014798931605887568
-0.002357214046336678   -0.0023441497855906683   -0.0007796162269431223
-0.0040789330567993255   -0.002724357546541435   -0.0007777720709804012
-0.0074150029370556566   -0.007176987968510084   -0.0012581947075001264
-0.0023636751406082394   -0.0024014760923831294   -0.0006289771087945199
-0.004344799742996435   -0.002784148971448772   -0.000500422291199723
-0.0074150029370556566   -0.007176987968510084   -0.0012581947075001264
-0.0045268289290846435   -0.0068856309393547   -0.0011312779806445605
-0.0023636751406082394   -0.0024014760923831294   -0.0006289771087945199
-0.004512978966128809   -0.00692187414859396   -0.0010058580351805615
-0.004344799742996435   -0.002784148971448772   -0.000500422291199723
-0.002362222315512534   -0.0024162361022447595   -0.00047324080520824073
-0.004512978966128809   -0.00692187414859396   -0.0010058580351805615
-0.0023636751406082394   -0.0024014760923831294   -0.0006289771087945199
-0.004344799742996435   -0.002784148971448772   -0.000500422291199723
-0.004512978966128809   -0.00692187414859396   -0.0010058580351805615
-0.007588114742744638   -0.007229507562462298   -0.0010565376633145586
-0.0074150029370556566   -0.007176987968510084   -0.0012581947075001264
-0.004344799742996435   -0.002784148971448772   -0.000500422291199723
-0.004512978966128809   -0.00692187414859396   -0.0010058580351805615
-0.0074150029370556566   -0.007176987968510084   -0.0012581947075001264
-0.0023636751406082394   -0.0024014760923831294   -0.0006289771087945199
-0.00240494877739363   -0.0022323286991456784   -0.0009304939640054144
-0.004504423487143268   -0.006701526067467929   -0.001404771850862934
-0.0010954425443420277   -0.002140299664144132   -0.0007078329525138351
-0.002357214046336678   -0.0023441497855906683   -0.0007796162269431223
-0.004504423487143268   -0.006701526067467929   -0.001404771850862934
-0.0020906043215512026   -0.006596511541946867   -0.0011989452964632252
-0.0010954425443420277   -0.002140299664144132   -0.0007078329525138351
-0.0020722380401007865   -0.006669261314134014   -0.001127438303548679
-0.002357214046336678   -0.0023441497855906683   -0.0007796162269431223
-0.0010533992093594796   -0.0022130601471178255   -0.0006365825703824693
-0.0020722380401007865   -0.006669261314134014   -0.001127438303548679
-0.0010954425443420277   -0.002140299664144132   -0.0007078329525138351
-0.002357214046336678   -0.0023441497855906683   -0.0007796162269431223
-0.0020722380401007865   -0.006669261314134014   -0.001127438303548679
-0.004509419244714953   -0.00681588599048368   -0.0012652915283545205
-0.004504423487143268   -0.006701526067467929   -0.001404771850862934
-0.002357214046336678   -0.0023441497855906683   -0.0007796162269431223
-0.0020722380401007865   -0.006669261314134014   -0.001127438303548679
-0.004504423487143268   -0.006701526067467929   -0.001404771850862934
-0.0010954425443420277   -0.002140299664144132   -0.0007078329525138351
-0.002357214046336678   -0.0023441497855906683   -0.0007796162269431223
-0.004509419244714953   -0.00681588599048368   -0.0012652915283545205
-0.0010533992093594796   -0.0022130601471178255   -0.0006365825703824693
-0.0023636751406082394   -0.0024014760923831294   -0.0006289771087945199
-0.004509419244714953   -0.00681588599048368   -0.0012652915283545205
-0.0020722380401007865   -0.006669261314134014   -0.001127438303548679
-0.0010533992093594796   -0.0022130601471178255   -0.0006365825703824693
-0.0020559253856182965   -0.00670455655910168   -0.00106263018512101
-0.0023636751406082394   -0.0024014760923831294   -0.0006289771087945199
-0.0010297100733796692   -0.0022408014195635577   -0.0005672138194891632
-0.0020559253856182965   -0.00670455655910168   -0.00106263018512101
-0.0010533992093594796   -0.0022130601471178255   -0.0006365825703824693
-0.0023636751406082394   -0.0024014760923831294   -0.0006289771087945199
-0.0020559253856182965   -0.00670455655910168   -0.00106263018512101
-0.0045268289290846435   -0.0068856309393547   -0.0011312779806445605
-0.004509419244714953   -0.00681588599048368   -0.0012652915283545205
-0.0023636751406082394   -0.0024014760923831294   -0.0006289771087945199
-0.0020559253856182965   -0.00670455655910168   -0.00106263018512101
-0.004509419244714953   -0.00681588599048368   -0.0012652915283545205
-0.0010533992093594796   -0.0022130601471178255   -0.0006365825703824693
-0.0023636751406082394   -0.0024014760923831294   -0.0006289771087945199
-0.0045268289290846435   -0.0068856309393547   -0.0011312779806445605
-0.0010297100733796692   -0.0022408014195635577   -0.0005672138194891632
-0.002362222315512534   -0.0024162361022447595   -0.00047324080520824073
-0.0045268289290846435   -0.0068856309393547   -0.0011312779806445605
-0.0020559253856182965   -0.00670455655910168   -0.00106263018512101
-0.0010297100733796692   -0.0022408014195635577   -0.0005672138194891632
-0.0020317359484100976   -0.006703726873100008   -0.001006224118207905
-0.002362222315512534   -0.0024162361022447595   -0.00047324080520824073
-0.0010081084232931587   -0.0022292458017757846   -0.0004955209859681502
-0.0020317359484100976   -0.006703726873100008   -0.001006224118207905
-0.0010297100733796692   -0.0022408014195635577   -0.0005672138194891632
-0.002362222315512534   -0.0024162361022447595   -0.00047324080520824073
-0.0020317359484100976   -0.006703726873100008   -0.001006224118207905
-0.004512978966128809   -0.00692187414859396   -0.0010058580351805615
-0.0045268289290846435   -0.0068856309393547   -0.0011312779806445605
-0.002362222315512534   -0.0024162361022447595   -0.00047324080520824073
-0.0020317359484100976   -0.006703726873100008   -0.001006224118207905
-0.0045268289290846435   -0.0068856309393547   -0.0011312779806445605
-0.0010297100733796692   -0.0022408014195635577   -0.0005672138194891632
-0.0010954425443420277   -0.002140299664144132   -0.0007078329525138351
-0.0020906043215512026   -0.006596511541946867   -0.0011989452964632252
0.00014163531636433976   -0.0021521202643886073   -0.0005660089706788469
-0.0010533992093594796   -0.0022130601471178255   -0.0006365825703824693
-0.0020906043215512026   -0.006596511541946867   -0.0011989452964632252
0.000236839334623932   -0.0065996580181455124   -0.0010689022541213833
0.00014163531636433976   -0.0021521202643886073   -0.0005660089706788469
0.0002593566933320317   -0.006634066501642373   -0.0010641064102928537
-0.0010533992093594796   -0.0022130601471178255   -0.0006365825703824693
0.00016855803809412415   -0.0021898065109572326   -0.0005758139847742332
0.0002593566933320317   -0.006634066501642373   -0.0010641064102928537
0.00014163531636433976   -0.0021521202643886073   -0.0005660089706788469
-0.0010533992093594796   -0.0022130601471178255   -0.0006365825703824693
0.0002593566933320317   -0.006634066501642373   -0.0010641064102928537
-0.0020722380401007865   -0.006669261314134014   -0.001127438303548679
-0.0020906043215512026   -0.006596511541946867   -0.0011989452964632252
-0.0010533992093594796   -0.0022130601471178255   -0.0006365825703824693
0.0002593566933320317   -0.006634066501642373   -0.0010641064102928537
-0.0020906043215512026   -0.006596511541946867   -0.0011989452964632252
0.00014163531636433976   -0.0021521202643886073   -0.0005660089706788469
-0.0010533992093594796   -0.0022130601471178255   -0.0006365825703824693
-0.0020722380401007865   -0.006669261314134014   -0.001127438303548679
0.00016855803809412415   -0.0021898065109572326   -0.0005758139847742332
-0.0010297100733796692   -0.0022408014195635577   -0.0005672138194891632
-0.0020722380401007865   -0.006669261314134014   -0.001127438303548679
0.0002593566933320317   -0.006634066501642373   -0.0010641064102928537
0.00016855803809412415   -0.0021898065109572326   -0.0005758139847742332
0.00027461233391525925   -0.006631897309045655   -0.001066912425154441
-0.0010297100733796692   -0.0022408014195635577   -0.0005672138194891632
0.00018983182917955762   -0.002186659327717402   -0.0005846888651156353
0.00027461233391525925   -0.006631897309045655   -0.001066912425154441
0.00016855803809412415   -0.0021898065109572326   -0.0005758139847742332
-0.0010297100733796692   -0.0022408014195635577   -0.0005672138194891632
0.00027461233391525925   -0.006631897309045655   -0.001066912425154441
-0.0020559253856182965   -0.00670455655910168   -0.00106263018512101
-0.0020722380401007865   -0.006669261314134014   -0.001127438303548679
-0.0010297100733796692   -0.0022408014195635577   -0.0005672138194891632
0.00027461233391525925   -0.006631897309045655   -0.001066912425154441
-0.0020722380401007865   -0.006669261314134014   -0.001127438303548679
0.00016855803809412415   -0.0021898065109572326   -0.0005758139847742332
-0.0010297100733796692   -0.0022408014195635577   -0.0005672138194891632
-0.0020559253856182965   -0.00670455655910168   -0.00106263018512101
0.00018983182917955762   -0.002186659327717402   -0.0005846888651156353
-0.0010081084232931587   -0.0022292458017757846   -0.0004955209859681502
-0.0020559253856182965   -0.00670455655910168   -0.00106263018512101
0.00027461233391525925   -0.006631897309045655   -0.001066912425154441
0.00018983182917955762   -0.002186659327717402   -0.0005846888651156353
0.00029095477764597144   -0.006592035871228433   -0.0010774400849739253
-0.0010081084232931587   -0.0022292458017757846   -0.0004955209859681502
0.00021839385165466717   -0.0021393336651019308   -0.0005938321020109654
0.00029095477764597144   -0.006592035871228433   -0.0010774400849739253
0.00018983182917955762   -0.002186659327717402   -0.0005846888651156353
-0.0010081084232931587   -0.0022292458017757846   -0.0004955209859681502
0.00029095477764597144   -0.006592035871228433   -0.0010774400849739253
-0.0020317359484100976   -0.006703726873100008   -0.001006224118207905
-0.0020559253856182965   -0.00670455655910168   -0.00106263018512101
-0.0010081084232931587   -0.0022292458017757846   -0.0004955209859681502
0.00029095477764597144   -0.006592035871228433   -0.0010774400849739253
-0.0020559253856182965   -0.00670455655910168   -0.00106263018512101
0.00018983182917955762   -0.002186659327717402   -0.0005846888651156353
0.00014163531636433976   -0.0021521202643886073   -0.0005660089706788469
0.000236839334623932   -0.0065996580181455124   -0.0010689022541213833
0.0014846234274071691   -0.002256599552897351   -0.000495954592471284
0.00016855803809412415   -0.0021898065109572326   -0.0005758139847742332
0.000236839334623932   -0.0065996580181455124   -0.0010689022541213833
0.0027034613445137043   -0.006707067783948108   -0.001008379877821519
0.0014846234274071691   -0.002256599552897351   -0.000495954592471284
0.0027164015643059854   -0.006706625905493007   -0.0010724562170411082
0.00016855803809412415   -0.0021898065109572326   -0.0005758139847742332
0.001487475137626091   -0.0022685384989997778   -0.0005910497334553342
0.0027164015643059854   -0.006706625905493007   -0.0010724562170411082
0.0014846234274071691   -0.002256599552897351   -0.000495954592471284
0.00016855803809412415   -0.0021898065109572326   -0.0005758139847742332
0.0027164015643059854   -0.006706625905493007   -0.0010724562170411082
0.0002593566933320317   -0.006634066501642373   -0.0010641064102928537
0.000236839334623932   -0.0065996580181455124   -0.0010689022541213833
0.00016855803809412415   -0.0021898065109572326   -0.0005758139847742332
0.0027164015643059854   -0.006706625905493007   -0.0010724562170411082
0.000236839334623932   -0.0065996580181455124   -0.0010689022541213833
0.0014846234274071691   -0.002256599552897351   -0.000495954592471284
0.00016855803809412415   -0.0021898065109572326   -0.0005758139847742332
0.0002593566933320317   -0.006634066501642373   -0.0010641064102928537
0.001487475137626091   -0.0022685384989997778   -0.0005910497334553342
0.00018983182917955762   -0.002186659327717402   -0.0005846888651156353
0.0002593566933320317   -0.006634066501642373   -0.0010641064102928537
0.0027164015643059854   -0.006706625905493007   -0.0010724562170411082
0.001487475137626091   -0.0022685384989997778   -0.0005910497334553342
0.0027042410412427905   -0.006670327507941713   -0.0011451329389526351
0.00018983182917955762   -0.002186659327717402   -0.0005846888651156353
0.0014812870225404879   -0.002236146143122836   -0.0006823059015554427
0.0027042410412427905   -0.006670327507941713   -0.0011451329389526351
0.001487475137626091   -0.0022685384989997778   -0.0005910497334553342
0.00018983182917955762   -0.002186659327717402   -0.0005846888651156353
0.0027042410412427905   -0.006670327507941713   -0.0011451329389526351
0.00027461233391525925   -0.006631897309045655   -0.001066912425154441
0.0002593566933320317   -0.006634066501642373   -0.0010641064102928537
0.00018983182917955762   -0.002186659327717402   -0.0005846888651156353
0.0027042410412427905   -0.006670327507941713   -0.0011451329389526351
0.0002593566933320317   -0.006634066501642373   -0.0010641064102928537
0.001487475137626091   -0.0022685384989997778   -0.0005910497334553342
0.00018983182917955762   -0.002186659327717402   -0.0005846888651156353
0.00027461233391525925   -0.006631897309045655   -0.001066912425154441
0.0014812870225404879   -0.002236146143122836   -0.0006823059015554427
0.00021839385165466717   -0.0021393336651019308   -0.0005938321020109654
0.00027461233391525925   -0.006631897309045655   -0.001066912425154441
0.0027042410412427905   -0.006670327507941713   -0.0011451329389526351
0.0014812870225404879   -0.002236146143122836   -0.0006823059015554427
0.0026974144642763144   -0.006588262992075039   -0.001223719782556788
0.00021839385165466717   -0.0021393336651019308   -0.0005938321020109654
0.0015101504773996648   -0.002149528172059988   -0.0007718477824496101
0.0026974144642763144   -0.006588262992075039   -0.001223719782556788
0.0014812870225404879   -0.002236146143122836   -0.0006823059015554427
0.00021839385165466717   -0.0021393336651019308   -0.0005938321020109654
0.0026974144642763144   -0.006588262992075039   -0.001223719782556788
0.00029095477764597144   -0.006592035871228433   -0.0010774400849739253
0.00027461233391525925   -0.006631897309045655   -0.001066912425154441
0.00021839385165466717   -0.0021393336651019308   -0.0005938321020109654
0.0026974144642763144   -0.006588262992075039   -0.001223719782556788
0.00027461233391525925   -0.006631897309045655   -0.001066912425154441
0.0014812870225404879   -0.002236146143122836   -0.0006823059015554427
0.0014846234274071691   -0.002256599552897351   -0.000495954592471284
0.0027034613445137043   -0.006707067783948108   -0.001008379877821519
0.003352869256830234   -0.002521539558580845   -0.0004681765121043134
0.001487475137626091   -0.0022685384989997778   -0.0005910497334553342
0.0027034613445137043   -0.006707067783948108   -0.001008379877821519
0.005680479807617685   -0.0069066464174430625   -0.0009923927261944806
0.003352869256830234   -0.002521539558580845   -0.0004681765121043134
0.005565502220720246   -0.006887624191710131   -0.0011366016069918844
0.001487475137626091   -0.0022685384989997778   -0.0005910497334553342
0.0031491604261580223   -0.0024938931644137357   -0.0006838576372667523
0.005565502220720246   -0.006887624191710131   -0.0011366016069918844
0.003352869256830234   -0.002521539558580845   -0.0004681765121043134
0.001487475137626091   -0.0022685384989997778   -0.0005910497334553342
0.005565502220720246   -0.006887624191710131   -0.0011366016069918844
0.0027164015643059854   -0.006706625905493007   -0.0010724562170411082
0.0027034613445137043   -0.006707067783948108   -0.001008379877821519
0.001487475137626091   -0.0022685384989997778   -0.0005910497334553342
0.005565502220720246   -0.006887624191710131   -0.0011366016069918844
0.0027034613445137043   -0.006707067783948108   -0.001008379877821519
0.003352869256830234   -0.002521539558580845   -0.0004681765121043134
0.001487475137626091   -0.0022685384989997778   -0.0005910497334553342
0.0027164015643059854   -0.006706625905493007   -0.0010724562170411082
0.0031491604261580223   -0.0024938931644137357   -0.0006838576372667523
0.0014812870225404879   -0.002236146143122836   -0.0006823059015554427
0.0027164015643059854   -0.006706625905493007   -0.0010724562170411082
0.005565502220720246   -0.006887624191710131   -0.0011366016069918844
0.0031491604261580223   -0.0024938931644137357   -0.0006838576372667523
0.005462698434642134   -0.006831686931588297   -0.0012989015183904613
0.0014812870225404879   -0.002236146143122836   -0.0006823059015554427
0.0030553045839222617   -0.0024420457615592205   -0.0008662671540808115
0.005462698434642134   -0.006831686931588297   -0.0012989015183904613
0.0031491604261580223   -0.0024938931644137357   -0.0006838576372667523
0.0014812870225404879   -0.002236146143122836   -0.0006823059015554427
0.005462698434642134   -0.006831686931588297   -0.0012989015183904613
0.0027042410412427905   -0.006670327507941713   -0.0011451329389526351
0.0027164015643059854   -0.006706625905493007   -0.0010724562170411082
0.0014812870225404879   -0.002236146143122836   -0.0006823059015554427
0.005462698434642134   -0.006831686931588297   -0.0012989015183904613
0.0027164015643059854   -0.006706625905493007   -0.0010724562170411082
0.0031491604261580223   -0.0024938931644137357   -0.0006838576372667523
0.0014812870225404879   -0.002236146143122836   -0.0006823059015554427
0.0027042410412427905   -0.006670327507941713   -0.0011451329389526351
0.0030553045839222617   -0.0024420457615592205   -0.0008662671540808115
0.0015101504773996648   -0.002149528172059988   -0.0007718477824496101
0.0027042410412427905   -0.006670327507941713   -0.0011451329389526351
0.005462698434642134   -0.006831686931588297   -0.0012989015183904613
0.0030553045839222617   -0.0024420457615592205   -0.0008662671540808115
0.005308399741786037   -0.006707365719409762   -0.0014678911324070081
0.0015101504773996648   -0.002149528172059988   -0.0007718477824496101
0.0029154520598215048   -0.002309479424323378   -0.0010593480205538354
0.005308399741786037   -0.006707365719409762   -0.0014678911324070081
0.0030553045839222617   -0.0024420457615592205   -0.0008662671540808115
0.0015101504773996648   -0.002149528172059988   -0.0007718477824496101
0.005308399741786037   -0.006707365719409762   -0.0014678911324070081
0.0026974144642763144   -0.006588262992075039   -0.001223719782556788
0.0027042410412427905   -0.006670327507941713   -0.0011451329389526351
0.0015101504773996648   -0.002149528172059988   -0.0007718477824496101
0.005308399741786037   -0.006707365719409762   -0.0014678911324070081
0.0027042410412427905   -0.006670327507941713   -0.0011451329389526351
0.0030553045839222617   -0.0024420457615592205   -0.0008662671540808115
-0.007057513419005132   -0.006927205920462332   -0.0017063377310401861
-0.009666851153792833   -0.012984610765051252   -0.0019438876430772779
-0.004504423487143268   -0.006701526067467929   -0.001404771850862934
-0.00726852868196769   -0.007086817308508399   -0.0014798931605887568
-0.009666851153792833   -0.012984610765051252   -0.0019438876430772779
-0.006215468590833686   -0.012812251993397254   -0.0016994962745160284
-0.004504423487143268   -0.006701526067467929   -0.001404771850862934
-0.006228687637097738   -0.012910890293043268   -0.001591345551135358
-0.00726852868196769   -0.007086817308508399   -0.0014798931605887568
-0.004509419244714953   -0.00681588599048368   -0.0012652915283545205
-0.006228687637097738   -0.012910890293043268   -0.001591345551135358
-0.004504423487143268   -0.006701526067467929   -0.001404771850862934
-0.00726852868196769   -0.007086817308508399   -0.0014798931605887568
-0.006228687637097738   -0.012910890293043268   -0.001591345551135358
-0.009838185944560427   -0.013119440185643653   -0.0017751577972793865
-0.009666851153792833   -0.012984610765051252   -0.0019438876430772779
-0.00726852868196769   -0.007086817308508399   -0.0014798931605887568
-0.006228687637097738   -0.012910890293043268   -0.001591345551135358
-0.009666851153792833   -0.012984610765051252   -0.0019438876430772779
-0.004504423487143268   -0.006701526067467929   -0.001404771850862934
-0.00726852868196769   -0.007086817308508399   -0.0014798931605887568
-0.009838185944560427   -0.013119440185643653   -0.0017751577972793865
-0.004509419244714953   -0.00681588599048368   -0.0012652915283545205
-0.0074150029370556566   -0.007176987968510084   -0.0012581947075001264
-0.009838185944560427   -0.013119440185643653   -0.0017751577972793865
-0.006228687637097738   -0.012910890293043268   -0.001591345551135358
-0.004509419244714953   -0.00681588599048368   -0.0012652915283545205
-0.0062443039611855935   -0.012979571326757795   -0.0014910367682293064
-0.0074150029370556566   -0.007176987968510084   -0.0012581947075001264
-0.0045268289290846435   -0.0068856309393547   -0.0011312779806445605
-0.0062443039611855935   -0.012979571326757795   -0.0014910367682293064
-0.004509419244714953   -0.00681588599048368   -0.0012652915283545205
-0.0074150029370556566   -0.007176987968510084   -0.0012581947075001264
-0.0062443039611855935   -0.012979571326757795   -0.0014910367682293064
-0.009946009922522186   -0.01320403004410696   -0.0016179216575967533
-0.009838185944560427   -0.013119440185643653   -0.0017751577972793865
-0.0074150029370556566   -0.007176987968510084   -0.0012581947075001264
-0.0062443039611855935   -0.012979571326757795   -0.0014910367682293064
-0.009838185944560427   -0.013119440185643653   -0.0017751577972793865
-0.004509419244714953   -0.00681588599048368   -0.0012652915283545205
-0.0074150029370556566   -0.007176987968510084   -0.0012581947075001264
-0.009946009922522186   -0.01320403004410696   -0.0016179216575967533
-0.0045268289290846435   -0.0068856309393547   -0.0011312779806445605
-0.007588114742744638   -0.007229507562462298   -0.0010565376633145586
-0.009946009922522186   -0.01320403004410696   -0.0016179216575967533
-0.0062443039611855935   -0.012979571326757795   -0.0014910367682293064
-0.0045268289290846435   -0.0068856309393547   -0.0011312779806445605
-0.006232166278527532   -0.0130248145226453   -0.001396898211295309
-0.007588114742744638   -0.007229507562462298   -0.0010565376633145586
-0.004512978966128809   -0.00692187414859396   -0.0010058580351805615
-0.006232166278527532   -0.0130248145226453   -0.001396898211295309
-0.0045268289290846435   -0.0068856309393547   -0.0011312779806445605
-0.007588114742744638   -0.007229507562462298   -0.0010565376633145586
-0.006232166278527532   -0.0130248145226453   -0.001396898211295309
-0.010068691429450733   -0.013264958564427895   -0.0014732544609051324
-0.009946009922522186   -0.01320403004410696   -0.0016179216575967533
-0.007588114742744638   -0.007229507562462298   -0.0010565376633145586
-0.006232166278527532   -0.0130248145226453   -0.001396898211295309
-0.009946009922522186   -0.01320403004410696   -0.0016179216575967533
-0.0045268289290846435   -0.0068856309393547   -0.0011312779806445605
-0.004504423487143268   -0.006701526067467929   -0.001404771850862934
-0.006215468590833686   -0.012812251993397254   -0.0016994962745160284
-0.0020906043215512026   -0.006596511541946867   -0.0011989452964632252
-0.004509419244714953   -0.00681588599048368   -0.0012652915283545205
-0.006215468590833686   -0.012812251993397254   -0.0016994962745160284
-0.0029618842273286404   -0.012726277011739735   -0.0015297238130572758
-0.0020906043215512026   -0.006596511541946867   -0.0011989452964632252
-0.002954062383056457   -0.01278931489843917   -0.0014685603988053712
-0.004509419244714953   -0.00681588599048368   -0.0012652915283545205
-0.0020722380401007865   -0.006669261314134014   -0.001127438303548679
-0.002954062383056457   -0.01278931489843917   -0.0014685603988053712
-0.0020906043215512026   -0.006596511541946867   -0.0011989452964632252
-0.004509419244714953   -0.00681588599048368   -0.0012652915283545205
-0.002954062383056457   -0.01278931489843917   -0.0014685603988053712
-0.006228687637097738   -0.012910890293043268   -0.001591345551135358
-0.006215468590833686   -0.012812251993397254   -0.0016994962745160284
-0.004509419244714953   -0.00681588599048368   -0.0012652915283545205
-0.002954062383056457   -0.01278931489843917   -0.0014685603988053712
-0.006215468590833686   -0.012812251993397254   -0.0016994962745160284
-0.0020906043215512026   -0.006596511541946867   -0.0011989452964632252
-0.004509419244714953   -0.00681588599048368   -0.0012652915283545205
-0.006228687637097738   -0.012910890293043268   -0.001591345551135358
-0.0020722380401007865   -0.006669261314134014   -0.001127438303548679
-0.0045268289290846435   -0.0068856309393547   -0.0011312779806445605
-0.006228687637097738   -0.012910890293043268   -0.001591345551135358
-0.002954062383056457   -0.01278931489843917   -0.0014685603988053712
-0.0020722380401007865   -0.006669261314134014   -0.001127438303548679
-0.002944574513578838   -0.012826357775239822   -0.0014148617063438047
-0.0045268289290846435   -0.0068856309393547   -0.0011312779806445605
-0.0020559253856182965   -0.00670455655910168   -0.00106263018512101
-0.002944574513578838   -0.012826357775239822   -0.0014148617063438047
-0.0020722380401007865   -0.006669261314134014   -0.001127438303548679
-0.0045268289290846435   -0.0068856309393547   -0.0011312779806445605
-0.002944574513578838   -0.012826357775239822   -0.0014148617063438047
-0.0062443039611855935   -0.012979571326757795   -0.0014910367682293064
-0.006228687637097738   -0.012910890293043268   -0.001591345551135358
-0.0045268289290846435   -0.0068856309393547   -0.0011312779806445605
-0.002944574513578838   -0.012826357775239822   -0.0014148617063438047
-0.006228687637097738   -0.012910890293043268   -0.001591345551135358
-0.0020722380401007865   -0.006669261314134014   -0.001127438303548679
-0.0045268289290846435   -0.0068856309393547   -0.0011312779806445605
-0.0062443039611855935   -0.012979571326757795   -0.0014910367682293064
-0.0020559253856182965   -0.00670455655910168   -0.00106263018512101
-0.004512978966128809   -0.00692187414859396   -0.0010058580351805615
-0.0062443039611855935   -0.012979571326757795   -0.0014910367682293064
-0.002944574513578838   -0.012826357775239822   -0.0014148617063438047
-0.0020559253856182965   -0.00670455655910168   -0.00106263018512101
-0.0029292303308391834   -0.012837935115905717   -0.0013686067183538188
-0.004512978966128809   -0.00692187414859396   -0.0010058580351805615
-0.0020317359484100976   -0.006703726873100008   -0.001006224118207905
-0.0029292303308391834   -0.012837935115905717   -0.0013686067183538188
-0.0020559253856182965   -0.00670455655910168   -0.00106263018512101
-0.004512978966128809   -0.00692187414859396   -0.0010058580351805615
-0.0029292303308391834   -0.012837935115905717   -0.0013686067183538188
-0.006232166278527532   -0.0130248145226453   -0.001396898211295309
-0.0062443039611855935   -0.012979571326757795   -0.0014910367682293064
-0.004512978966128809   -0.00692187414859396   -0.0010058580351805615
-0.0029292303308391834   -0.012837935115905717   -0.0013686067183538188
-0.0062443039611855935   -0.012979571326757795   -0.0014910367682293064
-0.0020559253856182965   -0.00670455655910168   -0.00106263018512101
-0.0020906043215512026   -0.006596511541946867   -0.0011989452964632252
-0.0029618842273286404   -0.012726277011739735   -0.0015297238130572758
0.000236839334623932   -0.0065996580181455124   -0.0010689022541213833
-0.0020722380401007865   -0.006669261314134014   -0.001127438303548679
-0.0029618842273286404   -0.012726277011739735   -0.0015297238130572758
0.00019597098150262197   -0.01272169349756609   -0.0014245572322599718
0.000236839334623932   -0.0065996580181455124   -0.0010689022541213833
0.0002100326231896874   -0.012749678602808703   -0.0014101320741271544
-0.0020722380401007865   -0.006669261314134014   -0.001127438303548679
0.0002593566933320317   -0.006634066501642373   -0.0010641064102928537
0.0002100326231896874   -0.012749678602808703   -0.0014101320741271544
0.000236839334623932   -0.0065996580181455124   -0.0010689022541213833
-0.0020722380401007865   -0.006669261314134014   -0.001127438303548679
0.0002100326231896874   -0.012749678602808703   -0.0014101320741271544
-0.002954062383056457   -0.01278931489843917   -0.0014685603988053712
-0.0029618842273286404   -0.012726277011739735   -0.0015297238130572758
-0.0020722380401007865   -0.006669261314134014   -0.001127438303548679
0.0002100326231896874   -0.012749678602808703   -0.0014101320741271544
-0.0029618842273286404   -0.012726277011739735   -0.0015297238130572758
0.000236839334623932   -0.0065996580181455124   -0.0010689022541213833
-0.0020722380401007865   -0.006669261314134014   -0.001127438303548679
-0.002954062383056457   -0.01278931489843917   -0.0014685603988053712
0.0002593566933320317   -0.006634066501642373   -0.0010641064102928537
-0.0020559253856182965   -0.00670455655910168   -0.00106263018512101
-0.002954062383056457   -0.01278931489843917   -0.0014685603988053712
0.0002100326231896874   -0.012749678602808703   -0.0014101320741271544
0.0002593566933320317   -0.006634066501642373   -0.0010641064102928537
0.00021919147739344445   -0.012751772203807556   -0.0014029780619378078
-0.0020559253856182965   -0.00670455655910168   -0.00106263018512101
0.00027461233391525925   -0.006631897309045655   -0.001066912425154441
0.00021919147739344445   -0.012751772203807556   -0.0014029780619378078
0.0002593566933320317   -0.006634066501642373   -0.0010641064102928537
-0.0020559253856182965   -0.00670455655910168   -0.00106263018512101
0.00021919147739344445   -0.012751772203807556   -0.0014029780619378078
-0.002944574513578838   -0.012826357775239822   -0.0014148617063438047
-0.002954062383056457   -0.01278931489843917   -0.0014685603988053712
-0.0020559253856182965   -0.00670455655910168   -0.00106263018512101
0.00021919147739344445   -0.012751772203807556   -0.0014029780619378078
-0.002954062383056457   -0.01278931489843917   -0.0014685603988053712
0.0002593566933320317   -0.006634066501642373   -0.0010641064102928537
-0.0020559253856182965   -0.00670455655910168   -0.00106263018512101
-0.002944574513578838   -0.012826357775239822   -0.0014148617063438047
0.00027461233391525925   -0.006631897309045655   -0.001066912425154441
-0.0020317359484100976   -0.006703726873100008   -0.001006224118207905
-0.002944574513578838   -0.012826357775239822   -0.0014148617063438047
0.00021919147739344445   -0.012751772203807556   -0.0014029780619378078
0.00027461233391525925   -0.006631897309045655   -0.001066912425154441
0.00022593304171393463   -0.01272758884915875   -0.0014035354886400054
-0.0020317359484100976   -0.006703726873100008   -0.001006224118207905
0.00029095477764597144   -0.006592035871228433   -0.0010774400849739253
0.00022593304171393463   -0.01272758884915875   -0.0014035354886400054
0.00027461233391525925   -0.006631897309045655   -0.001066912425154441
-0.0020317359484100976   -0.006703726873100008   -0.001006224118207905
0.00022593304171393463   -0.01272758884915875   -0.0014035354886400054
-0.0029292303308391834   -0.012837935115905717   -0.0013686067183538188
-0.002944574513578838   -0.012826357775239822   -0.0014148617063438047
-0.0020317359484100976   -0.006703726873100008   -0.001006224118207905
0.00022593304171393463   -0.01272758884915875   -0.0014035354886400054
-0.002944574513578838   -0.012826357775239822   -0.0014148617063438047
0.00027461233391525925   -0.006631897309045655   -0.001066912425154441
0.000236839334623932   -0.0065996580181455124   -0.0010689022541213833
0.00019597098150262197   -0.01272169349756609   -0.0014245572322599718
0.0027034613445137043   -0.006707067783948108   -0.001008379877821519
0.0002593566933320317   -0.006634066501642373   -0.0010641064102928537
0.00019597098150262197   -0.01272169349756609   -0.0014245572322599718
0.0034887216831647654   -0.012793659643684629   -0.0013822119516386272
0.0027034613445137043   -0.006707067783948108   -0.001008379877821519
0.0035010970590963774   -0.012789500894576453   -0.0014154922837462578
0.0002593566933320317   -0.006634066501642373   -0.0010641064102928537
0.0027164015643059854   -0.006706625905493007   -0.0010724562170411082
0.0035010970590963774   -0.012789500894576453   -0.0014154922837462578
0.0027034613445137043   -0.006707067783948108   -0.001008379877821519
0.0002593566933320317   -0.006634066501642373   -0.0010641064102928537
0.0035010970590963774   -0.012789500894576453   -0.0014154922837462578
0.0002100326231896874   -0.012749678602808703   -0.0014101320741271544
0.00019597098150262197   -0.01272169349756609   -0.0014245572322599718
0.0002593566933320317   -0.006634066501642373   -0.0010641064102928537
0.0035010970590963774   -0.012789500894576453   -0.0014154922837462578
0.00019597098150262197   -0.01272169349756609   -0.0014245572322599718
0.0027034613445137043   -0.006707067783948108   -0.001008379877821519
0.0002593566933320317   -0.006634066501642373   -0.0010641064102928537
0.0002100326231896874   -0.012749678602808703   -0.0014101320741271544
0.0027164015643059854   -0.006706625905493007   -0.0010724562170411082
0.00027461233391525925   -0.006631897309045655   -0.001066912425154441
0.0002100326231896874   -0.012749678602808703   -0.0014101320741271544
0.0035010970590963774   -0.012789500894576453   -0.0014154922837462578
0.0027164015643059854   -0.006706625905493007   -0.0010724562170411082
0.0034927055785132165   -0.012760020651108789   -0.0014555094879831402
0.00027461233391525925   -0.006631897309045655   -0.001066912425154441
0.0027042410412427905   -0.006670327507941713   -0.0011451329389526351
0.0034927055785132165   -0.012760020651108789   -0.0014555094879831402
0.0027164015643059854   -0.006706625905493007   -0.0010724562170411082
0.00027461233391525925   -0.006631897309045655   -0.001066912425154441
0.0034927055785132165   -0.012760020651108789   -0.0014555094879831402
0.00021919147739344445   -0.012751772203807556   -0.0014029780619378078
0.0002100326231896874   -0.012749678602808703   -0.0014101320741271544
0.00027461233391525925   -0.006631897309045655   -0.001066912425154441
0.0034927055785132165   -0.012760020651108789   -0.0014555094879831402
0.0002100326231896874   -0.012749678602808703   -0.0014101320741271544
0.0027164015643059854   -0.006706625905493007   -0.0010724562170411082
0.00027461233391525925   -0.006631897309045655   -0.001066912425154441
0.00021919147739344445   -0.012751772203807556   -0.0014029780619378078
0.0027042410412427905   -0.006670327507941713   -0.0011451329389526351
0.00029095477764597144   -0.006592035871228433   -0.0010774400849739253
0.00021919147739344445   -0.012751772203807556   -0.0014029780619378078
0.0034927055785132165   -0.012760020651108789   -0.0014555094879831402
0.0027042410412427905   -0.006670327507941713   -0.0011451329389526351
0.0034798689235590145   -0.01269893248004871   -0.0015030630123209448
0.00029095477764597144   -0.006592035871228433   -0.0010774400849739253
0.0026974144642763144   -0.006588262992075039   -0.001223719782556788
0.0034798689235590145   -0.01269893248004871   -0.0015030630123209448
0.0027042410412427905   -0.006670327507941713   -0.0011451329389526351
0.00029095477764597144   -0.006592035871228433   -0.0010774400849739253
0.0034798689235590145   -0.01269893248004871   -0.0015030630123209448
0.00022593304171393463   -0.01272758884915875   -0.0014035354886400054
0.00021919147739344445   -0.012751772203807556   -0.0014029780619378078
0.00029095477764597144   -0.006592035871228433   -0.0010774400849739253
0.0034798689235590145   -0.01269893248004871   -0.0015030630123209448
0.00021919147739344445   -0.012751772203807556   -0.0014029780619378078
0.0027042410412427905   -0.006670327507941713   -0.0011451329389526351
0.0027034613445137043   -0.006707067783948108   -0.001008379877821519
0.0034887216831647654   -0.012793659643684629   -0.0013822119516386272
0.005680479807617685   -0.0069066464174430625   -0.0009923927261944806
0.0027164015643059854   -0.006706625905493007   -0.0010724562170411082
0.0034887216831647654   -0.012793659643684629   -0.0013822119516386272
0.007238918687595   -0.012924095042330483   -0.0013834282402438662
0.005680479807617685   -0.0069066464174430625   -0.0009923927261944806
0.007176663365238655   -0.012901391532669488   -0.001470505982703507
0.0027164015643059854   -0.006706625905493007   -0.0010724562170411082
0.005565502220720246   -0.006887624191710131   -0.0011366016069918844
0.007176663365238655   -0.012901391532669488   -0.001470505982703507
0.005680479807617685   -0.0069066464174430625   -0.0009923927261944806
0.0027164015643059854   -0.006706625905493007   -0.0010724562170411082
0.007176663365238655   -0.012901391532669488   -0.001470505982703507
0.0035010970590963774   -0.012789500894576453   -0.0014154922837462578
0.0034887216831647654   -0.012793659643684629   -0.0013822119516386272
0.0027164015643059854   -0.006706625905493007   -0.0010724562170411082
0.007176663365238655   -0.012901391532669488   -0.001470505982703507
0.0034887216831647654   -0.012793659643684629   -0.0013822119516386272
0.005680479807617685   -0.0069066464174430625   -0.0009923927261944806
0.0027164015643059854   -0.006706625905493007   -0.0010724562170411082
0.0035010970590963774   -0.012789500894576453   -0.0014154922837462578
0.005565502220720246   -0.006887624191710131   -0.0011366016069918844
0.0027042410412427905   -0.006670327507941713   -0.0011451329389526351
0.0035010970590963774   -0.012789500894576453   -0.0014154922837462578
0.007176663365238655   -0.012901391532669488   -0.001470505982703507
0.005565502220720246   -0.006887624191710131   -0.0011366016069918844
0.0071144185974068175   -0.012856031589736926   -0.001569732371825234
0.0027042410412427905   -0.006670327507941713   -0.0011451329389526351
0.005462698434642134   -0.006831686931588297   -0.0012989015183904613
0.0071144185974068175   -0.012856031589736926   -0.001569732371825234
0.005565502220720246   -0.006887624191710131   -0.0011366016069918844
0.0027042410412427905   -0.006670327507941713   -0.0011451329389526351
0.0071144185974068175   -0.012856031589736926   -0.001569732371825234
0.0034927055785132165   -0.012760020651108789   -0.0014555094879831402
0.0035010970590963774   -0.012789500894576453   -0.0014154922837462578
0.0027042410412427905   -0.006670327507941713   -0.0011451329389526351
0.0071144185974068175   -0.012856031589736926   -0.001569732371825234
0.0035010970590963774   -0.012789500894576453   -0.0014154922837462578
0.005565502220720246   -0.006887624191710131   -0.0011366016069918844
0.0027042410412427905   -0.006670327507941713   -0.0011451329389526351
0.0034927055785132165   -0.012760020651108789   -0.0014555094879831402
0.005462698434642134   -0.006831686931588297   -0.0012989015183904613
0.0026974144642763144   -0.006588262992075039   -0.001223719782556788
0.0034927055785132165   -0.012760020651108789   -0.0014555094879831402
0.0071144185974068175   -0.012856031589736926   -0.001569732371825234
0.005462698434642134   -0.006831686931588297   -0.0012989015183904613
0.007003371753306872   -0.012761042324503976   -0.0016811205064498026
0.0026974144642763144   -0.006588262992075039   -0.001223719782556788
0.005308399741786037   -0.006707365719409762   -0.0014678911324070081
0.007003371753306872   -0.012761042324503976   -0.0016811205064498026
0.005462698434642134   -0.006831686931588297   -0.0012989015183904613
0.0026974144642763144   -0.006588262992075039   -0.001223719782556788
0.007003371753306872   -0.012761042324503976   -0.0016811205064498026
0.0034798689235590145   -0.01269893248004871   -0.0015030630123209448
0.0034927055785132165   -0.012760020651108789   -0.0014555094879831402
0.0026974144642763144   -0.006588262992075039   -0.001223719782556788
0.007003371753306872   -0.012761042324503976   -0.0016811205064498026
0.0034927055785132165   -0.012760020651108789   -0.0014555094879831402
0.005462698434642134   -0.006831686931588297   -0.0012989015183904613
-0.009666851153792833   -0.012984610765051252   -0.0019438876430772779
-0.011540543188696652   -0.020163332964276828   -0.0020736286659827725
-0.006215468590833686   -0.012812251993397254   -0.0016994962745160284
-0.009838185944560427   -0.013119440185643653   -0.0017751577972793865
-0.011540543188696652   -0.020163332964276828   -0.0020736286659827725
-0.007491821703089394   -0.020053770693176206   -0.0018745478799530966
-0.006215468590833686   -0.012812251993397254   -0.0016994962745160284
-0.0075003836977968275   -0.02013854863130075   -0.001797187758893317
-0.009838185944560427   -0.013119440185643653   -0.0017751577972793865
-0.006228687637097738   -0.012910890293043268   -0.001591345551135358
-0.0075003836977968275   -0.02013854863130075   -0.001797187758893317
-0.006215468590833686   -0.012812251993397254   -0.0016994962745160284
-0.009838185944560427   -0.013119440185643653   -0.0017751577972793865
-0.0075003836977968275   -0.02013854863130075   -0.001797187758893317
-0.01165570211330513   -0.020278049038783805   -0.0019617113902655418
-0.011540543188696652   -0.020163332964276828   -0.0020736286659827725
-0.009838185944560427   -0.013119440185643653   -0.0017751577972793865
-0.0075003836977968275   -0.02013854863130075   -0.001797187758893317
-0.011540543188696652   -0.020163332964276828   -0.0020736286659827725
-0.006215468590833686   -0.012812251993397254   -0.0016994962745160284
-0.009838185944560427   -0.013119440185643653   -0.0017751577972793865
-0.01165570211330513   -0.020278049038783805   -0.0019617113902655418
-0.006228687637097738   -0.012910890293043268   -0.001591345551135358
-0.009946009922522186   -0.01320403004410696   -0.0016179216575967533
-0.01165570211330513   -0.020278049038783805   -0.0019617113902655418
-0.0075003836977968275   -0.02013854863130075   -0.001797187758893317
-0.006228687637097738   -0.012910890293043268   -0.001591345551135358
-0.007506348303973044   -0.0202058004292998   -0.0017275445658724335
-0.009946009922522186   -0.01320403004410696   -0.0016179216575967533
-0.0062443039611855935   -0.012979571326757795   -0.0014910367682293064
-0.007506348303973044   -0.0202058004292998   -0.0017275445658724335
-0.006228687637097738   -0.012910890293043268   -0.001591345551135358
-0.009946009922522186   -0.01320403004410696   -0.0016179216575967533
-0.007506348303973044   -0.0202058004292998   -0.0017275445658724335
-0.011721557072822002   -0.02035926202051101   -0.0018605527952567785
-0.01165570211330513   -0.020278049038783805   -0.0019617113902655418
-0.009946009922522186   -0.01320403004410696   -0.0016179216575967533
-0.007506348303973044   -0.0202058004292998   -0.0017275445658724335
-0.01165570211330513   -0.020278049038783805   -0.0019617113902655418
-0.006228687637097738   -0.012910890293043268   -0.001591345551135358
-0.009946009922522186   -0.01320403004410696   -0.0016179216575967533
-0.011721557072822002   -0.02035926202051101   -0.0018605527952567785
-0.0062443039611855935   -0.012979571326757795   -0.0014910367682293064
-0.010068691429450733   -0.013264958564427895   -0.0014732544609051324
-0.011721557072822002   -0.02035926202051101   -0.0018605527952567785
-0.007506348303973044   -0.0202058004292998   -0.0017275445658724335
-0.0062443039611855935   -0.012979571326757795   -0.0014910367682293064
-0.00749036265009054   -0.020261107699876612   -0.0016645896139313116
-0.010068691429450733   -0.013264958564427895   -0.0014732544609051324
-0.006232166278527532   -0.0130248145226453   -0.001396898211295309
-0.00749036265009054   -0.020261107699876612   -0.0016645896139313116
-0.0062443039611855935   -0.012979571326757795   -0.0014910367682293064
-0.010068691429450733   -0.013264958564427895   -0.0014732544609051324
-0.00749036265009054   -0.020261107699876612   -0.0016645896139313116
-0.011789353444750779   -0.020432144040586967   -0.0017714343613849013
-0.011721557072822002   -0.02035926202051101   -0.0018605527952567785
-0.010068691429450733   -0.013264958564427895   -0.0014732544609051324
-0.00749036265009054   -0.020261107699876612   -0.0016645896139313116
-0.011721557072822002   -0.02035926202051101   -0.0018605527952567785
-0.0062443039611855935   -0.012979571326757795   -0.0014910367682293064
-0.006215468590833686   -0.012812251993397254   -0.0016994962745160284
-0.007491821703089394   -0.020053770693176206   -0.0018745478799530966
-0.0029618842273286404   -0.012726277011739735   -0.0015297238130572758
-0.006228687637097738   -0.012910890293043268   -0.001591345551135358
-0.007491821703089394   -0.020053770693176206   -0.0018745478799530966
-0.0036966298662822797   -0.019997070784298746   -0.0017367106407081786
-0.0029618842273286404   -0.012726277011739735   -0.0015297238130572758
-0.003689170360950618   -0.020050233781069668   -0.001685582447581684
-0.006228687637097738   -0.012910890293043268   -0.001591345551135358
-0.002954062383056457   -0.01278931489843917   -0.0014685603988053712
-0.003689170360950618   -0.020050233781069668   -0.001685582447581684
-0.0029618842273286404   -0.012726277011739735   -0.0015297238130572758
-0.006228687637097738   -0.012910890293043268   -0.001591345551135358
-0.003689170360950618   -0.020050233781069668   -0.001685582447581684
-0.0075003836977968275   -0.02013854863130075   -0.001797187758893317
-0.007491821703089394   -0.020053770693176206   -0.0018745478799530966
-0.006228687637097738   -0.012910890293043268   -0.001591345551135358
-0.003689170360950618   -0.020050233781069668   -0.001685582447581684
-0.007491821703089394   -0.020053770693176206   -0.0018745478799530966
-0.0029618842273286404   -0.012726277011739735   -0.0015297238130572758
-0.006228687637097738   -0.012910890293043268   -0.001591345551135358
-0.0075003836977968275   -0.02013854863130075   -0.001797187758893317
-0.002954062383056457   -0.01278931489843917   -0.0014685603988053712
-0.0062443039611855935   -0.012979571326757795   -0.0014910367682293064
-0.0075003836977968275   -0.02013854863130075   -0.001797187758893317
-0.003689170360950618   -0.020050233781069668   -0.001685582447581684
-0.002954062383056457   -0.01278931489843917   -0.0014685603988053712
-0.0036791462817533176   -0.020088705878082515   -0.0016420528793566638
-0.0062443039611855935   -0.012979571326757795   -0.0014910367682293064
-0.002944574513578838   -0.012826357775239822   -0.0014148617063438047
-0.0036791462817533176   -0.020088705878082515   -0.0016420528793566638
-0.002954062383056457   -0.01278931489843917   -0.0014685603988053712
-0.0062443039611855935   -0.012979571326757795   -0.0014910367682293064
-0.0036791462817533176   -0.020088705878082515   -0.0016420528793566638
-0.007506348303973044   -0.0202058004292998   -0.0017275445658724335
-0.0075003836977968275   -0.02013854863130075   -0.001797187758893317
-0.0062443039611855935   -0.012979571326757795   -0.0014910367682293064
-0.0036791462817533176   -0.020088705878082515   -0.0016420528793566638
-0.0075003836977968275   -0.02013854863130075   -0.001797187758893317
-0.002954062383056457   -0.01278931489843917   -0.0014685603988053712
-0.0062443039611855935   -0.012979571326757795   -0.0014910367682293064
-0.007506348303973044   -0.0202058004292998   -0.0017275445658724335
-0.002944574513578838   -0.012826357775239822   -0.0014148617063438047
-0.006232166278527532   -0.0130248145226453   -0.001396898211295309
-0.007506348303973044   -0.0202058004292998   -0.0017275445658724335
-0.0036791462817533176   -0.020088705878082515   -0.0016420528793566638
-0.002944574513578838   -0.012826357775239822   -0.0014148617063438047
-0.003664400579096867   -0.02011273974842179   -0.0016062495327414607
-0.006232166278527532   -0.0130248145226453   -0.001396898211295309
-0.0029292303308391834   -0.012837935115905717   -0.0013686067183538188
-0.003664400579096867   -0.02011273974842179   -0.0016062495327414607
-0.002944574513578838   -0.012826357775239822   -0.0014148617063438047
-0.006232166278527532   -0.0130248145226453   -0.001396898211295309
-0.003664400579096867   -0.02011273974842179   -0.0016062495327414607
-0.00749036265009054   -0.020261107699876612   -0.0016645896139313116
-0.007506348303973044   -0.0202058004292998   -0.0017275445658724335
-0.006232166278527532   -0.0130248145226453   -0.001396898211295309
-0.003664400579096867   -0.02011273974842179   -0.0016062495327414607
-0.007506348303973044   -0.0202058004292998   -0.0017275445658724335
-0.002944574513578838   -0.012826357775239822   -0.0014148617063438047
-0.0029618842273286404   -0.012726277011739735   -0.0015297238130572758
-0.0036966298662822797   -0.019997070784298746   -0.0017367106407081786
0.00019597098150262197   -0.01272169349756609   -0.0014245572322599718
-0.002954062383056457   -0.01278931489843917   -0.0014685603988053712
-0.0036966298662822797   -0.019997070784298746   -0.0017367106407081786
-4.607156927188552e-06   -0.019987274229523098   -0.0016565351197594977
0.00019597098150262197   -0.01272169349756609   -0.0014245572322599718
9.064514576914351e-06   -0.02000863795923659   -0.00163184819955319
-0.002954062383056457   -0.01278931489843917   -0.0014685603988053712
0.0002100326231896874   -0.012749678602808703   -0.0014101320741271544
9.064514576914351e-06   -0.02000863795923659   -0.00163184819955319
0.00019597098150262197   -0.01272169349756609   -0.0014245572322599718
-0.002954062383056457   -0.01278931489843917   -0.0014685603988053712
9.064514576914351e-06   -0.02000863795923659   -0.00163184819955319
-0.003689170360950618   -0.020050233781069668   -0.001685582447581684
-0.0036966298662822797   -0.019997070784298746   -0.0017367106407081786
-0.002954062383056457   -0.01278931489843917   -0.0014685603988053712
9.064514576914351e-06   -0.02000863795923659   -0.00163184819955319
-0.0036966298662822797   -0.019997070784298746   -0.0017367106407081786
0.00019597098150262197   -0.01272169349756609   -0.0014245572322599718
-0.002954062383056457   -0.01278931489843917   -0.0014685603988053712
-0.003689170360950618   -0.020050233781069668   -0.001685582447581684
0.0002100326231896874   -0.012749678602808703   -0.0014101320741271544
-0.002944574513578838   -0.012826357775239822   -0.0014148617063438047
-0.003689170360950618   -0.020050233781069668   -0.001685582447581684
9.064514576914351e-06   -0.02000863795923659   -0.00163184819955319
0.0002100326231896874   -0.012749678602808703   -0.0014101320741271544
1.8921286720730028e-05   -0.020015208930107886   -0.0016146652038162804
-0.002944574513578838   -0.012826357775239822   -0.0014148617063438047
0.00021919147739344445   -0.012751772203807556   -0.0014029780619378078
1.8921286720730028e-05   -0.020015208930107886   -0.0016146652038162804
0.0002100326231896874   -0.012749678602808703   -0.0014101320741271544
-0.002944574513578838   -0.012826357775239822   -0.0014148617063438047
1.8921286720730028e-05   -0.020015208930107886   -0.0016146652038162804
-0.0036791462817533176   -0.020088705878082515   -0.0016420528793566638
-0.003689170360950618   -0.020050233781069668   -0.001685582447581684
-0.002944574513578838   -0.012826357775239822   -0.0014148617063438047
1.8921286720730028e-05   -0.020015208930107886   -0.0016146652038162804
-0.003689170360950618   -0.020050233781069668   -0.001685582447581684
0.0002100326231896874   -0.012749678602808703   -0.0014101320741271544
-0.002944574513578838   -0.012826357775239822   -0.0014148617063438047
-0.0036791462817533176   -0.020088705878082515   -0.0016420528793566638
0.00021919147739344445   -0.012751772203807556   -0.0014029780619378078
-0.0029292303308391834   -0.012837935115905717   -0.0013686067183538188
-0.0036791462817533176   -0.020088705878082515   -0.0016420528793566638
1.8921286720730028e-05   -0.020015208930107886   -0.0016146652038162804
0.00021919147739344445   -0.012751772203807556   -0.0014029780619378078
2.5345551771298145e-05   -0.020006783922105656   -0.0016053168413962251
-0.0029292303308391834   -0.012837935115905717   -0.0013686067183538188
0.00022593304171393463   -0.01272758884915875   -0.0014035354886400054
2.5345551771298145e-05   -0.020006783922105656   -0.0016053168413962251
0.00021919147739344445   -0.012751772203807556   -0.0014029780619378078
-0.0029292303308391834   -0.012837935115905717   -0.0013686067183538188
2.5345551771298145e-05   -0.020006783922105656   -0.0016053168413962251
-0.003664400579096867   -0.02011273974842179   -0.0016062495327414607
-0.0036791462817533176   -0.020088705878082515   -0.0016420528793566638
-0.0029292303308391834   -0.012837935115905717   -0.0013686067183538188
2.5345551771298145e-05   -0.020006783922105656   -0.0016053168413962251
-0.0036791462817533176   -0.020088705878082515   -0.0016420528793566638
0.00021919147739344445   -0.012751772203807556   -0.0014029780619378078
0.00019597098150262197   -0.01272169349756609   -0.0014245572322599718
-4.607156927188552e-06   -0.019987274229523098   -0.0016565351197594977
0.0034887216831647654   -0.012793659643684629   -0.0013822119516386272
0.0002100326231896874   -0.012749678602808703   -0.0014101320741271544
-4.607156927188552e-06   -0.019987274229523098   -0.0016565351197594977
0.0038144026762457254   -0.020020363131355808   -0.0016337145793171204
0.0034887216831647654   -0.012793659643684629   -0.0013822119516386272
0.003831070097911521   -0.020011762258497004   -0.00163602269876249
0.0002100326231896874   -0.012749678602808703   -0.0014101320741271544
0.0035010970590963774   -0.012789500894576453   -0.0014154922837462578
0.003831070097911521   -0.020011762258497004   -0.00163602269876249
0.0034887216831647654   -0.012793659643684629   -0.0013822119516386272
0.0002100326231896874   -0.012749678602808703   -0.0014101320741271544
0.003831070097911521   -0.020011762258497004   -0.00163602269876249
9.064514576914351e-06   -0.02000863795923659   -0.00163184819955319
-4.607156927188552e-06   -0.019987274229523098   -0.0016565351197594977
0.0002100326231896874   -0.012749678602808703   -0.0014101320741271544
0.003831070097911521   -0.020011762258497004   -0.00163602269876249
-4.607156927188552e-06   -0.019987274229523098   -0.0016565351197594977
0.0034887216831647654   -0.012793659643684629   -0.0013822119516386272
0.0002100326231896874   -0.012749678602808703   -0.0014101320741271544
9.064514576914351e-06   -0.02000863795923659   -0.00163184819955319
0.0035010970590963774   -0.012789500894576453   -0.0014154922837462578
0.00021919147739344445   -0.012751772203807556   -0.0014029780619378078
9.064514576914351e-06   -0.02000863795923659   -0.00163184819955319
0.003831070097911521   -0.020011762258497004   -0.00163602269876249
0.0035010970590963774   -0.012789500894576453   -0.0014154922837462578
0.0038328284138285694   -0.01998951813692365   -0.001645429589742333
0.00021919147739344445   -0.012751772203807556   -0.0014029780619378078
0.0034927055785132165   -0.012760020651108789   -0.0014555094879831402
0.0038328284138285694   -0.01998951813692365   -0.001645429589742333
0.0035010970590963774   -0.012789500894576453   -0.0014154922837462578
0.00021919147739344445   -0.012751772203807556   -0.0014029780619378078
0.0038328284138285694   -0.01998951813692365   -0.001645429589742333
1.8921286720730028e-05   -0.020015208930107886   -0.0016146652038162804
9.064514576914351e-06   -0.02000863795923659   -0.00163184819955319
0.00021919147739344445   -0.012751772203807556   -0.0014029780619378078
0.0038328284138285694   -0.01998951813692365   -0.001645429589742333
9.064514576914351e-06   -0.02000863795923659   -0.00163184819955319
0.0035010970590963774   -0.012789500894576453   -0.0014154922837462578
0.00021919147739344445   -0.012751772203807556   -0.0014029780619378078
1.8921286720730028e-05   -0.020015208930107886   -0.0016146652038162804
0.0034927055785132165   -0.012760020651108789   -0.0014555094879831402
0.00022593304171393463   -0.01272758884915875   -0.0014035354886400054
1.8921286720730028e-05   -0.020015208930107886   -0.0016146652038162804
0.0038328284138285694   -0.01998951813692365   -0.001645429589742333
0.0034927055785132165   -0.012760020651108789   -0.0014555094879831402
0.0038249679389814667   -0.019948080320318282   -0.001662207181276815
0.00022593304171393463   -0.01272758884915875   -0.0014035354886400054
0.0034798689235590145   -0.01269893248004871   -0.0015030630123209448
0.0038249679389814667   -0.019948080320318282   -0.001662207181276815
0.0034927055785132165   -0.012760020651108789   -0.0014555094879831402
0.00022593304171393463   -0.01272758884915875   -0.0014035354886400054
0.0038249679389814667   -0.019948080320318282   -0.001662207181276815
2.5345551771298145e-05   -0.020006783922105656   -0.0016053168413962251
1.8921286720730028e-05   -0.020015208930107886   -0.0016146652038162804
0.00022593304171393463   -0.01272758884915875   -0.0014035354886400054
0.0038249679389814667   -0.019948080320318282   -0.001662207181276815
1.8921286720730028e-05   -0.020015208930107886   -0.0016146652038162804
0.0034927055785132165   -0.012760020651108789   -0.0014555094879831402
0.0034887216831647654   -0.012793659643684629   -0.0013822119516386272
0.0038144026762457254   -0.020020363131355808   -0.0016337145793171204
0.007238918687595   -0.012924095042330483   -0.0013834282402438662
0.0035010970590963774   -0.012789500894576453   -0.0014154922837462578
0.0038144026762457254   -0.020020363131355808   -0.0016337145793171204
0.008031482590851142   -0.02008109259373695   -0.0016558055305049783
0.007238918687595   -0.012924095042330483   -0.0013834282402438662
0.008024863284342279   -0.020052179416488302   -0.0016871891334748557
0.0035010970590963774   -0.012789500894576453   -0.0014154922837462578
0.007176663365238655   -0.012901391532669488   -0.001470505982703507
0.008024863284342279   -0.020052179416488302   -0.0016871891334748557
0.007238918687595   -0.012924095042330483   -0.0013834282402438662
0.0035010970590963774   -0.012789500894576453   -0.0014154922837462578
0.008024863284342279   -0.020052179416488302   -0.0016871891334748557
0.003831070097911521   -0.020011762258497004   -0.00163602269876249
0.0038144026762457254   -0.020020363131355808   -0.0016337145793171204
0.0035010970590963774   -0.012789500894576453   -0.0014154922837462578
0.008024863284342279   -0.020052179416488302   -0.0016871891334748557
0.0038144026762457254   -0.020020363131355808   -0.0016337145793171204
0.007238918687595   -0.012924095042330483   -0.0013834282402438662
0.0035010970590963774   -0.012789500894576453   -0.0014154922837462578
0.003831070097911521   -0.020011762258497004   -0.00163602269876249
0.007176663365238655   -0.012901391532669488   -0.001470505982703507
0.0034927055785132165   -0.012760020651108789   -0.0014555094879831402
0.003831070097911521   -0.020011762258497004   -0.00163602269876249
0.008024863284342279   -0.020052179416488302   -0.0016871891334748557
0.007176663365238655   -0.012901391532669488   -0.001470505982703507
0.008005465396997867   -0.02001592714878605   -0.0017300932576088173
0.0034927055785132165   -0.012760020651108789   -0.0014555094879831402
0.0071144185974068175   -0.012856031589736926   -0.001569732371825234
0.008005465396997867   -0.02001592714878605   -0.0017300932576088173
0.007176663365238655   -0.012901391532669488   -0.001470505982703507
0.0034927055785132165   -0.012760020651108789   -0.0014555094879831402
0.008005465396997867   -0.02001592714878605   -0.0017300932576088173
0.0038328284138285694   -0.01998951813692365   -0.001645429589742333
0.003831070097911521   -0.020011762258497004   -0.00163602269876249
0.0034927055785132165   -0.012760020651108789   -0.0014555094879831402
0.008005465396997867   -0.02001592714878605   -0.0017300932576088173
0.003831070097911521   -0.020011762258497004   -0.00163602269876249
0.007176663365238655   -0.012901391532669488   -0.001470505982703507
0.0034927055785132165   -0.012760020651108789   -0.0014555094879831402
0.0038328284138285694   -0.01998951813692365   -0.001645429589742333
0.0071144185974068175   -0.012856031589736926   -0.001569732371825234
0.0034798689235590145   -0.01269893248004871   -0.0015030630123209448
0.0038328284138285694   -0.01998951813692365   -0.001645429589742333
0.008005465396997867   -0.02001592714878605   -0.0017300932576088173
0.0071144185974068175   -0.012856031589736926   -0.001569732371825234
0.007951392285716348   -0.019946979491106995   -0.0017844342972408351
0.0034798689235590145   -0.01269893248004871   -0.0015030630123209448
0.007003371753306872   -0.012761042324503976   -0.0016811205064498026
0.007951392285716348   -0.019946979491106995   -0.0017844342972408351
0.0071144185974068175   -0.012856031589736926   -0.001569732371825234
0.0034798689235590145   -0.01269893248004871   -0.0015030630123209448
0.007951392285716348   -0.019946979491106995   -0.0017844342972408351
0.0038249679389814667   -0.019948080320318282   -0.001662207181276815
0.0038328284138285694   -0.01998951813692365   -0.001645429589742333
0.0034798689235590145   -0.01269893248004871   -0.0015030630123209448
0.007951392285716348   -0.019946979491106995   -0.0017844342972408351
0.0038328284138285694   -0.01998951813692365   -0.001645429589742333
0.0071144185974068175   -0.012856031589736926   -0.001569732371825234
-0.011540543188696652   -0.020163332964276828   -0.0020736286659827725
-0.012673425991987203   -0.02797378067984989   -0.0021121790880379017
-0.007491821703089394   -0.020053770693176206   -0.0018745478799530966
-0.01165570211330513   -0.020278049038783805   -0.0019617113902655418
-0.012673425991987203   -0.02797378067984989   -0.0021121790880379017
-0.00832914298904141   -0.027929224035641312   -0.001953762679433505
-0.007491821703089394   -0.020053770693176206   -0.0018745478799530966
-0.0083254354597682   -0.028001470995998718   -0.0019063502161124383
-0.01165570211330513   -0.020278049038783805   -0.0019617113902655418
-0.0075003836977968275   -0.02013854863130075   -0.001797187758893317
-0.0083254354597682   -0.028001470995998718   -0.0019063502161124383
-0.007491821703089394   -0.020053770693176206   -0.0018745478799530966
-0.01165570211330513   -0.020278049038783805   -0.0019617113902655418
-0.0083254354597682   -0.028001470995998718   -0.0019063502161124383
-0.012726925621411414   -0.028070921570881598   -0.0020545799112122198
-0.012673425991987203   -0.02797378067984989   -0.0021121790880379017
-0.01165570211330513   -0.020278049038783805   -0.0019617113902655418
-0.0083254354597682   -0.028001470995998718   -0.0019063502161124383
-0.012673425991987203   -0.02797378067984989   -0.0021121790880379017
-0.007491821703089394   -0.020053770693176206   -0.0018745478799530966
-0.01165570211330513   -0.020278049038783805   -0.0019617113902655418
-0.012726925621411414   -0.028070921570881598   -0.0020545799112122198
-0.0075003836977968275   -0.02013854863130075   -0.001797187758893317
-0.011721557072822002   -0.02035926202051101   -0.0018605527952567785
-0.012726925621411414   -0.028070921570881598   -0.0020545799112122198
-0.0083254354597682   -0.028001470995998718   -0.0019063502161124383
-0.0075003836977968275   -0.02013854863130075   -0.001797187758893317
-0.00831387451202276   -0.02806816901196851   -0.0018668119727741643
-0.011721557072822002   -0.02035926202051101   -0.0018605527952567785
-0.007506348303973044   -0.0202058004292998   -0.0017275445658724335
-0.00831387451202276   -0.02806816901196851   -0.0018668119727741643
-0.0075003836977968275   -0.02013854863130075   -0.001797187758893317
-0.011721557072822002   -0.02035926202051101   -0.0018605527952567785
-0.00831387451202276   -0.02806816901196851   -0.0018668119727741643
-0.012743638289537734   -0.028150212939629708   -0.0020083128091355636
-0.012726925621411414   -0.028070921570881598   -0.0020545799112122198
-0.011721557072822002   -0.02035926202051101   -0.0018605527952567785
-0.00831387451202276   -0.02806816901196851   -0.0018668119727741643
-0.012726925621411414   -0.028070921570881598   -0.0020545799112122198
-0.0075003836977968275   -0.02013854863130075   -0.001797187758893317
-0.011721557072822002   -0.02035926202051101   -0.0018605527952567785
-0.012743638289537734   -0.028150212939629708   -0.0020083128091355636
-0.007506348303973044   -0.0202058004292998   -0.0017275445658724335
-0.011789353444750779   -0.020432144040586967   -0.0017714343613849013
-0.012743638289537734   -0.028150212939629708   -0.0020083128091355636
-0.00831387451202276   -0.02806816901196851   -0.0018668119727741643
-0.007506348303973044   -0.0202058004292998   -0.0017275445658724335
-0.00828598588349179   -0.028134406919515145   -0.0018345918980170956
-0.011789353444750779   -0.020432144040586967   -0.0017714343613849013
-0.00749036265009054   -0.020261107699876612   -0.0016645896139313116
-0.00828598588349179   -0.028134406919515145   -0.0018345918980170956
-0.007506348303973044   -0.0202058004292998   -0.0017275445658724335
-0.011789353444750779   -0.020432144040586967   -0.0017714343613849013
-0.00828598588349179   -0.028134406919515145   -0.0018345918980170956
-0.012748869040733496   -0.028236407006330084   -0.001974355906804239
-0.012743638289537734   -0.028150212939629708   -0.0020083128091355636
-0.011789353444750779   -0.020432144040586967   -0.0017714343613849013
-0.00828598588349179   -0.028134406919515145   -0.0018345918980170956
-0.012743638289537734   -0.028150212939629708   -0.0020083128091355636
-0.007506348303973044   -0.0202058004292998   -0.0017275445658724335
-0.007491821703089394   -0.020053770693176206   -0.0018745478799530966
-0.00832914298904141   -0.027929224035641312   -0.001953762679433505
-0.0036966298662822797   -0.019997070784298746   -0.0017367106407081786
-0.0075003836977968275   -0.02013854863130075   -0.001797187758893317
-0.00832914298904141   -0.027929224035641312   -0.001953762679433505
-0.004293701444549947   -0.027903558663775346   -0.0018459282202008126
-0.0036966298662822797   -0.019997070784298746   -0.0017367106407081786
-0.00427824001522703   -0.027947252289887307   -0.0018045249624210986
-0.0075003836977968275   -0.02013854863130075   -0.001797187758893317
-0.003689170360950618   -0.020050233781069668   -0.001685582447581684
-0.00427824001522703   -0.027947252289887307   -0.0018045249624210986
-0.0036966298662822797   -0.019997070784298746   -0.0017367106407081786
-0.0075003836977968275   -0.02013854863130075   -0.001797187758893317
-0.00427824001522703   -0.027947252289887307   -0.0018045249624210986
-0.0083254354597682   -0.028001470995998718   -0.0019063502161124383
-0.00832914298904141   -0.027929224035641312   -0.001953762679433505
-0.0075003836977968275   -0.02013854863130075   -0.001797187758893317
-0.00427824001522703   -0.027947252289887307   -0.0018045249624210986
-0.00832914298904141   -0.027929224035641312   -0.001953762679433505
-0.0036966298662822797   -0.019997070784298746   -0.0017367106407081786
-0.0075003836977968275   -0.02013854863130075   -0.001797187758893317
-0.0083254354597682   -0.028001470995998718   -0.0019063502161124383
-0.003689170360950618   -0.020050233781069668   -0.001685582447581684
-0.007506348303973044   -0.0202058004292998   -0.0017275445658724335
-0.0083254354597682   -0.028001470995998718   -0.0019063502161124383
-0.00427824001522703   -0.027947252289887307   -0.0018045249624210986
-0.003689170360950618   -0.020050233781069668   -0.001685582447581684
-0.004259374205766635   -0.02798738701689688   -0.001771000166647966
-0.007506348303973044   -0.0202058004292998   -0.0017275445658724335
-0.0036791462817533176   -0.020088705878082515   -0.0016420528793566638
-0.004259374205766635   -0.02798738701689688   -0.001771000166647966
-0.003689170360950618   -0.020050233781069668   -0.001685582447581684
-0.007506348303973044   -0.0202058004292998   -0.0017275445658724335
-0.004259374205766635   -0.02798738701689688   -0.001771000166647966
-0.00831387451202276   -0.02806816901196851   -0.0018668119727741643
-0.0083254354597682   -0.028001470995998718   -0.0019063502161124383
-0.007506348303973044   -0.0202058004292998   -0.0017275445658724335
-0.004259374205766635   -0.02798738701689688   -0.001771000166647966
-0.0083254354597682   -0.028001470995998718   -0.0019063502161124383
-0.003689170360950618   -0.020050233781069668   -0.001685582447581684
-0.007506348303973044   -0.0202058004292998   -0.0017275445658724335
-0.00831387451202276   -0.02806816901196851   -0.0018668119727741643
-0.0036791462817533176   -0.020088705878082515   -0.0016420528793566638
-0.00749036265009054   -0.020261107699876612   -0.0016645896139313116
-0.00831387451202276   -0.02806816901196851   -0.0018668119727741643
-0.004259374205766635   -0.02798738701689688   -0.001771000166647966
-0.0036791462817533176   -0.020088705878082515   -0.0016420528793566638
-0.0042367777585161906   -0.028024095650067554   -0.0017455453740048699
-0.00749036265009054   -0.020261107699876612   -0.0016645896139313116
-0.003664400579096867   -0.02011273974842179   -0.0016062495327414607
-0.0042367777585161906   -0.028024095650067554   -0.0017455453740048699
-0.0036791462817533176   -0.020088705878082515   -0.0016420528793566638
-0.00749036265009054   -0.020261107699876612   -0.0016645896139313116
-0.0042367777585161906   -0.028024095650067554   -0.0017455453740048699
-0.00828598588349179   -0.028134406919515145   -0.0018345918980170956
-0.00831387451202276   -0.02806816901196851   -0.0018668119727741643
-0.00749036265009054   -0.020261107699876612   -0.0016645896139313116
-0.0042367777585161906   -0.028024095650067554   -0.0017455453740048699
-0.00831387451202276   -0.02806816901196851   -0.0018668119727741643
-0.0036791462817533176   -0.020088705878082515   -0.0016420528793566638
-0.0036966298662822797   -0.019997070784298746   -0.0017367106407081786
-0.004293701444549947   -0.027903558663775346   -0.0018459282202008126
-4.607156927188552e-06   -0.019987274229523098   -0.0016565351197594977
-0.003689170360950618   -0.020050233781069668   -0.001685582447581684
-0.004293701444549947   -0.027903558663775346   -0.0018459282202008126
-0.00036747987997887247   -0.027888793186907186   -0.0017902641636671887
-4.607156927188552e-06   -0.019987274229523098   -0.0016565351197594977
-0.00034601736557650137   -0.027903389935313896   -0.0017552888976605395
-0.003689170360950618   -0.020050233781069668   -0.001685582447581684
9.064514576914351e-06   -0.02000863795923659   -0.00163184819955319
-0.00034601736557650137   -0.027903389935313896   -0.0017552888976605395
-4.607156927188552e-06   -0.019987274229523098   -0.0016565351197594977
-0.003689170360950618   -0.020050233781069668   -0.001685582447581684
-0.00034601736557650137   -0.027903389935313896   -0.0017552888976605395
-0.00427824001522703   -0.027947252289887307   -0.0018045249624210986
-0.004293701444549947   -0.027903558663775346   -0.0018459282202008126
-0.003689170360950618   -0.020050233781069668   -0.001685582447581684
-0.00034601736557650137   -0.027903389935313896   -0.0017552888976605395
-0.004293701444549947   -0.027903558663775346   -0.0018459282202008126
-4.607156927188552e-06   -0.019987274229523098   -0.0016565351197594977
-0.003689170360950618   -0.020050233781069668   -0.001685582447581684
-0.00427824001522703   -0.027947252289887307   -0.0018045249624210986
9.064514576914351e-06   -0.02000863795923659   -0.00163184819955319
-0.0036791462817533176   -0.020088705878082515   -0.0016420528793566638
-0.00427824001522703   -0.027947252289887307   -0.0018045249624210986
-0.00034601736557650137   -0.027903389935313896   -0.0017552888976605395
9.064514576914351e-06   -0.02000863795923659   -0.00163184819955319
-0.00032738127303520985   -0.02791417355916395   -0.0017281259700507342
-0.0036791462817533176   -0.020088705878082515   -0.0016420528793566638
1.8921286720730028e-05   -0.020015208930107886   -0.0016146652038162804
-0.00032738127303520985   -0.02791417355916395   -0.0017281259700507342
9.064514576914351e-06   -0.02000863795923659   -0.00163184819955319
-0.0036791462817533176   -0.020088705878082515   -0.0016420528793566638
-0.00032738127303520985   -0.02791417355916395   -0.0017281259700507342
-0.004259374205766635   -0.02798738701689688   -0.001771000166647966
-0.00427824001522703   -0.027947252289887307   -0.0018045249624210986
-0.0036791462817533176   -0.020088705878082515   -0.0016420528793566638
-0.00032738127303520985   -0.02791417355916395   -0.0017281259700507342
-0.00427824001522703   -0.027947252289887307   -0.0018045249624210986
9.064514576914351e-06   -0.02000863795923659   -0.00163184819955319
-0.0036791462817533176   -0.020088705878082515   -0.0016420528793566638
-0.004259374205766635   -0.02798738701689688   -0.001771000166647966
1.8921286720730028e-05   -0.020015208930107886   -0.0016146652038162804
-0.003664400579096867   -0.02011273974842179   -0.0016062495327414607
-0.004259374205766635   -0.02798738701689688   -0.001771000166647966
-0.00032738127303520985   -0.02791417355916395   -0.0017281259700507342
1.8921286720730028e-05   -0.020015208930107886   -0.0016146652038162804
-0.0003130735041197671   -0.027921087349499663   -0.0017090590417864868
-0.003664400579096867   -0.02011273974842179   -0.0016062495327414607
2.5345551771298145e-05   -0.020006783922105656   -0.0016053168413962251
-0.0003130735041197671   -0.027921087349499663   -0.0017090590417864868
1.8921286720730028e-05   -0.020015208930107886   -0.0016146652038162804
-0.003664400579096867   -0.02011273974842179   -0.0016062495327414607
-0.0003130735041197671   -0.027921087349499663   -0.0017090590417864868
-0.0042367777585161906   -0.028024095650067554   -0.0017455453740048699
-0.004259374205766635   -0.02798738701689688   -0.001771000166647966
-0.003664400579096867   -0.02011273974842179   -0.0016062495327414607
-0.0003130735041197671   -0.027921087349499663   -0.0017090590417864868
-0.004259374205766635   -0.02798738701689688   -0.001771000166647966
1.8921286720730028e-05   -0.020015208930107886   -0.0016146652038162804
-4.607156927188552e-06   -0.019987274229523098   -0.0016565351197594977
-0.00036747987997887247   -0.027888793186907186   -0.0017902641636671887
0.0038144026762457254   -0.020020363131355808   -0.0016337145793171204
9.064514576914351e-06   -0.02000863795923659   -0.00163184819955319
-0.00036747987997887247   -0.027888793186907186   -0.0017902641636671887
0.0036784859211404157   -0.0278823806743569   -0.0017872777730245815
0.0038144026762457254   -0.020020363131355808   -0.0016337145793171204
0.0037068276662257913   -0.027868780909393702   -0.0017590507708726178
9.064514576914351e-06   -0.02000863795923659   -0.00163184819955319
0.003831070097911521   -0.020011762258497004   -0.00163602269876249
0.0037068276662257913   -0.027868780909393702   -0.0017590507708726178
0.0038144026762457254   -0.020020363131355808   -0.0016337145793171204
9.064514576914351e-06   -0.02000863795923659   -0.00163184819955319
0.0037068276662257913   -0.027868780909393702   -0.0017590507708726178
-0.00034601736557650137   -0.027903389935313896   -0.0017552888976605395
-0.00036747987997887247   -0.027888793186907186   -0.0017902641636671887
9.064514576914351e-06   -0.02000863795923659   -0.00163184819955319
0.0037068276662257913   -0.027868780909393702   -0.0017590507708726178
-0.00036747987997887247   -0.027888793186907186   -0.0017902641636671887
0.0038144026762457254   -0.020020363131355808   -0.0016337145793171204
9.064514576914351e-06   -0.02000863795923659   -0.00163184819955319
-0.00034601736557650137   -0.027903389935313896   -0.0017552888976605395
0.003831070097911521   -0.020011762258497004   -0.00163602269876249
1.8921286720730028e-05   -0.020015208930107886   -0.0016146652038162804
-0.00034601736557650137   -0.027903389935313896   -0.0017552888976605395
0.0037068276662257913   -0.027868780909393702   -0.0017590507708726178
0.003831070097911521   -0.020011762258497004   -0.00163602269876249
0.003725973810685139   -0.027853004842582088   -0.0017384107606107453
1.8921286720730028e-05   -0.020015208930107886   -0.0016146652038162804
0.0038328284138285694   -0.01998951813692365   -0.001645429589742333
0.003725973810685139   -0.027853004842582088   -0.0017384107606107453
0.003831070097911521   -0.020011762258497004   -0.00163602269876249
1.8921286720730028e-05   -0.020015208930107886   -0.0016146652038162804
0.003725973810685139   -0.027853004842582088   -0.0017384107606107453
-0.00032738127303520985   -0.02791417355916395   -0.0017281259700507342
-0.00034601736557650137   -0.027903389935313896   -0.0017552888976605395
1.8921286720730028e-05   -0.020015208930107886   -0.0016146652038162804
0.003725973810685139   -0.027853004842582088   -0.0017384107606107453
-0.00034601736557650137   -0.027903389935313896   -0.0017552888976605395
0.003831070097911521   -0.020011762258497004   -0.00163602269876249
1.8921286720730028e-05   -0.020015208930107886   -0.0016146652038162804
-0.00032738127303520985   -0.02791417355916395   -0.0017281259700507342
0.0038328284138285694   -0.01998951813692365   -0.001645429589742333
2.5345551771298145e-05   -0.020006783922105656   -0.0016053168413962251
-0.00032738127303520985   -0.02791417355916395   -0.0017281259700507342
0.003725973810685139   -0.027853004842582088   -0.0017384107606107453
0.0038328284138285694   -0.01998951813692365   -0.001645429589742333
0.0037302441910233605   -0.02782990106972439   -0.0017252032179374789
2.5345551771298145e-05   -0.020006783922105656   -0.0016053168413962251
0.0038249679389814667   -0.019948080320318282   -0.001662207181276815
0.0037302441910233605   -0.02782990106972439   -0.0017252032179374789
0.0038328284138285694   -0.01998951813692365   -0.001645429589742333
2.5345551771298145e-05   -0.020006783922105656   -0.0016053168413962251
0.0037302441910233605   -0.02782990106972439   -0.0017252032179374789
-0.0003130735041197671   -0.027921087349499663   -0.0017090590417864868
-0.00032738127303520985   -0.02791417355916395   -0.0017281259700507342
2.5345551771298145e-05   -0.020006783922105656   -0.0016053168413962251
0.0037302441910233605   -0.02782990106972439   -0.0017252032179374789
-0.00032738127303520985   -0.02791417355916395   -0.0017281259700507342
0.0038328284138285694   -0.01998951813692365   -0.001645429589742333
0.0038144026762457254   -0.020020363131355808   -0.0016337145793171204
0.0036784859211404157   -0.0278823806743569   -0.0017872777730245815
0.008031482590851142   -0.02008109259373695   -0.0016558055305049783
0.003831070097911521   -0.020011762258497004   -0.00163602269876249
0.0036784859211404157   -0.0278823806743569   -0.0017872777730245815
0.00806273756583641   -0.027873375577929575   -0.001831758244727322
0.008031482590851142   -0.02008109259373695   -0.0016558055305049783
0.008118073238651177   -0.027837475426655746   -0.001808464123162794
0.003831070097911521   -0.020011762258497004   -0.00163602269876249
0.008024863284342279   -0.020052179416488302   -0.0016871891334748557
0.008118073238651177   -0.027837475426655746   -0.001808464123162794
0.008031482590851142   -0.02008109259373695   -0.0016558055305049783
0.003831070097911521   -0.020011762258497004   -0.00163602269876249
0.008118073238651177   -0.027837475426655746   -0.001808464123162794
0.0037068276662257913   -0.027868780909393702   -0.0017590507708726178
0.0036784859211404157   -0.0278823806743569   -0.0017872777730245815
0.003831070097911521   -0.020011762258497004   -0.00163602269876249
0.008118073238651177   -0.027837475426655746   -0.001808464123162794
0.0036784859211404157   -0.0278823806743569   -0.0017872777730245815
0.008031482590851142   -0.02008109259373695   -0.0016558055305049783
0.003831070097911521   -0.020011762258497004   -0.00163602269876249
0.0037068276662257913   -0.027868780909393702   -0.0017590507708726178
0.008024863284342279   -0.020052179416488302   -0.0016871891334748557
0.0038328284138285694   -0.01998951813692365   -0.001645429589742333
0.0037068276662257913   -0.027868780909393702   -0.0017590507708726178
0.008118073238651177   -0.027837475426655746   -0.001808464123162794
0.008024863284342279   -0.020052179416488302   -0.0016871891334748557
0.008147603014016387   -0.027809164881452488   -0.0017967029373331686
0.0038328284138285694   -0.01998951813692365   -0.001645429589742333
0.008005465396997867   -0.02001592714878605   -0.0017300932576088173
0.008147603014016387   -0.027809164881452488   -0.0017967029373331686
0.008024863284342279   -0.020052179416488302   -0.0016871891334748557
0.0038328284138285694   -0.01998951813692365   -0.001645429589742333
0.008147603014016387   -0.027809164881452488   -0.0017967029373331686
0.003725973810685139   -0.027853004842582088   -0.0017384107606107453
0.0037068276662257913   -0.027868780909393702   -0.0017590507708726178
0.0038328284138285694   -0.01998951813692365   -0.001645429589742333
0.008147603014016387   -0.027809164881452488   -0.0017967029373331686
0.0037068276662257913   -0.027868780909393702   -0.0017590507708726178
0.008024863284342279   -0.020052179416488302   -0.0016871891334748557
0.0038328284138285694   -0.01998951813692365   -0.001645429589742333
0.003725973810685139   -0.027853004842582088   -0.0017384107606107453
0.008005465396997867   -0.02001592714878605   -0.0017300932576088173
0.0038249679389814667   -0.019948080320318282   -0.001662207181276815
0.003725973810685139   -0.027853004842582088   -0.0017384107606107453
0.008147603014016387   -0.027809164881452488   -0.0017967029373331686
0.008005465396997867   -0.02001592714878605   -0.0017300932576088173
0.008155316802010986   -0.027763866483229857   -0.0017966714233941783
0.0038249679389814667   -0.019948080320318282   -0.001662207181276815
0.007951392285716348   -0.019946979491106995   -0.0017844342972408351
0.008155316802010986   -0.027763866483229857   -0.0017966714233941783
0.008005465396997867   -0.02001592714878605   -0.0017300932576088173
0.0038249679389814667   -0.019948080320318282   -0.001662207181276815
0.008155316802010986   -0.027763866483229857   -0.0017966714233941783
0.0037302441910233605   -0.02782990106972439   -0.0017252032179374789
0.003725973810685139   -0.027853004842582088   -0.0017384107606107453
0.0038249679389814667   -0.019948080320318282   -0.001662207181276815
0.008155316802010986   -0.027763866483229857   -0.0017966714233941783
0.003725973810685139   -0.027853004842582088   -0.0017384107606107453
0.008005465396997867   -0.02001592714878605   -0.0017300932576088173
-0.012673425991987203   -0.02797378067984989   -0.0021121790880379017
-0.01306663391970171   -0.03592139876820813   -0.002077056440791848
-0.00832914298904141   -0.027929224035641312   -0.001953762679433505
-0.012726925621411414   -0.028070921570881598   -0.0020545799112122198
-0.01306663391970171   -0.03592139876820813   -0.002077056440791848
-0.008729048176218147   -0.035942250719583325   -0.001960058557445171
-0.00832914298904141   -0.027929224035641312   -0.001953762679433505
-0.008705392251771443   -0.03600173820853727   -0.0019421016416945737
-0.012726925621411414   -0.028070921570881598   -0.0020545799112122198
-0.0083254354597682   -0.028001470995998718   -0.0019063502161124383
-0.008705392251771443   -0.03600173820853727   -0.0019421016416945737
-0.00832914298904141   -0.027929224035641312   -0.001953762679433505
-0.012726925621411414   -0.028070921570881598   -0.0020545799112122198
-0.008705392251771443   -0.03600173820853727   -0.0019421016416945737
-0.013051192893650632   -0.03600100781290755   -0.0020734771664874113
-0.01306663391970171   -0.03592139876820813   -0.002077056440791848
-0.012726925621411414   -0.028070921570881598   -0.0020545799112122198
-0.008705392251771443   -0.03600173820853727   -0.0019421016416945737
-0.01306663391970171   -0.03592139876820813   -0.002077056440791848
-0.00832914298904141   -0.027929224035641312   -0.001953762679433505
-0.012726925621411414   -0.028070921570881598   -0.0020545799112122198
-0.013051192893650632   -0.03600100781290755   -0.0020734771664874113
-0.0083254354597682   -0.028001470995998718   -0.0019063502161124383
-0.012743638289537734   -0.028150212939629708   -0.0020083128091355636
-0.013051192893650632   -0.03600100781290755   -0.0020734771664874113
-0.008705392251771443   -0.03600173820853727   -0.0019421016416945737
-0.0083254354597682   -0.028001470995998718   -0.0019063502161124383
-0.008668650482749828   -0.036067710449825395   -0.0019322481906043248
-0.012743638289537734   -0.028150212939629708   -0.0020083128091355636
-0.00831387451202276   -0.02806816901196851   -0.0018668119727741643
-0.008668650482749828   -0.036067710449825395   -0.0019322481906043248
-0.0083254354597682   -0.028001470995998718   -0.0019063502161124383
-0.012743638289537734   -0.028150212939629708   -0.0020083128091355636
-0.008668650482749828   -0.036067710449825395   -0.0019322481906043248
-0.013010943076313753   -0.03607838062729643   -0.0020820060742583746
-0.013051192893650632   -0.03600100781290755   -0.0020734771664874113
-0.012743638289537734   -0.028150212939629708   -0.0020083128091355636
-0.008668650482749828   -0.036067710449825395   -0.0019322481906043248
-0.013051192893650632   -0.03600100781290755   -0.0020734771664874113
-0.0083254354597682   -0.028001470995998718   -0.0019063502161124383
-0.012743638289537734   -0.028150212939629708   -0.0020083128091355636
-0.013010943076313753   -0.03607838062729643   -0.0020820060742583746
-0.00831387451202276   -0.02806816901196851   -0.0018668119727741643
-0.012748869040733496   -0.028236407006330084   -0.001974355906804239
-0.013010943076313753   -0.03607838062729643   -0.0020820060742583746
-0.008668650482749828   -0.036067710449825395   -0.0019322481906043248
-0.00831387451202276   -0.02806816901196851   -0.0018668119727741643
-0.00862116138024556   -0.036144714383305   -0.0019303622544232955
-0.012748869040733496   -0.028236407006330084   -0.001974355906804239
-0.00828598588349179   -0.028134406919515145   -0.0018345918980170956
-0.00862116138024556   -0.036144714383305   -0.0019303622544232955
-0.00831387451202276   -0.02806816901196851   -0.0018668119727741643
-0.012748869040733496   -0.028236407006330084   -0.001974355906804239
-0.00862116138024556   -0.036144714383305   -0.0019303622544232955
-0.012945843388337755   -0.03617811598661715   -0.0021032610382744864
-0.013010943076313753   -0.03607838062729643   -0.0020820060742583746
-0.012748869040733496   -0.028236407006330084   -0.001974355906804239
-0.00862116138024556   -0.036144714383305   -0.0019303622544232955
-0.013010943076313753   -0.03607838062729643   -0.0020820060742583746
-0.00831387451202276   -0.02806816901196851   -0.0018668119727741643
-0.00832914298904141   -0.027929224035641312   -0.001953762679433505
-0.008729048176218147   -0.035942250719583325   -0.001960058557445171
-0.004293701444549947   -0.027903558663775346   -0.0018459282202008126
-0.0083254354597682   -0.028001470995998718   -0.0019063502161124383
-0.008729048176218147   -0.035942250719583325   -0.001960058557445171
-0.004755567408832371   -0.03594670874094154   -0.0018823110869096687
-0.004293701444549947   -0.027903558663775346   -0.0018459282202008126
-0.0047240200492504264   -0.03598079616413071   -0.0018503385501601683
-0.0083254354597682   -0.028001470995998718   -0.0019063502161124383
-0.00427824001522703   -0.027947252289887307   -0.0018045249624210986
-0.0047240200492504264   -0.03598079616413071   -0.0018503385501601683
-0.004293701444549947   -0.027903558663775346   -0.0018459282202008126
-0.0083254354597682   -0.028001470995998718   -0.0019063502161124383
-0.0047240200492504264   -0.03598079616413071   -0.0018503385501601683
-0.008705392251771443   -0.03600173820853727   -0.0019421016416945737
-0.008729048176218147   -0.035942250719583325   -0.001960058557445171
-0.0083254354597682   -0.028001470995998718   -0.0019063502161124383
-0.0047240200492504264   -0.03598079616413071   -0.0018503385501601683
-0.008729048176218147   -0.035942250719583325   -0.001960058557445171
-0.004293701444549947   -0.027903558663775346   -0.0018459282202008126
-0.0083254354597682   -0.028001470995998718   -0.0019063502161124383
-0.008705392251771443   -0.03600173820853727   -0.0019421016416945737
-0.00427824001522703   -0.027947252289887307   -0.0018045249624210986
-0.00831387451202276   -0.02806816901196851   -0.0018668119727741643
-0.008705392251771443   -0.03600173820853727   -0.0019421016416945737
-0.0047240200492504264   -0.03598079616413071   -0.0018503385501601683
-0.00427824001522703   -0.027947252289887307   -0.0018045249624210986
-0.004688421322927887   -0.0360223018931155   -0.0018264983937052426
-0.00831387451202276   -0.02806816901196851   -0.0018668119727741643
-0.004259374205766635   -0.02798738701689688   -0.001771000166647966
-0.004688421322927887   -0.0360223018931155   -0.0018264983937052426
-0.00427824001522703   -0.027947252289887307   -0.0018045249624210986
-0.00831387451202276   -0.02806816901196851   -0.0018668119727741643
-0.004688421322927887   -0.0360223018931155   -0.0018264983937052426
-0.008668650482749828   -0.036067710449825395   -0.0019322481906043248
-0.008705392251771443   -0.03600173820853727   -0.0019421016416945737
-0.00831387451202276   -0.02806816901196851   -0.0018668119727741643
-0.004688421322927887   -0.0360223018931155   -0.0018264983937052426
-0.008705392251771443   -0.03600173820853727   -0.0019421016416945737
-0.00427824001522703   -0.027947252289887307   -0.0018045249624210986
-0.00831387451202276   -0.02806816901196851   -0.0018668119727741643
-0.008668650482749828   -0.036067710449825395   -0.0019322481906043248
-0.004259374205766635   -0.02798738701689688   -0.001771000166647966
-0.00828598588349179   -0.028134406919515145   -0.0018345918980170956
-0.008668650482749828   -0.036067710449825395   -0.0019322481906043248
-0.004688421322927887   -0.0360223018931155   -0.0018264983937052426
-0.004259374205766635   -0.02798738701689688   -0.001771000166647966
-0.004650076667585237   -0.03607135545951072   -0.0018110567518029308
-0.00828598588349179   -0.028134406919515145   -0.0018345918980170956
-0.0042367777585161906   -0.028024095650067554   -0.0017455453740048699
-0.004650076667585237   -0.03607135545951072   -0.0018110567518029308
-0.004259374205766635   -0.02798738701689688   -0.001771000166647966
-0.00828598588349179   -0.028134406919515145   -0.0018345918980170956
-0.004650076667585237   -0.03607135545951072   -0.0018110567518029308
-0.00862116138024556   -0.036144714383305   -0.0019303622544232955
-0.008668650482749828   -0.036067710449825395   -0.0019322481906043248
-0.00828598588349179   -0.028134406919515145   -0.0018345918980170956
-0.004650076667585237   -0.03607135545951072   -0.0018110567518029308
-0.008668650482749828   -0.036067710449825395   -0.0019322481906043248
-0.004259374205766635   -0.02798738701689688   -0.001771000166647966
-0.004293701444549947   -0.027903558663775346   -0.0018459282202008126
-0.004755567408832371   -0.03594670874094154   -0.0018823110869096687
-0.00036747987997887247   -0.027888793186907186   -0.0017902641636671887
-0.00427824001522703   -0.027947252289887307   -0.0018045249624210986
-0.004755567408832371   -0.03594670874094154   -0.0018823110869096687
-0.0008944417919015088   -0.035925562927114046   -0.0018506602060479145
-0.00036747987997887247   -0.027888793186907186   -0.0017902641636671887
-0.0008571782093220569   -0.03593338190296735   -0.001805370487269707
-0.00427824001522703   -0.027947252289887307   -0.0018045249624210986
-0.00034601736557650137   -0.027903389935313896   -0.0017552888976605395
-0.0008571782093220569   -0.03593338190296735   -0.001805370487269707
-0.00036747987997887247   -0.027888793186907186   -0.0017902641636671887
-0.00427824001522703   -0.027947252289887307   -0.0018045249624210986
-0.0008571782093220569   -0.03593338190296735   -0.001805370487269707
-0.0047240200492504264   -0.03598079616413071   -0.0018503385501601683
-0.004755567408832371   -0.03594670874094154   -0.0018823110869096687
-0.00427824001522703   -0.027947252289887307   -0.0018045249624210986
-0.0008571782093220569   -0.03593338190296735   -0.001805370487269707
-0.004755567408832371   -0.03594670874094154   -0.0018823110869096687
-0.00036747987997887247   -0.027888793186907186   -0.0017902641636671887
-0.00427824001522703   -0.027947252289887307   -0.0018045249624210986
-0.0047240200492504264   -0.03598079616413071   -0.0018503385501601683
-0.00034601736557650137   -0.027903389935313896   -0.0017552888976605395
-0.004259374205766635   -0.02798738701689688   -0.001771000166647966
-0.0047240200492504264   -0.03598079616413071   -0.0018503385501601683
-0.0008571782093220569   -0.03593338190296735   -0.001805370487269707
-0.00034601736557650137   -0.027903389935313896   -0.0017552888976605395
-0.000821911463910995   -0.03594804415945757   -0.0017681576482503928
-0.004259374205766635   -0.02798738701689688   -0.001771000166647966
-0.00032738127303520985   -0.02791417355916395   -0.0017281259700507342
-0.000821911463910995   -0.03594804415945757   -0.0017681576482503928
-0.00034601736557650137   -0.027903389935313896   -0.0017552888976605395
-0.004259374205766635   -0.02798738701689688   -0.001771000166647966
-0.000821911463910995   -0.03594804415945757   -0.0017681576482503928
-0.004688421322927887   -0.0360223018931155   -0.0018264983937052426
-0.0047240200492504264   -0.03598079616413071   -0.0018503385501601683
-0.004259374205766635   -0.02798738701689688   -0.001771000166647966
-0.000821911463910995   -0.03594804415945757   -0.0017681576482503928
-0.0047240200492504264   -0.03598079616413071   -0.0018503385501601683
-0.00034601736557650137   -0.027903389935313896   -0.0017552888976605395
-0.004259374205766635   -0.02798738701689688   -0.001771000166647966
-0.004688421322927887   -0.0360223018931155   -0.0018264983937052426
-0.00032738127303520985   -0.02791417355916395   -0.0017281259700507342
-0.0042367777585161906   -0.028024095650067554   -0.0017455453740048699
-0.004688421322927887   -0.0360223018931155   -0.0018264983937052426
-0.000821911463910995   -0.03594804415945757   -0.0017681576482503928
-0.00032738127303520985   -0.02791417355916395   -0.0017281259700507342
-0.0007919217345231877   -0.035969881569745336   -0.001739302683185844
-0.0042367777585161906   -0.028024095650067554   -0.0017455453740048699
-0.0003130735041197671   -0.027921087349499663   -0.0017090590417864868
-0.0007919217345231877   -0.035969881569745336   -0.001739302683185844
-0.00032738127303520985   -0.02791417355916395   -0.0017281259700507342
-0.0042367777585161906   -0.028024095650067554   -0.0017455453740048699
-0.0007919217345231877   -0.035969881569745336   -0.001739302683185844
-0.004650076667585237   -0.03607135545951072   -0.0018110567518029308
-0.004688421322927887   -0.0360223018931155   -0.0018264983937052426
-0.0042367777585161906   -0.028024095650067554   -0.0017455453740048699
-0.0007919217345231877   -0.035969881569745336   -0.001739302683185844
-0.004688421322927887   -0.0360223018931155   -0.0018264983937052426
-0.00032738127303520985   -0.02791417355916395   -0.0017281259700507342
-0.00036747987997887247   -0.027888793186907186   -0.0017902641636671887
-0.0008944417919015088   -0.035925562927114046   -0.0018506602060479145
0.0036784859211404157   -0.0278823806743569   -0.0017872777730245815
-0.00034601736557650137   -0.027903389935313896   -0.0017552888976605395
-0.0008944417919015088   -0.035925562927114046   -0.0018506602060479145
0.0030826805877552273   -0.0358785966502676   -0.0018666384822972444
0.0036784859211404157   -0.0278823806743569   -0.0017872777730245815
0.0031301638889362463   -0.03586005036500369   -0.0018082596953435494
-0.00034601736557650137   -0.027903389935313896   -0.0017552888976605395
0.0037068276662257913   -0.027868780909393702   -0.0017590507708726178
0.0031301638889362463   -0.03586005036500369   -0.0018082596953435494
0.0036784859211404157   -0.0278823806743569   -0.0017872777730245815
-0.00034601736557650137   -0.027903389935313896   -0.0017552888976605395
0.0031301638889362463   -0.03586005036500369   -0.0018082596953435494
-0.0008571782093220569   -0.03593338190296735   -0.001805370487269707
-0.0008944417919015088   -0.035925562927114046   -0.0018506602060479145
-0.00034601736557650137   -0.027903389935313896   -0.0017552888976605395
0.0031301638889362463   -0.03586005036500369   -0.0018082596953435494
-0.0008944417919015088   -0.035925562927114046   -0.0018506602060479145
0.0036784859211404157   -0.0278823806743569   -0.0017872777730245815
-0.00034601736557650137   -0.027903389935313896   -0.0017552888976605395
-0.0008571782093220569   -0.03593338190296735   -0.001805370487269707
0.0037068276662257913   -0.027868780909393702   -0.0017590507708726178
-0.00032738127303520985   -0.02791417355916395   -0.0017281259700507342
-0.0008571782093220569   -0.03593338190296735   -0.001805370487269707
0.0031301638889362463   -0.03586005036500369   -0.0018082596953435494
0.0037068276662257913   -0.027868780909393702   -0.0017590507708726178
0.0031740987968952696   -0.03585040007468398   -0.001757932326019722
-0.00032738127303520985   -0.02791417355916395   -0.0017281259700507342
0.003725973810685139   -0.027853004842582088   -0.0017384107606107453
0.0031740987968952696   -0.03585040007468398   -0.001757932326019722
0.0037068276662257913   -0.027868780909393702   -0.0017590507708726178
-0.00032738127303520985   -0.02791417355916395   -0.0017281259700507342
0.0031740987968952696   -0.03585040007468398   -0.001757932326019722
-0.000821911463910995   -0.03594804415945757   -0.0017681576482503928
-0.0008571782093220569   -0.03593338190296735   -0.001805370487269707
-0.00032738127303520985   -0.02791417355916395   -0.0017281259700507342
0.0031740987968952696   -0.03585040007468398   -0.001757932326019722
-0.0008571782093220569   -0.03593338190296735   -0.001805370487269707
0.0037068276662257913   -0.027868780909393702   -0.0017590507708726178
-0.00032738127303520985   -0.02791417355916395   -0.0017281259700507342
-0.000821911463910995   -0.03594804415945757   -0.0017681576482503928
0.003725973810685139   -0.027853004842582088   -0.0017384107606107453
-0.0003130735041197671   -0.027921087349499663   -0.0017090590417864868
-0.000821911463910995   -0.03594804415945757   -0.0017681576482503928
0.0031740987968952696   -0.03585040007468398   -0.001757932326019722
0.003725973810685139   -0.027853004842582088   -0.0017384107606107453
0.0031978298849431965   -0.03584500602706179   -0.0017151307130695616
-0.0003130735041197671   -0.027921087349499663   -0.0017090590417864868
0.0037302441910233605   -0.02782990106972439   -0.0017252032179374789
0.0031978298849431965   -0.03584500602706179   -0.0017151307130695616
0.003725973810685139   -0.027853004842582088   -0.0017384107606107453
-0.0003130735041197671   -0.027921087349499663   -0.0017090590417864868
0.0031978298849431965   -0.03584500602706179   -0.0017151307130695616
-0.0007919217345231877   -0.035969881569745336   -0.001739302683185844
-0.000821911463910995   -0.03594804415945757   -0.0017681576482503928
-0.0003130735041197671   -0.027921087349499663   -0.0017090590417864868
0.0031978298849431965   -0.03584500602706179   -0.0017151307130695616
-0.000821911463910995   -0.03594804415945757   -0.0017681576482503928
0.003725973810685139   -0.027853004842582088   -0.0017384107606107453
0.0036784859211404157   -0.0278823806743569   -0.0017872777730245815
0.0030826805877552273   -0.0358785966502676   -0.0018666384822972444
0.00806273756583641   -0.027873375577929575   -0.001831758244727322
0.0037068276662257913   -0.027868780909393702   -0.0017590507708726178
0.0030826805877552273   -0.0358785966502676   -0.0018666384822972444
0.007340185363714134   -0.03579961240666014   -0.0019327903599296334
0.00806273756583641   -0.027873375577929575   -0.001831758244727322
0.0074638410899782286   -0.03575714990829556   -0.0018560857652340252
0.0037068276662257913   -0.027868780909393702   -0.0017590507708726178
0.008118073238651177   -0.027837475426655746   -0.001808464123162794
0.0074638410899782286   -0.03575714990829556   -0.0018560857652340252
0.00806273756583641   -0.027873375577929575   -0.001831758244727322
0.0037068276662257913   -0.027868780909393702   -0.0017590507708726178
0.0074638410899782286   -0.03575714990829556   -0.0018560857652340252
0.0031301638889362463   -0.03586005036500369   -0.0018082596953435494
0.0030826805877552273   -0.0358785966502676   -0.0018666384822972444
0.0037068276662257913   -0.027868780909393702   -0.0017590507708726178
0.0074638410899782286   -0.03575714990829556   -0.0018560857652340252
0.0030826805877552273   -0.0358785966502676   -0.0018666384822972444
0.00806273756583641   -0.027873375577929575   -0.001831758244727322
0.0037068276662257913   -0.027868780909393702   -0.0017590507708726178
0.0031301638889362463   -0.03586005036500369   -0.0018082596953435494
0.008118073238651177   -0.027837475426655746   -0.001808464123162794
0.003725973810685139   -0.027853004842582088   -0.0017384107606107453
0.0031301638889362463   -0.03586005036500369   -0.0018082596953435494
0.0074638410899782286   -0.03575714990829556   -0.0018560857652340252
0.008118073238651177   -0.027837475426655746   -0.001808464123162794
0.007548939634508966   -0.03573655031720303   -0.0017908529242187886
0.003725973810685139   -0.027853004842582088   -0.0017384107606107453
0.008147603014016387   -0.027809164881452488   -0.0017967029373331686
0.007548939634508966   -0.03573655031720303   -0.0017908529242187886
0.008118073238651177   -0.027837475426655746   -0.001808464123162794
0.003725973810685139   -0.027853004842582088   -0.0017384107606107453
0.007548939634508966   -0.03573655031720303   -0.0017908529242187886
0.0031740987968952696   -0.03585040007468398   -0.001757932326019722
0.0031301638889362463   -0.03586005036500369   -0.0018082596953435494
0.003725973810685139   -0.027853004842582088   -0.0017384107606107453
0.007548939634508966   -0.03573655031720303   -0.0017908529242187886
0.0031301638889362463   -0.03586005036500369   -0.0018082596953435494
0.008118073238651177   -0.027837475426655746   -0.001808464123162794
0.003725973810685139   -0.027853004842582088   -0.0017384107606107453
0.0031740987968952696   -0.03585040007468398   -0.001757932326019722
0.008147603014016387   -0.027809164881452488   -0.0017967029373331686
0.0037302441910233605   -0.02782990106972439   -0.0017252032179374789
0.0031740987968952696   -0.03585040007468398   -0.001757932326019722
0.007548939634508966   -0.03573655031720303   -0.0017908529242187886
0.008147603014016387   -0.027809164881452488   -0.0017967029373331686
0.0076246735255166885   -0.035714227826570896   -0.0017375694189097671
0.0037302441910233605   -0.02782990106972439   -0.0017252032179374789
0.008155316802010986   -0.027763866483229857   -0.0017966714233941783
0.0076246735255166885   -0.035714227826570896   -0.0017375694189097671
0.008147603014016387   -0.027809164881452488   -0.0017967029373331686
0.0037302441910233605   -0.02782990106972439   -0.0017252032179374789
0.0076246735255166885   -0.035714227826570896   -0.0017375694189097671
0.0031978298849431965   -0.03584500602706179   -0.0017151307130695616
0.0031740987968952696   -0.03585040007468398   -0.001757932326019722
0.0037302441910233605   -0.02782990106972439   -0.0017252032179374789
0.0076246735255166885   -0.035714227826570896   -0.0017375694189097671
0.0031740987968952696   -0.03585040007468398   -0.001757932326019722
0.008147603014016387   -0.027809164881452488   -0.0017967029373331686
-0.01306663391970171   -0.03592139876820813   -0.002077056440791848
-0.012715038740745588   -0.043507437253694915   -0.0019863258018552664
-0.008729048176218147   -0.035942250719583325   -0.001960058557445171
-0.013051192893650632   -0.03600100781290755   -0.0020734771664874113
-0.012715038740745588   -0.043507437253694915   -0.0019863258018552664
-0.008692712726634882   -0.04359478526806002   -0.001915960959422043
-0.008729048176218147   -0.035942250719583325   -0.001960058557445171
-0.008641727681343898   -0.043639159355282925   -0.0019266462382630189
-0.013051192893650632   -0.03600100781290755   -0.0020734771664874113
-0.008705392251771443   -0.03600173820853727   -0.0019421016416945737
-0.008641727681343898   -0.043639159355282925   -0.0019266462382630189
-0.008729048176218147   -0.035942250719583325   -0.001960058557445171
-0.013051192893650632   -0.03600100781290755   -0.0020734771664874113
-0.008641727681343898   -0.043639159355282925   -0.0019266462382630189
-0.012622982296043027   -0.04356735720836514   -0.002036812395363416
-0.012715038740745588   -0.043507437253694915   -0.0019863258018552664
-0.013051192893650632   -0.03600100781290755   -0.0020734771664874113
-0.008641727681343898   -0.043639159355282925   -0.0019266462382630189
-0.012715038740745588   -0.043507437253694915   -0.0019863258018552664
-0.008729048176218147   -0.035942250719583325   -0.001960058557445171
-0.013051192893650632   -0.03600100781290755   -0.0020734771664874113
-0.012622982296043027   -0.04356735720836514   -0.002036812395363416
-0.008705392251771443   -0.03600173820853727   -0.0019421016416945737
-0.013010943076313753   -0.03607838062729643   -0.0020820060742583746
-0.012622982296043027   -0.04356735720836514   -0.002036812395363416
-0.008641727681343898   -0.043639159355282925   -0.0019266462382630189
-0.008705392251771443   -0.03600173820853727   -0.0019421016416945737
-0.008572754194373337   -0.04370241052835634   -0.001945628734888088
-0.013010943076313753   -0.03607838062729643   -0.0020820060742583746
-0.008668650482749828   -0.036067710449825395   -0.0019322481906043248
-0.008572754194373337   -0.04370241052835634   -0.001945628734888088
-0.008705392251771443   -0.03600173820853727   -0.0019421016416945737
-0.013010943076313753   -0.03607838062729643   -0.0020820060742583746
-0.008572754194373337   -0.04370241052835634   -0.001945628734888088
-0.01251802338351905   -0.043640993332000014   -0.0021003462056621985
-0.012622982296043027   -0.04356735720836514   -0.002036812395363416
-0.013010943076313753   -0.03607838062729643   -0.0020820060742583746
-0.008572754194373337   -0.04370241052835634   -0.001945628734888088
-0.012622982296043027   -0.04356735720836514   -0.002036812395363416
-0.008705392251771443   -0.03600173820853727   -0.0019421016416945737
-0.013010943076313753   -0.03607838062729643   -0.0020820060742583746
-0.01251802338351905   -0.043640993332000014   -0.0021003462056621985
-0.008668650482749828   -0.036067710449825395   -0.0019322481906043248
-0.012945843388337755   -0.03617811598661715   -0.0021032610382744864
-0.01251802338351905   -0.043640993332000014   -0.0021003462056621985
-0.008572754194373337   -0.04370241052835634   -0.001945628734888088
-0.008668650482749828   -0.036067710449825395   -0.0019322481906043248
-0.008498771313089716   -0.04378840090294293   -0.001973149275133047
-0.012945843388337755   -0.03617811598661715   -0.0021032610382744864
-0.00862116138024556   -0.036144714383305   -0.0019303622544232955
-0.008498771313089716   -0.04378840090294293   -0.001973149275133047
-0.008668650482749828   -0.036067710449825395   -0.0019322481906043248
-0.012945843388337755   -0.03617811598661715   -0.0021032610382744864
-0.008498771313089716   -0.04378840090294293   -0.001973149275133047
-0.012375187411194036   -0.043753130891436974   -0.0021771739920101616
-0.01251802338351905   -0.043640993332000014   -0.0021003462056621985
-0.012945843388337755   -0.03617811598661715   -0.0021032610382744864
-0.008498771313089716   -0.04378840090294293   -0.001973149275133047
-0.01251802338351905   -0.043640993332000014   -0.0021003462056621985
-0.008668650482749828   -0.036067710449825395   -0.0019322481906043248
-0.008729048176218147   -0.035942250719583325   -0.001960058557445171
-0.008692712726634882   -0.04359478526806002   -0.001915960959422043
-0.004755567408832371   -0.03594670874094154   -0.0018823110869096687
-0.008705392251771443   -0.03600173820853727   -0.0019421016416945737
-0.008692712726634882   -0.04359478526806002   -0.001915960959422043
-0.00508649857192081   -0.04362925024254965   -0.001870948382590381
-0.004755567408832371   -0.03594670874094154   -0.0018823110869096687
-0.005031008451532594   -0.04365228786941041   -0.0018476634031495177
-0.008705392251771443   -0.03600173820853727   -0.0019421016416945737
-0.0047240200492504264   -0.03598079616413071   -0.0018503385501601683
-0.005031008451532594   -0.04365228786941041   -0.0018476634031495177
-0.004755567408832371   -0.03594670874094154   -0.0018823110869096687
-0.008705392251771443   -0.03600173820853727   -0.0019421016416945737
-0.005031008451532594   -0.04365228786941041   -0.0018476634031495177
-0.008641727681343898   -0.043639159355282925   -0.0019266462382630189
-0.008692712726634882   -0.04359478526806002   -0.001915960959422043
-0.008705392251771443   -0.03600173820853727   -0.0019421016416945737
-0.005031008451532594   -0.04365228786941041   -0.0018476634031495177
-0.008692712726634882   -0.04359478526806002   -0.001915960959422043
-0.004755567408832371   -0.03594670874094154   -0.0018823110869096687
-0.008705392251771443   -0.03600173820853727   -0.0019421016416945737
-0.008641727681343898   -0.043639159355282925   -0.0019266462382630189
-0.0047240200492504264   -0.03598079616413071   -0.0018503385501601683
-0.008668650482749828   -0.036067710449825395   -0.0019322481906043248
-0.008641727681343898   -0.043639159355282925   -0.0019266462382630189
-0.005031008451532594   -0.04365228786941041   -0.0018476634031495177
-0.0047240200492504264   -0.03598079616413071   -0.0018503385501601683
-0.004971329159915707   -0.043693469361055344   -0.001832573817267952
-0.008668650482749828   -0.036067710449825395   -0.0019322481906043248
-0.004688421322927887   -0.0360223018931155   -0.0018264983937052426
-0.004971329159915707   -0.043693469361055344   -0.001832573817267952
-0.0047240200492504264   -0.03598079616413071   -0.0018503385501601683
-0.008668650482749828   -0.036067710449825395   -0.0019322481906043248
-0.004971329159915707   -0.043693469361055344   -0.001832573817267952
-0.008572754194373337   -0.04370241052835634   -0.001945628734888088
-0.008641727681343898   -0.043639159355282925   -0.0019266462382630189
-0.008668650482749828   -0.036067710449825395   -0.0019322481906043248
-0.004971329159915707   -0.043693469361055344   -0.001832573817267952
-0.008641727681343898   -0.043639159355282925   -0.0019266462382630189
-0.0047240200492504264   -0.03598079616413071   -0.0018503385501601683
-0.008668650482749828   -0.036067710449825395   -0.0019322481906043248
-0.008572754194373337   -0.04370241052835634   -0.001945628734888088
-0.004688421322927887   -0.0360223018931155   -0.0018264983937052426
-0.00862116138024556   -0.036144714383305   -0.0019303622544232955
-0.008572754194373337   -0.04370241052835634   -0.001945628734888088
-0.004971329159915707   -0.043693469361055344   -0.001832573817267952
-0.004688421322927887   -0.0360223018931155   -0.0018264983937052426
-0.004909986566143073   -0.04375331238520289   -0.0018260829288363194
-0.00862116138024556   -0.036144714383305   -0.0019303622544232955
-0.004650076667585237   -0.03607135545951072   -0.0018110567518029308
-0.004909986566143073   -0.04375331238520289   -0.0018260829288363194
-0.004688421322927887   -0.0360223018931155   -0.0018264983937052426
-0.00862116138024556   -0.036144714383305   -0.0019303622544232955
-0.004909986566143073   -0.04375331238520289   -0.0018260829288363194
-0.008498771313089716   -0.04378840090294293   -0.001973149275133047
-0.008572754194373337   -0.04370241052835634   -0.001945628734888088
-0.00862116138024556   -0.036144714383305   -0.0019303622544232955
-0.004909986566143073   -0.04375331238520289   -0.0018260829288363194
-0.008572754194373337   -0.04370241052835634   -0.001945628734888088
-0.004688421322927887   -0.0360223018931155   -0.0018264983937052426
-0.004755567408832371   -0.03594670874094154   -0.0018823110869096687
-0.00508649857192081   -0.04362925024254965   -0.001870948382590381
-0.0008944417919015088   -0.035925562927114046   -0.0018506602060479145
-0.0047240200492504264   -0.03598079616413071   -0.0018503385501601683
-0.00508649857192081   -0.04362925024254965   -0.001870948382590381
-0.0015893957313717632   -0.043602599604895084   -0.0018636662761761839
-0.0008944417919015088   -0.035925562927114046   -0.0018506602060479145
-0.0015280259753532104   -0.04360304818425756   -0.0018075762424467133
-0.0047240200492504264   -0.03598079616413071   -0.0018503385501601683
-0.0008571782093220569   -0.03593338190296735   -0.001805370487269707
-0.0015280259753532104   -0.04360304818425756   -0.0018075762424467133
-0.0008944417919015088   -0.035925562927114046   -0.0018506602060479145
-0.0047240200492504264   -0.03598079616413071   -0.0018503385501601683
-0.0015280259753532104   -0.04360304818425756   -0.0018075762424467133
-0.005031008451532594   -0.04365228786941041   -0.0018476634031495177
-0.00508649857192081   -0.04362925024254965   -0.001870948382590381
-0.0047240200492504264   -0.03598079616413071   -0.0018503385501601683
-0.0015280259753532104   -0.04360304818425756   -0.0018075762424467133
-0.00508649857192081   -0.04362925024254965   -0.001870948382590381
-0.0008944417919015088   -0.035925562927114046   -0.0018506602060479145
-0.0047240200492504264   -0.03598079616413071   -0.0018503385501601683
-0.005031008451532594   -0.04365228786941041   -0.0018476634031495177
-0.0008571782093220569   -0.03593338190296735   -0.001805370487269707
-0.004688421322927887   -0.0360223018931155   -0.0018264983937052426
-0.005031008451532594   -0.04365228786941041   -0.0018476634031495177
-0.0015280259753532104   -0.04360304818425756   -0.0018075762424467133
-0.0008571782093220569   -0.03593338190296735   -0.001805370487269707
-0.0014682561651843333   -0.043620320774667744   -0.0017597035688553953
-0.004688421322927887   -0.0360223018931155   -0.0018264983937052426
-0.000821911463910995   -0.03594804415945757   -0.0017681576482503928
-0.0014682561651843333   -0.043620320774667744   -0.0017597035688553953
-0.0008571782093220569   -0.03593338190296735   -0.001805370487269707
-0.004688421322927887   -0.0360223018931155   -0.0018264983937052426
-0.0014682561651843333   -0.043620320774667744   -0.0017597035688553953
-0.004971329159915707   -0.043693469361055344   -0.001832573817267952
-0.005031008451532594   -0.04365228786941041   -0.0018476634031495177
-0.004688421322927887   -0.0360223018931155   -0.0018264983937052426
-0.0014682561651843333   -0.043620320774667744   -0.0017597035688553953
-0.005031008451532594   -0.04365228786941041   -0.0018476634031495177
-0.0008571782093220569   -0.03593338190296735   -0.001805370487269707
-0.004688421322927887   -0.0360223018931155   -0.0018264983937052426
-0.004971329159915707   -0.043693469361055344   -0.001832573817267952
-0.000821911463910995   -0.03594804415945757   -0.0017681576482503928
-0.004650076667585237   -0.03607135545951072   -0.0018110567518029308
-0.004971329159915707   -0.043693469361055344   -0.001832573817267952
-0.0014682561651843333   -0.043620320774667744   -0.0017597035688553953
-0.000821911463910995   -0.03594804415945757   -0.0017681576482503928
-0.001414903128255803   -0.043655840895181264   -0.0017203331589838266
-0.004650076667585237   -0.03607135545951072   -0.0018110567518029308
-0.0007919217345231877   -0.035969881569745336   -0.001739302683185844
-0.001414903128255803   -0.043655840895181264   -0.0017203331589838266
-0.000821911463910995   -0.03594804415945757   -0.0017681576482503928
-0.004650076667585237   -0.03607135545951072   -0.0018110567518029308
-0.001414903128255803   -0.043655840895181264   -0.0017203331589838266
-0.004909986566143073   -0.04375331238520289   -0.0018260829288363194
-0.004971329159915707   -0.043693469361055344   -0.001832573817267952
-0.004650076667585237   -0.03607135545951072   -0.0018110567518029308
-0.001414903128255803   -0.043655840895181264   -0.0017203331589838266
-0.004971329159915707   -0.043693469361055344   -0.001832573817267952
-0.000821911463910995   -0.03594804415945757   -0.0017681576482503928
-0.0008944417919015088   -0.035925562927114046   -0.0018506602060479145
-0.0015893957313717632   -0.043602599604895084   -0.0018636662761761839
0.0030826805877552273   -0.0358785966502676   -0.0018666384822972444
-0.0008571782093220569   -0.03593338190296735   -0.001805370487269707
-0.0015893957313717632   -0.043602599604895084   -0.0018636662761761839
0.002027822367819992   -0.043516593614025004   -0.0018970732801236244
0.0030826805877552273   -0.0358785966502676   -0.0018666384822972444
0.0021028662297696617   -0.043492929409616986   -0.001808478710165873
-0.0008571782093220569   -0.03593338190296735   -0.001805370487269707
0.0031301638889362463   -0.03586005036500369   -0.0018082596953435494
0.0021028662297696617   -0.043492929409616986   -0.001808478710165873
0.0030826805877552273   -0.0358785966502676   -0.0018666384822972444
-0.0008571782093220569   -0.03593338190296735   -0.001805370487269707
0.0021028662297696617   -0.043492929409616986   -0.001808478710165873
-0.0015280259753532104   -0.04360304818425756   -0.0018075762424467133
-0.0015893957313717632   -0.043602599604895084   -0.0018636662761761839
-0.0008571782093220569   -0.03593338190296735   -0.001805370487269707
0.0021028662297696617   -0.043492929409616986   -0.001808478710165873
-0.0015893957313717632   -0.043602599604895084   -0.0018636662761761839
0.0030826805877552273   -0.0358785966502676   -0.0018666384822972444
-0.0008571782093220569   -0.03593338190296735   -0.001805370487269707
-0.0015280259753532104   -0.04360304818425756   -0.0018075762424467133
0.0031301638889362463   -0.03586005036500369   -0.0018082596953435494
-0.000821911463910995   -0.03594804415945757   -0.0017681576482503928
-0.0015280259753532104   -0.04360304818425756   -0.0018075762424467133
0.0021028662297696617   -0.043492929409616986   -0.001808478710165873
0.0031301638889362463   -0.03586005036500369   -0.0018082596953435494
0.0021798468573571814   -0.04348849016064278   -0.0017286255664192346
-0.000821911463910995   -0.03594804415945757   -0.0017681576482503928
0.0031740987968952696   -0.03585040007468398   -0.001757932326019722
0.0021798468573571814   -0.04348849016064278   -0.0017286255664192346
0.0031301638889362463   -0.03586005036500369   -0.0018082596953435494
-0.000821911463910995   -0.03594804415945757   -0.0017681576482503928
0.0021798468573571814   -0.04348849016064278   -0.0017286255664192346
-0.0014682561651843333   -0.043620320774667744   -0.0017597035688553953
-0.0015280259753532104   -0.04360304818425756   -0.0018075762424467133
-0.000821911463910995   -0.03594804415945757   -0.0017681576482503928
0.0021798468573571814   -0.04348849016064278   -0.0017286255664192346
-0.0015280259753532104   -0.04360304818425756   -0.0018075762424467133
0.0031301638889362463   -0.03586005036500369   -0.0018082596953435494
-0.000821911463910995   -0.03594804415945757   -0.0017681576482503928
-0.0014682561651843333   -0.043620320774667744   -0.0017597035688553953
0.0031740987968952696   -0.03585040007468398   -0.001757932326019722
-0.0007919217345231877   -0.035969881569745336   -0.001739302683185844
-0.0014682561651843333   -0.043620320774667744   -0.0017597035688553953
0.0021798468573571814   -0.04348849016064278   -0.0017286255664192346
0.0031740987968952696   -0.03585040007468398   -0.001757932326019722
0.002231097043507025   -0.043499735257182794   -0.0016563604028455763
-0.0007919217345231877   -0.035969881569745336   -0.001739302683185844
0.0031978298849431965   -0.03584500602706179   -0.0017151307130695616
0.002231097043507025   -0.043499735257182794   -0.0016563604028455763
0.0031740987968952696   -0.03585040007468398   -0.001757932326019722
-0.0007919217345231877   -0.035969881569745336   -0.001739302683185844
0.002231097043507025   -0.043499735257182794   -0.0016563604028455763
-0.001414903128255803   -0.043655840895181264   -0.0017203331589838266
-0.0014682561651843333   -0.043620320774667744   -0.0017597035688553953
-0.0007919217345231877   -0.035969881569745336   -0.001739302683185844
0.002231097043507025   -0.043499735257182794   -0.0016563604028455763
-0.0014682561651843333   -0.043620320774667744   -0.0017597035688553953
0.0031740987968952696   -0.03585040007468398   -0.001757932326019722
0.0030826805877552273   -0.0358785966502676   -0.0018666384822972444
0.002027822367819992   -0.043516593614025004   -0.0018970732801236244
0.007340185363714134   -0.03579961240666014   -0.0019327903599296334
0.0031301638889362463   -0.03586005036500369   -0.0018082596953435494
0.002027822367819992   -0.043516593614025004   -0.0018970732801236244
0.0058749119025307325   -0.043368703807531   -0.0019830048865730836
0.007340185363714134   -0.03579961240666014   -0.0019327903599296334
0.00607460355535529   -0.04331999135896403   -0.0018540442909353297
0.0031301638889362463   -0.03586005036500369   -0.0018082596953435494
0.0074638410899782286   -0.03575714990829556   -0.0018560857652340252
0.00607460355535529   -0.04331999135896403   -0.0018540442909353297
0.007340185363714134   -0.03579961240666014   -0.0019327903599296334
0.0031301638889362463   -0.03586005036500369   -0.0018082596953435494
0.00607460355535529   -0.04331999135896403   -0.0018540442909353297
0.0021028662297696617   -0.043492929409616986   -0.001808478710165873
0.002027822367819992   -0.043516593614025004   -0.0018970732801236244
0.0031301638889362463   -0.03586005036500369   -0.0018082596953435494
0.00607460355535529   -0.04331999135896403   -0.0018540442909353297
0.002027822367819992   -0.043516593614025004   -0.0018970732801236244
0.007340185363714134   -0.03579961240666014   -0.0019327903599296334
0.0031301638889362463   -0.03586005036500369   -0.0018082596953435494
0.0021028662297696617   -0.043492929409616986   -0.001808478710165873
0.0074638410899782286   -0.03575714990829556   -0.0018560857652340252
0.0031740987968952696   -0.03585040007468398   -0.001757932326019722
0.0021028662297696617   -0.043492929409616986   -0.001808478710165873
0.00607460355535529   -0.04331999135896403   -0.0018540442909353297
0.0074638410899782286   -0.03575714990829556   -0.0018560857652340252
0.006222544494220205   -0.04330657241991441   -0.0017367133995895374
0.0031740987968952696   -0.03585040007468398   -0.001757932326019722
0.007548939634508966   -0.03573655031720303   -0.0017908529242187886
0.006222544494220205   -0.04330657241991441   -0.0017367133995895374
0.0074638410899782286   -0.03575714990829556   -0.0018560857652340252
0.0031740987968952696   -0.03585040007468398   -0.001757932326019722
0.006222544494220205   -0.04330657241991441   -0.0017367133995895374
0.0021798468573571814   -0.04348849016064278   -0.0017286255664192346
0.0021028662297696617   -0.043492929409616986   -0.001808478710165873
0.0031740987968952696   -0.03585040007468398   -0.001757932326019722
0.006222544494220205   -0.04330657241991441   -0.0017367133995895374
0.0021028662297696617   -0.043492929409616986   -0.001808478710165873
0.0074638410899782286   -0.03575714990829556   -0.0018560857652340252
0.0031740987968952696   -0.03585040007468398   -0.001757932326019722
0.0021798468573571814   -0.04348849016064278   -0.0017286255664192346
0.007548939634508966   -0.03573655031720303   -0.0017908529242187886
0.0031978298849431965   -0.03584500602706179   -0.0017151307130695616
0.0021798468573571814   -0.04348849016064278   -0.0017286255664192346
0.006222544494220205   -0.04330657241991441   -0.0017367133995895374
0.007548939634508966   -0.03573655031720303   -0.0017908529242187886
0.006372657156956669   -0.043306470337567585   -0.0016315456649114999
0.0031978298849431965   -0.03584500602706179   -0.0017151307130695616
0.0076246735255166885   -0.035714227826570896   -0.0017375694189097671
0.006372657156956669   -0.043306470337567585   -0.0016315456649114999
0.007548939634508966   -0.03573655031720303   -0.0017908529242187886
0.0031978298849431965   -0.03584500602706179   -0.0017151307130695616
0.006372657156956669   -0.043306470337567585   -0.0016315456649114999
0.002231097043507025   -0.043499735257182794   -0.0016563604028455763
0.0021798468573571814   -0.04348849016064278   -0.0017286255664192346
0.0031978298849431965   -0.03584500602706179   -0.0017151307130695616
0.006372657156956669   -0.043306470337567585   -0.0016315456649114999
0.0021798468573571814   -0.04348849016064278   -0.0017286255664192346
0.007548939634508966   -0.03573655031720303   -0.0017908529242187886
-0.012715038740745588   -0.043507437253694915   -0.0019863258018552664
-0.01160451957939399   -0.05021749360593079   -0.0018526720344112847
-0.008692712726634882   -0.04359478526806002   -0.001915960959422043
-0.012622982296043027   -0.04356735720836514   -0.002036812395363416
-0.01160451957939399   -0.05021749360593079   -0.0018526720344112847
-0.008219813324306558   -0.0503748825609413   -0.0018413979968008277
-0.008692712726634882   -0.04359478526806002   -0.001915960959422043
-0.008135509531355658   -0.05039763444186192   -0.0018786423261868326
-0.012622982296043027   -0.04356735720836514   -0.002036812395363416
-0.008641727681343898   -0.043639159355282925   -0.0019266462382630189
-0.008135509531355658   -0.05039763444186192   -0.0018786423261868326
-0.008692712726634882   -0.04359478526806002   -0.001915960959422043
-0.012622982296043027   -0.04356735720836514   -0.002036812395363416
-0.008135509531355658   -0.05039763444186192   -0.0018786423261868326
-0.011428785105897286   -0.050251241910480235   -0.001957004031496332
-0.01160451957939399   -0.05021749360593079   -0.0018526720344112847
-0.012622982296043027   -0.04356735720836514   -0.002036812395363416
-0.008135509531355658   -0.05039763444186192   -0.0018786423261868326
-0.01160451957939399   -0.05021749360593079   -0.0018526720344112847
-0.008692712726634882   -0.04359478526806002   -0.001915960959422043
-0.012622982296043027   -0.04356735720836514   -0.002036812395363416
-0.011428785105897286   -0.050251241910480235   -0.001957004031496332
-0.008641727681343898   -0.043639159355282925   -0.0019266462382630189
-0.01251802338351905   -0.043640993332000014   -0.0021003462056621985
-0.011428785105897286   -0.050251241910480235   -0.001957004031496332
-0.008135509531355658   -0.05039763444186192   -0.0018786423261868326
-0.008641727681343898   -0.043639159355282925   -0.0019266462382630189
-0.008029615813217737   -0.05045220663684907   -0.0019242962895248436
-0.01251802338351905   -0.043640993332000014   -0.0021003462056621985
-0.008572754194373337   -0.04370241052835634   -0.001945628734888088
-0.008029615813217737   -0.05045220663684907   -0.0019242962895248436
-0.008641727681343898   -0.043639159355282925   -0.0019266462382630189
-0.01251802338351905   -0.043640993332000014   -0.0021003462056621985
-0.008029615813217737   -0.05045220663684907   -0.0019242962895248436
-0.01125357322138902   -0.050315288995473995   -0.002075028459784807
-0.011428785105897286   -0.050251241910480235   -0.001957004031496332
-0.01251802338351905   -0.043640993332000014   -0.0021003462056621985
-0.008029615813217737   -0.05045220663684907   -0.0019242962895248436
-0.011428785105897286   -0.050251241910480235   -0.001957004031496332
-0.008641727681343898   -0.043639159355282925   -0.0019266462382630189
-0.01251802338351905   -0.043640993332000014   -0.0021003462056621985
-0.01125357322138902   -0.050315288995473995   -0.002075028459784807
-0.008572754194373337   -0.04370241052835634   -0.001945628734888088
-0.012375187411194036   -0.043753130891436974   -0.0021771739920101616
-0.01125357322138902   -0.050315288995473995   -0.002075028459784807
-0.008029615813217737   -0.05045220663684907   -0.0019242962895248436
-0.008572754194373337   -0.04370241052835634   -0.001945628734888088
-0.0079251469594253   -0.050541700083645766   -0.001978280698892118
-0.012375187411194036   -0.043753130891436974   -0.0021771739920101616
-0.008498771313089716   -0.04378840090294293   -0.001973149275133047
-0.0079251469594253   -0.050541700083645766   -0.001978280698892118
-0.008572754194373337   -0.04370241052835634   -0.001945628734888088
-0.012375187411194036   -0.043753130891436974   -0.0021771739920101616
-0.0079251469594253   -0.050541700083645766   -0.001978280698892118
-0.011029159825365167   -0.05043471845794476   -0.002206499008937472
-0.01125357322138902   -0.050315288995473995   -0.002075028459784807
-0.012375187411194036   -0.043753130891436974   -0.0021771739920101616
-0.0079251469594253   -0.050541700083645766   -0.001978280698892118
-0.01125357322138902   -0.050315288995473995   -0.002075028459784807
-0.008572754194373337   -0.04370241052835634   -0.001945628734888088
-0.008692712726634882   -0.04359478526806002   -0.001915960959422043
-0.008219813324306558   -0.0503748825609413   -0.0018413979968008277
-0.00508649857192081   -0.04362925024254965   -0.001870948382590381
-0.008641727681343898   -0.043639159355282925   -0.0019266462382630189
-0.008219813324306558   -0.0503748825609413   -0.0018413979968008277
-0.005288141833476232   -0.05044846201493577   -0.0018369686774955957
-0.00508649857192081   -0.04362925024254965   -0.001870948382590381
-0.005201674381940859   -0.05045590064038382   -0.0018202665875360347
-0.008641727681343898   -0.043639159355282925   -0.0019266462382630189
-0.005031008451532594   -0.04365228786941041   -0.0018476634031495177
-0.005201674381940859   -0.05045590064038382   -0.0018202665875360347
-0.00508649857192081   -0.04362925024254965   -0.001870948382590381
-0.008641727681343898   -0.043639159355282925   -0.0019266462382630189
-0.005201674381940859   -0.05045590064038382   -0.0018202665875360347
-0.008135509531355658   -0.05039763444186192   -0.0018786423261868326
-0.008219813324306558   -0.0503748825609413   -0.0018413979968008277
-0.008641727681343898   -0.043639159355282925   -0.0019266462382630189
-0.005201674381940859   -0.05045590064038382   -0.0018202665875360347
-0.008219813324306558   -0.0503748825609413   -0.0018413979968008277
-0.00508649857192081   -0.04362925024254965   -0.001870948382590381
-0.008641727681343898   -0.043639159355282925   -0.0019266462382630189
-0.008135509531355658   -0.05039763444186192   -0.0018786423261868326
-0.005031008451532594   -0.04365228786941041   -0.0018476634031495177
-0.008572754194373337   -0.04370241052835634   -0.001945628734888088
-0.008135509531355658   -0.05039763444186192   -0.0018786423261868326
-0.005201674381940859   -0.05045590064038382   -0.0018202665875360347
-0.005031008451532594   -0.04365228786941041   -0.0018476634031495177
-0.005112418972517407   -0.05049175817934732   -0.001811724994221249
-0.008572754194373337   -0.04370241052835634   -0.001945628734888088
-0.004971329159915707   -0.043693469361055344   -0.001832573817267952
-0.005112418972517407   -0.05049175817934732   -0.001811724994221249
-0.005031008451532594   -0.04365228786941041   -0.0018476634031495177
-0.008572754194373337   -0.04370241052835634   -0.001945628734888088
-0.005112418972517407   -0.05049175817934732   -0.001811724994221249
-0.008029615813217737   -0.05045220663684907   -0.0019242962895248436
-0.008135509531355658   -0.05039763444186192   -0.0018786423261868326
-0.008572754194373337   -0.04370241052835634   -0.001945628734888088
-0.005112418972517407   -0.05049175817934732   -0.001811724994221249
-0.008135509531355658   -0.05039763444186192   -0.0018786423261868326
-0.005031008451532594   -0.04365228786941041   -0.0018476634031495177
-0.008572754194373337   -0.04370241052835634   -0.001945628734888088
-0.008029615813217737   -0.05045220663684907   -0.0019242962895248436
-0.004971329159915707   -0.043693469361055344   -0.001832573817267952
-0.008498771313089716   -0.04378840090294293   -0.001973149275133047
-0.008029615813217737   -0.05045220663684907   -0.0019242962895248436
-0.005112418972517407   -0.05049175817934732   -0.001811724994221249
-0.004971329159915707   -0.043693469361055344   -0.001832573817267952
-0.005023303861762607   -0.05055769575723267   -0.0018112436371010537
-0.008498771313089716   -0.04378840090294293   -0.001973149275133047
-0.004909986566143073   -0.04375331238520289   -0.0018260829288363194
-0.005023303861762607   -0.05055769575723267   -0.0018112436371010537
-0.004971329159915707   -0.043693469361055344   -0.001832573817267952
-0.008498771313089716   -0.04378840090294293   -0.001973149275133047
-0.005023303861762607   -0.05055769575723267   -0.0018112436371010537
-0.0079251469594253   -0.050541700083645766   -0.001978280698892118
-0.008029615813217737   -0.05045220663684907   -0.0019242962895248436
-0.008498771313089716   -0.04378840090294293   -0.001973149275133047
-0.005023303861762607   -0.05055769575723267   -0.0018112436371010537
-0.008029615813217737   -0.05045220663684907   -0.0019242962895248436
-0.004971329159915707   -0.043693469361055344   -0.001832573817267952
-0.00508649857192081   -0.04362925024254965   -0.001870948382590381
-0.005288141833476232   -0.05044846201493577   -0.0018369686774955957
-0.0015893957313717632   -0.043602599604895084   -0.0018636662761761839
-0.005031008451532594   -0.04365228786941041   -0.0018476634031495177
-0.005288141833476232   -0.05044846201493577   -0.0018369686774955957
-0.002453698764476145   -0.05043481880431994   -0.0018581134084464724
-0.0015893957313717632   -0.043602599604895084   -0.0018636662761761839
-0.0023589895952443834   -0.050425048411409656   -0.0017893547612955524
-0.005031008451532594   -0.04365228786941041   -0.0018476634031495177
-0.0015280259753532104   -0.04360304818425756   -0.0018075762424467133
-0.0023589895952443834   -0.050425048411409656   -0.0017893547612955524
-0.0015893957313717632   -0.043602599604895084   -0.0018636662761761839
-0.005031008451532594   -0.04365228786941041   -0.0018476634031495177
-0.0023589895952443834   -0.050425048411409656   -0.0017893547612955524
-0.005201674381940859   -0.05045590064038382   -0.0018202665875360347
-0.005288141833476232   -0.05044846201493577   -0.0018369686774955957
-0.005031008451532594   -0.04365228786941041   -0.0018476634031495177
-0.0023589895952443834   -0.050425048411409656   -0.0017893547612955524
-0.005288141833476232   -0.05044846201493577   -0.0018369686774955957
-0.0015893957313717632   -0.043602599604895084   -0.0018636662761761839
-0.005031008451532594   -0.04365228786941041   -0.0018476634031495177
-0.005201674381940859   -0.05045590064038382   -0.0018202665875360347
-0.0015280259753532104   -0.04360304818425756   -0.0018075762424467133
-0.004971329159915707   -0.043693469361055344   -0.001832573817267952
-0.005201674381940859   -0.05045590064038382   -0.0018202665875360347
-0.0023589895952443834   -0.050425048411409656   -0.0017893547612955524
-0.0015280259753532104   -0.04360304818425756   -0.0018075762424467133
-0.0022670576877422666   -0.050440992052265585   -0.0017292954425682675
-0.004971329159915707   -0.043693469361055344   -0.001832573817267952
-0.0014682561651843333   -0.043620320774667744   -0.0017597035688553953
-0.0022670576877422666   -0.050440992052265585   -0.0017292954425682675
-0.0015280259753532104   -0.04360304818425756   -0.0018075762424467133
-0.004971329159915707   -0.043693469361055344   -0.001832573817267952
-0.0022670576877422666   -0.050440992052265585   -0.0017292954425682675
-0.005112418972517407   -0.05049175817934732   -0.001811724994221249
-0.005201674381940859   -0.05045590064038382   -0.0018202665875360347
-0.004971329159915707   -0.043693469361055344   -0.001832573817267952
-0.0022670576877422666   -0.050440992052265585   -0.0017292954425682675
-0.005201674381940859   -0.05045590064038382   -0.0018202665875360347
-0.0015280259753532104   -0.04360304818425756   -0.0018075762424467133
-0.004971329159915707   -0.043693469361055344   -0.001832573817267952
-0.005112418972517407   -0.05049175817934732   -0.001811724994221249
-0.0014682561651843333   -0.043620320774667744   -0.0017597035688553953
-0.004909986566143073   -0.04375331238520289   -0.0018260829288363194
-0.005112418972517407   -0.05049175817934732   -0.001811724994221249
-0.0022670576877422666   -0.050440992052265585   -0.0017292954425682675
-0.0014682561651843333   -0.043620320774667744   -0.0017597035688553953
-0.00218398610710095   -0.05048635202025179   -0.001677184392978138
-0.004909986566143073   -0.04375331238520289   -0.0018260829288363194
-0.001414903128255803   -0.043655840895181264   -0.0017203331589838266
-0.00218398610710095   -0.05048635202025179   -0.001677184392978138
-0.0014682561651843333   -0.043620320774667744   -0.0017597035688553953
-0.004909986566143073   -0.04375331238520289   -0.0018260829288363194
-0.00218398610710095   -0.05048635202025179   -0.001677184392978138
-0.005023303861762607   -0.05055769575723267   -0.0018112436371010537
-0.005112418972517407   -0.05049175817934732   -0.001811724994221249
-0.004909986566143073   -0.04375331238520289   -0.0018260829288363194
-0.00218398610710095   -0.05048635202025179   -0.001677184392978138
-0.005112418972517407   -0.05049175817934732   -0.001811724994221249
-0.0014682561651843333   -0.043620320774667744   -0.0017597035688553953
-0.0015893957313717632   -0.043602599604895084   -0.0018636662761761839
-0.002453698764476145   -0.05043481880431994   -0.0018581134084464724
0.002027822367819992   -0.043516593614025004   -0.0018970732801236244
-0.0015280259753532104   -0.04360304818425756   -0.0018075762424467133
-0.002453698764476145   -0.05043481880431994   -0.0018581134084464724
0.0005128910204611107   -0.05033082693339562   -0.0019094296900637332
0.002027822367819992   -0.043516593614025004   -0.0018970732801236244
0.0006281347399321987   -0.05029922115625231   -0.001788784739203297
-0.0015280259753532104   -0.04360304818425756   -0.0018075762424467133
0.0021028662297696617   -0.043492929409616986   -0.001808478710165873
0.0006281347399321987   -0.05029922115625231   -0.001788784739203297
0.002027822367819992   -0.043516593614025004   -0.0018970732801236244
-0.0015280259753532104   -0.04360304818425756   -0.0018075762424467133
0.0006281347399321987   -0.05029922115625231   -0.001788784739203297
-0.0023589895952443834   -0.050425048411409656   -0.0017893547612955524
-0.002453698764476145   -0.05043481880431994   -0.0018581134084464724
-0.0015280259753532104   -0.04360304818425756   -0.0018075762424467133
0.0006281347399321987   -0.05029922115625231   -0.001788784739203297
-0.002453698764476145   -0.05043481880431994   -0.0018581134084464724
0.002027822367819992   -0.043516593614025004   -0.0018970732801236244
-0.0015280259753532104   -0.04360304818425756   -0.0018075762424467133
-0.0023589895952443834   -0.050425048411409656   -0.0017893547612955524
0.0021028662297696617   -0.043492929409616986   -0.001808478710165873
-0.0014682561651843333   -0.043620320774667744   -0.0017597035688553953
-0.0023589895952443834   -0.050425048411409656   -0.0017893547612955524
0.0006281347399321987   -0.05029922115625231   -0.001788784739203297
0.0021028662297696617   -0.043492929409616986   -0.001808478710165873
0.0007496324319670332   -0.05029636294366054   -0.0016791632725799684
-0.0014682561651843333   -0.043620320774667744   -0.0017597035688553953
0.0021798468573571814   -0.04348849016064278   -0.0017286255664192346
0.0007496324319670332   -0.05029636294366054   -0.0016791632725799684
0.0021028662297696617   -0.043492929409616986   -0.001808478710165873
-0.0014682561651843333   -0.043620320774667744   -0.0017597035688553953
0.0007496324319670332   -0.05029636294366054   -0.0016791632725799684
-0.0022670576877422666   -0.050440992052265585   -0.0017292954425682675
-0.0023589895952443834   -0.050425048411409656   -0.0017893547612955524
-0.0014682561651843333   -0.043620320774667744   -0.0017597035688553953
0.0007496324319670332   -0.05029636294366054   -0.0016791632725799684
-0.0023589895952443834   -0.050425048411409656   -0.0017893547612955524
0.0021028662297696617   -0.043492929409616986   -0.001808478710165873
-0.0014682561651843333   -0.043620320774667744   -0.0017597035688553953
-0.0022670576877422666   -0.050440992052265585   -0.0017292954425682675
0.0021798468573571814   -0.04348849016064278   -0.0017286255664192346
-0.001414903128255803   -0.043655840895181264   -0.0017203331589838266
-0.0022670576877422666   -0.050440992052265585   -0.0017292954425682675
0.0007496324319670332   -0.05029636294366054   -0.0016791632725799684
0.0021798468573571814   -0.04348849016064278   -0.0017286255664192346
0.000838490506760466   -0.05032093713343215   -0.001577130191363297
-0.001414903128255803   -0.043655840895181264   -0.0017203331589838266
0.002231097043507025   -0.043499735257182794   -0.0016563604028455763
0.000838490506760466   -0.05032093713343215   -0.001577130191363297
0.0021798468573571814   -0.04348849016064278   -0.0017286255664192346
-0.001414903128255803   -0.043655840895181264   -0.0017203331589838266
0.000838490506760466   -0.05032093713343215   -0.001577130191363297
-0.00218398610710095   -0.05048635202025179   -0.001677184392978138
-0.0022670576877422666   -0.050440992052265585   -0.0017292954425682675
-0.001414903128255803   -0.043655840895181264   -0.0017203331589838266
0.000838490506760466   -0.05032093713343215   -0.001577130191363297
-0.0022670576877422666   -0.050440992052265585   -0.0017292954425682675
0.0021798468573571814   -0.04348849016064278   -0.0017286255664192346
0.002027822367819992   -0.043516593614025004   -0.0018970732801236244
0.0005128910204611107   -0.05033082693339562   -0.0019094296900637332
0.0058749119025307325   -0.043368703807531   -0.0019830048865730836
0.0021028662297696617   -0.043492929409616986   -0.001808478710165873
0.0005128910204611107   -0.05033082693339562   -0.0019094296900637332
0.003674328767503758   -0.05012664668742195   -0.0020189141869701266
0.0058749119025307325   -0.043368703807531   -0.0019830048865730836
0.003966593042988358   -0.05006602600356444   -0.0018342488973751639
0.0021028662297696617   -0.043492929409616986   -0.001808478710165873
0.00607460355535529   -0.04331999135896403   -0.0018540442909353297
0.003966593042988358   -0.05006602600356444   -0.0018342488973751639
0.0058749119025307325   -0.043368703807531   -0.0019830048865730836
0.0021028662297696617   -0.043492929409616986   -0.001808478710165873
0.003966593042988358   -0.05006602600356444   -0.0018342488973751639
0.0006281347399321987   -0.05029922115625231   -0.001788784739203297
0.0005128910204611107   -0.05033082693339562   -0.0019094296900637332
0.0021028662297696617   -0.043492929409616986   -0.001808478710165873
0.003966593042988358   -0.05006602600356444   -0.0018342488973751639
0.0005128910204611107   -0.05033082693339562   -0.0019094296900637332
0.0058749119025307325   -0.043368703807531   -0.0019830048865730836
0.0021028662297696617   -0.043492929409616986   -0.001808478710165873
0.0006281347399321987   -0.05029922115625231   -0.001788784739203297
0.00607460355535529   -0.04331999135896403   -0.0018540442909353297
0.0021798468573571814   -0.04348849016064278   -0.0017286255664192346
0.0006281347399321987   -0.05029922115625231   -0.001788784739203297
0.003966593042988358   -0.05006602600356444   -0.0018342488973751639
0.00607460355535529   -0.04331999135896403   -0.0018540442909353297
0.004190706397828083   -0.05005552767148118   -0.0016632553242841915
0.0021798468573571814   -0.04348849016064278   -0.0017286255664192346
0.006222544494220205   -0.04330657241991441   -0.0017367133995895374
0.004190706397828083   -0.05005552767148118   -0.0016632553242841915
0.00607460355535529   -0.04331999135896403   -0.0018540442909353297
0.0021798468573571814   -0.04348849016064278   -0.0017286255664192346
0.004190706397828083   -0.05005552767148118   -0.0016632553242841915
0.0007496324319670332   -0.05029636294366054   -0.0016791632725799684
0.0006281347399321987   -0.05029922115625231   -0.001788784739203297
0.0021798468573571814   -0.04348849016064278   -0.0017286255664192346
0.004190706397828083   -0.05005552767148118   -0.0016632553242841915
0.0006281347399321987   -0.05029922115625231   -0.001788784739203297
0.00607460355535529   -0.04331999135896403   -0.0018540442909353297
0.0021798468573571814   -0.04348849016064278   -0.0017286255664192346
0.0007496324319670332   -0.05029636294366054   -0.0016791632725799684
0.006222544494220205   -0.04330657241991441   -0.0017367133995895374
0.002231097043507025   -0.043499735257182794   -0.0016563604028455763
0.0007496324319670332   -0.05029636294366054   -0.0016791632725799684
0.004190706397828083   -0.05005552767148118   -0.0016632553242841915
0.006222544494220205   -0.04330657241991441   -0.0017367133995895374
0.004423056971367652   -0.05007356501097899   -0.0015073276564038114
0.002231097043507025   -0.043499735257182794   -0.0016563604028455763
0.006372657156956669   -0.043306470337567585   -0.0016315456649114999
0.004423056971367652   -0.05007356501097899   -0.0015073276564038114
0.006222544494220205   -0.04330657241991441   -0.0017367133995895374
0.002231097043507025   -0.043499735257182794   -0.0016563604028455763
0.004423056971367652   -0.05007356501097899   -0.0015073276564038114
0.000838490506760466   -0.05032093713343215   -0.001577130191363297
0.0007496324319670332   -0.05029636294366054   -0.0016791632725799684
0.002231097043507025   -0.043499735257182794   -0.0016563604028455763
0.004423056971367652   -0.05007356501097899   -0.0015073276564038114
0.0007496324319670332   -0.05029636294366054   -0.0016791632725799684
0.006222544494220205   -0.04330657241991441   -0.0017367133995895374
-0.01160451957939399   -0.05021749360593079   -0.0018526720344112847
-0.0097224524549349   -0.05548341508664185   -0.001681187013982535
-0.008219813324306558   -0.0503748825609413   -0.0018413979968008277
-0.011428785105897286   -0.050251241910480235   -0.001957004031496332
-0.0097224524549349   -0.05548341508664185   -0.001681187013982535
-0.007313292216574939   -0.055716269485480585   -0.0017509866196793987
-0.008219813324306558   -0.0503748825609413   -0.0018413979968008277
-0.00719207585985279   -0.05570434571253928   -0.0018082932755604636
-0.011428785105897286   -0.050251241910480235   -0.001957004031496332
-0.008135509531355658   -0.05039763444186192   -0.0018786423261868326
-0.00719207585985279   -0.05570434571253928   -0.0018082932755604636
-0.008219813324306558   -0.0503748825609413   -0.0018413979968008277
-0.011428785105897286   -0.050251241910480235   -0.001957004031496332
-0.00719207585985279   -0.05570434571253928   -0.0018082932755604636
-0.009460835835436901   -0.055476906633285264   -0.0018356863840246472
-0.0097224524549349   -0.05548341508664185   -0.001681187013982535
-0.011428785105897286   -0.050251241910480235   -0.001957004031496332
-0.00719207585985279   -0.05570434571253928   -0.0018082932755604636
-0.0097224524549349   -0.05548341508664185   -0.001681187013982535
-0.008219813324306558   -0.0503748825609413   -0.0018413979968008277
-0.011428785105897286   -0.050251241910480235   -0.001957004031496332
-0.009460835835436901   -0.055476906633285264   -0.0018356863840246472
-0.008135509531355658   -0.05039763444186192   -0.0018786423261868326
-0.01125357322138902   -0.050315288995473995   -0.002075028459784807
-0.009460835835436901   -0.055476906633285264   -0.0018356863840246472
-0.00719207585985279   -0.05570434571253928   -0.0018082932755604636
-0.008135509531355658   -0.05039763444186192   -0.0018786423261868326
-0.007049457050597763   -0.05573798459824942   -0.0018741826448704832
-0.01125357322138902   -0.050315288995473995   -0.002075028459784807
-0.008029615813217737   -0.05045220663684907   -0.0019242962895248436
-0.007049457050597763   -0.05573798459824942   -0.0018741826448704832
-0.008135509531355658   -0.05039763444186192   -0.0018786423261868326
-0.01125357322138902   -0.050315288995473995   -0.002075028459784807
-0.007049457050597763   -0.05573798459824942   -0.0018741826448704832
-0.00921973146662262   -0.05551844918594984   -0.002002276935258618
-0.009460835835436901   -0.055476906633285264   -0.0018356863840246472
-0.01125357322138902   -0.050315288995473995   -0.002075028459784807
-0.007049457050597763   -0.05573798459824942   -0.0018741826448704832
-0.009460835835436901   -0.055476906633285264   -0.0018356863840246472
-0.008135509531355658   -0.05039763444186192   -0.0018786423261868326
-0.01125357322138902   -0.050315288995473995   -0.002075028459784807
-0.00921973146662262   -0.05551844918594984   -0.002002276935258618
-0.008029615813217737   -0.05045220663684907   -0.0019242962895248436
-0.011029159825365167   -0.05043471845794476   -0.002206499008937472
-0.00921973146662262   -0.05551844918594984   -0.002002276935258618
-0.007049457050597763   -0.05573798459824942   -0.0018741826448704832
-0.008029615813217737   -0.05045220663684907   -0.0019242962895248436
-0.0069200765402739495   -0.055817960079547146   -0.0019481068018115848
-0.011029159825365167   -0.05043471845794476   -0.002206499008937472
-0.0079251469594253   -0.050541700083645766   -0.001978280698892118
-0.0069200765402739495   -0.055817960079547146   -0.0019481068018115848
-0.008029615813217737   -0.05045220663684907   -0.0019242962895248436
-0.011029159825365167   -0.05043471845794476   -0.002206499008937472
-0.0069200765402739495   -0.055817960079547146   -0.0019481068018115848
-0.00892563048501751   -0.055629225017775716   -0.002180252042110735
-0.00921973146662262   -0.05551844918594984   -0.002002276935258618
-0.011029159825365167   -0.05043471845794476   -0.002206499008937472
-0.0069200765402739495   -0.055817960079547146   -0.0019481068018115848
-0.00921973146662262   -0.05551844918594984   -0.002002276935258618
-0.008029615813217737   -0.05045220663684907   -0.0019242962895248436
-0.008219813324306558   -0.0503748825609413   -0.0018413979968008277
-0.007313292216574939   -0.055716269485480585   -0.0017509866196793987
-0.005288141833476232   -0.05044846201493577   -0.0018369686774955957
-0.008135509531355658   -0.05039763444186192   -0.0018786423261868326
-0.007313292216574939   -0.055716269485480585   -0.0017509866196793987
-0.005343840687253585   -0.05586687224192747   -0.0018056228548104297
-0.005288141833476232   -0.05044846201493577   -0.0018369686774955957
-0.0052195008767350675   -0.05584769723624565   -0.0017881012679390688
-0.008135509531355658   -0.05039763444186192   -0.0018786423261868326
-0.005201674381940859   -0.05045590064038382   -0.0018202665875360347
-0.0052195008767350675   -0.05584769723624565   -0.0017881012679390688
-0.005288141833476232   -0.05044846201493577   -0.0018369686774955957
-0.008135509531355658   -0.05039763444186192   -0.0018786423261868326
-0.0052195008767350675   -0.05584769723624565   -0.0017881012679390688
-0.00719207585985279   -0.05570434571253928   -0.0018082932755604636
-0.007313292216574939   -0.055716269485480585   -0.0017509866196793987
-0.008135509531355658   -0.05039763444186192   -0.0018786423261868326
-0.0052195008767350675   -0.05584769723624565   -0.0017881012679390688
-0.007313292216574939   -0.055716269485480585   -0.0017509866196793987
-0.005288141833476232   -0.05044846201493577   -0.0018369686774955957
-0.008135509531355658   -0.05039763444186192   -0.0018786423261868326
-0.00719207585985279   -0.05570434571253928   -0.0018082932755604636
-0.005201674381940859   -0.05045590064038382   -0.0018202665875360347
-0.008029615813217737   -0.05045220663684907   -0.0019242962895248436
-0.00719207585985279   -0.05570434571253928   -0.0018082932755604636
-0.0052195008767350675   -0.05584769723624565   -0.0017881012679390688
-0.005201674381940859   -0.05045590064038382   -0.0018202665875360347
-0.0050968817838397485   -0.055867866191913036   -0.0017789191818305575
-0.008029615813217737   -0.05045220663684907   -0.0019242962895248436
-0.005112418972517407   -0.05049175817934732   -0.001811724994221249
-0.0050968817838397485   -0.055867866191913036   -0.0017789191818305575
-0.005201674381940859   -0.05045590064038382   -0.0018202665875360347
-0.008029615813217737   -0.05045220663684907   -0.0019242962895248436
-0.0050968817838397485   -0.055867866191913036   -0.0017789191818305575
-0.007049457050597763   -0.05573798459824942   -0.0018741826448704832
-0.00719207585985279   -0.05570434571253928   -0.0018082932755604636
-0.008029615813217737   -0.05045220663684907   -0.0019242962895248436
-0.0050968817838397485   -0.055867866191913036   -0.0017789191818305575
-0.00719207585985279   -0.05570434571253928   -0.0018082932755604636
-0.005201674381940859   -0.05045590064038382   -0.0018202665875360347
-0.008029615813217737   -0.05045220663684907   -0.0019242962895248436
-0.007049457050597763   -0.05573798459824942   -0.0018741826448704832
-0.005112418972517407   -0.05049175817934732   -0.001811724994221249
-0.0079251469594253   -0.050541700083645766   -0.001978280698892118
-0.007049457050597763   -0.05573798459824942   -0.0018741826448704832
-0.0050968817838397485   -0.055867866191913036   -0.0017789191818305575
-0.005112418972517407   -0.05049175817934732   -0.001811724994221249
-0.004984027460967702   -0.05592867465861539   -0.001779818628741738
-0.0079251469594253   -0.050541700083645766   -0.001978280698892118
-0.005023303861762607   -0.05055769575723267   -0.0018112436371010537
-0.004984027460967702   -0.05592867465861539   -0.001779818628741738
-0.005112418972517407   -0.05049175817934732   -0.001811724994221249
-0.0079251469594253   -0.050541700083645766   -0.001978280698892118
-0.004984027460967702   -0.05592867465861539   -0.001779818628741738
-0.0069200765402739495   -0.055817960079547146   -0.0019481068018115848
-0.007049457050597763   -0.05573798459824942   -0.0018741826448704832
-0.0079251469594253   -0.050541700083645766   -0.001978280698892118
-0.004984027460967702   -0.05592867465861539   -0.001779818628741738
-0.007049457050597763   -0.05573798459824942   -0.0018741826448704832
-0.005112418972517407   -0.05049175817934732   -0.001811724994221249
-0.005288141833476232   -0.05044846201493577   -0.0018369686774955957
-0.005343840687253585   -0.05586687224192747   -0.0018056228548104297
-0.002453698764476145   -0.05043481880431994   -0.0018581134084464724
-0.005201674381940859   -0.05045590064038382   -0.0018202665875360347
-0.005343840687253585   -0.05586687224192747   -0.0018056228548104297
-0.003457405772062058   -0.0559454953719658   -0.0018702964834220656
-0.002453698764476145   -0.05043481880431994   -0.0018581134084464724
-0.003317250180701923   -0.055917763692241204   -0.00178218760427443
-0.005201674381940859   -0.05045590064038382   -0.0018202665875360347
-0.0023589895952443834   -0.050425048411409656   -0.0017893547612955524
-0.003317250180701923   -0.055917763692241204   -0.00178218760427443
-0.002453698764476145   -0.05043481880431994   -0.0018581134084464724
-0.005201674381940859   -0.05045590064038382   -0.0018202665875360347
-0.003317250180701923   -0.055917763692241204   -0.00178218760427443
-0.0052195008767350675   -0.05584769723624565   -0.0017881012679390688
-0.005343840687253585   -0.05586687224192747   -0.0018056228548104297
-0.005201674381940859   -0.05045590064038382   -0.0018202665875360347
-0.003317250180701923   -0.055917763692241204   -0.00178218760427443
-0.005343840687253585   -0.05586687224192747   -0.0018056228548104297
-0.002453698764476145   -0.05043481880431994   -0.0018581134084464724
-0.005201674381940859   -0.05045590064038382   -0.0018202665875360347
-0.0052195008767350675   -0.05584769723624565   -0.0017881012679390688
-0.0023589895952443834   -0.050425048411409656   -0.0017893547612955524
-0.005112418972517407   -0.05049175817934732   -0.001811724994221249
-0.0052195008767350675   -0.05584769723624565   -0.0017881012679390688
-0.003317250180701923   -0.055917763692241204   -0.00178218760427443
-0.0023589895952443834   -0.050425048411409656   -0.0017893547612955524
-0.0031836243154880935   -0.05592465551679238   -0.0017014619994321723
-0.005112418972517407   -0.05049175817934732   -0.001811724994221249
-0.0022670576877422666   -0.050440992052265585   -0.0017292954425682675
-0.0031836243154880935   -0.05592465551679238   -0.0017014619994321723
-0.0023589895952443834   -0.050425048411409656   -0.0017893547612955524
-0.005112418972517407   -0.05049175817934732   -0.001811724994221249
-0.0031836243154880935   -0.05592465551679238   -0.0017014619994321723
-0.0050968817838397485   -0.055867866191913036   -0.0017789191818305575
-0.0052195008767350675   -0.05584769723624565   -0.0017881012679390688
-0.005112418972517407   -0.05049175817934732   -0.001811724994221249
-0.0031836243154880935   -0.05592465551679238   -0.0017014619994321723
-0.0052195008767350675   -0.05584769723624565   -0.0017881012679390688
-0.0023589895952443834   -0.050425048411409656   -0.0017893547612955524
-0.005112418972517407   -0.05049175817934732   -0.001811724994221249
-0.0050968817838397485   -0.055867866191913036   -0.0017789191818305575
-0.0022670576877422666   -0.050440992052265585   -0.0017292954425682675
-0.005023303861762607   -0.05055769575723267   -0.0018112436371010537
-0.0050968817838397485   -0.055867866191913036   -0.0017789191818305575
-0.0031836243154880935   -0.05592465551679238   -0.0017014619994321723
-0.0022670576877422666   -0.050440992052265585   -0.0017292954425682675
-0.0030724465305462653   -0.05597286724838615   -0.0016327059913425945
-0.005023303861762607   -0.05055769575723267   -0.0018112436371010537
-0.00218398610710095   -0.05048635202025179   -0.001677184392978138
-0.0030724465305462653   -0.05597286724838615   -0.0016327059913425945
-0.0022670576877422666   -0.050440992052265585   -0.0017292954425682675
-0.005023303861762607   -0.05055769575723267   -0.0018112436371010537
-0.0030724465305462653   -0.05597286724838615   -0.0016327059913425945
-0.004984027460967702   -0.05592867465861539   -0.001779818628741738
-0.0050968817838397485   -0.055867866191913036   -0.0017789191818305575
-0.005023303861762607   -0.05055769575723267   -0.0018112436371010537
-0.0030724465305462653   -0.05597286724838615   -0.0016327059913425945
-0.0050968817838397485   -0.055867866191913036   -0.0017789191818305575
-0.0022670576877422666   -0.050440992052265585   -0.0017292954425682675
-0.002453698764476145   -0.05043481880431994   -0.0018581134084464724
-0.003457405772062058   -0.0559454953719658   -0.0018702964834220656
0.0005128910204611107   -0.05033082693339562   -0.0019094296900637332
-0.0023589895952443834   -0.050425048411409656   -0.0017893547612955524
-0.003457405772062058   -0.0559454953719658   -0.0018702964834220656
-0.0014521432527182761   -0.05592455716519701   -0.00194657150743348
0.0005128910204611107   -0.05033082693339562   -0.0019094296900637332
-0.00127219331997677   -0.055881063909473554   -0.0017909063099368534
-0.0023589895952443834   -0.050425048411409656   -0.0017893547612955524
0.0006281347399321987   -0.05029922115625231   -0.001788784739203297
-0.00127219331997677   -0.055881063909473554   -0.0017909063099368534
0.0005128910204611107   -0.05033082693339562   -0.0019094296900637332
-0.0023589895952443834   -0.050425048411409656   -0.0017893547612955524
-0.00127219331997677   -0.055881063909473554   -0.0017909063099368534
-0.003317250180701923   -0.055917763692241204   -0.00178218760427443
-0.003457405772062058   -0.0559454953719658   -0.0018702964834220656
-0.0023589895952443834   -0.050425048411409656   -0.0017893547612955524
-0.00127219331997677   -0.055881063909473554   -0.0017909063099368534
-0.003457405772062058   -0.0559454953719658   -0.0018702964834220656
0.0005128910204611107   -0.05033082693339562   -0.0019094296900637332
-0.0023589895952443834   -0.050425048411409656   -0.0017893547612955524
-0.003317250180701923   -0.055917763692241204   -0.00178218760427443
0.0006281347399321987   -0.05029922115625231   -0.001788784739203297
-0.0022670576877422666   -0.050440992052265585   -0.0017292954425682675
-0.003317250180701923   -0.055917763692241204   -0.00178218760427443
-0.00127219331997677   -0.055881063909473554   -0.0017909063099368534
0.0006281347399321987   -0.05029922115625231   -0.001788784739203297
-0.0010881103260852072   -0.05587345251134133   -0.0016431325583435032
-0.0022670576877422666   -0.050440992052265585   -0.0017292954425682675
0.0007496324319670332   -0.05029636294366054   -0.0016791632725799684
-0.0010881103260852072   -0.05587345251134133   -0.0016431325583435032
0.0006281347399321987   -0.05029922115625231   -0.001788784739203297
-0.0022670576877422666   -0.050440992052265585   -0.0017292954425682675
-0.0010881103260852072   -0.05587345251134133   -0.0016431325583435032
-0.0031836243154880935   -0.05592465551679238   -0.0017014619994321723
-0.003317250180701923   -0.055917763692241204   -0.00178218760427443
-0.0022670576877422666   -0.050440992052265585   -0.0017292954425682675
-0.0010881103260852072   -0.05587345251134133   -0.0016431325583435032
-0.003317250180701923   -0.055917763692241204   -0.00178218760427443
0.0006281347399321987   -0.05029922115625231   -0.001788784739203297
-0.0022670576877422666   -0.050440992052265585   -0.0017292954425682675
-0.0031836243154880935   -0.05592465551679238   -0.0017014619994321723
0.0007496324319670332   -0.05029636294366054   -0.0016791632725799684
-0.00218398610710095   -0.05048635202025179   -0.001677184392978138
-0.0031836243154880935   -0.05592465551679238   -0.0017014619994321723
-0.0010881103260852072   -0.05587345251134133   -0.0016431325583435032
0.0007496324319670332   -0.05029636294366054   -0.0016791632725799684
-0.0009518266121822552   -0.05590940954951441   -0.0015088689161056818
-0.00218398610710095   -0.05048635202025179   -0.001677184392978138
0.000838490506760466   -0.05032093713343215   -0.001577130191363297
-0.0009518266121822552   -0.05590940954951441   -0.0015088689161056818
0.0007496324319670332   -0.05029636294366054   -0.0016791632725799684
-0.00218398610710095   -0.05048635202025179   -0.001677184392978138
-0.0009518266121822552   -0.05590940954951441   -0.0015088689161056818
-0.0030724465305462653   -0.05597286724838615   -0.0016327059913425945
-0.0031836243154880935   -0.05592465551679238   -0.0017014619994321723
-0.00218398610710095   -0.05048635202025179   -0.001677184392978138
-0.0009518266121822552   -0.05590940954951441   -0.0015088689161056818
-0.0031836243154880935   -0.05592465551679238   -0.0017014619994321723
0.0007496324319670332   -0.05029636294366054   -0.0016791632725799684
0.0005128910204611107   -0.05033082693339562   -0.0019094296900637332
-0.0014521432527182761   -0.05592455716519701   -0.00194657150743348
0.003674328767503758   -0.05012664668742195   -0.0020189141869701266
0.0006281347399321987   -0.05029922115625231   -0.001788784739203297
-0.0014521432527182761   -0.05592455716519701   -0.00194657150743348
0.0007046168643109466   -0.05573160415957132   -0.002102558925718512
0.003674328767503758   -0.05012664668742195   -0.0020189141869701266
0.001124804120231563   -0.05563706216346283   -0.0018479783292321248
0.0006281347399321987   -0.05029922115625231   -0.001788784739203297
0.003966593042988358   -0.05006602600356444   -0.0018342488973751639
0.001124804120231563   -0.05563706216346283   -0.0018479783292321248
0.003674328767503758   -0.05012664668742195   -0.0020189141869701266
0.0006281347399321987   -0.05029922115625231   -0.001788784739203297
0.001124804120231563   -0.05563706216346283   -0.0018479783292321248
-0.00127219331997677   -0.055881063909473554   -0.0017909063099368534
-0.0014521432527182761   -0.05592455716519701   -0.00194657150743348
0.0006281347399321987   -0.05029922115625231   -0.001788784739203297
0.001124804120231563   -0.05563706216346283   -0.0018479783292321248
-0.0014521432527182761   -0.05592455716519701   -0.00194657150743348
0.003674328767503758   -0.05012664668742195   -0.0020189141869701266
0.0006281347399321987   -0.05029922115625231   -0.001788784739203297
-0.00127219331997677   -0.055881063909473554   -0.0017909063099368534
0.003966593042988358   -0.05006602600356444   -0.0018342488973751639
0.0007496324319670332   -0.05029636294366054   -0.0016791632725799684
-0.00127219331997677   -0.055881063909473554   -0.0017909063099368534
0.001124804120231563   -0.05563706216346283   -0.0018479783292321248
0.003966593042988358   -0.05006602600356444   -0.0018342488973751639
0.0014549745521971848   -0.0556179661627969   -0.001608876733395046
0.0007496324319670332   -0.05029636294366054   -0.0016791632725799684
0.004190706397828083   -0.05005552767148118   -0.0016632553242841915
0.0014549745521971848   -0.0556179661627969   -0.001608876733395046
0.003966593042988358   -0.05006602600356444   -0.0018342488973751639
0.0007496324319670332   -0.05029636294366054   -0.0016791632725799684
0.0014549745521971848   -0.0556179661627969   -0.001608876733395046
-0.0010881103260852072   -0.05587345251134133   -0.0016431325583435032
-0.00127219331997677   -0.055881063909473554   -0.0017909063099368534
0.0007496324319670332   -0.05029636294366054   -0.0016791632725799684
0.0014549745521971848   -0.0556179661627969   -0.001608876733395046
-0.00127219331997677   -0.055881063909473554   -0.0017909063099368534
0.003966593042988358   -0.05006602600356444   -0.0018342488973751639
0.0007496324319670332   -0.05029636294366054   -0.0016791632725799684
-0.0010881103260852072   -0.05587345251134133   -0.0016431325583435032
0.004190706397828083   -0.05005552767148118   -0.0016632553242841915
0.000838490506760466   -0.05032093713343215   -0.001577130191363297
-0.0010881103260852072   -0.05587345251134133   -0.0016431325583435032
0.0014549745521971848   -0.0556179661627969   -0.001608876733395046
0.004190706397828083   -0.05005552767148118   -0.0016632553242841915
0.0017982895786260325   -0.055634277957125444   -0.001390430931156643
0.000838490506760466   -0.05032093713343215   -0.001577130191363297
0.004423056971367652   -0.05007356501097899   -0.0015073276564038114
0.0017982895786260325   -0.055634277957125444   -0.001390430931156643
0.004190706397828083   -0.05005552767148118   -0.0016632553242841915
0.000838490506760466   -0.05032093713343215   -0.001577130191363297
0.0017982895786260325   -0.055634277957125444   -0.001390430931156643
-0.0009518266121822552   -0.05590940954951441   -0.0015088689161056818
-0.0010881103260852072   -0.05587345251134133   -0.0016431325583435032
0.000838490506760466   -0.05032093713343215   -0.001577130191363297
0.0017982895786260325   -0.055634277957125444   -0.001390430931156643
-0.0010881103260852072   -0.05587345251134133   -0.0016431325583435032
0.004190706397828083   -0.05005552767148118   -0.0016632553242841915
-0.0097224524549349   -0.05548341508664185   -0.001681187013982535
-0.007137020239969909   -0.05861498943636589   -0.0014796871250249664
-0.007313292216574939   -0.055716269485480585   -0.0017509866196793987
-0.009460835835436901   -0.055476906633285264   -0.0018356863840246472
-0.007137020239969909   -0.05861498943636589   -0.0014796871250249664
-0.006014203158081362   -0.058909321432418615   -0.001656334504986626
-0.007313292216574939   -0.055716269485480585   -0.0017509866196793987
-0.005861413629252716   -0.05885132621577352   -0.0017173685837691278
-0.009460835835436901   -0.055476906633285264   -0.0018356863840246472
-0.00719207585985279   -0.05570434571253928   -0.0018082932755604636
-0.005861413629252716   -0.05885132621577352   -0.0017173685837691278
-0.007313292216574939   -0.055716269485480585   -0.0017509866196793987
-0.009460835835436901   -0.055476906633285264   -0.0018356863840246472
-0.005861413629252716   -0.05885132621577352   -0.0017173685837691278
-0.00681119478292804   -0.058549630161601265   -0.0016650041137674515
-0.007137020239969909   -0.05861498943636589   -0.0014796871250249664
-0.009460835835436901   -0.055476906633285264   -0.0018356863840246472
-0.005861413629252716   -0.05885132621577352   -0.0017173685837691278
-0.007137020239969909   -0.05861498943636589   -0.0014796871250249664
-0.007313292216574939   -0.055716269485480585   -0.0017509866196793987
-0.009460835835436901   -0.055476906633285264   -0.0018356863840246472
-0.00681119478292804   -0.058549630161601265   -0.0016650041137674515
-0.00719207585985279   -0.05570434571253928   -0.0018082932755604636
-0.00921973146662262   -0.05551844918594984   -0.002002276935258618
-0.00681119478292804   -0.058549630161601265   -0.0016650041137674515
-0.005861413629252716   -0.05885132621577352   -0.0017173685837691278
-0.00719207585985279   -0.05570434571253928   -0.0018082932755604636
-0.005692111632964754   -0.05885441041322492   -0.0017790250234276097
-0.00921973146662262   -0.05551844918594984   -0.002002276935258618
-0.007049457050597763   -0.05573798459824942   -0.0018741826448704832
-0.005692111632964754   -0.05885441041322492   -0.0017790250234276097
-0.00719207585985279   -0.05570434571253928   -0.0018082932755604636
-0.00921973146662262   -0.05551844918594984   -0.002002276935258618
-0.005692111632964754   -0.05885441041322492   -0.0017790250234276097
-0.006530091859560079   -0.05855546715000915   -0.0018496266188275999
-0.00681119478292804   -0.058549630161601265   -0.0016650041137674515
-0.00921973146662262   -0.05551844918594984   -0.002002276935258618
-0.005692111632964754   -0.05885441041322492   -0.0017790250234276097
-0.00681119478292804   -0.058549630161601265   -0.0016650041137674515
-0.00719207585985279   -0.05570434571253928   -0.0018082932755604636
-0.00921973146662262   -0.05551844918594984   -0.002002276935258618
-0.006530091859560079   -0.05855546715000915   -0.0018496266188275999
-0.007049457050597763   -0.05573798459824942   -0.0018741826448704832
-0.00892563048501751   -0.055629225017775716   -0.002180252042110735
-0.006530091859560079   -0.05855546715000915   -0.0018496266188275999
-0.005692111632964754   -0.05885441041322492   -0.0017790250234276097
-0.007049457050597763   -0.05573798459824942   -0.0018741826448704832
-0.005534877938133503   -0.058918867893014   -0.0018415614641559865
-0.00892563048501751   -0.055629225017775716   -0.002180252042110735
-0.0069200765402739495   -0.055817960079547146   -0.0019481068018115848
-0.005534877938133503   -0.058918867893014   -0.0018415614641559865
-0.007049457050597763   -0.05573798459824942   -0.0018741826448704832
-0.00892563048501751   -0.055629225017775716   -0.002180252042110735
-0.005534877938133503   -0.058918867893014   -0.0018415614641559865
-0.0061966040610577375   -0.058636612071111135   -0.0020382197144296465
-0.006530091859560079   -0.05855546715000915   -0.0018496266188275999
-0.00892563048501751   -0.055629225017775716   -0.002180252042110735
-0.005534877938133503   -0.058918867893014   -0.0018415614641559865
-0.006530091859560079   -0.05855546715000915   -0.0018496266188275999
-0.007049457050597763   -0.05573798459824942   -0.0018741826448704832
-0.007313292216574939   -0.055716269485480585   -0.0017509866196793987
-0.006014203158081362   -0.058909321432418615   -0.001656334504986626
-0.005343840687253585   -0.05586687224192747   -0.0018056228548104297
-0.00719207585985279   -0.05570434571253928   -0.0018082932755604636
-0.006014203158081362   -0.058909321432418615   -0.001656334504986626
-0.005191043679051347   -0.05920390561059748   -0.0018123993225179146
-0.005343840687253585   -0.05586687224192747   -0.0018056228548104297
-0.005029921371647093   -0.05914435746662909   -0.0017698713425328232
-0.00719207585985279   -0.05570434571253928   -0.0018082932755604636
-0.0052195008767350675   -0.05584769723624565   -0.0017881012679390688
-0.005029921371647093   -0.05914435746662909   -0.0017698713425328232
-0.005343840687253585   -0.05586687224192747   -0.0018056228548104297
-0.00719207585985279   -0.05570434571253928   -0.0018082932755604636
-0.005029921371647093   -0.05914435746662909   -0.0017698713425328232
-0.005861413629252716   -0.05885132621577352   -0.0017173685837691278
-0.006014203158081362   -0.058909321432418615   -0.001656334504986626
-0.00719207585985279   -0.05570434571253928   -0.0018082932755604636
-0.005029921371647093   -0.05914435746662909   -0.0017698713425328232
-0.006014203158081362   -0.058909321432418615   -0.001656334504986626
-0.005343840687253585   -0.05586687224192747   -0.0018056228548104297
-0.00719207585985279   -0.05570434571253928   -0.0018082932755604636
-0.005861413629252716   -0.05885132621577352   -0.0017173685837691278
-0.0052195008767350675   -0.05584769723624565   -0.0017881012679390688
-0.007049457050597763   -0.05573798459824942   -0.0018741826448704832
-0.005861413629252716   -0.05885132621577352   -0.0017173685837691278
-0.005029921371647093   -0.05914435746662909   -0.0017698713425328232
-0.0052195008767350675   -0.05584769723624565   -0.0017881012679390688
-0.004874102011975479   -0.059143452083123556   -0.0017268202421418402
-0.007049457050597763   -0.05573798459824942   -0.0018741826448704832
-0.0050968817838397485   -0.055867866191913036   -0.0017789191818305575
-0.004874102011975479   -0.059143452083123556   -0.0017268202421418402
-0.0052195008767350675   -0.05584769723624565   -0.0017881012679390688
-0.007049457050597763   -0.05573798459824942   -0.0018741826448704832
-0.004874102011975479   -0.059143452083123556   -0.0017268202421418402
-0.005692111632964754   -0.05885441041322492   -0.0017790250234276097
-0.005861413629252716   -0.05885132621577352   -0.0017173685837691278
-0.007049457050597763   -0.05573798459824942   -0.0018741826448704832
-0.004874102011975479   -0.059143452083123556   -0.0017268202421418402
-0.005861413629252716   -0.05885132621577352   -0.0017173685837691278
-0.0052195008767350675   -0.05584769723624565   -0.0017881012679390688
-0.007049457050597763   -0.05573798459824942   -0.0018741826448704832
-0.005692111632964754   -0.05885441041322492   -0.0017790250234276097
-0.0050968817838397485   -0.055867866191913036   -0.0017789191818305575
-0.0069200765402739495   -0.055817960079547146   -0.0019481068018115848
-0.005692111632964754   -0.05885441041322492   -0.0017790250234276097
-0.004874102011975479   -0.059143452083123556   -0.0017268202421418402
-0.0050968817838397485   -0.055867866191913036   -0.0017789191818305575
-0.004711683689998062   -0.059199975428304   -0.0016854833931957843
-0.0069200765402739495   -0.055817960079547146   -0.0019481068018115848
-0.004984027460967702   -0.05592867465861539   -0.001779818628741738
-0.004711683689998062   -0.059199975428304   -0.0016854833931957843
-0.0050968817838397485   -0.055867866191913036   -0.0017789191818305575
-0.0069200765402739495   -0.055817960079547146   -0.0019481068018115848
-0.004711683689998062   -0.059199975428304   -0.0016854833931957843
-0.005534877938133503   -0.058918867893014   -0.0018415614641559865
-0.005692111632964754   -0.05885441041322492   -0.0017790250234276097
-0.0069200765402739495   -0.055817960079547146   -0.0019481068018115848
-0.004711683689998062   -0.059199975428304   -0.0016854833931957843
-0.005692111632964754   -0.05885441041322492   -0.0017790250234276097
-0.0050968817838397485   -0.055867866191913036   -0.0017789191818305575
-0.005343840687253585   -0.05586687224192747   -0.0018056228548104297
-0.005191043679051347   -0.05920390561059748   -0.0018123993225179146
-0.003457405772062058   -0.0559454953719658   -0.0018702964834220656
-0.0052195008767350675   -0.05584769723624565   -0.0017881012679390688
-0.005191043679051347   -0.05920390561059748   -0.0018123993225179146
-0.004438992412947447   -0.05955854140721383   -0.0019843781820448815
-0.003457405772062058   -0.0559454953719658   -0.0018702964834220656
-0.004241526421718149   -0.05950677387445359   -0.0018324963562157883
-0.0052195008767350675   -0.05584769723624565   -0.0017881012679390688
-0.003317250180701923   -0.055917763692241204   -0.00178218760427443
-0.004241526421718149   -0.05950677387445359   -0.0018324963562157883
-0.003457405772062058   -0.0559454953719658   -0.0018702964834220656
-0.0052195008767350675   -0.05584769723624565   -0.0017881012679390688
-0.004241526421718149   -0.05950677387445359   -0.0018324963562157883
-0.005029921371647093   -0.05914435746662909   -0.0017698713425328232
-0.005191043679051347   -0.05920390561059748   -0.0018123993225179146
-0.0052195008767350675   -0.05584769723624565   -0.0017881012679390688
-0.004241526421718149   -0.05950677387445359   -0.0018324963562157883
-0.005191043679051347   -0.05920390561059748   -0.0018123993225179146
-0.003457405772062058   -0.0559454953719658   -0.0018702964834220656
-0.0052195008767350675   -0.05584769723624565   -0.0017881012679390688
-0.005029921371647093   -0.05914435746662909   -0.0017698713425328232
-0.003317250180701923   -0.055917763692241204   -0.00178218760427443
-0.0050968817838397485   -0.055867866191913036   -0.0017789191818305575
-0.005029921371647093   -0.05914435746662909   -0.0017698713425328232
-0.004241526421718149   -0.05950677387445359   -0.0018324963562157883
-0.003317250180701923   -0.055917763692241204   -0.00178218760427443
-0.004058498126204878   -0.059504097920592865   -0.001681092787747476
-0.0050968817838397485   -0.055867866191913036   -0.0017789191818305575
-0.0031836243154880935   -0.05592465551679238   -0.0017014619994321723
-0.004058498126204878   -0.059504097920592865   -0.001681092787747476
-0.003317250180701923   -0.055917763692241204   -0.00178218760427443
-0.0050968817838397485   -0.055867866191913036   -0.0017789191818305575
-0.004058498126204878   -0.059504097920592865   -0.001681092787747476
-0.004874102011975479   -0.059143452083123556   -0.0017268202421418402
-0.005029921371647093   -0.05914435746662909   -0.0017698713425328232
-0.0050968817838397485   -0.055867866191913036   -0.0017789191818305575
-0.004058498126204878   -0.059504097920592865   -0.001681092787747476
-0.005029921371647093   -0.05914435746662909   -0.0017698713425328232
-0.003317250180701923   -0.055917763692241204   -0.00178218760427443
-0.0050968817838397485   -0.055867866191913036   -0.0017789191818305575
-0.004874102011975479   -0.059143452083123556   -0.0017268202421418402
-0.0031836243154880935   -0.05592465551679238   -0.0017014619994321723
-0.004984027460967702   -0.05592867465861539   -0.001779818628741738
-0.004874102011975479   -0.059143452083123556   -0.0017268202421418402
-0.004058498126204878   -0.059504097920592865   -0.001681092787747476
-0.0031836243154880935   -0.05592465551679238   -0.0017014619994321723
-0.0038620725153546663   -0.0595478871259385   -0.0015294112691149578
-0.004984027460967702   -0.05592867465861539   -0.001779818628741738
-0.0030724465305462653   -0.05597286724838615   -0.0016327059913425945
-0.0038620725153546663   -0.0595478871259385   -0.0015294112691149578
-0.0031836243154880935   -0.05592465551679238   -0.0017014619994321723
-0.004984027460967702   -0.05592867465861539   -0.001779818628741738
-0.0038620725153546663   -0.0595478871259385   -0.0015294112691149578
-0.004711683689998062   -0.059199975428304   -0.0016854833931957843
-0.004874102011975479   -0.059143452083123556   -0.0017268202421418402
-0.004984027460967702   -0.05592867465861539   -0.001779818628741738
-0.0038620725153546663   -0.0595478871259385   -0.0015294112691149578
-0.004874102011975479   -0.059143452083123556   -0.0017268202421418402
-0.0031836243154880935   -0.05592465551679238   -0.0017014619994321723
-0.003457405772062058   -0.0559454953719658   -0.0018702964834220656
-0.004438992412947447   -0.05955854140721383   -0.0019843781820448815
-0.0014521432527182761   -0.05592455716519701   -0.00194657150743348
-0.003317250180701923   -0.055917763692241204   -0.00178218760427443
-0.004438992412947447   -0.05955854140721383   -0.0019843781820448815
-0.003698839823765837   -0.06   -0.0021169483152106336
-0.0014521432527182761   -0.05592455716519701   -0.00194657150743348
-0.0034503516578885812   -0.06   -0.001885912727620093
-0.003317250180701923   -0.055917763692241204   -0.00178218760427443
-0.00127219331997677   -0.055881063909473554   -0.0017909063099368534
-0.0034503516578885812   -0.06   -0.001885912727620093
-0.0014521432527182761   -0.05592455716519701   -0.00194657150743348
-0.003317250180701923   -0.055917763692241204   -0.00178218760427443
-0.0034503516578885812   -0.06   -0.001885912727620093
-0.004241526421718149   -0.05950677387445359   -0.0018324963562157883
-0.004438992412947447   -0.05955854140721383   -0.0019843781820448815
-0.003317250180701923   -0.055917763692241204   -0.00178218760427443
-0.0034503516578885812   -0.06   -0.001885912727620093
-0.004438992412947447   -0.05955854140721383   -0.0019843781820448815
-0.0014521432527182761   -0.05592455716519701   -0.00194657150743348
-0.003317250180701923   -0.055917763692241204   -0.00178218760427443
-0.004241526421718149   -0.05950677387445359   -0.0018324963562157883
-0.00127219331997677   -0.055881063909473554   -0.0017909063099368534
-0.0031836243154880935   -0.05592465551679238   -0.0017014619994321723
-0.004241526421718149   -0.05950677387445359   -0.0018324963562157883
-0.0034503516578885812   -0.06   -0.001885912727620093
-0.00127219331997677   -0.055881063909473554   -0.0017909063099368534
-0.0032005791164246454   -0.06   -0.0016521407570582773
-0.0031836243154880935   -0.05592465551679238   -0.0017014619994321723
-0.0010881103260852072   -0.05587345251134133   -0.0016431325583435032
-0.0032005791164246454   -0.06   -0.0016521407570582773
-0.00127219331997677   -0.055881063909473554   -0.0017909063099368534
-0.0031836243154880935   -0.05592465551679238   -0.0017014619994321723
-0.0032005791164246454   -0.06   -0.0016521407570582773
-0.004058498126204878   -0.059504097920592865   -0.001681092787747476
-0.004241526421718149   -0.05950677387445359   -0.0018324963562157883
-0.0031836243154880935   -0.05592465551679238   -0.0017014619994321723
-0.0032005791164246454   -0.06   -0.0016521407570582773
-0.004241526421718149   -0.05950677387445359   -0.0018324963562157883
-0.00127219331997677   -0.055881063909473554   -0.0017909063099368534
-0.0031836243154880935   -0.05592465551679238   -0.0017014619994321723
-0.004058498126204878   -0.059504097920592865   -0.001681092787747476
-0.0010881103260852072   -0.05587345251134133   -0.0016431325583435032
-0.0030724465305462653   -0.05597286724838615   -0.0016327059913425945
-0.004058498126204878   -0.059504097920592865   -0.001681092787747476
-0.0032005791164246454   -0.06   -0.0016521407570582773
-0.0010881103260852072   -0.05587345251134133   -0.0016431325583435032
-0.002956550088747477   -0.06   -0.0014214682340906526
-0.0030724465305462653   -0.05597286724838615   -0.0016327059913425945
-0.0009518266121822552   -0.05590940954951441   -0.0015088689161056818
-0.002956550088747477   -0.06   -0.0014214682340906526
-0.0010881103260852072   -0.05587345251134133   -0.0016431325583435032
-0.0030724465305462653   -0.05597286724838615   -0.0016327059913425945
-0.002956550088747477   -0.06   -0.0014214682340906526
-0.0038620725153546663   -0.0595478871259385   -0.0015294112691149578
-0.004058498126204878   -0.059504097920592865   -0.001681092787747476
-0.0030724465305462653   -0.05597286724838615   -0.0016327059913425945
-0.002956550088747477   -0.06   -0.0014214682340906526
-0.004058498126204878   -0.059504097920592865   -0.001681092787747476
-0.0010881103260852072   -0.05587345251134133   -0.0016431325583435032
-0.0014521432527182761   -0.05592455716519701   -0.00194657150743348
-0.003698839823765837   -0.06   -0.0021169483152106336
0.0007046168643109466   -0.05573160415957132   -0.002102558925718512
-0.00127219331997677   -0.055881063909473554   -0.0017909063099368534
-0.003698839823765837   -0.06   -0.0021169483152106336
-0.003160817672400105   -0.06   -0.0022775006488660594
0.0007046168643109466   -0.05573160415957132   -0.002102558925718512
-0.002640436416849402   -0.06   -0.001943076475270996
-0.00127219331997677   -0.055881063909473554   -0.0017909063099368534
0.001124804120231563   -0.05563706216346283   -0.0018479783292321248
-0.002640436416849402   -0.06   -0.001943076475270996
0.0007046168643109466   -0.05573160415957132   -0.002102558925718512
-0.00127219331997677   -0.055881063909473554   -0.0017909063099368534
-0.002640436416849402   -0.06   -0.001943076475270996
-0.0034503516578885812   -0.06   -0.001885912727620093
-0.003698839823765837   -0.06   -0.0021169483152106336
-0.00127219331997677   -0.055881063909473554   -0.0017909063099368534
-0.002640436416849402   -0.06   -0.001943076475270996
-0.003698839823765837   -0.06   -0.0021169483152106336
0.0007046168643109466   -0.05573160415957132   -0.002102558925718512
-0.00127219331997677   -0.055881063909473554   -0.0017909063099368534
-0.0034503516578885812   -0.06   -0.001885912727620093
0.001124804120231563   -0.05563706216346283   -0.0018479783292321248
-0.0010881103260852072   -0.05587345251134133   -0.0016431325583435032
-0.0034503516578885812   -0.06   -0.001885912727620093
-0.002640436416849402   -0.06   -0.001943076475270996
0.001124804120231563   -0.05563706216346283   -0.0018479783292321248
-0.002225448432447973   -0.06   -0.001623168443951639
-0.0010881103260852072   -0.05587345251134133   -0.0016431325583435032
0.0014549745521971848   -0.0556179661627969   -0.001608876733395046
-0.002225448432447973   -0.06   -0.001623168443951639
0.001124804120231563   -0.05563706216346283   -0.0018479783292321248
-0.0010881103260852072   -0.05587345251134133   -0.0016431325583435032
-0.002225448432447973   -0.06   -0.001623168443951639
-0.0032005791164246454   -0.06   -0.0016521407570582773
-0.0034503516578885812   -0.06   -0.001885912727620093
-0.0010881103260852072   -0.05587345251134133   -0.0016431325583435032
-0.002225448432447973   -0.06   -0.001623168443951639
-0.0034503516578885812   -0.06   -0.001885912727620093
0.001124804120231563   -0.05563706216346283   -0.0018479783292321248
-0.0010881103260852072   -0.05587345251134133   -0.0016431325583435032
-0.0032005791164246454   -0.06   -0.0016521407570582773
0.0014549745521971848   -0.0556179661627969   -0.001608876733395046
-0.0009518266121822552   -0.05590940954951441   -0.0015088689161056818
-0.0032005791164246454   -0.06   -0.0016521407570582773
-0.002225448432447973   -0.06   -0.001623168443951639
0.0014549745521971848   -0.0556179661627969   -0.001608876733395046
-0.001712845483375399   -0.06   -0.001291058924095423
-0.0009518266121822552   -0.05590940954951441   -0.0015088689161056818
0.0017982895786260325   -0.055634277957125444   -0.001390430931156643
-0.001712845483375399   -0.06   -0.001291058924095423
0.0014549745521971848   -0.0556179661627969   -0.001608876733395046
-0.0009518266121822552   -0.05590940954951441   -0.0015088689161056818
-0.001712845483375399   -0.06   -0.001291058924095423
-0.002956550088747477   -0.06   -0.0014214682340906526
-0.0032005791164246454   -0.06   -0.0016521407570582773
-0.0009518266121822552   -0.05590940954951441   -0.0015088689161056818
-0.001712845483375399   -0.06   -0.001291058924095423
-0.0032005791164246454   -0.06   -0.0016521407570582773
0.0014549745521971848   -0.0556179661627969   -0.001608876733395046
-0.007137020239969909   -0.05861498943636589   -0.0014796871250249664
-0.0042766980754157325   -0.058780073167867694   -0.0012666369372530352
-0.006014203158081362   -0.058909321432418615   -0.001656334504986626
-0.00681119478292804   -0.058549630161601265   -0.0016650041137674515
-0.0042766980754157325   -0.058780073167867694   -0.0012666369372530352
-0.0045308715077353665   -0.0590072057794525   -0.0014941069690146108
-0.006014203158081362   -0.058909321432418615   -0.001656334504986626
-0.004415255957155119   -0.05892796965753898   -0.0015772720686330459
-0.00681119478292804   -0.058549630161601265   -0.0016650041137674515
-0.005861413629252716   -0.05885132621577352   -0.0017173685837691278
-0.004415255957155119   -0.05892796965753898   -0.0015772720686330459
-0.006014203158081362   -0.058909321432418615   -0.001656334504986626
-0.00681119478292804   -0.058549630161601265   -0.0016650041137674515
-0.004415255957155119   -0.05892796965753898   -0.0015772720686330459
-0.003981266516812848   -0.058678306754303994   -0.0014613667752227328
-0.0042766980754157325   -0.058780073167867694   -0.0012666369372530352
-0.00681119478292804   -0.058549630161601265   -0.0016650041137674515
-0.004415255957155119   -0.05892796965753898   -0.0015772720686330459
-0.0042766980754157325   -0.058780073167867694   -0.0012666369372530352
-0.006014203158081362   -0.058909321432418615   -0.001656334504986626
-0.00681119478292804   -0.058549630161601265   -0.0016650041137674515
-0.003981266516812848   -0.058678306754303994   -0.0014613667752227328
-0.005861413629252716   -0.05885132621577352   -0.0017173685837691278
-0.006530091859560079   -0.05855546715000915   -0.0018496266188275999
-0.003981266516812848   -0.058678306754303994   -0.0014613667752227328
-0.004415255957155119   -0.05892796965753898   -0.0015772720686330459
-0.005861413629252716   -0.05885132621577352   -0.0017173685837691278
-0.004279595918353741   -0.05889893929780744   -0.0016540345465536914
-0.006530091859560079   -0.05855546715000915   -0.0018496266188275999
-0.005692111632964754   -0.05885441041322492   -0.0017790250234276097
-0.004279595918353741   -0.05889893929780744   -0.0016540345465536914
-0.005861413629252716   -0.05885132621577352   -0.0017173685837691278
-0.006530091859560079   -0.05855546715000915   -0.0018496266188275999
-0.004279595918353741   -0.05889893929780744   -0.0016540345465536914
-0.0037353668226880487   -0.0586472284151489   -0.0016481532859064243
-0.003981266516812848   -0.058678306754303994   -0.0014613667752227328
-0.006530091859560079   -0.05855546715000915   -0.0018496266188275999
-0.004279595918353741   -0.05889893929780744   -0.0016540345465536914
-0.003981266516812848   -0.058678306754303994   -0.0014613667752227328
-0.005861413629252716   -0.05885132621577352   -0.0017173685837691278
-0.006530091859560079   -0.05855546715000915   -0.0018496266188275999
-0.0037353668226880487   -0.0586472284151489   -0.0016481532859064243
-0.005692111632964754   -0.05885441041322492   -0.0017790250234276097
-0.0061966040610577375   -0.058636612071111135   -0.0020382197144296465
-0.0037353668226880487   -0.0586472284151489   -0.0016481532859064243
-0.004279595918353741   -0.05889893929780744   -0.0016540345465536914
-0.005692111632964754   -0.05885441041322492   -0.0017790250234276097
-0.0041634135987399755   -0.05892054430802316   -0.0017239964774614395
-0.0061966040610577375   -0.058636612071111135   -0.0020382197144296465
-0.005534877938133503   -0.058918867893014   -0.0018415614641559865
-0.0041634135987399755   -0.05892054430802316   -0.0017239964774614395
-0.005692111632964754   -0.05885441041322492   -0.0017790250234276097
-0.0061966040610577375   -0.058636612071111135   -0.0020382197144296465
-0.0041634135987399755   -0.05892054430802316   -0.0017239964774614395
-0.003457041028611803   -0.058674171236098895   -0.0018261738623718694
-0.0037353668226880487   -0.0586472284151489   -0.0016481532859064243
-0.0061966040610577375   -0.058636612071111135   -0.0020382197144296465
-0.0041634135987399755   -0.05892054430802316   -0.0017239964774614395
-0.0037353668226880487   -0.0586472284151489   -0.0016481532859064243
-0.005692111632964754   -0.05885441041322492   -0.0017790250234276097
-0.006014203158081362   -0.058909321432418615   -0.001656334504986626
-0.0045308715077353665   -0.0590072057794525   -0.0014941069690146108
-0.005191043679051347   -0.05920390561059748   -0.0018123993225179146
-0.005861413629252716   -0.05885132621577352   -0.0017173685837691278
-0.0045308715077353665   -0.0590072057794525   -0.0014941069690146108
-0.004877073590226837   -0.059147272205949446   -0.0016759272230920457
-0.005191043679051347   -0.05920390561059748   -0.0018123993225179146
-0.004774780964342279   -0.05907650360132007   -0.0016780548307701994
-0.005861413629252716   -0.05885132621577352   -0.0017173685837691278
-0.005029921371647093   -0.05914435746662909   -0.0017698713425328232
-0.004774780964342279   -0.05907650360132007   -0.0016780548307701994
-0.005191043679051347   -0.05920390561059748   -0.0018123993225179146
-0.005861413629252716   -0.05885132621577352   -0.0017173685837691278
-0.004774780964342279   -0.05907650360132007   -0.0016780548307701994
-0.004415255957155119   -0.05892796965753898   -0.0015772720686330459
-0.0045308715077353665   -0.0590072057794525   -0.0014941069690146108
-0.005861413629252716   -0.05885132621577352   -0.0017173685837691278
-0.004774780964342279   -0.05907650360132007   -0.0016780548307701994
-0.0045308715077353665   -0.0590072057794525   -0.0014941069690146108
-0.005191043679051347   -0.05920390561059748   -0.0018123993225179146
-0.005861413629252716   -0.05885132621577352   -0.0017173685837691278
-0.004415255957155119   -0.05892796965753898   -0.0015772720686330459
-0.005029921371647093   -0.05914435746662909   -0.0017698713425328232
-0.005692111632964754   -0.05885441041322492   -0.0017790250234276097
-0.004415255957155119   -0.05892796965753898   -0.0015772720686330459
-0.004774780964342279   -0.05907650360132007   -0.0016780548307701994
-0.005029921371647093   -0.05914435746662909   -0.0017698713425328232
-0.0046609356669106775   -0.05905120449041456   -0.001671882055678478
-0.005692111632964754   -0.05885441041322492   -0.0017790250234276097
-0.004874102011975479   -0.059143452083123556   -0.0017268202421418402
-0.0046609356669106775   -0.05905120449041456   -0.001671882055678478
-0.005029921371647093   -0.05914435746662909   -0.0017698713425328232
-0.005692111632964754   -0.05885441041322492   -0.0017790250234276097
-0.0046609356669106775   -0.05905120449041456   -0.001671882055678478
-0.004279595918353741   -0.05889893929780744   -0.0016540345465536914
-0.004415255957155119   -0.05892796965753898   -0.0015772720686330459
-0.005692111632964754   -0.05885441041322492   -0.0017790250234276097
-0.0046609356669106775   -0.05905120449041456   -0.001671882055678478
-0.004415255957155119   -0.05892796965753898   -0.0015772720686330459
-0.005029921371647093   -0.05914435746662909   -0.0017698713425328232
-0.005692111632964754   -0.05885441041322492   -0.0017790250234276097
-0.004279595918353741   -0.05889893929780744   -0.0016540345465536914
-0.004874102011975479   -0.059143452083123556   -0.0017268202421418402
-0.005534877938133503   -0.058918867893014   -0.0018415614641559865
-0.004279595918353741   -0.05889893929780744   -0.0016540345465536914
-0.0046609356669106775   -0.05905120449041456   -0.001671882055678478
-0.004874102011975479   -0.059143452083123556   -0.0017268202421418402
-0.004545200391540911   -0.05906931564248195   -0.0016591952451070048
-0.005534877938133503   -0.058918867893014   -0.0018415614641559865
-0.004711683689998062   -0.059199975428304   -0.0016854833931957843
-0.004545200391540911   -0.05906931564248195   -0.0016591952451070048
-0.004874102011975479   -0.059143452083123556   -0.0017268202421418402
-0.005534877938133503   -0.058918867893014   -0.0018415614641559865
-0.004545200391540911   -0.05906931564248195   -0.0016591952451070048
-0.0041634135987399755   -0.05892054430802316   -0.0017239964774614395
-0.004279595918353741   -0.05889893929780744   -0.0016540345465536914
-0.005534877938133503   -0.058918867893014   -0.0018415614641559865
-0.004545200391540911   -0.05906931564248195   -0.0016591952451070048
-0.004279595918353741   -0.05889893929780744   -0.0016540345465536914
-0.004874102011975479   -0.059143452083123556   -0.0017268202421418402
-0.005191043679051347   -0.05920390561059748   -0.0018123993225179146
-0.004877073590226837   -0.059147272205949446   -0.0016759272230920457
-0.004438992412947447   -0.05955854140721383   -0.0019843781820448815
-0.005029921371647093   -0.05914435746662909   -0.0017698713425328232
-0.004877073590226837   -0.059147272205949446   -0.0016759272230920457
-0.005248483940241574   -0.05920559185822885   -0.0018549375243770182
-0.004438992412947447   -0.05955854140721383   -0.0019843781820448815
-0.005142517874126875   -0.05913806758941951   -0.0017791375794580543
-0.005029921371647093   -0.05914435746662909   -0.0017698713425328232
-0.004241526421718149   -0.05950677387445359   -0.0018324963562157883
-0.005142517874126875   -0.05913806758941951   -0.0017791375794580543
-0.004438992412947447   -0.05955854140721383   -0.0019843781820448815
-0.005029921371647093   -0.05914435746662909   -0.0017698713425328232
-0.005142517874126875   -0.05913806758941951   -0.0017791375794580543
-0.004774780964342279   -0.05907650360132007   -0.0016780548307701994
-0.004877073590226837   -0.059147272205949446   -0.0016759272230920457
-0.005029921371647093   -0.05914435746662909   -0.0017698713425328232
-0.005142517874126875   -0.05913806758941951   -0.0017791375794580543
-0.004877073590226837   -0.059147272205949446   -0.0016759272230920457
-0.004438992412947447   -0.05955854140721383   -0.0019843781820448815
-0.005029921371647093   -0.05914435746662909   -0.0017698713425328232
-0.004774780964342279   -0.05907650360132007   -0.0016780548307701994
-0.004241526421718149   -0.05950677387445359   -0.0018324963562157883
-0.004874102011975479   -0.059143452083123556   -0.0017268202421418402
-0.004774780964342279   -0.05907650360132007   -0.0016780548307701994
-0.005142517874126875   -0.05913806758941951   -0.0017791375794580543
-0.004241526421718149   -0.05950677387445359   -0.0018324963562157883
-0.005015451541300504   -0.059116751359676735   -0.0016932273159773496
-0.004874102011975479   -0.059143452083123556   -0.0017268202421418402
-0.004058498126204878   -0.059504097920592865   -0.001681092787747476
-0.005015451541300504   -0.059116751359676735   -0.0016932273159773496
-0.004241526421718149   -0.05950677387445359   -0.0018324963562157883
-0.004874102011975479   -0.059143452083123556   -0.0017268202421418402
-0.005015451541300504   -0.059116751359676735   -0.0016932273159773496
-0.0046609356669106775   -0.05905120449041456   -0.001671882055678478
-0.004774780964342279   -0.05907650360132007   -0.0016780548307701994
-0.004874102011975479   -0.059143452083123556   -0.0017268202421418402
-0.005015451541300504   -0.059116751359676735   -0.0016932273159773496
-0.004774780964342279   -0.05907650360132007   -0.0016780548307701994
-0.004241526421718149   -0.05950677387445359   -0.0018324963562157883
-0.004874102011975479   -0.059143452083123556   -0.0017268202421418402
-0.0046609356669106775   -0.05905120449041456   -0.001671882055678478
-0.004058498126204878   -0.059504097920592865   -0.001681092787747476
-0.004711683689998062   -0.059199975428304   -0.0016854833931957843
-0.0046609356669106775   -0.05905120449041456   -0.001671882055678478
-0.005015451541300504   -0.059116751359676735   -0.0016932273159773496
-0.004058498126204878   -0.059504097920592865   -0.001681092787747476
-0.004884801492471967   -0.05913442732002593   -0.0016017445967471202
-0.004711683689998062   -0.059199975428304   -0.0016854833931957843
-0.0038620725153546663   -0.0595478871259385   -0.0015294112691149578
-0.004884801492471967   -0.05913442732002593   -0.0016017445967471202
-0.004058498126204878   -0.059504097920592865   -0.001681092787747476
-0.004711683689998062   -0.059199975428304   -0.0016854833931957843
-0.004884801492471967   -0.05913442732002593   -0.0016017445967471202
-0.004545200391540911   -0.05906931564248195   -0.0016591952451070048
-0.0046609356669106775   -0.05905120449041456   -0.001671882055678478
-0.004711683689998062   -0.059199975428304   -0.0016854833931957843
-0.004884801492471967   -0.05913442732002593   -0.0016017445967471202
-0.0046609356669106775   -0.05905120449041456   -0.001671882055678478
-0.004058498126204878   -0.059504097920592865   -0.001681092787747476
-0.004438992412947447   -0.05955854140721383   -0.0019843781820448815
-0.005248483940241574   -0.05920559185822885   -0.0018549375243770182
-0.003698839823765837   -0.06   -0.0021169483152106336
-0.004241526421718149   -0.05950677387445359   -0.0018324963562157883
-0.005248483940241574   -0.05920559185822885   -0.0018549375243770182
-0.0057865679587170045   -0.05914122315820619   -0.002025163712261162
-0.003698839823765837   -0.06   -0.0021169483152106336
-0.0056481706958303995   -0.05907739182908399   -0.0018751360886944035
-0.004241526421718149   -0.05950677387445359   -0.0018324963562157883
-0.0034503516578885812   -0.06   -0.001885912727620093
-0.0056481706958303995   -0.05907739182908399   -0.0018751360886944035
-0.003698839823765837   -0.06   -0.0021169483152106336
-0.004241526421718149   -0.05950677387445359   -0.0018324963562157883
-0.0056481706958303995   -0.05907739182908399   -0.0018751360886944035
-0.005142517874126875   -0.05913806758941951   -0.0017791375794580543
-0.005248483940241574   -0.05920559185822885   -0.0018549375243770182
-0.004241526421718149   -0.05950677387445359   -0.0018324963562157883
-0.0056481706958303995   -0.05907739182908399   -0.0018751360886944035
-0.005248483940241574   -0.05920559185822885   -0.0018549375243770182
-0.003698839823765837   -0.06   -0.0021169483152106336
-0.004241526421718149   -0.05950677387445359   -0.0018324963562157883
-0.005142517874126875   -0.05913806758941951   -0.0017791375794580543
-0.0034503516578885812   -0.06   -0.001885912727620093
-0.004058498126204878   -0.059504097920592865   -0.001681092787747476
-0.005142517874126875   -0.05913806758941951   -0.0017791375794580543
-0.0056481706958303995   -0.05907739182908399   -0.0018751360886944035
-0.0034503516578885812   -0.06   -0.001885912727620093
-0.005465472538084742   -0.05906298718858368   -0.0017138365232931782
-0.004058498126204878   -0.059504097920592865   -0.001681092787747476
-0.0032005791164246454   -0.06   -0.0016521407570582773
-0.005465472538084742   -0.05906298718858368   -0.0017138365232931782
-0.0034503516578885812   -0.06   -0.001885912727620093
-0.004058498126204878   -0.059504097920592865   -0.001681092787747476
-0.005465472538084742   -0.05906298718858368   -0.0017138365232931782
-0.005015451541300504   -0.059116751359676735   -0.0016932273159773496
-0.005142517874126875   -0.05913806758941951   -0.0017791375794580543
-0.004058498126204878   -0.059504097920592865   -0.001681092787747476
-0.005465472538084742   -0.05906298718858368   -0.0017138365232931782
-0.005142517874126875   -0.05913806758941951   -0.0017791375794580543
-0.0034503516578885812   -0.06   -0.001885912727620093
-0.004058498126204878   -0.059504097920592865   -0.001681092787747476
-0.005015451541300504   -0.059116751359676735   -0.0016932273159773496
-0.0032005791164246454   -0.06   -0.0016521407570582773
-0.0038620725153546663   -0.0595478871259385   -0.0015294112691149578
-0.005015451541300504   -0.059116751359676735   -0.0016932273159773496
-0.005465472538084742   -0.05906298718858368   -0.0017138365232931782
-0.0032005791164246454   -0.06   -0.0016521407570582773
-0.005293744555157234   -0.05908850213345962   -0.001546338883935142
-0.0038620725153546663   -0.0595478871259385   -0.0015294112691149578
-0.002956550088747477   -0.06   -0.0014214682340906526
-0.005293744555157234   -0.05908850213345962   -0.001546338883935142
-0.0032005791164246454   -0.06   -0.0016521407570582773
-0.0038620725153546663   -0.0595478871259385   -0.0015294112691149578
-0.005293744555157234   -0.05908850213345962   -0.001546338883935142
-0.004884801492471967   -0.05913442732002593   -0.0016017445967471202
-0.005015451541300504   -0.059116751359676735   -0.0016932273159773496
-0.0038620725153546663   -0.0595478871259385   -0.0015294112691149578
-0.005293744555157234   -0.05908850213345962   -0.001546338883935142
-0.005015451541300504   -0.059116751359676735   -0.0016932273159773496
-0.0032005791164246454   -0.06   -0.0016521407570582773
-0.003698839823765837   -0.06   -0.0021169483152106336
-0.0057865679587170045   -0.05914122315820619   -0.002025163712261162
-0.003160817672400105   -0.06   -0.0022775006488660594
-0.0034503516578885812   -0.06   -0.001885912727620093
-0.0057865679587170045   -0.05914122315820619   -0.002025163712261162
-0.006834533522472386   -0.058851981780802656   -0.0022059455220623456
-0.003160817672400105   -0.06   -0.0022775006488660594
-0.0064657213428304956   -0.05879804171797822   -0.001959823984348315
-0.0034503516578885812   -0.06   -0.001885912727620093
-0.002640436416849402   -0.06   -0.001943076475270996
-0.0064657213428304956   -0.05879804171797822   -0.001959823984348315
-0.003160817672400105   -0.06   -0.0022775006488660594
-0.0034503516578885812   -0.06   -0.001885912727620093
-0.0064657213428304956   -0.05879804171797822   -0.001959823984348315
-0.0056481706958303995   -0.05907739182908399   -0.0018751360886944035
-0.0057865679587170045   -0.05914122315820619   -0.002025163712261162
-0.0034503516578885812   -0.06   -0.001885912727620093
-0.0064657213428304956   -0.05879804171797822   -0.001959823984348315
-0.0057865679587170045   -0.05914122315820619   -0.002025163712261162
-0.003160817672400105   -0.06   -0.0022775006488660594
-0.0034503516578885812   -0.06   -0.001885912727620093
-0.0056481706958303995   -0.05907739182908399   -0.0018751360886944035
-0.002640436416849402   -0.06   -0.001943076475270996
-0.0032005791164246454   -0.06   -0.0016521407570582773
-0.0056481706958303995   -0.05907739182908399   -0.0018751360886944035
-0.0064657213428304956   -0.05879804171797822   -0.001959823984348315
-0.002640436416849402   -0.06   -0.001943076475270996
-0.006127036703987584   -0.058790731951083114   -0.0016971998858369536
-0.0032005791164246454   -0.06   -0.0016521407570582773
-0.002225448432447973   -0.06   -0.001623168443951639
-0.006127036703987584   -0.058790731951083114   -0.0016971998858369536
-0.002640436416849402   -0.06   -0.001943076475270996
-0.0032005791164246454   -0.06   -0.0016521407570582773
-0.006127036703987584   -0.058790731951083114   -0.0016971998858369536
-0.005465472538084742   -0.05906298718858368   -0.0017138365232931782
-0.0056481706958303995   -0.05907739182908399   -0.0018751360886944035
-0.0032005791164246454   -0.06   -0.0016521407570582773
-0.006127036703987584   -0.058790731951083114   -0.0016971998858369536
-0.0056481706958303995   -0.05907739182908399   -0.0018751360886944035
-0.002640436416849402   -0.06   -0.001943076475270996
-0.0032005791164246454   -0.06   -0.0016521407570582773
-0.005465472538084742   -0.05906298718858368   -0.0017138365232931782
-0.002225448432447973   -0.06   -0.001623168443951639
-0.002956550088747477   -0.06   -0.0014214682340906526
-0.005465472538084742   -0.05906298718858368   -0.0017138365232931782
-0.006127036703987584   -0.058790731951083114   -0.0016971998858369536
-0.002225448432447973   -0.06   -0.001623168443951639
-0.005699280910510174   -0.058861484667905105   -0.0014226061277815263
-0.002956550088747477   -0.06   -0.0014214682340906526
-0.001712845483375399   -0.06   -0.001291058924095423
-0.005699280910510174   -0.058861484667905105   -0.0014226061277815263
-0.002225448432447973   -0.06   -0.001623168443951639
-0.002956550088747477   -0.06   -0.0014214682340906526
-0.005699280910510174   -0.058861484667905105   -0.0014226061277815263
-0.005293744555157234   -0.05908850213345962   -0.001546338883935142
-0.005465472538084742   -0.05906298718858368   -0.0017138365232931782
-0.002956550088747477   -0.06   -0.0014214682340906526
-0.005699280910510174   -0.058861484667905105   -0.0014226061277815263
-0.005465472538084742   -0.05906298718858368   -0.0017138365232931782
-0.002225448432447973   -0.06   -0.001623168443951639
-0.0042766980754157325   -0.058780073167867694   -0.0012666369372530352
-0.0017585200043265144   -0.056570731573627145   -0.0010940646748446273
-0.0045308715077353665   -0.0590072057794525   -0.0014941069690146108
-0.003981266516812848   -0.058678306754303994   -0.0014613667752227328
-0.0017585200043265144   -0.056570731573627145   -0.0010940646748446273
-0.003257775101472385   -0.05674230368748045   -0.001335738305008435
-0.0045308715077353665   -0.0590072057794525   -0.0014941069690146108
-0.0031756178989578144   -0.056646409378569317   -0.001409941715032584
-0.003981266516812848   -0.058678306754303994   -0.0014613667752227328
-0.004415255957155119   -0.05892796965753898   -0.0015772720686330459
-0.0031756178989578144   -0.056646409378569317   -0.001409941715032584
-0.0045308715077353665   -0.0590072057794525   -0.0014941069690146108
-0.003981266516812848   -0.058678306754303994   -0.0014613667752227328
-0.0031756178989578144   -0.056646409378569317   -0.001409941715032584
-0.0015227630617498634   -0.05645202398091683   -0.0012625136581360201
-0.0017585200043265144   -0.056570731573627145   -0.0010940646748446273
-0.003981266516812848   -0.058678306754303994   -0.0014613667752227328
-0.0031756178989578144   -0.056646409378569317   -0.001409941715032584
-0.0017585200043265144   -0.056570731573627145   -0.0010940646748446273
-0.0045308715077353665   -0.0590072057794525   -0.0014941069690146108
-0.003981266516812848   -0.058678306754303994   -0.0014613667752227328
-0.0015227630617498634   -0.05645202398091683   -0.0012625136581360201
-0.004415255957155119   -0.05892796965753898   -0.0015772720686330459
-0.0037353668226880487   -0.0586472284151489   -0.0016481532859064243
-0.0015227630617498634   -0.05645202398091683   -0.0012625136581360201
-0.0031756178989578144   -0.056646409378569317   -0.001409941715032584
-0.004415255957155119   -0.05892796965753898   -0.0015772720686330459
-0.0030830682697001828   -0.056593492232162965   -0.001477485802244015
-0.0037353668226880487   -0.0586472284151489   -0.0016481532859064243
-0.004279595918353741   -0.05889893929780744   -0.0016540345465536914
-0.0030830682697001828   -0.056593492232162965   -0.001477485802244015
-0.004415255957155119   -0.05892796965753898   -0.0015772720686330459
-0.0037353668226880487   -0.0586472284151489   -0.0016481532859064243
-0.0030830682697001828   -0.056593492232162965   -0.001477485802244015
-0.0013372446329211723   -0.05639573295504003   -0.0014210935833247483
-0.0015227630617498634   -0.05645202398091683   -0.0012625136581360201
-0.0037353668226880487   -0.0586472284151489   -0.0016481532859064243
-0.0030830682697001828   -0.056593492232162965   -0.001477485802244015
-0.0015227630617498634   -0.05645202398091683   -0.0012625136581360201
-0.004415255957155119   -0.05892796965753898   -0.0015772720686330459
-0.0037353668226880487   -0.0586472284151489   -0.0016481532859064243
-0.0013372446329211723   -0.05639573295504003   -0.0014210935833247483
-0.004279595918353741   -0.05889893929780744   -0.0016540345465536914
-0.003457041028611803   -0.058674171236098895   -0.0018261738623718694
-0.0013372446329211723   -0.05639573295504003   -0.0014210935833247483
-0.0030830682697001828   -0.056593492232162965   -0.001477485802244015
-0.004279595918353741   -0.05889893929780744   -0.0016540345465536914
-0.0030121269096869832   -0.05658207122483712   -0.0015385852225486452
-0.003457041028611803   -0.058674171236098895   -0.0018261738623718694
-0.0041634135987399755   -0.05892054430802316   -0.0017239964774614395
-0.0030121269096869832   -0.05658207122483712   -0.0015385852225486452
-0.004279595918353741   -0.05889893929780744   -0.0016540345465536914
-0.003457041028611803   -0.058674171236098895   -0.0018261738623718694
-0.0030121269096869832   -0.05658207122483712   -0.0015385852225486452
-0.001134511977911523   -0.056385638754549564   -0.0015693896771199394
-0.0013372446329211723   -0.05639573295504003   -0.0014210935833247483
-0.003457041028611803   -0.058674171236098895   -0.0018261738623718694
-0.0030121269096869832   -0.05658207122483712   -0.0015385852225486452
-0.0013372446329211723   -0.05639573295504003   -0.0014210935833247483
-0.004279595918353741   -0.05889893929780744   -0.0016540345465536914
-0.0045308715077353665   -0.0590072057794525   -0.0014941069690146108
-0.003257775101472385   -0.05674230368748045   -0.001335738305008435
-0.004877073590226837   -0.059147272205949446   -0.0016759272230920457
-0.004415255957155119   -0.05892796965753898   -0.0015772720686330459
-0.003257775101472385   -0.05674230368748045   -0.001335738305008435
-0.004738694304176204   -0.0568027480672179   -0.001532770725218429
-0.004877073590226837   -0.059147272205949446   -0.0016759272230920457
-0.0046696527741793255   -0.05671909607600675   -0.001536805994341253
-0.004415255957155119   -0.05892796965753898   -0.0015772720686330459
-0.004774780964342279   -0.05907650360132007   -0.0016780548307701994
-0.0046696527741793255   -0.05671909607600675   -0.001536805994341253
-0.004877073590226837   -0.059147272205949446   -0.0016759272230920457
-0.004415255957155119   -0.05892796965753898   -0.0015772720686330459
-0.0046696527741793255   -0.05671909607600675   -0.001536805994341253
-0.0031756178989578144   -0.056646409378569317   -0.001409941715032584
-0.003257775101472385   -0.05674230368748045   -0.001335738305008435
-0.004415255957155119   -0.05892796965753898   -0.0015772720686330459
-0.0046696527741793255   -0.05671909607600675   -0.001536805994341253
-0.003257775101472385   -0.05674230368748045   -0.001335738305008435
-0.004877073590226837   -0.059147272205949446   -0.0016759272230920457
-0.004415255957155119   -0.05892796965753898   -0.0015772720686330459
-0.0031756178989578144   -0.056646409378569317   -0.001409941715032584
-0.004774780964342279   -0.05907650360132007   -0.0016780548307701994
-0.004279595918353741   -0.05889893929780744   -0.0016540345465536914
-0.0031756178989578144   -0.056646409378569317   -0.001409941715032584
-0.0046696527741793255   -0.05671909607600675   -0.001536805994341253
-0.004774780964342279   -0.05907650360132007   -0.0016780548307701994
-0.004598238417518963   -0.056674183377968666   -0.0015346731331774047
-0.004279595918353741   -0.05889893929780744   -0.0016540345465536914
-0.0046609356669106775   -0.05905120449041456   -0.001671882055678478
-0.004598238417518963   -0.056674183377968666   -0.0015346731331774047
-0.004774780964342279   -0.05907650360132007   -0.0016780548307701994
-0.004279595918353741   -0.05889893929780744   -0.0016540345465536914
-0.004598238417518963   -0.056674183377968666   -0.0015346731331774047
-0.0030830682697001828   -0.056593492232162965   -0.001477485802244015
-0.0031756178989578144   -0.056646409378569317   -0.001409941715032584
-0.004279595918353741   -0.05889893929780744   -0.0016540345465536914
-0.004598238417518963   -0.056674183377968666   -0.0015346731331774047
-0.0031756178989578144   -0.056646409378569317   -0.001409941715032584
-0.004774780964342279   -0.05907650360132007   -0.0016780548307701994
-0.004279595918353741   -0.05889893929780744   -0.0016540345465536914
-0.0030830682697001828   -0.056593492232162965   -0.001477485802244015
-0.0046609356669106775   -0.05905120449041456   -0.001671882055678478
-0.0041634135987399755   -0.05892054430802316   -0.0017239964774614395
-0.0030830682697001828   -0.056593492232162965   -0.001477485802244015
-0.004598238417518963   -0.056674183377968666   -0.0015346731331774047
-0.0046609356669106775   -0.05905120449041456   -0.001671882055678478
-0.004529374327675098   -0.056666157565637906   -0.0015263180732804382
-0.0041634135987399755   -0.05892054430802316   -0.0017239964774614395
-0.004545200391540911   -0.05906931564248195   -0.0016591952451070048
-0.004529374327675098   -0.056666157565637906   -0.0015263180732804382
-0.0046609356669106775   -0.05905120449041456   -0.001671882055678478
-0.0041634135987399755   -0.05892054430802316   -0.0017239964774614395
-0.004529374327675098   -0.056666157565637906   -0.0015263180732804382
-0.0030121269096869832   -0.05658207122483712   -0.0015385852225486452
-0.0030830682697001828   -0.056593492232162965   -0.001477485802244015
-0.0041634135987399755   -0.05892054430802316   -0.0017239964774614395
-0.004529374327675098   -0.056666157565637906   -0.0015263180732804382
-0.0030830682697001828   -0.056593492232162965   -0.001477485802244015
-0.0046609356669106775   -0.05905120449041456   -0.001671882055678478
-0.004877073590226837   -0.059147272205949446   -0.0016759272230920457
-0.004738694304176204   -0.0568027480672179   -0.001532770725218429
-0.005248483940241574   -0.05920559185822885   -0.0018549375243770182
-0.004774780964342279   -0.05907650360132007   -0.0016780548307701994
-0.004738694304176204   -0.0568027480672179   -0.001532770725218429
-0.006209513025246245   -0.05674882407282912   -0.0017171965708911035
-0.005248483940241574   -0.05920559185822885   -0.0018549375243770182
-0.006141017304219443   -0.056674510212966385   -0.001653941954890925
-0.004774780964342279   -0.05907650360132007   -0.0016780548307701994
-0.005142517874126875   -0.05913806758941951   -0.0017791375794580543
-0.006141017304219443   -0.056674510212966385   -0.001653941954890925
-0.005248483940241574   -0.05920559185822885   -0.0018549375243770182
-0.004774780964342279   -0.05907650360132007   -0.0016780548307701994
-0.006141017304219443   -0.056674510212966385   -0.001653941954890925
-0.0046696527741793255   -0.05671909607600675   -0.001536805994341253
-0.004738694304176204   -0.0568027480672179   -0.001532770725218429
-0.004774780964342279   -0.05907650360132007   -0.0016780548307701994
-0.006141017304219443   -0.056674510212966385   -0.001653941954890925
-0.004738694304176204   -0.0568027480672179   -0.001532770725218429
-0.005248483940241574   -0.05920559185822885   -0.0018549375243770182
-0.004774780964342279   -0.05907650360132007   -0.0016780548307701994
-0.0046696527741793255   -0.05671909607600675   -0.001536805994341253
-0.005142517874126875   -0.05913806758941951   -0.0017791375794580543
-0.0046609356669106775   -0.05905120449041456   -0.001671882055678478
-0.0046696527741793255   -0.05671909607600675   -0.001536805994341253
-0.006141017304219443   -0.056674510212966385   -0.001653941954890925
-0.005142517874126875   -0.05913806758941951   -0.0017791375794580543
-0.006064150892646254   -0.056638289986121526   -0.001584612249679297
-0.0046609356669106775   -0.05905120449041456   -0.001671882055678478
-0.005015451541300504   -0.059116751359676735   -0.0016932273159773496
-0.006064150892646254   -0.056638289986121526   -0.001584612249679297
-0.005142517874126875   -0.05913806758941951   -0.0017791375794580543
-0.0046609356669106775   -0.05905120449041456   -0.001671882055678478
-0.006064150892646254   -0.056638289986121526   -0.001584612249679297
-0.004598238417518963   -0.056674183377968666   -0.0015346731331774047
-0.0046696527741793255   -0.05671909607600675   -0.001536805994341253
-0.0046609356669106775   -0.05905120449041456   -0.001671882055678478
-0.006064150892646254   -0.056638289986121526   -0.001584612249679297
-0.0046696527741793255   -0.05671909607600675   -0.001536805994341253
-0.005142517874126875   -0.05913806758941951   -0.0017791375794580543
-0.0046609356669106775   -0.05905120449041456   -0.001671882055678478
-0.004598238417518963   -0.056674183377968666   -0.0015346731331774047
-0.005015451541300504   -0.059116751359676735   -0.0016932273159773496
-0.004545200391540911   -0.05906931564248195   -0.0016591952451070048
-0.004598238417518963   -0.056674183377968666   -0.0015346731331774047
-0.006064150892646254   -0.056638289986121526   -0.001584612249679297
-0.005015451541300504   -0.059116751359676735   -0.0016932273159773496
-0.005986984358117022   -0.056636517377107926   -0.0015084676018402776
-0.004545200391540911   -0.05906931564248195   -0.0016591952451070048
-0.004884801492471967   -0.05913442732002593   -0.0016017445967471202
-0.005986984358117022   -0.056636517377107926   -0.0015084676018402776
-0.005015451541300504   -0.059116751359676735   -0.0016932273159773496
-0.004545200391540911   -0.05906931564248195   -0.0016591952451070048
-0.005986984358117022   -0.056636517377107926   -0.0015084676018402776
-0.004529374327675098   -0.056666157565637906   -0.0015263180732804382
-0.004598238417518963   -0.056674183377968666   -0.0015346731331774047
-0.004545200391540911   -0.05906931564248195   -0.0016591952451070048
-0.005986984358117022   -0.056636517377107926   -0.0015084676018402776
-0.004598238417518963   -0.056674183377968666   -0.0015346731331774047
-0.005015451541300504   -0.059116751359676735   -0.0016932273159773496
-0.005248483940241574   -0.05920559185822885   -0.0018549375243770182
-0.006209513025246245   -0.05674882407282912   -0.0017171965708911035
-0.0057865679587170045   -0.05914122315820619   -0.002025163712261162
-0.005142517874126875   -0.05913806758941951   -0.0017791375794580543
-0.006209513025246245   -0.05674882407282912   -0.0017171965708911035
-0.007825057539895442   -0.056573423981413795   -0.0018866692454152496
-0.0057865679587170045   -0.05914122315820619   -0.002025163712261162
-0.007741158969575272   -0.05650845398124002   -0.0017576041840772591
-0.005142517874126875   -0.05913806758941951   -0.0017791375794580543
-0.0056481706958303995   -0.05907739182908399   -0.0018751360886944035
-0.007741158969575272   -0.05650845398124002   -0.0017576041840772591
-0.0057865679587170045   -0.05914122315820619   -0.002025163712261162
-0.005142517874126875   -0.05913806758941951   -0.0017791375794580543
-0.007741158969575272   -0.05650845398124002   -0.0017576041840772591
-0.006141017304219443   -0.056674510212966385   -0.001653941954890925
-0.006209513025246245   -0.05674882407282912   -0.0017171965708911035
-0.005142517874126875   -0.05913806758941951   -0.0017791375794580543
-0.007741158969575272   -0.05650845398124002   -0.0017576041840772591
-0.006209513025246245   -0.05674882407282912   -0.0017171965708911035
-0.0057865679587170045   -0.05914122315820619   -0.002025163712261162
-0.005142517874126875   -0.05913806758941951   -0.0017791375794580543
-0.006141017304219443   -0.056674510212966385   -0.001653941954890925
-0.0056481706958303995   -0.05907739182908399   -0.0018751360886944035
-0.005015451541300504   -0.059116751359676735   -0.0016932273159773496
-0.006141017304219443   -0.056674510212966385   -0.001653941954890925
-0.007741158969575272   -0.05650845398124002   -0.0017576041840772591
-0.0056481706958303995   -0.05907739182908399   -0.0018751360886944035
-0.007625274736978375   -0.05648089171400486   -0.0016229150305669825
-0.005015451541300504   -0.059116751359676735   -0.0016932273159773496
-0.005465472538084742   -0.05906298718858368   -0.0017138365232931782
-0.007625274736978375   -0.05648089171400486   -0.0016229150305669825
-0.0056481706958303995   -0.05907739182908399   -0.0018751360886944035
-0.005015451541300504   -0.059116751359676735   -0.0016932273159773496
-0.007625274736978375   -0.05648089171400486   -0.0016229150305669825
-0.006064150892646254   -0.056638289986121526   -0.001584612249679297
-0.006141017304219443   -0.056674510212966385   -0.001653941954890925
-0.005015451541300504   -0.059116751359676735   -0.0016932273159773496
-0.007625274736978375   -0.05648089171400486   -0.0016229150305669825
-0.006141017304219443   -0.056674510212966385   -0.001653941954890925
-0.0056481706958303995   -0.05907739182908399   -0.0018751360886944035
-0.005015451541300504   -0.059116751359676735   -0.0016932273159773496
-0.006064150892646254   -0.056638289986121526   -0.001584612249679297
-0.005465472538084742   -0.05906298718858368   -0.0017138365232931782
-0.004884801492471967   -0.05913442732002593   -0.0016017445967471202
-0.006064150892646254   -0.056638289986121526   -0.001584612249679297
-0.007625274736978375   -0.05648089171400486   -0.0016229150305669825
-0.005465472538084742   -0.05906298718858368   -0.0017138365232931782
-0.007524212765737419   -0.05649077667500219   -0.001478862349147514
-0.004884801492471967   -0.05913442732002593   -0.0016017445967471202
-0.005293744555157234   -0.05908850213345962   -0.001546338883935142
-0.007524212765737419   -0.05649077667500219   -0.001478862349147514
-0.005465472538084742   -0.05906298718858368   -0.0017138365232931782
-0.004884801492471967   -0.05913442732002593   -0.0016017445967471202
-0.007524212765737419   -0.05649077667500219   -0.001478862349147514
-0.005986984358117022   -0.056636517377107926   -0.0015084676018402776
-0.006064150892646254   -0.056638289986121526   -0.001584612249679297
-0.004884801492471967   -0.05913442732002593   -0.0016017445967471202
-0.007524212765737419   -0.05649077667500219   -0.001478862349147514
-0.006064150892646254   -0.056638289986121526   -0.001584612249679297
-0.005465472538084742   -0.05906298718858368   -0.0017138365232931782
-0.0057865679587170045   -0.05914122315820619   -0.002025163712261162
-0.007825057539895442   -0.056573423981413795   -0.0018866692454152496
-0.006834533522472386   -0.058851981780802656   -0.0022059455220623456
-0.0056481706958303995   -0.05907739182908399   -0.0018751360886944035
-0.007825057539895442   -0.056573423981413795   -0.0018866692454152496
-0.009905412609063436   -0.05628816580995591   -0.0020495376220649123
-0.006834533522472386   -0.058851981780802656   -0.0022059455220623456
-0.009634474514968024   -0.05621764126322615   -0.0018457438924272677
-0.0056481706958303995   -0.05907739182908399   -0.0018751360886944035
-0.0064657213428304956   -0.05879804171797822   -0.001959823984348315
-0.009634474514968024   -0.05621764126322615   -0.0018457438924272677
-0.006834533522472386   -0.058851981780802656   -0.0022059455220623456
-0.0056481706958303995   -0.05907739182908399   -0.0018751360886944035
-0.009634474514968024   -0.05621764126322615   -0.0018457438924272677
-0.007741158969575272   -0.05650845398124002   -0.0017576041840772591
-0.007825057539895442   -0.056573423981413795   -0.0018866692454152496
-0.0056481706958303995   -0.05907739182908399   -0.0018751360886944035
-0.009634474514968024   -0.05621764126322615   -0.0018457438924272677
-0.007825057539895442   -0.056573423981413795   -0.0018866692454152496
-0.006834533522472386   -0.058851981780802656   -0.0022059455220623456
-0.0056481706958303995   -0.05907739182908399   -0.0018751360886944035
-0.007741158969575272   -0.05650845398124002   -0.0017576041840772591
-0.0064657213428304956   -0.05879804171797822   -0.001959823984348315
-0.005465472538084742   -0.05906298718858368   -0.0017138365232931782
-0.007741158969575272   -0.05650845398124002   -0.0017576041840772591
-0.009634474514968024   -0.05621764126322615   -0.0018457438924272677
-0.0064657213428304956   -0.05879804171797822   -0.001959823984348315
-0.009391767069921635   -0.05619214705284433   -0.0016301447667351734
-0.005465472538084742   -0.05906298718858368   -0.0017138365232931782
-0.006127036703987584   -0.058790731951083114   -0.0016971998858369536
-0.009391767069921635   -0.05619214705284433   -0.0016301447667351734
-0.0064657213428304956   -0.05879804171797822   -0.001959823984348315
-0.005465472538084742   -0.05906298718858368   -0.0017138365232931782
-0.009391767069921635   -0.05619214705284433   -0.0016301447667351734
-0.007625274736978375   -0.05648089171400486   -0.0016229150305669825
-0.007741158969575272   -0.05650845398124002   -0.0017576041840772591
-0.005465472538084742   -0.05906298718858368   -0.0017138365232931782
-0.009391767069921635   -0.05619214705284433   -0.0016301447667351734
-0.007741158969575272   -0.05650845398124002   -0.0017576041840772591
-0.0064657213428304956   -0.05879804171797822   -0.001959823984348315
-0.005465472538084742   -0.05906298718858368   -0.0017138365232931782
-0.007625274736978375   -0.05648089171400486   -0.0016229150305669825
-0.006127036703987584   -0.058790731951083114   -0.0016971998858369536
-0.005293744555157234   -0.05908850213345962   -0.001546338883935142
-0.007625274736978375   -0.05648089171400486   -0.0016229150305669825
-0.009391767069921635   -0.05619214705284433   -0.0016301447667351734
-0.006127036703987584   -0.058790731951083114   -0.0016971998858369536
-0.009077225326383428   -0.05622488523522503   -0.001404782993266802
-0.005293744555157234   -0.05908850213345962   -0.001546338883935142
-0.005699280910510174   -0.058861484667905105   -0.0014226061277815263
-0.009077225326383428   -0.05622488523522503   -0.001404782993266802
-0.006127036703987584   -0.058790731951083114   -0.0016971998858369536
-0.005293744555157234   -0.05908850213345962   -0.001546338883935142
-0.009077225326383428   -0.05622488523522503   -0.001404782993266802
-0.007524212765737419   -0.05649077667500219   -0.001478862349147514
-0.007625274736978375   -0.05648089171400486   -0.0016229150305669825
-0.005293744555157234   -0.05908850213345962   -0.001546338883935142
-0.009077225326383428   -0.05622488523522503   -0.001404782993266802
-0.007625274736978375   -0.05648089171400486   -0.0016229150305669825
-0.006127036703987584   -0.058790731951083114   -0.0016971998858369536
-0.0017585200043265144   -0.056570731573627145   -0.0010940646748446273
0.00028638226622492336   -0.052496153121062344   -0.0009046800491750828
-0.003257775101472385   -0.05674230368748045   -0.001335738305008435
-0.0015227630617498634   -0.05645202398091683   -0.0012625136581360201
0.00028638226622492336   -0.052496153121062344   -0.0009046800491750828
-0.002245758494469631   -0.05262215179849954   -0.0011419990256475497
-0.003257775101472385   -0.05674230368748045   -0.001335738305008435
-0.002202149998212048   -0.052521642189830874   -0.0012009319808721133
-0.0015227630617498634   -0.05645202398091683   -0.0012625136581360201
-0.0031756178989578144   -0.056646409378569317   -0.001409941715032584
-0.002202149998212048   -0.052521642189830874   -0.0012009319808721133
-0.003257775101472385   -0.05674230368748045   -0.001335738305008435
-0.0015227630617498634   -0.05645202398091683   -0.0012625136581360201
-0.002202149998212048   -0.052521642189830874   -0.0012009319808721133
0.00045126292116769656   -0.05237551258917341   -0.001038973487458741
0.00028638226622492336   -0.052496153121062344   -0.0009046800491750828
-0.0015227630617498634   -0.05645202398091683   -0.0012625136581360201
-0.002202149998212048   -0.052521642189830874   -0.0012009319808721133
0.00028638226622492336   -0.052496153121062344   -0.0009046800491750828
-0.003257775101472385   -0.05674230368748045   -0.001335738305008435
-0.0015227630617498634   -0.05645202398091683   -0.0012625136581360201
0.00045126292116769656   -0.05237551258917341   -0.001038973487458741
-0.0031756178989578144   -0.056646409378569317   -0.001409941715032584
-0.0013372446329211723   -0.05639573295504003   -0.0014210935833247483
0.00045126292116769656   -0.05237551258917341   -0.001038973487458741
-0.002202149998212048   -0.052521642189830874   -0.0012009319808721133
-0.0031756178989578144   -0.056646409378569317   -0.001409941715032584
-0.002152446792252758   -0.05245621871381416   -0.001253032175162101
-0.0013372446329211723   -0.05639573295504003   -0.0014210935833247483
-0.0030830682697001828   -0.056593492232162965   -0.001477485802244015
-0.002152446792252758   -0.05245621871381416   -0.001253032175162101
-0.0031756178989578144   -0.056646409378569317   -0.001409941715032584
-0.0013372446329211723   -0.05639573295504003   -0.0014210935833247483
-0.002152446792252758   -0.05245621871381416   -0.001253032175162101
0.0005725767305908171   -0.05230605630708372   -0.0011637030751473843
0.00045126292116769656   -0.05237551258917341   -0.001038973487458741
-0.0013372446329211723   -0.05639573295504003   -0.0014210935833247483
-0.002152446792252758   -0.05245621871381416   -0.001253032175162101
0.00045126292116769656   -0.05237551258917341   -0.001038973487458741
-0.0031756178989578144   -0.056646409378569317   -0.001409941715032584
-0.0013372446329211723   -0.05639573295504003   -0.0014210935833247483
0.0005725767305908171   -0.05230605630708372   -0.0011637030751473843
-0.0030830682697001828   -0.056593492232162965   -0.001477485802244015
-0.001134511977911523   -0.056385638754549564   -0.0015693896771199394
0.0005725767305908171   -0.05230605630708372   -0.0011637030751473843
-0.002152446792252758   -0.05245621871381416   -0.001253032175162101
-0.0030830682697001828   -0.056593492232162965   -0.001477485802244015
-0.002122725823590738   -0.05242393768769897   -0.0012989745384726808
-0.001134511977911523   -0.056385638754549564   -0.0015693896771199394
-0.0030121269096869832   -0.05658207122483712   -0.0015385852225486452
-0.002122725823590738   -0.05242393768769897   -0.0012989745384726808
-0.0030830682697001828   -0.056593492232162965   -0.001477485802244015
-0.001134511977911523   -0.056385638754549564   -0.0015693896771199394
-0.002122725823590738   -0.05242393768769897   -0.0012989745384726808
0.0007025697722261804   -0.05227220329047834   -0.0012788240688957622
0.0005725767305908171   -0.05230605630708372   -0.0011637030751473843
-0.001134511977911523   -0.056385638754549564   -0.0015693896771199394
-0.002122725823590738   -0.05242393768769897   -0.0012989745384726808
0.0005725767305908171   -0.05230605630708372   -0.0011637030751473843
-0.0030830682697001828   -0.056593492232162965   -0.001477485802244015
-0.003257775101472385   -0.05674230368748045   -0.001335738305008435
-0.002245758494469631   -0.05262215179849954   -0.0011419990256475497
-0.004738694304176204   -0.0568027480672179   -0.001532770725218429
-0.0031756178989578144   -0.056646409378569317   -0.001409941715032584
-0.002245758494469631   -0.05262215179849954   -0.0011419990256475497
-0.0046962168914645155   -0.05264627438537773   -0.00133741221625474
-0.004738694304176204   -0.0568027480672179   -0.001532770725218429
-0.004664193100974277   -0.05256002479285605   -0.0013388908557430044
-0.0031756178989578144   -0.056646409378569317   -0.001409941715032584
-0.0046696527741793255   -0.05671909607600675   -0.001536805994341253
-0.004664193100974277   -0.05256002479285605   -0.0013388908557430044
-0.004738694304176204   -0.0568027480672179   -0.001532770725218429
-0.0031756178989578144   -0.056646409378569317   -0.001409941715032584
-0.004664193100974277   -0.05256002479285605   -0.0013388908557430044
-0.002202149998212048   -0.052521642189830874   -0.0012009319808721133
-0.002245758494469631   -0.05262215179849954   -0.0011419990256475497
-0.0031756178989578144   -0.056646409378569317   -0.001409941715032584
-0.004664193100974277   -0.05256002479285605   -0.0013388908557430044
-0.002245758494469631   -0.05262215179849954   -0.0011419990256475497
-0.004738694304176204   -0.0568027480672179   -0.001532770725218429
-0.0031756178989578144   -0.056646409378569317   -0.001409941715032584
-0.002202149998212048   -0.052521642189830874   -0.0012009319808721133
-0.0046696527741793255   -0.05671909607600675   -0.001536805994341253
-0.0030830682697001828   -0.056593492232162965   -0.001477485802244015
-0.002202149998212048   -0.052521642189830874   -0.0012009319808721133
-0.004664193100974277   -0.05256002479285605   -0.0013388908557430044
-0.0046696527741793255   -0.05671909607600675   -0.001536805994341253
-0.004631257225816028   -0.05250517585617437   -0.0013338213496598143
-0.0030830682697001828   -0.056593492232162965   -0.001477485802244015
-0.004598238417518963   -0.056674183377968666   -0.0015346731331774047
-0.004631257225816028   -0.05250517585617437   -0.0013338213496598143
-0.0046696527741793255   -0.05671909607600675   -0.001536805994341253
-0.0030830682697001828   -0.056593492232162965   -0.001477485802244015
-0.004631257225816028   -0.05250517585617437   -0.0013338213496598143
-0.002152446792252758   -0.05245621871381416   -0.001253032175162101
-0.002202149998212048   -0.052521642189830874   -0.0012009319808721133
-0.0030830682697001828   -0.056593492232162965   -0.001477485802244015
-0.004631257225816028   -0.05250517585617437   -0.0013338213496598143
-0.002202149998212048   -0.052521642189830874   -0.0012009319808721133
-0.0046696527741793255   -0.05671909607600675   -0.001536805994341253
-0.0030830682697001828   -0.056593492232162965   -0.001477485802244015
-0.002152446792252758   -0.05245621871381416   -0.001253032175162101
-0.004598238417518963   -0.056674183377968666   -0.0015346731331774047
-0.0030121269096869832   -0.05658207122483712   -0.0015385852225486452
-0.002152446792252758   -0.05245621871381416   -0.001253032175162101
-0.004631257225816028   -0.05250517585617437   -0.0013338213496598143
-0.004598238417518963   -0.056674183377968666   -0.0015346731331774047
-0.004602452270888988   -0.05248121434721131   -0.0013226423347804596
-0.0030121269096869832   -0.05658207122483712   -0.0015385852225486452
-0.004529374327675098   -0.056666157565637906   -0.0015263180732804382
-0.004602452270888988   -0.05248121434721131   -0.0013226423347804596
-0.004598238417518963   -0.056674183377968666   -0.0015346731331774047
-0.0030121269096869832   -0.05658207122483712   -0.0015385852225486452
-0.004602452270888988   -0.05248121434721131   -0.0013226423347804596
-0.002122725823590738   -0.05242393768769897   -0.0012989745384726808
-0.002152446792252758   -0.05245621871381416   -0.001253032175162101
-0.0030121269096869832   -0.05658207122483712   -0.0015385852225486452
-0.004602452270888988   -0.05248121434721131   -0.0013226423347804596
-0.002152446792252758   -0.05245621871381416   -0.001253032175162101
-0.004598238417518963   -0.056674183377968666   -0.0015346731331774047
-0.004738694304176204   -0.0568027480672179   -0.001532770725218429
-0.0046962168914645155   -0.05264627438537773   -0.00133741221625474
-0.006209513025246245   -0.05674882407282912   -0.0017171965708911035
-0.0046696527741793255   -0.05671909607600675   -0.001536805994341253
-0.0046962168914645155   -0.05264627438537773   -0.00133741221625474
-0.007108340313166659   -0.05256815153545822   -0.001513792450995829
-0.006209513025246245   -0.05674882407282912   -0.0017171965708911035
-0.007078529500363519   -0.05249374668547555   -0.0014592000140514903
-0.0046696527741793255   -0.05671909607600675   -0.001536805994341253
-0.006141017304219443   -0.056674510212966385   -0.001653941954890925
-0.007078529500363519   -0.05249374668547555   -0.0014592000140514903
-0.006209513025246245   -0.05674882407282912   -0.0017171965708911035
-0.0046696527741793255   -0.05671909607600675   -0.001536805994341253
-0.007078529500363519   -0.05249374668547555   -0.0014592000140514903
-0.004664193100974277   -0.05256002479285605   -0.0013388908557430044
-0.0046962168914645155   -0.05264627438537773   -0.00133741221625474
-0.0046696527741793255   -0.05671909607600675   -0.001536805994341253
-0.007078529500363519   -0.05249374668547555   -0.0014592000140514903
-0.0046962168914645155   -0.05264627438537773   -0.00133741221625474
-0.006209513025246245   -0.05674882407282912   -0.0017171965708911035
-0.0046696527741793255   -0.05671909607600675   -0.001536805994341253
-0.004664193100974277   -0.05256002479285605   -0.0013388908557430044
-0.006141017304219443   -0.056674510212966385   -0.001653941954890925
-0.004598238417518963   -0.056674183377968666   -0.0015346731331774047
-0.004664193100974277   -0.05256002479285605   -0.0013388908557430044
-0.007078529500363519   -0.05249374668547555   -0.0014592000140514903
-0.006141017304219443   -0.056674510212966385   -0.001653941954890925
-0.0070425038295365335   -0.052450398017389877   -0.0013982029689102527
-0.004598238417518963   -0.056674183377968666   -0.0015346731331774047
-0.006064150892646254   -0.056638289986121526   -0.001584612249679297
-0.0070425038295365335   -0.052450398017389877   -0.0013982029689102527
-0.006141017304219443   -0.056674510212966385   -0.001653941954890925
-0.004598238417518963   -0.056674183377968666   -0.0015346731331774047
-0.0070425038295365335   -0.052450398017389877   -0.0013982029689102527
-0.004631257225816028   -0.05250517585617437   -0.0013338213496598143
-0.004664193100974277   -0.05256002479285605   -0.0013388908557430044
-0.004598238417518963   -0.056674183377968666   -0.0015346731331774047
-0.0070425038295365335   -0.052450398017389877   -0.0013982029689102527
-0.004664193100974277   -0.05256002479285605   -0.0013388908557430044
-0.006141017304219443   -0.056674510212966385   -0.001653941954890925
-0.004598238417518963   -0.056674183377968666   -0.0015346731331774047
-0.004631257225816028   -0.05250517585617437   -0.0013338213496598143
-0.006064150892646254   -0.056638289986121526   -0.001584612249679297
-0.004529374327675098   -0.056666157565637906   -0.0015263180732804382
-0.004631257225816028   -0.05250517585617437   -0.0013338213496598143
-0.0070425038295365335   -0.052450398017389877   -0.0013982029689102527
-0.006064150892646254   -0.056638289986121526   -0.001584612249679297
-0.0070074760814775585   -0.0524366717774198   -0.00133099818712281
-0.004529374327675098   -0.056666157565637906   -0.0015263180732804382
-0.005986984358117022   -0.056636517377107926   -0.0015084676018402776
-0.0070074760814775585   -0.0524366717774198   -0.00133099818712281
-0.006064150892646254   -0.056638289986121526   -0.001584612249679297
-0.004529374327675098   -0.056666157565637906   -0.0015263180732804382
-0.0070074760814775585   -0.0524366717774198   -0.00133099818712281
-0.004602452270888988   -0.05248121434721131   -0.0013226423347804596
-0.004631257225816028   -0.05250517585617437   -0.0013338213496598143
-0.004529374327675098   -0.056666157565637906   -0.0015263180732804382
-0.0070074760814775585   -0.0524366717774198   -0.00133099818712281
-0.004631257225816028   -0.05250517585617437   -0.0013338213496598143
-0.006064150892646254   -0.056638289986121526   -0.001584612249679297
-0.006209513025246245   -0.05674882407282912   -0.0017171965708911035
-0.007108340313166659   -0.05256815153545822   -0.001513792450995829
-0.007825057539895442   -0.056573423981413795   -0.0018866692454152496
-0.006141017304219443   -0.056674510212966385   -0.001653941954890925
-0.007108340313166659   -0.05256815153545822   -0.001513792450995829
-0.009635906019068663   -0.05239052633933834   -0.00167049559327585
-0.007825057539895442   -0.056573423981413795   -0.0018866692454152496
-0.00959691337463846   -0.05232741347106284   -0.0015597532475650152
-0.006141017304219443   -0.056674510212966385   -0.001653941954890925
-0.007741158969575272   -0.05650845398124002   -0.0017576041840772591
-0.00959691337463846   -0.05232741347106284   -0.0015597532475650152
-0.007825057539895442   -0.056573423981413795   -0.0018866692454152496
-0.006141017304219443   -0.056674510212966385   -0.001653941954890925
-0.00959691337463846   -0.05232741347106284   -0.0015597532475650152
-0.007078529500363519   -0.05249374668547555   -0.0014592000140514903
-0.007108340313166659   -0.05256815153545822   -0.001513792450995829
-0.006141017304219443   -0.056674510212966385   -0.001653941954890925
-0.00959691337463846   -0.05232741347106284   -0.0015597532475650152
-0.007108340313166659   -0.05256815153545822   -0.001513792450995829
-0.007825057539895442   -0.056573423981413795   -0.0018866692454152496
-0.006141017304219443   -0.056674510212966385   -0.001653941954890925
-0.007078529500363519   -0.05249374668547555   -0.0014592000140514903
-0.007741158969575272   -0.05650845398124002   -0.0017576041840772591
-0.006064150892646254   -0.056638289986121526   -0.001584612249679297
-0.007078529500363519   -0.05249374668547555   -0.0014592000140514903
-0.00959691337463846   -0.05232741347106284   -0.0015597532475650152
-0.007741158969575272   -0.05650845398124002   -0.0017576041840772591
-0.009530781454176563   -0.05229449095582436   -0.0014435928546615326
-0.006064150892646254   -0.056638289986121526   -0.001584612249679297
-0.007625274736978375   -0.05648089171400486   -0.0016229150305669825
-0.009530781454176563   -0.05229449095582436   -0.0014435928546615326
-0.007741158969575272   -0.05650845398124002   -0.0017576041840772591
-0.006064150892646254   -0.056638289986121526   -0.001584612249679297
-0.009530781454176563   -0.05229449095582436   -0.0014435928546615326
-0.0070425038295365335   -0.052450398017389877   -0.0013982029689102527
-0.007078529500363519   -0.05249374668547555   -0.0014592000140514903
-0.006064150892646254   -0.056638289986121526   -0.001584612249679297
-0.009530781454176563   -0.05229449095582436   -0.0014435928546615326
-0.007078529500363519   -0.05249374668547555   -0.0014592000140514903
-0.007741158969575272   -0.05650845398124002   -0.0017576041840772591
-0.006064150892646254   -0.056638289986121526   -0.001584612249679297
-0.0070425038295365335   -0.052450398017389877   -0.0013982029689102527
-0.007625274736978375   -0.05648089171400486   -0.0016229150305669825
-0.005986984358117022   -0.056636517377107926   -0.0015084676018402776
-0.0070425038295365335   -0.052450398017389877   -0.0013982029689102527
-0.009530781454176563   -0.05229449095582436   -0.0014435928546615326
-0.007625274736978375   -0.05648089171400486   -0.0016229150305669825
-0.009477125060113722   -0.052293512187224486   -0.0013203200355741392
-0.005986984358117022   -0.056636517377107926   -0.0015084676018402776
-0.007524212765737419   -0.05649077667500219   -0.001478862349147514
-0.009477125060113722   -0.052293512187224486   -0.0013203200355741392
-0.007625274736978375   -0.05648089171400486   -0.0016229150305669825
-0.005986984358117022   -0.056636517377107926   -0.0015084676018402776
-0.009477125060113722   -0.052293512187224486   -0.0013203200355741392
-0.0070074760814775585   -0.0524366717774198   -0.00133099818712281
-0.0070425038295365335   -0.052450398017389877   -0.0013982029689102527
-0.005986984358117022   -0.056636517377107926   -0.0015084676018402776
-0.009477125060113722   -0.052293512187224486   -0.0013203200355741392
-0.0070425038295365335   -0.052450398017389877   -0.0013982029689102527
-0.007625274736978375   -0.05648089171400486   -0.0016229150305669825
-0.007825057539895442   -0.056573423981413795   -0.0018866692454152496
-0.009635906019068663   -0.05239052633933834   -0.00167049559327585
-0.009905412609063436   -0.05628816580995591   -0.0020495376220649123
-0.007741158969575272   -0.05650845398124002   -0.0017576041840772591
-0.009635906019068663   -0.05239052633933834   -0.00167049559327585
-0.0125835062190211   -0.0521346064546175   -0.0018167435844103584
-0.009905412609063436   -0.05628816580995591   -0.0020495376220649123
-0.012383292328424984   -0.05206872085312287   -0.0016433710935988214
-0.007741158969575272   -0.05650845398124002   -0.0017576041840772591
-0.009634474514968024   -0.05621764126322615   -0.0018457438924272677
-0.012383292328424984   -0.05206872085312287   -0.0016433710935988214
-0.009905412609063436   -0.05628816580995591   -0.0020495376220649123
-0.007741158969575272   -0.05650845398124002   -0.0017576041840772591
-0.012383292328424984   -0.05206872085312287   -0.0016433710935988214
-0.00959691337463846   -0.05232741347106284   -0.0015597532475650152
-0.009635906019068663   -0.05239052633933834   -0.00167049559327585
-0.007741158969575272   -0.05650845398124002   -0.0017576041840772591
-0.012383292328424984   -0.05206872085312287   -0.0016433710935988214
-0.009635906019068663   -0.05239052633933834   -0.00167049559327585
-0.009905412609063436   -0.05628816580995591   -0.0020495376220649123
-0.007741158969575272   -0.05650845398124002   -0.0017576041840772591
-0.00959691337463846   -0.05232741347106284   -0.0015597532475650152
-0.009634474514968024   -0.05621764126322615   -0.0018457438924272677
-0.007625274736978375   -0.05648089171400486   -0.0016229150305669825
-0.00959691337463846   -0.05232741347106284   -0.0015597532475650152
-0.012383292328424984   -0.05206872085312287   -0.0016433710935988214
-0.009634474514968024   -0.05621764126322615   -0.0018457438924272677
-0.012209617148911464   -0.052038629220188745   -0.0014610583752151282
-0.007625274736978375   -0.05648089171400486   -0.0016229150305669825
-0.009391767069921635   -0.05619214705284433   -0.0016301447667351734
-0.012209617148911464   -0.052038629220188745   -0.0014610583752151282
-0.009634474514968024   -0.05621764126322615   -0.0018457438924272677
-0.007625274736978375   -0.05648089171400486   -0.0016229150305669825
-0.012209617148911464   -0.052038629220188745   -0.0014610583752151282
-0.009530781454176563   -0.05229449095582436   -0.0014435928546615326
-0.00959691337463846   -0.05232741347106284   -0.0015597532475650152
-0.007625274736978375   -0.05648089171400486   -0.0016229150305669825
-0.012209617148911464   -0.052038629220188745   -0.0014610583752151282
-0.00959691337463846   -0.05232741347106284   -0.0015597532475650152
-0.009634474514968024   -0.05621764126322615   -0.0018457438924272677
-0.007625274736978375   -0.05648089171400486   -0.0016229150305669825
-0.009530781454176563   -0.05229449095582436   -0.0014435928546615326
-0.009391767069921635   -0.05619214705284433   -0.0016301447667351734
-0.007524212765737419   -0.05649077667500219   -0.001478862349147514
-0.009530781454176563   -0.05229449095582436   -0.0014435928546615326
-0.012209617148911464   -0.052038629220188745   -0.0014610583752151282
-0.009391767069921635   -0.05619214705284433   -0.0016301447667351734
-0.011975670333493397   -0.05205733790619459   -0.0012709658503322618
-0.007524212765737419   -0.05649077667500219   -0.001478862349147514
-0.009077225326383428   -0.05622488523522503   -0.001404782993266802
-0.011975670333493397   -0.05205733790619459   -0.0012709658503322618
-0.009391767069921635   -0.05619214705284433   -0.0016301447667351734
-0.007524212765737419   -0.05649077667500219   -0.001478862349147514
-0.011975670333493397   -0.05205733790619459   -0.0012709658503322618
-0.009477125060113722   -0.052293512187224486   -0.0013203200355741392
-0.009530781454176563   -0.05229449095582436   -0.0014435928546615326
-0.007524212765737419   -0.05649077667500219   -0.001478862349147514
-0.011975670333493397   -0.05205733790619459   -0.0012709658503322618
-0.009530781454176563   -0.05229449095582436   -0.0014435928546615326
-0.009391767069921635   -0.05619214705284433   -0.0016301447667351734
0.00028638226622492336   -0.052496153121062344   -0.0009046800491750828
0.0018411327660406895   -0.04695852283176051   -0.0006892889441972514
-0.002245758494469631   -0.05262215179849954   -0.0011419990256475497
0.00045126292116769656   -0.05237551258917341   -0.001038973487458741
0.0018411327660406895   -0.04695852283176051   -0.0006892889441972514
-0.001514032459525044   -0.04704196818654468   -0.0009158352748513262
-0.002245758494469631   -0.05262215179849954   -0.0011419990256475497
-0.0015048729961687696   -0.046941994182299204   -0.0009567630626786741
0.00045126292116769656   -0.05237551258917341   -0.001038973487458741
-0.002202149998212048   -0.052521642189830874   -0.0012009319808721133
-0.0015048729961687696   -0.046941994182299204   -0.0009567630626786741
-0.002245758494469631   -0.05262215179849954   -0.0011419990256475497
0.00045126292116769656   -0.05237551258917341   -0.001038973487458741
-0.0015048729961687696   -0.046941994182299204   -0.0009567630626786741
0.001939345786064791   -0.046840777521522554   -0.0007887745815124777
0.0018411327660406895   -0.04695852283176051   -0.0006892889441972514
0.00045126292116769656   -0.05237551258917341   -0.001038973487458741
-0.0015048729961687696   -0.046941994182299204   -0.0009567630626786741
0.0018411327660406895   -0.04695852283176051   -0.0006892889441972514
-0.002245758494469631   -0.05262215179849954   -0.0011419990256475497
0.00045126292116769656   -0.05237551258917341   -0.001038973487458741
0.001939345786064791   -0.046840777521522554   -0.0007887745815124777
-0.002202149998212048   -0.052521642189830874   -0.0012009319808721133
0.0005725767305908171   -0.05230605630708372   -0.0011637030751473843
0.001939345786064791   -0.046840777521522554   -0.0007887745815124777
-0.0015048729961687696   -0.046941994182299204   -0.0009567630626786741
-0.002202149998212048   -0.052521642189830874   -0.0012009319808721133
-0.0014932082302362313   -0.04686973319912126   -0.0009914390073285182
0.0005725767305908171   -0.05230605630708372   -0.0011637030751473843
-0.002152446792252758   -0.05245621871381416   -0.001253032175162101
-0.0014932082302362313   -0.04686973319912126   -0.0009914390073285182
-0.002202149998212048   -0.052521642189830874   -0.0012009319808721133
0.0005725767305908171   -0.05230605630708372   -0.0011637030751473843
-0.0014932082302362313   -0.04686973319912126   -0.0009914390073285182
0.0020022132872325347   -0.04676377835638073   -0.0008794236264151254
0.001939345786064791   -0.046840777521522554   -0.0007887745815124777
0.0005725767305908171   -0.05230605630708372   -0.0011637030751473843
-0.0014932082302362313   -0.04686973319912126   -0.0009914390073285182
0.001939345786064791   -0.046840777521522554   -0.0007887745815124777
-0.002202149998212048   -0.052521642189830874   -0.0012009319808721133
0.0005725767305908171   -0.05230605630708372   -0.0011637030751473843
0.0020022132872325347   -0.04676377835638073   -0.0008794236264151254
-0.002152446792252758   -0.05245621871381416   -0.001253032175162101
0.0007025697722261804   -0.05227220329047834   -0.0012788240688957622
0.0020022132872325347   -0.04676377835638073   -0.0008794236264151254
-0.0014932082302362313   -0.04686973319912126   -0.0009914390073285182
-0.002152446792252758   -0.05245621871381416   -0.001253032175162101
-0.0014986191586433782   -0.04682286089805307   -0.0010203188448700312
0.0007025697722261804   -0.05227220329047834   -0.0012788240688957622
-0.002122725823590738   -0.05242393768769897   -0.0012989745384726808
-0.0014986191586433782   -0.04682286089805307   -0.0010203188448700312
-0.002152446792252758   -0.05245621871381416   -0.001253032175162101
0.0007025697722261804   -0.05227220329047834   -0.0012788240688957622
-0.0014986191586433782   -0.04682286089805307   -0.0010203188448700312
0.002066876529805539   -0.04671252157707634   -0.0009614230024133857
0.0020022132872325347   -0.04676377835638073   -0.0008794236264151254
0.0007025697722261804   -0.05227220329047834   -0.0012788240688957622
-0.0014986191586433782   -0.04682286089805307   -0.0010203188448700312
0.0020022132872325347   -0.04676377835638073   -0.0008794236264151254
-0.002152446792252758   -0.05245621871381416   -0.001253032175162101
-0.002245758494469631   -0.05262215179849954   -0.0011419990256475497
-0.001514032459525044   -0.04704196818654468   -0.0009158352748513262
-0.0046962168914645155   -0.05264627438537773   -0.00133741221625474
-0.002202149998212048   -0.052521642189830874   -0.0012009319808721133
-0.001514032459525044   -0.04704196818654468   -0.0009158352748513262
-0.004743378639886817   -0.04704248788833663   -0.0011025135703163446
-0.0046962168914645155   -0.05264627438537773   -0.00133741221625474
-0.004743750186966733   -0.04695795544545853   -0.0010986460050652729
-0.002202149998212048   -0.052521642189830874   -0.0012009319808721133
-0.004664193100974277   -0.05256002479285605   -0.0013388908557430044
-0.004743750186966733   -0.04695795544545853   -0.0010986460050652729
-0.0046962168914645155   -0.05264627438537773   -0.00133741221625474
-0.002202149998212048   -0.052521642189830874   -0.0012009319808721133
-0.004743750186966733   -0.04695795544545853   -0.0010986460050652729
-0.0015048729961687696   -0.046941994182299204   -0.0009567630626786741
-0.001514032459525044   -0.04704196818654468   -0.0009158352748513262
-0.002202149998212048   -0.052521642189830874   -0.0012009319808721133
-0.004743750186966733   -0.04695795544545853   -0.0010986460050652729
-0.001514032459525044   -0.04704196818654468   -0.0009158352748513262
-0.0046962168914645155   -0.05264627438537773   -0.00133741221625474
-0.002202149998212048   -0.052521642189830874   -0.0012009319808721133
-0.0015048729961687696   -0.046941994182299204   -0.0009567630626786741
-0.004664193100974277   -0.05256002479285605   -0.0013388908557430044
-0.002152446792252758   -0.05245621871381416   -0.001253032175162101
-0.0015048729961687696   -0.046941994182299204   -0.0009567630626786741
-0.004743750186966733   -0.04695795544545853   -0.0010986460050652729
-0.004664193100974277   -0.05256002479285605   -0.0013388908557430044
-0.0047439023464656465   -0.04689785091399366   -0.001088549105847801
-0.002152446792252758   -0.05245621871381416   -0.001253032175162101
-0.004631257225816028   -0.05250517585617437   -0.0013338213496598143
-0.0047439023464656465   -0.04689785091399366   -0.001088549105847801
-0.004664193100974277   -0.05256002479285605   -0.0013388908557430044
-0.002152446792252758   -0.05245621871381416   -0.001253032175162101
-0.0047439023464656465   -0.04689785091399366   -0.001088549105847801
-0.0014932082302362313   -0.04686973319912126   -0.0009914390073285182
-0.0015048729961687696   -0.046941994182299204   -0.0009567630626786741
-0.002152446792252758   -0.05245621871381416   -0.001253032175162101
-0.0047439023464656465   -0.04689785091399366   -0.001088549105847801
-0.0015048729961687696   -0.046941994182299204   -0.0009567630626786741
-0.004664193100974277   -0.05256002479285605   -0.0013388908557430044
-0.002152446792252758   -0.05245621871381416   -0.001253032175162101
-0.0014932082302362313   -0.04686973319912126   -0.0009914390073285182
-0.004631257225816028   -0.05250517585617437   -0.0013338213496598143
-0.002122725823590738   -0.05242393768769897   -0.0012989745384726808
-0.0014932082302362313   -0.04686973319912126   -0.0009914390073285182
-0.0047439023464656465   -0.04689785091399366   -0.001088549105847801
-0.004631257225816028   -0.05250517585617437   -0.0013338213496598143
-0.004748367045913585   -0.04686221823836577   -0.001072548424449032
-0.002122725823590738   -0.05242393768769897   -0.0012989745384726808
-0.004602452270888988   -0.05248121434721131   -0.0013226423347804596
-0.004748367045913585   -0.04686221823836577   -0.001072548424449032
-0.004631257225816028   -0.05250517585617437   -0.0013338213496598143
-0.002122725823590738   -0.05242393768769897   -0.0012989745384726808
-0.004748367045913585   -0.04686221823836577   -0.001072548424449032
-0.0014986191586433782   -0.04682286089805307   -0.0010203188448700312
-0.0014932082302362313   -0.04686973319912126   -0.0009914390073285182
-0.002122725823590738   -0.05242393768769897   -0.0012989745384726808
-0.004748367045913585   -0.04686221823836577   -0.001072548424449032
-0.0014932082302362313   -0.04686973319912126   -0.0009914390073285182
-0.004631257225816028   -0.05250517585617437   -0.0013338213496598143
-0.0046962168914645155   -0.05264627438537773   -0.00133741221625474
-0.004743378639886817   -0.04704248788833663   -0.0011025135703163446
-0.007108340313166659   -0.05256815153545822   -0.001513792450995829
-0.004664193100974277   -0.05256002479285605   -0.0013388908557430044
-0.004743378639886817   -0.04704248788833663   -0.0011025135703163446
-0.007918045065646116   -0.04696204165818284   -0.0012659879052260017
-0.007108340313166659   -0.05256815153545822   -0.001513792450995829
-0.00792081253634036   -0.046891060317610415   -0.0012178676118735647
-0.004664193100974277   -0.05256002479285605   -0.0013388908557430044
-0.007078529500363519   -0.05249374668547555   -0.0014592000140514903
-0.00792081253634036   -0.046891060317610415   -0.0012178676118735647
-0.007108340313166659   -0.05256815153545822   -0.001513792450995829
-0.004664193100974277   -0.05256002479285605   -0.0013388908557430044
-0.00792081253634036   -0.046891060317610415   -0.0012178676118735647
-0.004743750186966733   -0.04695795544545853   -0.0010986460050652729
-0.004743378639886817   -0.04704248788833663   -0.0011025135703163446
-0.004664193100974277   -0.05256002479285605   -0.0013388908557430044
-0.00792081253634036   -0.046891060317610415   -0.0012178676118735647
-0.004743378639886817   -0.04704248788833663   -0.0011025135703163446
-0.007108340313166659   -0.05256815153545822   -0.001513792450995829
-0.004664193100974277   -0.05256002479285605   -0.0013388908557430044
-0.004743750186966733   -0.04695795544545853   -0.0010986460050652729
-0.007078529500363519   -0.05249374668547555   -0.0014592000140514903
-0.004631257225816028   -0.05250517585617437   -0.0013338213496598143
-0.004743750186966733   -0.04695795544545853   -0.0010986460050652729
-0.00792081253634036   -0.046891060317610415   -0.0012178676118735647
-0.007078529500363519   -0.05249374668547555   -0.0014592000140514903
-0.007918174038385056   -0.046844291015593495   -0.0011636401484057279
-0.004631257225816028   -0.05250517585617437   -0.0013338213496598143
-0.0070425038295365335   -0.052450398017389877   -0.0013982029689102527
-0.007918174038385056   -0.046844291015593495   -0.0011636401484057279
-0.007078529500363519   -0.05249374668547555   -0.0014592000140514903
-0.004631257225816028   -0.05250517585617437   -0.0013338213496598143
-0.007918174038385056   -0.046844291015593495   -0.0011636401484057279
-0.0047439023464656465   -0.04689785091399366   -0.001088549105847801
-0.004743750186966733   -0.04695795544545853   -0.0010986460050652729
-0.004631257225816028   -0.05250517585617437   -0.0013338213496598143
-0.007918174038385056   -0.046844291015593495   -0.0011636401484057279
-0.004743750186966733   -0.04695795544545853   -0.0010986460050652729
-0.007078529500363519   -0.05249374668547555   -0.0014592000140514903
-0.004631257225816028   -0.05250517585617437   -0.0013338213496598143
-0.0047439023464656465   -0.04689785091399366   -0.001088549105847801
-0.0070425038295365335   -0.052450398017389877   -0.0013982029689102527
-0.004602452270888988   -0.05248121434721131   -0.0013226423347804596
-0.0047439023464656465   -0.04689785091399366   -0.001088549105847801
-0.007918174038385056   -0.046844291015593495   -0.0011636401484057279
-0.0070425038295365335   -0.052450398017389877   -0.0013982029689102527
-0.007916515922011425   -0.046821311035919785   -0.0011034829795253003
-0.004602452270888988   -0.05248121434721131   -0.0013226423347804596
-0.0070074760814775585   -0.0524366717774198   -0.00133099818712281
-0.007916515922011425   -0.046821311035919785   -0.0011034829795253003
-0.0070425038295365335   -0.052450398017389877   -0.0013982029689102527
-0.004602452270888988   -0.05248121434721131   -0.0013226423347804596
-0.007916515922011425   -0.046821311035919785   -0.0011034829795253003
-0.004748367045913585   -0.04686221823836577   -0.001072548424449032
-0.0047439023464656465   -0.04689785091399366   -0.001088549105847801
-0.004602452270888988   -0.05248121434721131   -0.0013226423347804596
-0.007916515922011425   -0.046821311035919785   -0.0011034829795253003
-0.0047439023464656465   -0.04689785091399366   -0.001088549105847801
-0.0070425038295365335   -0.052450398017389877   -0.0013982029689102527
-0.007108340313166659   -0.05256815153545822   -0.001513792450995829
-0.007918045065646116   -0.04696204165818284   -0.0012659879052260017
-0.009635906019068663   -0.05239052633933834   -0.00167049559327585
-0.007078529500363519   -0.05249374668547555   -0.0014592000140514903
-0.007918045065646116   -0.04696204165818284   -0.0012659879052260017
-0.011191553114791869   -0.04680365506773935   -0.0014065892511318297
-0.009635906019068663   -0.05239052633933834   -0.00167049559327585
-0.011187622611251601   -0.046745636927789325   -0.0013136886338509018
-0.007078529500363519   -0.05249374668547555   -0.0014592000140514903
-0.00959691337463846   -0.05232741347106284   -0.0015597532475650152
-0.011187622611251601   -0.046745636927789325   -0.0013136886338509018
-0.009635906019068663   -0.05239052633933834   -0.00167049559327585
-0.007078529500363519   -0.05249374668547555   -0.0014592000140514903
-0.011187622611251601   -0.046745636927789325   -0.0013136886338509018
-0.00792081253634036   -0.046891060317610415   -0.0012178676118735647
-0.007918045065646116   -0.04696204165818284   -0.0012659879052260017
-0.007078529500363519   -0.05249374668547555   -0.0014592000140514903
-0.011187622611251601   -0.046745636927789325   -0.0013136886338509018
-0.007918045065646116   -0.04696204165818284   -0.0012659879052260017
-0.009635906019068663   -0.05239052633933834   -0.00167049559327585
-0.007078529500363519   -0.05249374668547555   -0.0014592000140514903
-0.00792081253634036   -0.046891060317610415   -0.0012178676118735647
-0.00959691337463846   -0.05232741347106284   -0.0015597532475650152
-0.0070425038295365335   -0.052450398017389877   -0.0013982029689102527
-0.00792081253634036   -0.046891060317610415   -0.0012178676118735647
-0.011187622611251601   -0.046745636927789325   -0.0013136886338509018
-0.00959691337463846   -0.05232741347106284   -0.0015597532475650152
-0.011160077275358053   -0.046710959712043185   -0.0012156022828483687
-0.0070425038295365335   -0.052450398017389877   -0.0013982029689102527
-0.009530781454176563   -0.05229449095582436   -0.0014435928546615326
-0.011160077275358053   -0.046710959712043185   -0.0012156022828483687
-0.00959691337463846   -0.05232741347106284   -0.0015597532475650152
-0.0070425038295365335   -0.052450398017389877   -0.0013982029689102527
-0.011160077275358053   -0.046710959712043185   -0.0012156022828483687
-0.007918174038385056   -0.046844291015593495   -0.0011636401484057279
-0.00792081253634036   -0.046891060317610415   -0.0012178676118735647
-0.0070425038295365335   -0.052450398017389877   -0.0013982029689102527
-0.011160077275358053   -0.046710959712043185   -0.0012156022828483687
-0.00792081253634036   -0.046891060317610415   -0.0012178676118735647
-0.00959691337463846   -0.05232741347106284   -0.0015597532475650152
-0.0070425038295365335   -0.052450398017389877   -0.0013982029689102527
-0.007918174038385056   -0.046844291015593495   -0.0011636401484057279
-0.009530781454176563   -0.05229449095582436   -0.0014435928546615326
-0.0070074760814775585   -0.0524366717774198   -0.00133099818712281
-0.007918174038385056   -0.046844291015593495   -0.0011636401484057279
-0.011160077275358053   -0.046710959712043185   -0.0012156022828483687
-0.009530781454176563   -0.05229449095582436   -0.0014435928546615326
-0.011141689283055523   -0.04670207355087349   -0.0011111083969844982
-0.0070074760814775585   -0.0524366717774198   -0.00133099818712281
-0.009477125060113722   -0.052293512187224486   -0.0013203200355741392
-0.011141689283055523   -0.04670207355087349   -0.0011111083969844982
-0.009530781454176563   -0.05229449095582436   -0.0014435928546615326
-0.0070074760814775585   -0.0524366717774198   -0.00133099818712281
-0.011141689283055523   -0.04670207355087349   -0.0011111083969844982
-0.007916515922011425   -0.046821311035919785   -0.0011034829795253003
-0.007918174038385056   -0.046844291015593495   -0.0011636401484057279
-0.0070074760814775585   -0.0524366717774198   -0.00133099818712281
-0.011141689283055523   -0.04670207355087349   -0.0011111083969844982
-0.007918174038385056   -0.046844291015593495   -0.0011636401484057279
-0.009530781454176563   -0.05229449095582436   -0.0014435928546615326
-0.009635906019068663   -0.05239052633933834   -0.00167049559327585
-0.011191553114791869   -0.04680365506773935   -0.0014065892511318297
-0.0125835062190211   -0.0521346064546175   -0.0018167435844103584
-0.00959691337463846   -0.05232741347106284   -0.0015597532475650152
-0.011191553114791869   -0.04680365506773935   -0.0014065892511318297
-0.014848053202899284   -0.04658519614711737   -0.0015334506079937257
-0.0125835062190211   -0.0521346064546175   -0.0018167435844103584
-0.01471087905342819   -0.046528218618010354   -0.0013912860392367818
-0.00959691337463846   -0.05232741347106284   -0.0015597532475650152
-0.012383292328424984   -0.05206872085312287   -0.0016433710935988214
-0.01471087905342819   -0.046528218618010354   -0.0013912860392367818
-0.0125835062190211   -0.0521346064546175   -0.0018167435844103584
-0.00959691337463846   -0.05232741347106284   -0.0015597532475650152
-0.01471087905342819   -0.046528218618010354   -0.0013912860392367818
-0.011187622611251601   -0.046745636927789325   -0.0013136886338509018
-0.011191553114791869   -0.04680365506773935   -0.0014065892511318297
-0.00959691337463846   -0.05232741347106284   -0.0015597532475650152
-0.01471087905342819   -0.046528218618010354   -0.0013912860392367818
-0.011191553114791869   -0.04680365506773935   -0.0014065892511318297
-0.0125835062190211   -0.0521346064546175   -0.0018167435844103584
-0.00959691337463846   -0.05232741347106284   -0.0015597532475650152
-0.011187622611251601   -0.046745636927789325   -0.0013136886338509018
-0.012383292328424984   -0.05206872085312287   -0.0016433710935988214
-0.009530781454176563   -0.05229449095582436   -0.0014435928546615326
-0.011187622611251601   -0.046745636927789325   -0.0013136886338509018
-0.01471087905342819   -0.046528218618010354   -0.0013912860392367818
-0.012383292328424984   -0.05206872085312287   -0.0016433710935988214
-0.014593621865449269   -0.046497954780889104   -0.00124039991009402
-0.009530781454176563   -0.05229449095582436   -0.0014435928546615326
-0.012209617148911464   -0.052038629220188745   -0.0014610583752151282
-0.014593621865449269   -0.046497954780889104   -0.00124039991009402
-0.012383292328424984   -0.05206872085312287   -0.0016433710935988214
-0.009530781454176563   -0.05229449095582436   -0.0014435928546615326
-0.014593621865449269   -0.046497954780889104   -0.00124039991009402
-0.011160077275358053   -0.046710959712043185   -0.0012156022828483687
-0.011187622611251601   -0.046745636927789325   -0.0013136886338509018
-0.009530781454176563   -0.05229449095582436   -0.0014435928546615326
-0.014593621865449269   -0.046497954780889104   -0.00124039991009402
-0.011187622611251601   -0.046745636927789325   -0.0013136886338509018
-0.012383292328424984   -0.05206872085312287   -0.0016433710935988214
-0.009530781454176563   -0.05229449095582436   -0.0014435928546615326
-0.011160077275358053   -0.046710959712043185   -0.0012156022828483687
-0.012209617148911464   -0.052038629220188745   -0.0014610583752151282
-0.009477125060113722   -0.052293512187224486   -0.0013203200355741392
-0.011160077275358053   -0.046710959712043185   -0.0012156022828483687
-0.014593621865449269   -0.046497954780889104   -0.00124039991009402
-0.012209617148911464   -0.052038629220188745   -0.0014610583752151282
-0.014424478397061779   -0.0465085781249628   -0.0010819902258164898
-0.009477125060113722   -0.052293512187224486   -0.0013203200355741392
-0.011975670333493397   -0.05205733790619459   -0.0012709658503322618
-0.014424478397061779   -0.0465085781249628   -0.0010819902258164898
-0.012209617148911464   -0.052038629220188745   -0.0014610583752151282
-0.009477125060113722   -0.052293512187224486   -0.0013203200355741392
-0.014424478397061779   -0.0465085781249628   -0.0010819902258164898
-0.011141689283055523   -0.04670207355087349   -0.0011111083969844982
-0.011160077275358053   -0.046710959712043185   -0.0012156022828483687
-0.009477125060113722   -0.052293512187224486   -0.0013203200355741392
-0.014424478397061779   -0.0465085781249628   -0.0010819902258164898
-0.011160077275358053   -0.046710959712043185   -0.0012156022828483687
-0.012209617148911464   -0.052038629220188745   -0.0014610583752151282
0.0018411327660406895   -0.04695852283176051   -0.0006892889441972514
0.0029145531378255343   -0.04029259195451519   -0.0004592644485014532
-0.001514032459525044   -0.04704196818654468   -0.0009158352748513262
0.001939345786064791   -0.046840777521522554   -0.0007887745815124777
0.0029145531378255343   -0.04029259195451519   -0.0004592644485014532
-0.0010684877021240806   -0.04033380410616441   -0.0006723900364944771
-0.001514032459525044   -0.04704196818654468   -0.0009158352748513262
-0.0010870631348920425   -0.04023627748777786   -0.0006945300418987397
0.001939345786064791   -0.046840777521522554   -0.0007887745815124777
-0.0015048729961687696   -0.046941994182299204   -0.0009567630626786741
-0.0010870631348920425   -0.04023627748777786   -0.0006945300418987397
-0.001514032459525044   -0.04704196818654468   -0.0009158352748513262
0.001939345786064791   -0.046840777521522554   -0.0007887745815124777
-0.0010870631348920425   -0.04023627748777786   -0.0006945300418987397
0.0029536935549823117   -0.0401791495272093   -0.000524600527404062
0.0029145531378255343   -0.04029259195451519   -0.0004592644485014532
0.001939345786064791   -0.046840777521522554   -0.0007887745815124777
-0.0010870631348920425   -0.04023627748777786   -0.0006945300418987397
0.0029145531378255343   -0.04029259195451519   -0.0004592644485014532
-0.001514032459525044   -0.04704196818654468   -0.0009158352748513262
0.001939345786064791   -0.046840777521522554   -0.0007887745815124777
0.0029536935549823117   -0.0401791495272093   -0.000524600527404062
-0.0015048729961687696   -0.046941994182299204   -0.0009567630626786741
0.0020022132872325347   -0.04676377835638073   -0.0008794236264151254
0.0029536935549823117   -0.0401791495272093   -0.000524600527404062
-0.0010870631348920425   -0.04023627748777786   -0.0006945300418987397
-0.0015048729961687696   -0.046941994182299204   -0.0009567630626786741
-0.0011065657685806472   -0.04015931914032209   -0.0007110811103980565
0.0020022132872325347   -0.04676377835638073   -0.0008794236264151254
-0.0014932082302362313   -0.04686973319912126   -0.0009914390073285182
-0.0011065657685806472   -0.04015931914032209   -0.0007110811103980565
-0.0015048729961687696   -0.046941994182299204   -0.0009567630626786741
0.0020022132872325347   -0.04676377835638073   -0.0008794236264151254
-0.0011065657685806472   -0.04015931914032209   -0.0007110811103980565
0.002965833758664677   -0.04009672262215969   -0.0005816893261310597
0.0029536935549823117   -0.0401791495272093   -0.000524600527404062
0.0020022132872325347   -0.04676377835638073   -0.0008794236264151254
-0.0011065657685806472   -0.04015931914032209   -0.0007110811103980565
0.0029536935549823117   -0.0401791495272093   -0.000524600527404062
-0.0015048729961687696   -0.046941994182299204   -0.0009567630626786741
0.0020022132872325347   -0.04676377835638073   -0.0008794236264151254
0.002965833758664677   -0.04009672262215969   -0.0005816893261310597
-0.0014932082302362313   -0.04686973319912126   -0.0009914390073285182
0.002066876529805539   -0.04671252157707634   -0.0009614230024133857
0.002965833758664677   -0.04009672262215969   -0.0005816893261310597
-0.0011065657685806472   -0.04015931914032209   -0.0007110811103980565
-0.0014932082302362313   -0.04686973319912126   -0.0009914390073285182
-0.0011399222633147097   -0.04010049785471996   -0.0007222317840133335
0.002066876529805539   -0.04671252157707634   -0.0009614230024133857
-0.0014986191586433782   -0.04682286089805307   -0.0010203188448700312
-0.0011399222633147097   -0.04010049785471996   -0.0007222317840133335
-0.0014932082302362313   -0.04686973319912126   -0.0009914390073285182
0.002066876529805539   -0.04671252157707634   -0.0009614230024133857
-0.0011399222633147097   -0.04010049785471996   -0.0007222317840133335
0.002972931778164029   -0.040030705892389155   -0.000630922120317256
0.002965833758664677   -0.04009672262215969   -0.0005816893261310597
0.002066876529805539   -0.04671252157707634   -0.0009614230024133857
-0.0011399222633147097   -0.04010049785471996   -0.0007222317840133335
0.002965833758664677   -0.04009672262215969   -0.0005816893261310597
-0.0014932082302362313   -0.04686973319912126   -0.0009914390073285182
-0.001514032459525044   -0.04704196818654468   -0.0009158352748513262
-0.0010684877021240806   -0.04033380410616441   -0.0006723900364944771
-0.004743378639886817   -0.04704248788833663   -0.0011025135703163446
-0.0015048729961687696   -0.046941994182299204   -0.0009567630626786741
-0.0010684877021240806   -0.04033380410616441   -0.0006723900364944771
-0.00488686639317621   -0.04031285422238697   -0.0008477006665999181
-0.004743378639886817   -0.04704248788833663   -0.0011025135703163446
-0.004912729900448396   -0.040231421648494074   -0.0008374123288407722
-0.0015048729961687696   -0.046941994182299204   -0.0009567630626786741
-0.004743750186966733   -0.04695795544545853   -0.0010986460050652729
-0.004912729900448396   -0.040231421648494074   -0.0008374123288407722
-0.004743378639886817   -0.04704248788833663   -0.0011025135703163446
-0.0015048729961687696   -0.046941994182299204   -0.0009567630626786741
-0.004912729900448396   -0.040231421648494074   -0.0008374123288407722
-0.0010870631348920425   -0.04023627748777786   -0.0006945300418987397
-0.0010684877021240806   -0.04033380410616441   -0.0006723900364944771
-0.0015048729961687696   -0.046941994182299204   -0.0009567630626786741
-0.004912729900448396   -0.040231421648494074   -0.0008374123288407722
-0.0010684877021240806   -0.04033380410616441   -0.0006723900364944771
-0.004743378639886817   -0.04704248788833663   -0.0011025135703163446
-0.0015048729961687696   -0.046941994182299204   -0.0009567630626786741
-0.0010870631348920425   -0.04023627748777786   -0.0006945300418987397
-0.004743750186966733   -0.04695795544545853   -0.0010986460050652729
-0.0014932082302362313   -0.04686973319912126   -0.0009914390073285182
-0.0010870631348920425   -0.04023627748777786   -0.0006945300418987397
-0.004912729900448396   -0.040231421648494074   -0.0008374123288407722
-0.004743750186966733   -0.04695795544545853   -0.0010986460050652729
-0.004938949536574293   -0.04016761843645849   -0.0008213685643441032
-0.0014932082302362313   -0.04686973319912126   -0.0009914390073285182
-0.0047439023464656465   -0.04689785091399366   -0.001088549105847801
-0.004938949536574293   -0.04016761843645849   -0.0008213685643441032
-0.004743750186966733   -0.04695795544545853   -0.0010986460050652729
-0.0014932082302362313   -0.04686973319912126   -0.0009914390073285182
-0.004938949536574293   -0.04016761843645849   -0.0008213685643441032
-0.0011065657685806472   -0.04015931914032209   -0.0007110811103980565
-0.0010870631348920425   -0.04023627748777786   -0.0006945300418987397
-0.0014932082302362313   -0.04686973319912126   -0.0009914390073285182
-0.004938949536574293   -0.04016761843645849   -0.0008213685643441032
-0.0010870631348920425   -0.04023627748777786   -0.0006945300418987397
-0.004743750186966733   -0.04695795544545853   -0.0010986460050652729
-0.0014932082302362313   -0.04686973319912126   -0.0009914390073285182
-0.0011065657685806472   -0.04015931914032209   -0.0007110811103980565
-0.0047439023464656465   -0.04689785091399366   -0.001088549105847801
-0.0014986191586433782   -0.04682286089805307   -0.0010203188448700312
-0.0011065657685806472   -0.04015931914032209   -0.0007110811103980565
-0.004938949536574293   -0.04016761843645849   -0.0008213685643441032
-0.0047439023464656465   -0.04689785091399366   -0.001088549105847801
-0.004969265593512559   -0.0401217430565139   -0.0007998490626931877
-0.0014986191586433782   -0.04682286089805307   -0.0010203188448700312
-0.004748367045913585   -0.04686221823836577   -0.001072548424449032
-0.004969265593512559   -0.0401217430565139   -0.0007998490626931877
-0.0047439023464656465   -0.04689785091399366   -0.001088549105847801
-0.0014986191586433782   -0.04682286089805307   -0.0010203188448700312
-0.004969265593512559   -0.0401217430565139   -0.0007998490626931877
-0.0011399222633147097   -0.04010049785471996   -0.0007222317840133335
-0.0011065657685806472   -0.04015931914032209   -0.0007110811103980565
-0.0014986191586433782   -0.04682286089805307   -0.0010203188448700312
-0.004969265593512559   -0.0401217430565139   -0.0007998490626931877
-0.0011065657685806472   -0.04015931914032209   -0.0007110811103980565
-0.0047439023464656465   -0.04689785091399366   -0.001088549105847801
-0.004743378639886817   -0.04704248788833663   -0.0011025135703163446
-0.00488686639317621   -0.04031285422238697   -0.0008477006665999181
-0.007918045065646116   -0.04696204165818284   -0.0012659879052260017
-0.004743750186966733   -0.04695795544545853   -0.0010986460050652729
-0.00488686639317621   -0.04031285422238697   -0.0008477006665999181
-0.008640802742754961   -0.04023364016506386   -0.000997617243707683
-0.007918045065646116   -0.04696204165818284   -0.0012659879052260017
-0.00866872837539529   -0.04016681647924284   -0.0009550618007957283
-0.004743750186966733   -0.04695795544545853   -0.0010986460050652729
-0.00792081253634036   -0.046891060317610415   -0.0012178676118735647
-0.00866872837539529   -0.04016681647924284   -0.0009550618007957283
-0.007918045065646116   -0.04696204165818284   -0.0012659879052260017
-0.004743750186966733   -0.04695795544545853   -0.0010986460050652729
-0.00866872837539529   -0.04016681647924284   -0.0009550618007957283
-0.004912729900448396   -0.040231421648494074   -0.0008374123288407722
-0.00488686639317621   -0.04031285422238697   -0.0008477006665999181
-0.004743750186966733   -0.04695795544545853   -0.0010986460050652729
-0.00866872837539529   -0.04016681647924284   -0.0009550618007957283
-0.00488686639317621   -0.04031285422238697   -0.0008477006665999181
-0.007918045065646116   -0.04696204165818284   -0.0012659879052260017
-0.004743750186966733   -0.04695795544545853   -0.0010986460050652729
-0.004912729900448396   -0.040231421648494074   -0.0008374123288407722
-0.00792081253634036   -0.046891060317610415   -0.0012178676118735647
-0.0047439023464656465   -0.04689785091399366   -0.001088549105847801
-0.004912729900448396   -0.040231421648494074   -0.0008374123288407722
-0.00866872837539529   -0.04016681647924284   -0.0009550618007957283
-0.00792081253634036   -0.046891060317610415   -0.0012178676118735647
-0.008691849840213754   -0.04011745408122317   -0.0009068537697808429
-0.0047439023464656465   -0.04689785091399366   -0.001088549105847801
-0.007918174038385056   -0.046844291015593495   -0.0011636401484057279
-0.008691849840213754   -0.04011745408122317   -0.0009068537697808429
-0.00792081253634036   -0.046891060317610415   -0.0012178676118735647
-0.0047439023464656465   -0.04689785091399366   -0.001088549105847801
-0.008691849840213754   -0.04011745408122317   -0.0009068537697808429
-0.004938949536574293   -0.04016761843645849   -0.0008213685643441032
-0.004912729900448396   -0.040231421648494074   -0.0008374123288407722
-0.0047439023464656465   -0.04689785091399366   -0.001088549105847801
-0.008691849840213754   -0.04011745408122317   -0.0009068537697808429
-0.004912729900448396   -0.040231421648494074   -0.0008374123288407722
-0.00792081253634036   -0.046891060317610415   -0.0012178676118735647
-0.0047439023464656465   -0.04689785091399366   -0.001088549105847801
-0.004938949536574293   -0.04016761843645849   -0.0008213685643441032
-0.007918174038385056   -0.046844291015593495   -0.0011636401484057279
-0.004748367045913585   -0.04686221823836577   -0.001072548424449032
-0.004938949536574293   -0.04016761843645849   -0.0008213685643441032
-0.008691849840213754   -0.04011745408122317   -0.0009068537697808429
-0.007918174038385056   -0.046844291015593495   -0.0011636401484057279
-0.00871564853826503   -0.0400854790736215   -0.0008531588735604952
-0.004748367045913585   -0.04686221823836577   -0.001072548424449032
-0.007916515922011425   -0.046821311035919785   -0.0011034829795253003
-0.00871564853826503   -0.0400854790736215   -0.0008531588735604952
-0.007918174038385056   -0.046844291015593495   -0.0011636401484057279
-0.004748367045913585   -0.04686221823836577   -0.001072548424449032
-0.00871564853826503   -0.0400854790736215   -0.0008531588735604952
-0.004969265593512559   -0.0401217430565139   -0.0007998490626931877
-0.004938949536574293   -0.04016761843645849   -0.0008213685643441032
-0.004748367045913585   -0.04686221823836577   -0.001072548424449032
-0.00871564853826503   -0.0400854790736215   -0.0008531588735604952
-0.004938949536574293   -0.04016761843645849   -0.0008213685643441032
-0.007918174038385056   -0.046844291015593495   -0.0011636401484057279
-0.007918045065646116   -0.04696204165818284   -0.0012659879052260017
-0.008640802742754961   -0.04023364016506386   -0.000997617243707683
-0.011191553114791869   -0.04680365506773935   -0.0014065892511318297
-0.00792081253634036   -0.046891060317610415   -0.0012178676118735647
-0.008640802742754961   -0.04023364016506386   -0.000997617243707683
-0.012484014564973929   -0.04009773256886459   -0.0011227295820642592
-0.011191553114791869   -0.04680365506773935   -0.0014065892511318297
-0.01250708023634399   -0.04004516950364839   -0.0010474656591073087
-0.00792081253634036   -0.046891060317610415   -0.0012178676118735647
-0.011187622611251601   -0.046745636927789325   -0.0013136886338509018
-0.01250708023634399   -0.04004516950364839   -0.0010474656591073087
-0.011191553114791869   -0.04680365506773935   -0.0014065892511318297
-0.00792081253634036   -0.046891060317610415   -0.0012178676118735647
-0.01250708023634399   -0.04004516950364839   -0.0010474656591073087
-0.00866872837539529   -0.04016681647924284   -0.0009550618007957283
-0.008640802742754961   -0.04023364016506386   -0.000997617243707683
-0.00792081253634036   -0.046891060317610415   -0.0012178676118735647
-0.01250708023634399   -0.04004516950364839   -0.0010474656591073087
-0.008640802742754961   -0.04023364016506386   -0.000997617243707683
-0.011191553114791869   -0.04680365506773935   -0.0014065892511318297
-0.00792081253634036   -0.046891060317610415   -0.0012178676118735647
-0.00866872837539529   -0.04016681647924284   -0.0009550618007957283
-0.011187622611251601   -0.046745636927789325   -0.0013136886338509018
-0.007918174038385056   -0.046844291015593495   -0.0011636401484057279
-0.00866872837539529   -0.04016681647924284   -0.0009550618007957283
-0.01250708023634399   -0.04004516950364839   -0.0010474656591073087
-0.011187622611251601   -0.046745636927789325   -0.0013136886338509018
-0.012509908400834614   -0.04000901360513973   -0.000967330967833815
-0.007918174038385056   -0.046844291015593495   -0.0011636401484057279
-0.011160077275358053   -0.046710959712043185   -0.0012156022828483687
-0.012509908400834614   -0.04000901360513973   -0.000967330967833815
-0.011187622611251601   -0.046745636927789325   -0.0013136886338509018
-0.007918174038385056   -0.046844291015593495   -0.0011636401484057279
-0.012509908400834614   -0.04000901360513973   -0.000967330967833815
-0.008691849840213754   -0.04011745408122317   -0.0009068537697808429
-0.00866872837539529   -0.04016681647924284   -0.0009550618007957283
-0.007918174038385056   -0.046844291015593495   -0.0011636401484057279
-0.012509908400834614   -0.04000901360513973   -0.000967330967833815
-0.00866872837539529   -0.04016681647924284   -0.0009550618007957283
-0.011187622611251601   -0.046745636927789325   -0.0013136886338509018
-0.007918174038385056   -0.046844291015593495   -0.0011636401484057279
-0.008691849840213754   -0.04011745408122317   -0.0009068537697808429
-0.011160077275358053   -0.046710959712043185   -0.0012156022828483687
-0.007916515922011425   -0.046821311035919785   -0.0011034829795253003
-0.008691849840213754   -0.04011745408122317   -0.0009068537697808429
-0.012509908400834614   -0.04000901360513973   -0.000967330967833815
-0.011160077275358053   -0.046710959712043185   -0.0012156022828483687
-0.012518511266678063   -0.039991812787608556   -0.0008812928230266663
-0.007916515922011425   -0.046821311035919785   -0.0011034829795253003
-0.011141689283055523   -0.04670207355087349   -0.0011111083969844982
-0.012518511266678063   -0.039991812787608556   -0.0008812928230266663
-0.011160077275358053   -0.046710959712043185   -0.0012156022828483687
-0.007916515922011425   -0.046821311035919785   -0.0011034829795253003
-0.012518511266678063   -0.039991812787608556   -0.0008812928230266663
-0.00871564853826503   -0.0400854790736215   -0.0008531588735604952
-0.008691849840213754   -0.04011745408122317   -0.0009068537697808429
-0.007916515922011425   -0.046821311035919785   -0.0011034829795253003
-0.012518511266678063   -0.039991812787608556   -0.0008812928230266663
-0.008691849840213754   -0.04011745408122317   -0.0009068537697808429
-0.011160077275358053   -0.046710959712043185   -0.0012156022828483687
-0.011191553114791869   -0.04680365506773935   -0.0014065892511318297
-0.012484014564973929   -0.04009773256886459   -0.0011227295820642592
-0.014848053202899284   -0.04658519614711737   -0.0015334506079937257
-0.011187622611251601   -0.046745636927789325   -0.0013136886338509018
-0.012484014564973929   -0.04009773256886459   -0.0011227295820642592
-0.0166751873482935   -0.039919300149172526   -0.0012296141664981577
-0.014848053202899284   -0.04658519614711737   -0.0015334506079937257
-0.016594493558018952   -0.039871283983099456   -0.0011197154516939644
-0.011187622611251601   -0.046745636927789325   -0.0013136886338509018
-0.01471087905342819   -0.046528218618010354   -0.0013912860392367818
-0.016594493558018952   -0.039871283983099456   -0.0011197154516939644
-0.014848053202899284   -0.04658519614711737   -0.0015334506079937257
-0.011187622611251601   -0.046745636927789325   -0.0013136886338509018
-0.016594493558018952   -0.039871283983099456   -0.0011197154516939644
-0.01250708023634399   -0.04004516950364839   -0.0010474656591073087
-0.012484014564973929   -0.04009773256886459   -0.0011227295820642592
-0.011187622611251601   -0.046745636927789325   -0.0013136886338509018
-0.016594493558018952   -0.039871283983099456   -0.0011197154516939644
-0.012484014564973929   -0.04009773256886459   -0.0011227295820642592
-0.014848053202899284   -0.04658519614711737   -0.0015334506079937257
-0.011187622611251601   -0.046745636927789325   -0.0013136886338509018
-0.01250708023634399   -0.04004516950364839   -0.0010474656591073087
-0.01471087905342819   -0.046528218618010354   -0.0013912860392367818
-0.011160077275358053   -0.046710959712043185   -0.0012156022828483687
-0.01250708023634399   -0.04004516950364839   -0.0010474656591073087
-0.016594493558018952   -0.039871283983099456   -0.0011197154516939644
-0.01471087905342819   -0.046528218618010354   -0.0013912860392367818
-0.016526491147689452   -0.03984072923104787   -0.0010013094852792483
-0.011160077275358053   -0.046710959712043185   -0.0012156022828483687
-0.014593621865449269   -0.046497954780889104   -0.00124039991009402
-0.016526491147689452   -0.03984072923104787   -0.0010013094852792483
-0.01471087905342819   -0.046528218618010354   -0.0013912860392367818
-0.011160077275358053   -0.046710959712043185   -0.0012156022828483687
-0.016526491147689452   -0.03984072923104787   -0.0010013094852792483
-0.012509908400834614   -0.04000901360513973   -0.000967330967833815
-0.01250708023634399   -0.04004516950364839   -0.0010474656591073087
-0.011160077275358053   -0.046710959712043185   -0.0012156022828483687
-0.016526491147689452   -0.03984072923104787   -0.0010013094852792483
-0.01250708023634399   -0.04004516950364839   -0.0010474656591073087
-0.01471087905342819   -0.046528218618010354   -0.0013912860392367818
-0.011160077275358053   -0.046710959712043185   -0.0012156022828483687
-0.012509908400834614   -0.04000901360513973   -0.000967330967833815
-0.014593621865449269   -0.046497954780889104   -0.00124039991009402
-0.011141689283055523   -0.04670207355087349   -0.0011111083969844982
-0.012509908400834614   -0.04000901360513973   -0.000967330967833815
-0.016526491147689452   -0.03984072923104787   -0.0010013094852792483
-0.014593621865449269   -0.046497954780889104   -0.00124039991009402
-0.016414462756587467   -0.03984235827117074   -0.0008754577497651132
-0.011141689283055523   -0.04670207355087349   -0.0011111083969844982
-0.014424478397061779   -0.0465085781249628   -0.0010819902258164898
-0.016414462756587467   -0.03984235827117074   -0.0008754577497651132
-0.014593621865449269   -0.046497954780889104   -0.00124039991009402
-0.011141689283055523   -0.04670207355087349   -0.0011111083969844982
-0.016414462756587467   -0.03984235827117074   -0.0008754577497651132
-0.012518511266678063   -0.039991812787608556   -0.0008812928230266663
-0.012509908400834614   -0.04000901360513973   -0.000967330967833815
-0.011141689283055523   -0.04670207355087349   -0.0011111083969844982
-0.016414462756587467   -0.03984235827117074   -0.0008754577497651132
-0.012509908400834614   -0.04000901360513973   -0.000967330967833815
-0.014593621865449269   -0.046497954780889104   -0.00124039991009402
0.0029145531378255343   -0.04029259195451519   -0.0004592644485014532
0.003512993836731847   -0.032807838243512785   -0.0002342198810495978
-0.0010684877021240806   -0.04033380410616441   -0.0006723900364944771
0.0029536935549823117   -0.0401791495272093   -0.000524600527404062
0.003512993836731847   -0.032807838243512785   -0.0002342198810495978
-0.0009111053734120279   -0.03280719154260662   -0.00043178976691622337
-0.0010684877021240806   -0.04033380410616441   -0.0006723900364944771
-0.000950463073613327   -0.032712885391445214   -0.0004348746157317679
0.0029536935549823117   -0.0401791495272093   -0.000524600527404062
-0.0010870631348920425   -0.04023627748777786   -0.0006945300418987397
-0.000950463073613327   -0.032712885391445214   -0.0004348746157317679
-0.0010684877021240806   -0.04033380410616441   -0.0006723900364944771
0.0029536935549823117   -0.0401791495272093   -0.000524600527404062
-0.000950463073613327   -0.032712885391445214   -0.0004348746157317679
0.0035007380220691575   -0.032699256974819534   -0.0002657383224445699
0.003512993836731847   -0.032807838243512785   -0.0002342198810495978
0.0029536935549823117   -0.0401791495272093   -0.000524600527404062
-0.000950463073613327   -0.032712885391445214   -0.0004348746157317679
0.003512993836731847   -0.032807838243512785   -0.0002342198810495978
-0.0010684877021240806   -0.04033380410616441   -0.0006723900364944771
0.0029536935549823117   -0.0401791495272093   -0.000524600527404062
0.0035007380220691575   -0.032699256974819534   -0.0002657383224445699
-0.0010870631348920425   -0.04023627748777786   -0.0006945300418987397
0.002965833758664677   -0.04009672262215969   -0.0005816893261310597
0.0035007380220691575   -0.032699256974819534   -0.0002657383224445699
-0.000950463073613327   -0.032712885391445214   -0.0004348746157317679
-0.0010870631348920425   -0.04023627748777786   -0.0006945300418987397
-0.000994200537327888   -0.03263186900159038   -0.0004329959960474281
0.002965833758664677   -0.04009672262215969   -0.0005816893261310597
-0.0011065657685806472   -0.04015931914032209   -0.0007110811103980565
-0.000994200537327888   -0.03263186900159038   -0.0004329959960474281
-0.0010870631348920425   -0.04023627748777786   -0.0006945300418987397
0.002965833758664677   -0.04009672262215969   -0.0005816893261310597
-0.000994200537327888   -0.03263186900159038   -0.0004329959960474281
0.0034693446779707035   -0.03261210032325319   -0.0002893011459218916
0.0035007380220691575   -0.032699256974819534   -0.0002657383224445699
0.002965833758664677   -0.04009672262215969   -0.0005816893261310597
-0.000994200537327888   -0.03263186900159038   -0.0004329959960474281
0.0035007380220691575   -0.032699256974819534   -0.0002657383224445699
-0.0010870631348920425   -0.04023627748777786   -0.0006945300418987397
0.002965833758664677   -0.04009672262215969   -0.0005816893261310597
0.0034693446779707035   -0.03261210032325319   -0.0002893011459218916
-0.0011065657685806472   -0.04015931914032209   -0.0007110811103980565
0.002972931778164029   -0.040030705892389155   -0.000630922120317256
0.0034693446779707035   -0.03261210032325319   -0.0002893011459218916
-0.000994200537327888   -0.03263186900159038   -0.0004329959960474281
-0.0011065657685806472   -0.04015931914032209   -0.0007110811103980565
-0.0010485621297497967   -0.03256203116892403   -0.0004259582307358242
0.002972931778164029   -0.040030705892389155   -0.000630922120317256
-0.0011399222633147097   -0.04010049785471996   -0.0007222317840133335
-0.0010485621297497967   -0.03256203116892403   -0.0004259582307358242
-0.0011065657685806472   -0.04015931914032209   -0.0007110811103980565
0.002972931778164029   -0.040030705892389155   -0.000630922120317256
-0.0010485621297497967   -0.03256203116892403   -0.0004259582307358242
0.0034254406511738072   -0.03253206214212749   -0.00030546401205874753
0.0034693446779707035   -0.03261210032325319   -0.0002893011459218916
0.002972931778164029   -0.040030705892389155   -0.000630922120317256
-0.0010485621297497967   -0.03256203116892403   -0.0004259582307358242
0.0034693446779707035   -0.03261210032325319   -0.0002893011459218916
-0.0011065657685806472   -0.04015931914032209   -0.0007110811103980565
-0.0010684877021240806   -0.04033380410616441   -0.0006723900364944771
-0.0009111053734120279   -0.03280719154260662   -0.00043178976691622337
-0.00488686639317621   -0.04031285422238697   -0.0008477006665999181
-0.0010870631348920425   -0.04023627748777786   -0.0006945300418987397
-0.0009111053734120279   -0.03280719154260662   -0.00043178976691622337
-0.005131155908822765   -0.032767258089155725   -0.0005946302639380216
-0.00488686639317621   -0.04031285422238697   -0.0008477006665999181
-0.005175284070456722   -0.032689063479297176   -0.0005773745572700032
-0.0010870631348920425   -0.04023627748777786   -0.0006945300418987397
-0.004912729900448396   -0.040231421648494074   -0.0008374123288407722
-0.005175284070456722   -0.032689063479297176   -0.0005773745572700032
-0.00488686639317621   -0.04031285422238697   -0.0008477006665999181
-0.0010870631348920425   -0.04023627748777786   -0.0006945300418987397
-0.005175284070456722   -0.032689063479297176   -0.0005773745572700032
-0.000950463073613327   -0.032712885391445214   -0.0004348746157317679
-0.0009111053734120279   -0.03280719154260662   -0.00043178976691622337
-0.0010870631348920425   -0.04023627748777786   -0.0006945300418987397
-0.005175284070456722   -0.032689063479297176   -0.0005773745572700032
-0.0009111053734120279   -0.03280719154260662   -0.00043178976691622337
-0.00488686639317621   -0.04031285422238697   -0.0008477006665999181
-0.0010870631348920425   -0.04023627748777786   -0.0006945300418987397
-0.000950463073613327   -0.032712885391445214   -0.0004348746157317679
-0.004912729900448396   -0.040231421648494074   -0.0008374123288407722
-0.0011065657685806472   -0.04015931914032209   -0.0007110811103980565
-0.000950463073613327   -0.032712885391445214   -0.0004348746157317679
-0.005175284070456722   -0.032689063479297176   -0.0005773745572700032
-0.004912729900448396   -0.040231421648494074   -0.0008374123288407722
-0.005220305042684397   -0.03262168712553632   -0.0005549467588420627
-0.0011065657685806472   -0.04015931914032209   -0.0007110811103980565
-0.004938949536574293   -0.04016761843645849   -0.0008213685643441032
-0.005220305042684397   -0.03262168712553632   -0.0005549467588420627
-0.004912729900448396   -0.040231421648494074   -0.0008374123288407722
-0.0011065657685806472   -0.04015931914032209   -0.0007110811103980565
-0.005220305042684397   -0.03262168712553632   -0.0005549467588420627
-0.000994200537327888   -0.03263186900159038   -0.0004329959960474281
-0.000950463073613327   -0.032712885391445214   -0.0004348746157317679
-0.0011065657685806472   -0.04015931914032209   -0.0007110811103980565
-0.005220305042684397   -0.03262168712553632   -0.0005549467588420627
-0.000950463073613327   -0.032712885391445214   -0.0004348746157317679
-0.004912729900448396   -0.040231421648494074   -0.0008374123288407722
-0.0011065657685806472   -0.04015931914032209   -0.0007110811103980565
-0.000994200537327888   -0.03263186900159038   -0.0004329959960474281
-0.004938949536574293   -0.04016761843645849   -0.0008213685643441032
-0.0011399222633147097   -0.04010049785471996   -0.0007222317840133335
-0.000994200537327888   -0.03263186900159038   -0.0004329959960474281
-0.005220305042684397   -0.03262168712553632   -0.0005549467588420627
-0.004938949536574293   -0.04016761843645849   -0.0008213685643441032
-0.005269145740431571   -0.03256577064696251   -0.0005275915115321589
-0.0011399222633147097   -0.04010049785471996   -0.0007222317840133335
-0.004969265593512559   -0.0401217430565139   -0.0007998490626931877
-0.005269145740431571   -0.03256577064696251   -0.0005275915115321589
-0.004938949536574293   -0.04016761843645849   -0.0008213685643441032
-0.0011399222633147097   -0.04010049785471996   -0.0007222317840133335
-0.005269145740431571   -0.03256577064696251   -0.0005275915115321589
-0.0010485621297497967   -0.03256203116892403   -0.0004259582307358242
-0.000994200537327888   -0.03263186900159038   -0.0004329959960474281
-0.0011399222633147097   -0.04010049785471996   -0.0007222317840133335
-0.005269145740431571   -0.03256577064696251   -0.0005275915115321589
-0.000994200537327888   -0.03263186900159038   -0.0004329959960474281
-0.004938949536574293   -0.04016761843645849   -0.0008213685643441032
-0.00488686639317621   -0.04031285422238697   -0.0008477006665999181
-0.005131155908822765   -0.032767258089155725   -0.0005946302639380216
-0.008640802742754961   -0.04023364016506386   -0.000997617243707683
-0.004912729900448396   -0.040231421648494074   -0.0008374123288407722
-0.005131155908822765   -0.032767258089155725   -0.0005946302639380216
-0.00927986384118136   -0.032692539139003746   -0.0007318882329871891
-0.008640802742754961   -0.04023364016506386   -0.000997617243707683
-0.009325321246656085   -0.032629183463953146   -0.0006943350645549833
-0.004912729900448396   -0.040231421648494074   -0.0008374123288407722
-0.00866872837539529   -0.04016681647924284   -0.0009550618007957283
-0.009325321246656085   -0.032629183463953146   -0.0006943350645549833
-0.008640802742754961   -0.04023364016506386   -0.000997617243707683
-0.004912729900448396   -0.040231421648494074   -0.0008374123288407722
-0.009325321246656085   -0.032629183463953146   -0.0006943350645549833
-0.005175284070456722   -0.032689063479297176   -0.0005773745572700032
-0.005131155908822765   -0.032767258089155725   -0.0005946302639380216
-0.004912729900448396   -0.040231421648494074   -0.0008374123288407722
-0.009325321246656085   -0.032629183463953146   -0.0006943350645549833
-0.005131155908822765   -0.032767258089155725   -0.0005946302639380216
-0.008640802742754961   -0.04023364016506386   -0.000997617243707683
-0.004912729900448396   -0.040231421648494074   -0.0008374123288407722
-0.005175284070456722   -0.032689063479297176   -0.0005773745572700032
-0.00866872837539529   -0.04016681647924284   -0.0009550618007957283
-0.004938949536574293   -0.04016761843645849   -0.0008213685643441032
-0.005175284070456722   -0.032689063479297176   -0.0005773745572700032
-0.009325321246656085   -0.032629183463953146   -0.0006943350645549833
-0.00866872837539529   -0.04016681647924284   -0.0009550618007957283
-0.009366546592129495   -0.03257656962981592   -0.0006517310255396812
-0.004938949536574293   -0.04016761843645849   -0.0008213685643441032
-0.008691849840213754   -0.04011745408122317   -0.0009068537697808429
-0.009366546592129495   -0.03257656962981592   -0.0006517310255396812
-0.00866872837539529   -0.04016681647924284   -0.0009550618007957283
-0.004938949536574293   -0.04016761843645849   -0.0008213685643441032
-0.009366546592129495   -0.03257656962981592   -0.0006517310255396812
-0.005220305042684397   -0.03262168712553632   -0.0005549467588420627
-0.005175284070456722   -0.032689063479297176   -0.0005773745572700032
-0.004938949536574293   -0.04016761843645849   -0.0008213685643441032
-0.009366546592129495   -0.03257656962981592   -0.0006517310255396812
-0.005175284070456722   -0.032689063479297176   -0.0005773745572700032
-0.00866872837539529   -0.04016681647924284   -0.0009550618007957283
-0.004938949536574293   -0.04016761843645849   -0.0008213685643441032
-0.005220305042684397   -0.03262168712553632   -0.0005549467588420627
-0.008691849840213754   -0.04011745408122317   -0.0009068537697808429
-0.004969265593512559   -0.0401217430565139   -0.0007998490626931877
-0.005220305042684397   -0.03262168712553632   -0.0005549467588420627
-0.009366546592129495   -0.03257656962981592   -0.0006517310255396812
-0.008691849840213754   -0.04011745408122317   -0.0009068537697808429
-0.00940816457205699   -0.03253478486950073   -0.000604267896319692
-0.004969265593512559   -0.0401217430565139   -0.0007998490626931877
-0.00871564853826503   -0.0400854790736215   -0.0008531588735604952
-0.00940816457205699   -0.03253478486950073   -0.000604267896319692
-0.008691849840213754   -0.04011745408122317   -0.0009068537697808429
-0.004969265593512559   -0.0401217430565139   -0.0007998490626931877
-0.00940816457205699   -0.03253478486950073   -0.000604267896319692
-0.005269145740431571   -0.03256577064696251   -0.0005275915115321589
-0.005220305042684397   -0.03262168712553632   -0.0005549467588420627
-0.004969265593512559   -0.0401217430565139   -0.0007998490626931877
-0.00940816457205699   -0.03253478486950073   -0.000604267896319692
-0.005220305042684397   -0.03262168712553632   -0.0005549467588420627
-0.008691849840213754   -0.04011745408122317   -0.0009068537697808429
-0.008640802742754961   -0.04023364016506386   -0.000997617243707683
-0.00927986384118136   -0.032692539139003746   -0.0007318882329871891
-0.012484014564973929   -0.04009773256886459   -0.0011227295820642592
-0.00866872837539529   -0.04016681647924284   -0.0009550618007957283
-0.00927986384118136   -0.032692539139003746   -0.0007318882329871891
-0.01351079643686826   -0.032581449459620916   -0.0008438860267144425
-0.012484014564973929   -0.04009773256886459   -0.0011227295820642592
-0.013552978967041782   -0.03253305208238574   -0.000785879063304672
-0.00866872837539529   -0.04016681647924284   -0.0009550618007957283
-0.01250708023634399   -0.04004516950364839   -0.0010474656591073087
-0.013552978967041782   -0.03253305208238574   -0.000785879063304672
-0.012484014564973929   -0.04009773256886459   -0.0011227295820642592
-0.00866872837539529   -0.04016681647924284   -0.0009550618007957283
-0.013552978967041782   -0.03253305208238574   -0.000785879063304672
-0.009325321246656085   -0.032629183463953146   -0.0006943350645549833
-0.00927986384118136   -0.032692539139003746   -0.0007318882329871891
-0.00866872837539529   -0.04016681647924284   -0.0009550618007957283
-0.013552978967041782   -0.03253305208238574   -0.000785879063304672
-0.00927986384118136   -0.032692539139003746   -0.0007318882329871891
-0.012484014564973929   -0.04009773256886459   -0.0011227295820642592
-0.00866872837539529   -0.04016681647924284   -0.0009550618007957283
-0.009325321246656085   -0.032629183463953146   -0.0006943350645549833
-0.01250708023634399   -0.04004516950364839   -0.0010474656591073087
-0.008691849840213754   -0.04011745408122317   -0.0009068537697808429
-0.009325321246656085   -0.032629183463953146   -0.0006943350645549833
-0.013552978967041782   -0.03253305208238574   -0.000785879063304672
-0.01250708023634399   -0.04004516950364839   -0.0010474656591073087
-0.013578437820039273   -0.032494046748236985   -0.0007235009828499611
-0.008691849840213754   -0.04011745408122317   -0.0009068537697808429
-0.012509908400834614   -0.04000901360513973   -0.000967330967833815
-0.013578437820039273   -0.032494046748236985   -0.0007235009828499611
-0.01250708023634399   -0.04004516950364839   -0.0010474656591073087
-0.008691849840213754   -0.04011745408122317   -0.0009068537697808429
-0.013578437820039273   -0.032494046748236985   -0.0007235009828499611
-0.009366546592129495   -0.03257656962981592   -0.0006517310255396812
-0.009325321246656085   -0.032629183463953146   -0.0006943350645549833
-0.008691849840213754   -0.04011745408122317   -0.0009068537697808429
-0.013578437820039273   -0.032494046748236985   -0.0007235009828499611
-0.009325321246656085   -0.032629183463953146   -0.0006943350645549833
-0.01250708023634399   -0.04004516950364839   -0.0010474656591073087
-0.008691849840213754   -0.04011745408122317   -0.0009068537697808429
-0.009366546592129495   -0.03257656962981592   -0.0006517310255396812
-0.012509908400834614   -0.04000901360513973   -0.000967330967833815
-0.00871564853826503   -0.0400854790736215   -0.0008531588735604952
-0.009366546592129495   -0.03257656962981592   -0.0006517310255396812
-0.013578437820039273   -0.032494046748236985   -0.0007235009828499611
-0.012509908400834614   -0.04000901360513973   -0.000967330967833815
-0.013606449194554372   -0.03246681427209993   -0.000655848869033426
-0.00871564853826503   -0.0400854790736215   -0.0008531588735604952
-0.012518511266678063   -0.039991812787608556   -0.0008812928230266663
-0.013606449194554372   -0.03246681427209993   -0.000655848869033426
-0.012509908400834614   -0.04000901360513973   -0.000967330967833815
-0.00871564853826503   -0.0400854790736215   -0.0008531588735604952
-0.013606449194554372   -0.03246681427209993   -0.000655848869033426
-0.00940816457205699   -0.03253478486950073   -0.000604267896319692
-0.009366546592129495   -0.03257656962981592   -0.0006517310255396812
-0.00871564853826503   -0.0400854790736215   -0.0008531588735604952
-0.013606449194554372   -0.03246681427209993   -0.000655848869033426
-0.009366546592129495   -0.03257656962981592   -0.0006517310255396812
-0.012509908400834614   -0.04000901360513973   -0.000967330967833815
-0.012484014564973929   -0.04009773256886459   -0.0011227295820642592
-0.01351079643686826   -0.032581449459620916   -0.0008438860267144425
-0.0166751873482935   -0.039919300149172526   -0.0012296141664981577
-0.01250708023634399   -0.04004516950364839   -0.0010474656591073087
-0.01351079643686826   -0.032581449459620916   -0.0008438860267144425
-0.0180521055628896   -0.032444629429751445   -0.000932847339169605
-0.0166751873482935   -0.039919300149172526   -0.0012296141664981577
-0.01802043986788672   -0.032403885597343134   -0.0008554740934587618
-0.01250708023634399   -0.04004516950364839   -0.0010474656591073087
-0.016594493558018952   -0.039871283983099456   -0.0011197154516939644
-0.01802043986788672   -0.032403885597343134   -0.0008554740934587618
-0.0166751873482935   -0.039919300149172526   -0.0012296141664981577
-0.01250708023634399   -0.04004516950364839   -0.0010474656591073087
-0.01802043986788672   -0.032403885597343134   -0.0008554740934587618
-0.013552978967041782   -0.03253305208238574   -0.000785879063304672
-0.01351079643686826   -0.032581449459620916   -0.0008438860267144425
-0.01250708023634399   -0.04004516950364839   -0.0010474656591073087
-0.01802043986788672   -0.032403885597343134   -0.0008554740934587618
-0.01351079643686826   -0.032581449459620916   -0.0008438860267144425
-0.0166751873482935   -0.039919300149172526   -0.0012296141664981577
-0.01250708023634399   -0.04004516950364839   -0.0010474656591073087
-0.013552978967041782   -0.03253305208238574   -0.000785879063304672
-0.016594493558018952   -0.039871283983099456   -0.0011197154516939644
-0.012509908400834614   -0.04000901360513973   -0.000967330967833815
-0.013552978967041782   -0.03253305208238574   -0.000785879063304672
-0.01802043986788672   -0.032403885597343134   -0.0008554740934587618
-0.016594493558018952   -0.039871283983099456   -0.0011197154516939644
-0.017994628862473095   -0.032371292919883124   -0.0007700797756042638
-0.012509908400834614   -0.04000901360513973   -0.000967330967833815
-0.016526491147689452   -0.03984072923104787   -0.0010013094852792483
-0.017994628862473095   -0.032371292919883124   -0.0007700797756042638
-0.016594493558018952   -0.039871283983099456   -0.0011197154516939644
-0.012509908400834614   -0.04000901360513973   -0.000967330967833815
-0.017994628862473095   -0.032371292919883124   -0.0007700797756042638
-0.013578437820039273   -0.032494046748236985   -0.0007235009828499611
-0.013552978967041782   -0.03253305208238574   -0.000785879063304672
-0.012509908400834614   -0.04000901360513973   -0.000967330967833815
-0.017994628862473095   -0.032371292919883124   -0.0007700797756042638
-0.013552978967041782   -0.03253305208238574   -0.000785879063304672
-0.016594493558018952   -0.039871283983099456   -0.0011197154516939644
-0.012509908400834614   -0.04000901360513973   -0.000967330967833815
-0.013578437820039273   -0.032494046748236985   -0.0007235009828499611
-0.016526491147689452   -0.03984072923104787   -0.0010013094852792483
-0.012518511266678063   -0.039991812787608556   -0.0008812928230266663
-0.013578437820039273   -0.032494046748236985   -0.0007235009828499611
-0.017994628862473095   -0.032371292919883124   -0.0007700797756042638
-0.016526491147689452   -0.03984072923104787   -0.0010013094852792483
-0.017933073400131592   -0.03236153143820575   -0.0006775786973488908
-0.012518511266678063   -0.039991812787608556   -0.0008812928230266663
-0.016414462756587467   -0.03984235827117074   -0.0008754577497651132
-0.017933073400131592   -0.03236153143820575   -0.0006775786973488908
-0.016526491147689452   -0.03984072923104787   -0.0010013094852792483
-0.012518511266678063   -0.039991812787608556   -0.0008812928230266663
-0.017933073400131592   -0.03236153143820575   -0.0006775786973488908
-0.013606449194554372   -0.03246681427209993   -0.000655848869033426
-0.013578437820039273   -0.032494046748236985   -0.0007235009828499611
-0.012518511266678063   -0.039991812787608556   -0.0008812928230266663
-0.017933073400131592   -0.03236153143820575   -0.0006775786973488908
-0.013578437820039273   -0.032494046748236985   -0.0007235009828499611
-0.016526491147689452   -0.03984072923104787   -0.0010013094852792483
0.003512993836731847   -0.032807838243512785   -0.0002342198810495978
0.0036359778957711837   -0.02480163236398871   -3.718573023451932e-05
-0.0009111053734120279   -0.03280719154260662   -0.00043178976691622337
0.0035007380220691575   -0.032699256974819534   -0.0002657383224445699
0.0036359778957711837   -0.02480163236398871   -3.718573023451932e-05
-0.001041420311608698   -0.024760751346713107   -0.00021468286414183125
-0.0009111053734120279   -0.03280719154260662   -0.00043178976691622337
-0.001095543338260652   -0.024670540867425917   -0.00019868770157707157
0.0035007380220691575   -0.032699256974819534   -0.0002657383224445699
-0.000950463073613327   -0.032712885391445214   -0.0004348746157317679
-0.001095543338260652   -0.024670540867425917   -0.00019868770157707157
-0.0009111053734120279   -0.03280719154260662   -0.00043178976691622337
0.0035007380220691575   -0.032699256974819534   -0.0002657383224445699
-0.001095543338260652   -0.024670540867425917   -0.00019868770157707157
0.00357882368173754   -0.024698103097718384   -3.4253880762881436e-05
0.0036359778957711837   -0.02480163236398871   -3.718573023451932e-05
0.0035007380220691575   -0.032699256974819534   -0.0002657383224445699
-0.001095543338260652   -0.024670540867425917   -0.00019868770157707157
0.0036359778957711837   -0.02480163236398871   -3.718573023451932e-05
-0.0009111053734120279   -0.03280719154260662   -0.00043178976691622337
0.0035007380220691575   -0.032699256974819534   -0.0002657383224445699
0.00357882368173754   -0.024698103097718384   -3.4253880762881436e-05
-0.000950463073613327   -0.032712885391445214   -0.0004348746157317679
0.0034693446779707035   -0.03261210032325319   -0.0002893011459218916
0.00357882368173754   -0.024698103097718384   -3.4253880762881436e-05
-0.001095543338260652   -0.024670540867425917   -0.00019868770157707157
-0.000950463073613327   -0.032712885391445214   -0.0004348746157317679
-0.0011575285312429775   -0.02458550833197731   -0.0001781853023010983
0.0034693446779707035   -0.03261210032325319   -0.0002893011459218916
-0.000994200537327888   -0.03263186900159038   -0.0004329959960474281
-0.0011575285312429775   -0.02458550833197731   -0.0001781853023010983
-0.000950463073613327   -0.032712885391445214   -0.0004348746157317679
0.0034693446779707035   -0.03261210032325319   -0.0002893011459218916
-0.0011575285312429775   -0.02458550833197731   -0.0001781853023010983
0.0035084495218947894   -0.024605759559499858   -2.2116957820425604e-05
0.00357882368173754   -0.024698103097718384   -3.4253880762881436e-05
0.0034693446779707035   -0.03261210032325319   -0.0002893011459218916
-0.0011575285312429775   -0.02458550833197731   -0.0001781853023010983
0.00357882368173754   -0.024698103097718384   -3.4253880762881436e-05
-0.000950463073613327   -0.032712885391445214   -0.0004348746157317679
0.0034693446779707035   -0.03261210032325319   -0.0002893011459218916
0.0035084495218947894   -0.024605759559499858   -2.2116957820425604e-05
-0.000994200537327888   -0.03263186900159038   -0.0004329959960474281
0.0034254406511738072   -0.03253206214212749   -0.00030546401205874753
0.0035084495218947894   -0.024605759559499858   -2.2116957820425604e-05
-0.0011575285312429775   -0.02458550833197731   -0.0001781853023010983
-0.000994200537327888   -0.03263186900159038   -0.0004329959960474281
-0.0012271540965948485   -0.024504484341732084   -0.0001520466868767593
0.0034254406511738072   -0.03253206214212749   -0.00030546401205874753
-0.0010485621297497967   -0.03256203116892403   -0.0004259582307358242
-0.0012271540965948485   -0.024504484341732084   -0.0001520466868767593
-0.000994200537327888   -0.03263186900159038   -0.0004329959960474281
0.0034254406511738072   -0.03253206214212749   -0.00030546401205874753
-0.0012271540965948485   -0.024504484341732084   -0.0001520466868767593
0.00341562536218642   -0.02450924908829144   -1.190121942575528e-06
0.0035084495218947894   -0.024605759559499858   -2.2116957820425604e-05
0.0034254406511738072   -0.03253206214212749   -0.00030546401205874753
-0.0012271540965948485   -0.024504484341732084   -0.0001520466868767593
0.0035084495218947894   -0.024605759559499858   -2.2116957820425604e-05
-0.000994200537327888   -0.03263186900159038   -0.0004329959960474281
-0.0009111053734120279   -0.03280719154260662   -0.00043178976691622337
-0.001041420311608698   -0.024760751346713107   -0.00021468286414183125
-0.005131155908822765   -0.032767258089155725   -0.0005946302639380216
-0.000950463073613327   -0.032712885391445214   -0.0004348746157317679
-0.001041420311608698   -0.024760751346713107   -0.00021468286414183125
-0.005473417705071602   -0.02471284064991338   -0.00036466929986435256
-0.005131155908822765   -0.032767258089155725   -0.0005946302639380216
-0.005528697626104479   -0.024637492778027844   -0.0003399906862843886
-0.000950463073613327   -0.032712885391445214   -0.0004348746157317679
-0.005175284070456722   -0.032689063479297176   -0.0005773745572700032
-0.005528697626104479   -0.024637492778027844   -0.0003399906862843886
-0.005131155908822765   -0.032767258089155725   -0.0005946302639380216
-0.000950463073613327   -0.032712885391445214   -0.0004348746157317679
-0.005528697626104479   -0.024637492778027844   -0.0003399906862843886
-0.001095543338260652   -0.024670540867425917   -0.00019868770157707157
-0.001041420311608698   -0.024760751346713107   -0.00021468286414183125
-0.000950463073613327   -0.032712885391445214   -0.0004348746157317679
-0.005528697626104479   -0.024637492778027844   -0.0003399906862843886
-0.001041420311608698   -0.024760751346713107   -0.00021468286414183125
-0.005131155908822765   -0.032767258089155725   -0.0005946302639380216
-0.000950463073613327   -0.032712885391445214   -0.0004348746157317679
-0.001095543338260652   -0.024670540867425917   -0.00019868770157707157
-0.005175284070456722   -0.032689063479297176   -0.0005773745572700032
-0.000994200537327888   -0.03263186900159038   -0.0004329959960474281
-0.001095543338260652   -0.024670540867425917   -0.00019868770157707157
-0.005528697626104479   -0.024637492778027844   -0.0003399906862843886
-0.005175284070456722   -0.032689063479297176   -0.0005773745572700032
-0.005585223360791886   -0.024566161661765496   -0.0003110133790036503
-0.000994200537327888   -0.03263186900159038   -0.0004329959960474281
-0.005220305042684397   -0.03262168712553632   -0.0005549467588420627
-0.005585223360791886   -0.024566161661765496   -0.0003110133790036503
-0.005175284070456722   -0.032689063479297176   -0.0005773745572700032
-0.000994200537327888   -0.03263186900159038   -0.0004329959960474281
-0.005585223360791886   -0.024566161661765496   -0.0003110133790036503
-0.0011575285312429775   -0.02458550833197731   -0.0001781853023010983
-0.001095543338260652   -0.024670540867425917   -0.00019868770157707157
-0.000994200537327888   -0.03263186900159038   -0.0004329959960474281
-0.005585223360791886   -0.024566161661765496   -0.0003110133790036503
-0.001095543338260652   -0.024670540867425917   -0.00019868770157707157
-0.005175284070456722   -0.032689063479297176   -0.0005773745572700032
-0.000994200537327888   -0.03263186900159038   -0.0004329959960474281
-0.0011575285312429775   -0.02458550833197731   -0.0001781853023010983
-0.005220305042684397   -0.03262168712553632   -0.0005549467588420627
-0.0010485621297497967   -0.03256203116892403   -0.0004259582307358242
-0.0011575285312429775   -0.02458550833197731   -0.0001781853023010983
-0.005585223360791886   -0.024566161661765496   -0.0003110133790036503
-0.005220305042684397   -0.03262168712553632   -0.0005549467588420627
-0.005645355808896404   -0.024499962284966342   -0.00027769354764454703
-0.0010485621297497967   -0.03256203116892403   -0.0004259582307358242
-0.005269145740431571   -0.03256577064696251   -0.0005275915115321589
-0.005645355808896404   -0.024499962284966342   -0.00027769354764454703
-0.005220305042684397   -0.03262168712553632   -0.0005549467588420627
-0.0010485621297497967   -0.03256203116892403   -0.0004259582307358242
-0.005645355808896404   -0.024499962284966342   -0.00027769354764454703
-0.0012271540965948485   -0.024504484341732084   -0.0001520466868767593
-0.0011575285312429775   -0.02458550833197731   -0.0001781853023010983
-0.0010485621297497967   -0.03256203116892403   -0.0004259582307358242
-0.005645355808896404   -0.024499962284966342   -0.00027769354764454703
-0.0011575285312429775   -0.02458550833197731   -0.0001781853023010983
-0.005220305042684397   -0.03262168712553632   -0.0005549467588420627
-0.005131155908822765   -0.032767258089155725   -0.0005946302639380216
-0.005473417705071602   -0.02471284064991338   -0.00036466929986435256
-0.00927986384118136   -0.032692539139003746   -0.0007318882329871891
-0.005175284070456722   -0.032689063479297176   -0.0005773745572700032
-0.005473417705071602   -0.02471284064991338   -0.00036466929986435256
-0.00983317719177575   -0.0246552662757464   -0.000491908834256624
-0.00927986384118136   -0.032692539139003746   -0.0007318882329871891
-0.009888083685972215   -0.0245936771625108   -0.0004585633468024443
-0.005175284070456722   -0.032689063479297176   -0.0005773745572700032
-0.009325321246656085   -0.032629183463953146   -0.0006943350645549833
-0.009888083685972215   -0.0245936771625108   -0.0004585633468024443
-0.00927986384118136   -0.032692539139003746   -0.0007318882329871891
-0.005175284070456722   -0.032689063479297176   -0.0005773745572700032
-0.009888083685972215   -0.0245936771625108   -0.0004585633468024443
-0.005528697626104479   -0.024637492778027844   -0.0003399906862843886
-0.005473417705071602   -0.02471284064991338   -0.00036466929986435256
-0.005175284070456722   -0.032689063479297176   -0.0005773745572700032
-0.009888083685972215   -0.0245936771625108   -0.0004585633468024443
-0.005473417705071602   -0.02471284064991338   -0.00036466929986435256
-0.00927986384118136   -0.032692539139003746   -0.0007318882329871891
-0.005175284070456722   -0.032689063479297176   -0.0005773745572700032
-0.005528697626104479   -0.024637492778027844   -0.0003399906862843886
-0.009325321246656085   -0.032629183463953146   -0.0006943350645549833
-0.005220305042684397   -0.03262168712553632   -0.0005549467588420627
-0.005528697626104479   -0.024637492778027844   -0.0003399906862843886
-0.009888083685972215   -0.0245936771625108   -0.0004585633468024443
-0.009325321246656085   -0.032629183463953146   -0.0006943350645549833
-0.009939430163481144   -0.024536328224941475   -0.0004210659834567862
-0.005220305042684397   -0.03262168712553632   -0.0005549467588420627
-0.009366546592129495   -0.03257656962981592   -0.0006517310255396812
-0.009939430163481144   -0.024536328224941475   -0.0004210659834567862
-0.009325321246656085   -0.032629183463953146   -0.0006943350645549833
-0.005220305042684397   -0.03262168712553632   -0.0005549467588420627
-0.009939430163481144   -0.024536328224941475   -0.0004210659834567862
-0.005585223360791886   -0.024566161661765496   -0.0003110133790036503
-0.005528697626104479   -0.024637492778027844   -0.0003399906862843886
-0.005220305042684397   -0.03262168712553632   -0.0005549467588420627
-0.009939430163481144   -0.024536328224941475   -0.0004210659834567862
-0.005528697626104479   -0.024637492778027844   -0.0003399906862843886
-0.009325321246656085   -0.032629183463953146   -0.0006943350645549833
-0.005220305042684397   -0.03262168712553632   -0.0005549467588420627
-0.005585223360791886   -0.024566161661765496   -0.0003110133790036503
-0.009366546592129495   -0.03257656962981592   -0.0006517310255396812
-0.005269145740431571   -0.03256577064696251   -0.0005275915115321589
-0.005585223360791886   -0.024566161661765496   -0.0003110133790036503
-0.009939430163481144   -0.024536328224941475   -0.0004210659834567862
-0.009366546592129495   -0.03257656962981592   -0.0006517310255396812
-0.009990960555382476   -0.024483376772848165   -0.0003796216094259907
-0.005269145740431571   -0.03256577064696251   -0.0005275915115321589
-0.00940816457205699   -0.03253478486950073   -0.000604267896319692
-0.009990960555382476   -0.024483376772848165   -0.0003796216094259907
-0.009366546592129495   -0.03257656962981592   -0.0006517310255396812
-0.005269145740431571   -0.03256577064696251   -0.0005275915115321589
-0.009990960555382476   -0.024483376772848165   -0.0003796216094259907
-0.005645355808896404   -0.024499962284966342   -0.00027769354764454703
-0.005585223360791886   -0.024566161661765496   -0.0003110133790036503
-0.005269145740431571   -0.03256577064696251   -0.0005275915115321589
-0.009990960555382476   -0.024483376772848165   -0.0003796216094259907
-0.005585223360791886   -0.024566161661765496   -0.0003110133790036503
-0.009366546592129495   -0.03257656962981592   -0.0006517310255396812
-0.00927986384118136   -0.032692539139003746   -0.0007318882329871891
-0.00983317719177575   -0.0246552662757464   -0.000491908834256624
-0.01351079643686826   -0.032581449459620916   -0.0008438860267144425
-0.009325321246656085   -0.032629183463953146   -0.0006943350645549833
-0.00983317719177575   -0.0246552662757464   -0.000491908834256624
-0.014271766788812056   -0.02457735352165813   -0.0005953119815849189
-0.01351079643686826   -0.032581449459620916   -0.0008438860267144425
-0.014324335465292012   -0.02453023803296252   -0.0005534032329980531
-0.009325321246656085   -0.032629183463953146   -0.0006943350645549833
-0.013552978967041782   -0.03253305208238574   -0.000785879063304672
-0.014324335465292012   -0.02453023803296252   -0.0005534032329980531
-0.01351079643686826   -0.032581449459620916   -0.0008438860267144425
-0.009325321246656085   -0.032629183463953146   -0.0006943350645549833
-0.014324335465292012   -0.02453023803296252   -0.0005534032329980531
-0.009888083685972215   -0.0245936771625108   -0.0004585633468024443
-0.00983317719177575   -0.0246552662757464   -0.000491908834256624
-0.009325321246656085   -0.032629183463953146   -0.0006943350645549833
-0.014324335465292012   -0.02453023803296252   -0.0005534032329980531
-0.00983317719177575   -0.0246552662757464   -0.000491908834256624
-0.01351079643686826   -0.032581449459620916   -0.0008438860267144425
-0.009325321246656085   -0.032629183463953146   -0.0006943350645549833
-0.009888083685972215   -0.0245936771625108   -0.0004585633468024443
-0.013552978967041782   -0.03253305208238574   -0.000785879063304672
-0.009366546592129495   -0.03257656962981592   -0.0006517310255396812
-0.009888083685972215   -0.0245936771625108   -0.0004585633468024443
-0.014324335465292012   -0.02453023803296252   -0.0005534032329980531
-0.013552978967041782   -0.03253305208238574   -0.000785879063304672
-0.01436412493181311   -0.024485772218476573   -0.0005080241195513308
-0.009366546592129495   -0.03257656962981592   -0.0006517310255396812
-0.013578437820039273   -0.032494046748236985   -0.0007235009828499611
-0.01436412493181311   -0.024485772218476573   -0.0005080241195513308
-0.013552978967041782   -0.03253305208238574   -0.000785879063304672
-0.009366546592129495   -0.03257656962981592   -0.0006517310255396812
-0.01436412493181311   -0.024485772218476573   -0.0005080241195513308
-0.009939430163481144   -0.024536328224941475   -0.0004210659834567862
-0.009888083685972215   -0.0245936771625108   -0.0004585633468024443
-0.009366546592129495   -0.03257656962981592   -0.0006517310255396812
-0.01436412493181311   -0.024485772218476573   -0.0005080241195513308
-0.009888083685972215   -0.0245936771625108   -0.0004585633468024443
-0.013552978967041782   -0.03253305208238574   -0.000785879063304672
-0.009366546592129495   -0.03257656962981592   -0.0006517310255396812
-0.009939430163481144   -0.024536328224941475   -0.0004210659834567862
-0.013578437820039273   -0.032494046748236985   -0.0007235009828499611
-0.00940816457205699   -0.03253478486950073   -0.000604267896319692
-0.009939430163481144   -0.024536328224941475   -0.0004210659834567862
-0.01436412493181311   -0.024485772218476573   -0.0005080241195513308
-0.013578437820039273   -0.032494046748236985   -0.0007235009828499611
-0.014403619511084709   -0.024445952236956076   -0.0004582724517232851
-0.00940816457205699   -0.03253478486950073   -0.000604267896319692
-0.013606449194554372   -0.03246681427209993   -0.000655848869033426
-0.014403619511084709   -0.024445952236956076   -0.0004582724517232851
-0.013578437820039273   -0.032494046748236985   -0.0007235009828499611
-0.00940816457205699   -0.03253478486950073   -0.000604267896319692
-0.014403619511084709   -0.024445952236956076   -0.0004582724517232851
-0.009990960555382476   -0.024483376772848165   -0.0003796216094259907
-0.009939430163481144   -0.024536328224941475   -0.0004210659834567862
-0.00940816457205699   -0.03253478486950073   -0.000604267896319692
-0.014403619511084709   -0.024445952236956076   -0.0004582724517232851
-0.009939430163481144   -0.024536328224941475   -0.0004210659834567862
-0.013578437820039273   -0.032494046748236985   -0.0007235009828499611
-0.01351079643686826   -0.032581449459620916   -0.0008438860267144425
-0.014271766788812056   -0.02457735352165813   -0.0005953119815849189
-0.0180521055628896   -0.032444629429751445   -0.000932847339169605
-0.013552978967041782   -0.03253305208238574   -0.000785879063304672
-0.014271766788812056   -0.02457735352165813   -0.0005953119815849189
-0.018976673638258234   -0.024485166866953997   -0.000671841751628057
-0.0180521055628896   -0.032444629429751445   -0.000932847339169605
-0.018984344709774673   -0.024447680506241725   -0.0006254259254073102
-0.013552978967041782   -0.03253305208238574   -0.000785879063304672
-0.01802043986788672   -0.032403885597343134   -0.0008554740934587618
-0.018984344709774673   -0.024447680506241725   -0.0006254259254073102
-0.0180521055628896   -0.032444629429751445   -0.000932847339169605
-0.013552978967041782   -0.03253305208238574   -0.000785879063304672
-0.018984344709774673   -0.024447680506241725   -0.0006254259254073102
-0.014324335465292012   -0.02453023803296252   -0.0005534032329980531
-0.014271766788812056   -0.02457735352165813   -0.0005953119815849189
-0.013552978967041782   -0.03253305208238574   -0.000785879063304672
-0.018984344709774673   -0.024447680506241725   -0.0006254259254073102
-0.014271766788812056   -0.02457735352165813   -0.0005953119815849189
-0.0180521055628896   -0.032444629429751445   -0.000932847339169605
-0.013552978967041782   -0.03253305208238574   -0.000785879063304672
-0.014324335465292012   -0.02453023803296252   -0.0005534032329980531
-0.01802043986788672   -0.032403885597343134   -0.0008554740934587618
-0.013578437820039273   -0.032494046748236985   -0.0007235009828499611
-0.014324335465292012   -0.02453023803296252   -0.0005534032329980531
-0.018984344709774673   -0.024447680506241725   -0.0006254259254073102
-0.01802043986788672   -0.032403885597343134   -0.0008554740934587618
-0.0189922889673808   -0.02440983334302874   -0.0005720268618089572
-0.013578437820039273   -0.032494046748236985   -0.0007235009828499611
-0.017994628862473095   -0.032371292919883124   -0.0007700797756042638
-0.0189922889673808   -0.02440983334302874   -0.0005720268618089572
-0.01802043986788672   -0.032403885597343134   -0.0008554740934587618
-0.013578437820039273   -0.032494046748236985   -0.0007235009828499611
-0.0189922889673808   -0.02440983334302874   -0.0005720268618089572
-0.01436412493181311   -0.024485772218476573   -0.0005080241195513308
-0.014324335465292012   -0.02453023803296252   -0.0005534032329980531
-0.013578437820039273   -0.032494046748236985   -0.0007235009828499611
-0.0189922889673808   -0.02440983334302874   -0.0005720268618089572
-0.014324335465292012   -0.02453023803296252   -0.0005534032329980531
-0.01802043986788672   -0.032403885597343134   -0.0008554740934587618
-0.013578437820039273   -0.032494046748236985   -0.0007235009828499611
-0.01436412493181311   -0.024485772218476573   -0.0005080241195513308
-0.017994628862473095   -0.032371292919883124   -0.0007700797756042638
-0.013606449194554372   -0.03246681427209993   -0.000655848869033426
-0.01436412493181311   -0.024485772218476573   -0.0005080241195513308
-0.0189922889673808   -0.02440983334302874   -0.0005720268618089572
-0.017994628862473095   -0.032371292919883124   -0.0007700797756042638
-0.01897367766145758   -0.024385239475436745   -0.0005124706890632411
-0.013606449194554372   -0.03246681427209993   -0.000655848869033426
-0.017933073400131592   -0.03236153143820575   -0.0006775786973488908
-0.01897367766145758   -0.024385239475436745   -0.0005124706890632411
-0.017994628862473095   -0.032371292919883124   -0.0007700797756042638
-0.013606449194554372   -0.03246681427209993   -0.000655848869033426
-0.01897367766145758   -0.024385239475436745   -0.0005124706890632411
-0.014403619511084709   -0.024445952236956076   -0.0004582724517232851
-0.01436412493181311   -0.024485772218476573   -0.0005080241195513308
-0.013606449194554372   -0.03246681427209993   -0.000655848869033426
-0.01897367766145758   -0.024385239475436745   -0.0005124706890632411
-0.01436412493181311   -0.024485772218476573   -0.0005080241195513308
-0.017994628862473095   -0.032371292919883124   -0.0007700797756042638
0.0036359778957711837   -0.02480163236398871   -3.718573023451932e-05
0.0032623455904976246   -0.0165535302253956   9.885067941178011e-05
-0.001041420311608698   -0.024760751346713107   -0.00021468286414183125
0.00357882368173754   -0.024698103097718384   -3.4253880762881436e-05
0.0032623455904976246   -0.0165535302253956   9.885067941178011e-05
-0.0014521445196407174   -0.016476083098069468   -4.1905440166247986e-05
-0.001041420311608698   -0.024760751346713107   -0.00021468286414183125
-0.0015169374271635856   -0.016394492025507884   -8.314682009894394e-06
0.00357882368173754   -0.024698103097718384   -3.4253880762881436e-05
-0.001095543338260652   -0.024670540867425917   -0.00019868770157707157
-0.0015169374271635856   -0.016394492025507884   -8.314682009894394e-06
-0.001041420311608698   -0.024760751346713107   -0.00021468286414183125
0.00357882368173754   -0.024698103097718384   -3.4253880762881436e-05
-0.0015169374271635856   -0.016394492025507884   -8.314682009894394e-06
0.003160498283526537   -0.016454952682787283   0.00014048422720702497
0.0032623455904976246   -0.0165535302253956   9.885067941178011e-05
0.00357882368173754   -0.024698103097718384   -3.4253880762881436e-05
-0.0015169374271635856   -0.016394492025507884   -8.314682009894394e-06
0.0032623455904976246   -0.0165535302253956   9.885067941178011e-05
-0.001041420311608698   -0.024760751346713107   -0.00021468286414183125
0.00357882368173754   -0.024698103097718384   -3.4253880762881436e-05
0.003160498283526537   -0.016454952682787283   0.00014048422720702497
-0.001095543338260652   -0.024670540867425917   -0.00019868770157707157
0.0035084495218947894   -0.024605759559499858   -2.2116957820425604e-05
0.003160498283526537   -0.016454952682787283   0.00014048422720702497
-0.0015169374271635856   -0.016394492025507884   -8.314682009894394e-06
-0.001095543338260652   -0.024670540867425917   -0.00019868770157707157
-0.0015927669614851088   -0.016308423796244368   3.1278668221404914e-05
0.0035084495218947894   -0.024605759559499858   -2.2116957820425604e-05
-0.0011575285312429775   -0.02458550833197731   -0.0001781853023010983
-0.0015927669614851088   -0.016308423796244368   3.1278668221404914e-05
-0.001095543338260652   -0.024670540867425917   -0.00019868770157707157
0.0035084495218947894   -0.024605759559499858   -2.2116957820425604e-05
-0.0015927669614851088   -0.016308423796244368   3.1278668221404914e-05
0.003046631281864034   -0.016357160045283668   0.00020044237682116425
0.003160498283526537   -0.016454952682787283   0.00014048422720702497
0.0035084495218947894   -0.024605759559499858   -2.2116957820425604e-05
-0.0015927669614851088   -0.016308423796244368   3.1278668221404914e-05
0.003160498283526537   -0.016454952682787283   0.00014048422720702497
-0.001095543338260652   -0.024670540867425917   -0.00019868770157707157
0.0035084495218947894   -0.024605759559499858   -2.2116957820425604e-05
0.003046631281864034   -0.016357160045283668   0.00020044237682116425
-0.0011575285312429775   -0.02458550833197731   -0.0001781853023010983
0.00341562536218642   -0.02450924908829144   -1.190121942575528e-06
0.003046631281864034   -0.016357160045283668   0.00020044237682116425
-0.0015927669614851088   -0.016308423796244368   3.1278668221404914e-05
-0.0011575285312429775   -0.02458550833197731   -0.0001781853023010983
-0.0016712427139955527   -0.016217077506950468   7.679978328349053e-05
0.00341562536218642   -0.02450924908829144   -1.190121942575528e-06
-0.0012271540965948485   -0.024504484341732084   -0.0001520466868767593
-0.0016712427139955527   -0.016217077506950468   7.679978328349053e-05
-0.0011575285312429775   -0.02458550833197731   -0.0001781853023010983
0.00341562536218642   -0.02450924908829144   -1.190121942575528e-06
-0.0016712427139955527   -0.016217077506950468   7.679978328349053e-05
0.0029074836208410905   -0.01623698662943539   0.0002664459433237201
0.003046631281864034   -0.016357160045283668   0.00020044237682116425
0.00341562536218642   -0.02450924908829144   -1.190121942575528e-06
-0.0016712427139955527   -0.016217077506950468   7.679978328349053e-05
0.003046631281864034   -0.016357160045283668   0.00020044237682116425
-0.0011575285312429775   -0.02458550833197731   -0.0001781853023010983
-0.001041420311608698   -0.024760751346713107   -0.00021468286414183125
-0.0014521445196407174   -0.016476083098069468   -4.1905440166247986e-05
-0.005473417705071602   -0.02471284064991338   -0.00036466929986435256
-0.001095543338260652   -0.024670540867425917   -0.00019868770157707157
-0.0014521445196407174   -0.016476083098069468   -4.1905440166247986e-05
-0.005891042452563115   -0.016456024868270625   -0.00017744519611140013
-0.005473417705071602   -0.02471284064991338   -0.00036466929986435256
-0.0059496779866487735   -0.016384914200585438   -0.000146106512214435
-0.001095543338260652   -0.024670540867425917   -0.00019868770157707157
-0.005528697626104479   -0.024637492778027844   -0.0003399906862843886
-0.0059496779866487735   -0.016384914200585438   -0.000146106512214435
-0.005473417705071602   -0.02471284064991338   -0.00036466929986435256
-0.001095543338260652   -0.024670540867425917   -0.00019868770157707157
-0.0059496779866487735   -0.016384914200585438   -0.000146106512214435
-0.0015169374271635856   -0.016394492025507884   -8.314682009894394e-06
-0.0014521445196407174   -0.016476083098069468   -4.1905440166247986e-05
-0.001095543338260652   -0.024670540867425917   -0.00019868770157707157
-0.0059496779866487735   -0.016384914200585438   -0.000146106512214435
-0.0014521445196407174   -0.016476083098069468   -4.1905440166247986e-05
-0.005473417705071602   -0.02471284064991338   -0.00036466929986435256
-0.001095543338260652   -0.024670540867425917   -0.00019868770157707157
-0.0015169374271635856   -0.016394492025507884   -8.314682009894394e-06
-0.005528697626104479   -0.024637492778027844   -0.0003399906862843886
-0.0011575285312429775   -0.02458550833197731   -0.0001781853023010983
-0.0015169374271635856   -0.016394492025507884   -8.314682009894394e-06
-0.0059496779866487735   -0.016384914200585438   -0.000146106512214435
-0.005528697626104479   -0.024637492778027844   -0.0003399906862843886
-0.006010350280797777   -0.0163109628553367   -0.0001116425787097552
-0.0011575285312429775   -0.02458550833197731   -0.0001781853023010983
-0.005585223360791886   -0.024566161661765496   -0.0003110133790036503
-0.006010350280797777   -0.0163109628553367   -0.0001116425787097552
-0.005528697626104479   -0.024637492778027844   -0.0003399906862843886
-0.0011575285312429775   -0.02458550833197731   -0.0001781853023010983
-0.006010350280797777   -0.0163109628553367   -0.0001116425787097552
-0.0015927669614851088   -0.016308423796244368   3.1278668221404914e-05
-0.0015169374271635856   -0.016394492025507884   -8.314682009894394e-06
-0.0011575285312429775   -0.02458550833197731   -0.0001781853023010983
-0.006010350280797777   -0.0163109628553367   -0.0001116425787097552
-0.0015169374271635856   -0.016394492025507884   -8.314682009894394e-06
-0.005528697626104479   -0.024637492778027844   -0.0003399906862843886
-0.0011575285312429775   -0.02458550833197731   -0.0001781853023010983
-0.0015927669614851088   -0.016308423796244368   3.1278668221404914e-05
-0.005585223360791886   -0.024566161661765496   -0.0003110133790036503
-0.0012271540965948485   -0.024504484341732084   -0.0001520466868767593
-0.0015927669614851088   -0.016308423796244368   3.1278668221404914e-05
-0.006010350280797777   -0.0163109628553367   -0.0001116425787097552
-0.005585223360791886   -0.024566161661765496   -0.0003110133790036503
-0.006073531808865514   -0.01623551708635332   -7.343249643143456e-05
-0.0012271540965948485   -0.024504484341732084   -0.0001520466868767593
-0.005645355808896404   -0.024499962284966342   -0.00027769354764454703
-0.006073531808865514   -0.01623551708635332   -7.343249643143456e-05
-0.005585223360791886   -0.024566161661765496   -0.0003110133790036503
-0.0012271540965948485   -0.024504484341732084   -0.0001520466868767593
-0.006073531808865514   -0.01623551708635332   -7.343249643143456e-05
-0.0016712427139955527   -0.016217077506950468   7.679978328349053e-05
-0.0015927669614851088   -0.016308423796244368   3.1278668221404914e-05
-0.0012271540965948485   -0.024504484341732084   -0.0001520466868767593
-0.006073531808865514   -0.01623551708635332   -7.343249643143456e-05
-0.0015927669614851088   -0.016308423796244368   3.1278668221404914e-05
-0.005585223360791886   -0.024566161661765496   -0.0003110133790036503
-0.005473417705071602   -0.02471284064991338   -0.00036466929986435256
-0.005891042452563115   -0.016456024868270625   -0.00017744519611140013
-0.00983317719177575   -0.0246552662757464   -0.000491908834256624
-0.005528697626104479   -0.024637492778027844   -0.0003399906862843886
-0.005891042452563115   -0.016456024868270625   -0.00017744519611140013
-0.010283972809437422   -0.016450427345340152   -0.00029987605556904657
-0.00983317719177575   -0.0246552662757464   -0.000491908834256624
-0.01034006144620194   -0.01638814731509723   -0.0002699068990853969
-0.005528697626104479   -0.024637492778027844   -0.0003399906862843886
-0.009888083685972215   -0.0245936771625108   -0.0004585633468024443
-0.01034006144620194   -0.01638814731509723   -0.0002699068990853969
-0.00983317719177575   -0.0246552662757464   -0.000491908834256624
-0.005528697626104479   -0.024637492778027844   -0.0003399906862843886
-0.01034006144620194   -0.01638814731509723   -0.0002699068990853969
-0.0059496779866487735   -0.016384914200585438   -0.000146106512214435
-0.005891042452563115   -0.016456024868270625   -0.00017744519611140013
-0.005528697626104479   -0.024637492778027844   -0.0003399906862843886
-0.01034006144620194   -0.01638814731509723   -0.0002699068990853969
-0.005891042452563115   -0.016456024868270625   -0.00017744519611140013
-0.00983317719177575   -0.0246552662757464   -0.000491908834256624
-0.005528697626104479   -0.024637492778027844   -0.0003399906862843886
-0.0059496779866487735   -0.016384914200585438   -0.000146106512214435
-0.009888083685972215   -0.0245936771625108   -0.0004585633468024443
-0.005585223360791886   -0.024566161661765496   -0.0003110133790036503
-0.0059496779866487735   -0.016384914200585438   -0.000146106512214435
-0.01034006144620194   -0.01638814731509723   -0.0002699068990853969
-0.009888083685972215   -0.0245936771625108   -0.0004585633468024443
-0.0103934937705056   -0.01632476870419679   -0.00023720225335449455
-0.005585223360791886   -0.024566161661765496   -0.0003110133790036503
-0.009939430163481144   -0.024536328224941475   -0.0004210659834567862
-0.0103934937705056   -0.01632476870419679   -0.00023720225335449455
-0.009888083685972215   -0.0245936771625108   -0.0004585633468024443
-0.005585223360791886   -0.024566161661765496   -0.0003110133790036503
-0.0103934937705056   -0.01632476870419679   -0.00023720225335449455
-0.006010350280797777   -0.0163109628553367   -0.0001116425787097552
-0.0059496779866487735   -0.016384914200585438   -0.000146106512214435
-0.005585223360791886   -0.024566161661765496   -0.0003110133790036503
-0.0103934937705056   -0.01632476870419679   -0.00023720225335449455
-0.0059496779866487735   -0.016384914200585438   -0.000146106512214435
-0.009888083685972215   -0.0245936771625108   -0.0004585633468024443
-0.005585223360791886   -0.024566161661765496   -0.0003110133790036503
-0.006010350280797777   -0.0163109628553367   -0.0001116425787097552
-0.009939430163481144   -0.024536328224941475   -0.0004210659834567862
-0.005645355808896404   -0.024499962284966342   -0.00027769354764454703
-0.006010350280797777   -0.0163109628553367   -0.0001116425787097552
-0.0103934937705056   -0.01632476870419679   -0.00023720225335449455
-0.009939430163481144   -0.024536328224941475   -0.0004210659834567862
-0.01044639040218169   -0.016259925662713177   -0.00020191468055385633
-0.005645355808896404   -0.024499962284966342   -0.00027769354764454703
-0.009990960555382476   -0.024483376772848165   -0.0003796216094259907
-0.01044639040218169   -0.016259925662713177   -0.00020191468055385633
-0.009939430163481144   -0.024536328224941475   -0.0004210659834567862
-0.005645355808896404   -0.024499962284966342   -0.00027769354764454703
-0.01044639040218169   -0.016259925662713177   -0.00020191468055385633
-0.006073531808865514   -0.01623551708635332   -7.343249643143456e-05
-0.006010350280797777   -0.0163109628553367   -0.0001116425787097552
-0.005645355808896404   -0.024499962284966342   -0.00027769354764454703
-0.01044639040218169   -0.016259925662713177   -0.00020191468055385633
-0.006010350280797777   -0.0163109628553367   -0.0001116425787097552
-0.009939430163481144   -0.024536328224941475   -0.0004210659834567862
-0.00983317719177575   -0.0246552662757464   -0.000491908834256624
-0.010283972809437422   -0.016450427345340152   -0.00029987605556904657
-0.014271766788812056   -0.02457735352165813   -0.0005953119815849189
-0.009888083685972215   -0.0245936771625108   -0.0004585633468024443
-0.010283972809437422   -0.016450427345340152   -0.00029987605556904657
-0.014770029646897215   -0.016424804326269013   -0.0004025488971954225
-0.014271766788812056   -0.02457735352165813   -0.0005953119815849189
-0.014823498973582878   -0.01637416602971887   -0.0003741097136242091
-0.009888083685972215   -0.0245936771625108   -0.0004585633468024443
-0.014324335465292012   -0.02453023803296252   -0.0005534032329980531
-0.014823498973582878   -0.01637416602971887   -0.0003741097136242091
-0.014271766788812056   -0.02457735352165813   -0.0005953119815849189
-0.009888083685972215   -0.0245936771625108   -0.0004585633468024443
-0.014823498973582878   -0.01637416602971887   -0.0003741097136242091
-0.01034006144620194   -0.01638814731509723   -0.0002699068990853969
-0.010283972809437422   -0.016450427345340152   -0.00029987605556904657
-0.009888083685972215   -0.0245936771625108   -0.0004585633468024443
-0.014823498973582878   -0.01637416602971887   -0.0003741097136242091
-0.010283972809437422   -0.016450427345340152   -0.00029987605556904657
-0.014271766788812056   -0.02457735352165813   -0.0005953119815849189
-0.009888083685972215   -0.0245936771625108   -0.0004585633468024443
-0.01034006144620194   -0.01638814731509723   -0.0002699068990853969
-0.014324335465292012   -0.02453023803296252   -0.0005534032329980531
-0.009939430163481144   -0.024536328224941475   -0.0004210659834567862
-0.01034006144620194   -0.01638814731509723   -0.0002699068990853969
-0.014823498973582878   -0.01637416602971887   -0.0003741097136242091
-0.014324335465292012   -0.02453023803296252   -0.0005534032329980531
-0.014868767869002174   -0.01632076012325621   -0.0003437202037189053
-0.009939430163481144   -0.024536328224941475   -0.0004210659834567862
-0.01436412493181311   -0.024485772218476573   -0.0005080241195513308
-0.014868767869002174   -0.01632076012325621   -0.0003437202037189053
-0.014324335465292012   -0.02453023803296252   -0.0005534032329980531
-0.009939430163481144   -0.024536328224941475   -0.0004210659834567862
-0.014868767869002174   -0.01632076012325621   -0.0003437202037189053
-0.0103934937705056   -0.01632476870419679   -0.00023720225335449455
-0.01034006144620194   -0.01638814731509723   -0.0002699068990853969
-0.009939430163481144   -0.024536328224941475   -0.0004210659834567862
-0.014868767869002174   -0.01632076012325621   -0.0003437202037189053
-0.01034006144620194   -0.01638814731509723   -0.0002699068990853969
-0.014324335465292012   -0.02453023803296252   -0.0005534032329980531
-0.009939430163481144   -0.024536328224941475   -0.0004210659834567862
-0.0103934937705056   -0.01632476870419679   -0.00023720225335449455
-0.01436412493181311   -0.024485772218476573   -0.0005080241195513308
-0.009990960555382476   -0.024483376772848165   -0.0003796216094259907
-0.0103934937705056   -0.01632476870419679   -0.00023720225335449455
-0.014868767869002174   -0.01632076012325621   -0.0003437202037189053
-0.01436412493181311   -0.024485772218476573   -0.0005080241195513308
-0.014911551578468418   -0.016265972899835546   -0.0003105383194451134
-0.009990960555382476   -0.024483376772848165   -0.0003796216094259907
-0.014403619511084709   -0.024445952236956076   -0.0004582724517232851
-0.014911551578468418   -0.016265972899835546   -0.0003105383194451134
-0.01436412493181311   -0.024485772218476573   -0.0005080241195513308
-0.009990960555382476   -0.024483376772848165   -0.0003796216094259907
-0.014911551578468418   -0.016265972899835546   -0.0003105383194451134
-0.01044639040218169   -0.016259925662713177   -0.00020191468055385633
-0.0103934937705056   -0.01632476870419679   -0.00023720225335449455
-0.009990960555382476   -0.024483376772848165   -0.0003796216094259907
-0.014911551578468418   -0.016265972899835546   -0.0003105383194451134
-0.0103934937705056   -0.01632476870419679   -0.00023720225335449455
-0.01436412493181311   -0.024485772218476573   -0.0005080241195513308
-0.014271766788812056   -0.02457735352165813   -0.0005953119815849189
-0.014770029646897215   -0.016424804326269013   -0.0004025488971954225
-0.018976673638258234   -0.024485166866953997   -0.000671841751628057
-0.014324335465292012   -0.02453023803296252   -0.0005534032329980531
-0.014770029646897215   -0.016424804326269013   -0.0004025488971954225
-0.01946994486240882   -0.016382488818422608   -0.0004782428209310834
-0.018976673638258234   -0.024485166866953997   -0.000671841751628057
-0.01950298679236541   -0.01634010000829238   -0.00045679769476982706
-0.014324335465292012   -0.02453023803296252   -0.0005534032329980531
-0.018984344709774673   -0.024447680506241725   -0.0006254259254073102
-0.01950298679236541   -0.01634010000829238   -0.00045679769476982706
-0.018976673638258234   -0.024485166866953997   -0.000671841751628057
-0.014324335465292012   -0.02453023803296252   -0.0005534032329980531
-0.01950298679236541   -0.01634010000829238   -0.00045679769476982706
-0.014823498973582878   -0.01637416602971887   -0.0003741097136242091
-0.014770029646897215   -0.016424804326269013   -0.0004025488971954225
-0.014324335465292012   -0.02453023803296252   -0.0005534032329980531
-0.01950298679236541   -0.01634010000829238   -0.00045679769476982706
-0.014770029646897215   -0.016424804326269013   -0.0004025488971954225
-0.018976673638258234   -0.024485166866953997   -0.000671841751628057
-0.014324335465292012   -0.02453023803296252   -0.0005534032329980531
-0.014823498973582878   -0.01637416602971887   -0.0003741097136242091
-0.018984344709774673   -0.024447680506241725   -0.0006254259254073102
-0.01436412493181311   -0.024485772218476573   -0.0005080241195513308
-0.014823498973582878   -0.01637416602971887   -0.0003741097136242091
-0.01950298679236541   -0.01634010000829238   -0.00045679769476982706
-0.018984344709774673   -0.024447680506241725   -0.0006254259254073102
-0.019533199957293978   -0.01629208556118391   -0.00043058394634977606
-0.01436412493181311   -0.024485772218476573   -0.0005080241195513308
-0.0189922889673808   -0.02440983334302874   -0.0005720268618089572
-0.019533199957293978   -0.01629208556118391   -0.00043058394634977606
-0.018984344709774673   -0.024447680506241725   -0.0006254259254073102
-0.01436412493181311   -0.024485772218476573   -0.0005080241195513308
-0.019533199957293978   -0.01629208556118391   -0.00043058394634977606
-0.014868767869002174   -0.01632076012325621   -0.0003437202037189053
-0.014823498973582878   -0.01637416602971887   -0.0003741097136242091
-0.01436412493181311   -0.024485772218476573   -0.0005080241195513308
-0.019533199957293978   -0.01629208556118391   -0.00043058394634977606
-0.014823498973582878   -0.01637416602971887   -0.0003741097136242091
-0.018984344709774673   -0.024447680506241725   -0.0006254259254073102
-0.01436412493181311   -0.024485772218476573   -0.0005080241195513308
-0.014868767869002174   -0.01632076012325621   -0.0003437202037189053
-0.0189922889673808   -0.02440983334302874   -0.0005720268618089572
-0.014403619511084709   -0.024445952236956076   -0.0004582724517232851
-0.014868767869002174   -0.01632076012325621   -0.0003437202037189053
-0.019533199957293978   -0.01629208556118391   -0.00043058394634977606
-0.0189922889673808   -0.02440983334302874   -0.0005720268618089572
-0.01954762984931156   -0.016248173160472362   -0.00040078481320792136
-0.014403619511084709   -0.024445952236956076   -0.0004582724517232851
-0.01897367766145758   -0.024385239475436745   -0.0005124706890632411
-0.01954762984931156   -0.016248173160472362   -0.00040078481320792136
-0.0189922889673808   -0.02440983334302874   -0.0005720268618089572
-0.014403619511084709   -0.024445952236956076   -0.0004582724517232851
-0.01954762984931156   -0.016248173160472362   -0.00040078481320792136
-0.014911551578468418   -0.016265972899835546   -0.0003105383194451134
-0.014868767869002174   -0.01632076012325621   -0.0003437202037189053
-0.014403619511084709   -0.024445952236956076   -0.0004582724517232851
-0.01954762984931156   -0.016248173160472362   -0.00040078481320792136
-0.014868767869002174   -0.01632076012325621   -0.0003437202037189053
-0.0189922889673808   -0.02440983334302874   -0.0005720268618089572
0.0032623455904976246   -0.0165535302253956   9.885067941178011e-05
0.002287739298676146   -0.008316840192677   0.00010644233229049
-0.0014521445196407174   -0.016476083098069468   -4.1905440166247986e-05
0.003160498283526537   -0.016454952682787283   0.00014048422720702497
0.002287739298676146   -0.008316840192677   0.00010644233229049
-0.002110984301754034   -0.008209664300381524   5.522331481815435e-05
-0.0014521445196407174   -0.016476083098069468   -4.1905440166247986e-05
-0.0021755214481736585   -0.008168802680382503   0.0001020252783250584
0.003160498283526537   -0.016454952682787283   0.00014048422720702497
-0.0015169374271635856   -0.016394492025507884   -8.314682009894394e-06
-0.0021755214481736585   -0.008168802680382503   0.0001020252783250584
-0.0014521445196407174   -0.016476083098069468   -4.1905440166247986e-05
0.003160498283526537   -0.016454952682787283   0.00014048422720702497
-0.0021755214481736585   -0.008168802680382503   0.0001020252783250584
0.002086488674712878   -0.00821197390543756   0.0002221714871917585
0.002287739298676146   -0.008316840192677   0.00010644233229049
0.003160498283526537   -0.016454952682787283   0.00014048422720702497
-0.0021755214481736585   -0.008168802680382503   0.0001020252783250584
0.002287739298676146   -0.008316840192677   0.00010644233229049
-0.0014521445196407174   -0.016476083098069468   -4.1905440166247986e-05
0.003160498283526537   -0.016454952682787283   0.00014048422720702497
0.002086488674712878   -0.00821197390543756   0.0002221714871917585
-0.0015169374271635856   -0.016394492025507884   -8.314682009894394e-06
0.003046631281864034   -0.016357160045283668   0.00020044237682116425
0.002086488674712878   -0.00821197390543756   0.0002221714871917585
-0.0021755214481736585   -0.008168802680382503   0.0001020252783250584
-0.0015169374271635856   -0.016394492025507884   -8.314682009894394e-06
-0.002260485002045481   -0.00809553886622654   0.00015889811511895314
0.003046631281864034   -0.016357160045283668   0.00020044237682116425
-0.0015927669614851088   -0.016308423796244368   3.1278668221404914e-05
-0.002260485002045481   -0.00809553886622654   0.00015889811511895314
-0.0015169374271635856   -0.016394492025507884   -8.314682009894394e-06
0.003046631281864034   -0.016357160045283668   0.00020044237682116425
-0.002260485002045481   -0.00809553886622654   0.00015889811511895314
0.0019687056434415226   -0.008126430172182246   0.0003084549729079778
0.002086488674712878   -0.00821197390543756   0.0002221714871917585
0.003046631281864034   -0.016357160045283668   0.00020044237682116425
-0.002260485002045481   -0.00809553886622654   0.00015889811511895314
0.002086488674712878   -0.00821197390543756   0.0002221714871917585
-0.0015169374271635856   -0.016394492025507884   -8.314682009894394e-06
0.003046631281864034   -0.016357160045283668   0.00020044237682116425
0.0019687056434415226   -0.008126430172182246   0.0003084549729079778
-0.0015927669614851088   -0.016308423796244368   3.1278668221404914e-05
0.0029074836208410905   -0.01623698662943539   0.0002664459433237201
0.0019687056434415226   -0.008126430172182246   0.0003084549729079778
-0.002260485002045481   -0.00809553886622654   0.00015889811511895314
-0.0015927669614851088   -0.016308423796244368   3.1278668221404914e-05
-0.0023319808885376835   -0.008016852423561163   0.00020895382228171982
0.0029074836208410905   -0.01623698662943539   0.0002664459433237201
-0.0016712427139955527   -0.016217077506950468   7.679978328349053e-05
-0.0023319808885376835   -0.008016852423561163   0.00020895382228171982
-0.0015927669614851088   -0.016308423796244368   3.1278668221404914e-05
0.0029074836208410905   -0.01623698662943539   0.0002664459433237201
-0.0023319808885376835   -0.008016852423561163   0.00020895382228171982
0.001817657219909863   -0.007995470147842751   0.000407290913726834
0.0019687056434415226   -0.008126430172182246   0.0003084549729079778
0.0029074836208410905   -0.01623698662943539   0.0002664459433237201
-0.0023319808885376835   -0.008016852423561163   0.00020895382228171982
0.0019687056434415226   -0.008126430172182246   0.0003084549729079778
-0.0015927669614851088   -0.016308423796244368   3.1278668221404914e-05
-0.0014521445196407174   -0.016476083098069468   -4.1905440166247986e-05
-0.002110984301754034   -0.008209664300381524   5.522331481815435e-05
-0.005891042452563115   -0.016456024868270625   -0.00017744519611140013
-0.0015169374271635856   -0.016394492025507884   -8.314682009894394e-06
-0.002110984301754034   -0.008209664300381524   5.522331481815435e-05
-0.0062957174803855475   -0.008331481735337676   -5.228141060838063e-05
-0.005891042452563115   -0.016456024868270625   -0.00017744519611140013
-0.006355271173320759   -0.008268649331298646   -1.907697460440788e-05
-0.0015169374271635856   -0.016394492025507884   -8.314682009894394e-06
-0.0059496779866487735   -0.016384914200585438   -0.000146106512214435
-0.006355271173320759   -0.008268649331298646   -1.907697460440788e-05
-0.005891042452563115   -0.016456024868270625   -0.00017744519611140013
-0.0015169374271635856   -0.016394492025507884   -8.314682009894394e-06
-0.006355271173320759   -0.008268649331298646   -1.907697460440788e-05
-0.0021755214481736585   -0.008168802680382503   0.0001020252783250584
-0.002110984301754034   -0.008209664300381524   5.522331481815435e-05
-0.0015169374271635856   -0.016394492025507884   -8.314682009894394e-06
-0.006355271173320759   -0.008268649331298646   -1.907697460440788e-05
-0.002110984301754034   -0.008209664300381524   5.522331481815435e-05
-0.005891042452563115   -0.016456024868270625   -0.00017744519611140013
-0.0015169374271635856   -0.016394492025507884   -8.314682009894394e-06
-0.0021755214481736585   -0.008168802680382503   0.0001020252783250584
-0.0059496779866487735   -0.016384914200585438   -0.000146106512214435
-0.0015927669614851088   -0.016308423796244368   3.1278668221404914e-05
-0.0021755214481736585   -0.008168802680382503   0.0001020252783250584
-0.006355271173320759   -0.008268649331298646   -1.907697460440788e-05
-0.0059496779866487735   -0.016384914200585438   -0.000146106512214435
-0.006417677524690181   -0.008197616437052815   1.6098952348135337e-05
-0.0015927669614851088   -0.016308423796244368   3.1278668221404914e-05
-0.006010350280797777   -0.0163109628553367   -0.0001116425787097552
-0.006417677524690181   -0.008197616437052815   1.6098952348135337e-05
-0.0059496779866487735   -0.016384914200585438   -0.000146106512214435
-0.0015927669614851088   -0.016308423796244368   3.1278668221404914e-05
-0.006417677524690181   -0.008197616437052815   1.6098952348135337e-05
-0.002260485002045481   -0.00809553886622654   0.00015889811511895314
-0.0021755214481736585   -0.008168802680382503   0.0001020252783250584
-0.0015927669614851088   -0.016308423796244368   3.1278668221404914e-05
-0.006417677524690181   -0.008197616437052815   1.6098952348135337e-05
-0.0021755214481736585   -0.008168802680382503   0.0001020252783250584
-0.0059496779866487735   -0.016384914200585438   -0.000146106512214435
-0.0015927669614851088   -0.016308423796244368   3.1278668221404914e-05
-0.002260485002045481   -0.00809553886622654   0.00015889811511895314
-0.006010350280797777   -0.0163109628553367   -0.0001116425787097552
-0.0016712427139955527   -0.016217077506950468   7.679978328349053e-05
-0.002260485002045481   -0.00809553886622654   0.00015889811511895314
-0.006417677524690181   -0.008197616437052815   1.6098952348135337e-05
-0.006010350280797777   -0.0163109628553367   -0.0001116425787097552
-0.006477052072304866   -0.008119763368126837   5.491341092382534e-05
-0.0016712427139955527   -0.016217077506950468   7.679978328349053e-05
-0.006073531808865514   -0.01623551708635332   -7.343249643143456e-05
-0.006477052072304866   -0.008119763368126837   5.491341092382534e-05
-0.006010350280797777   -0.0163109628553367   -0.0001116425787097552
-0.0016712427139955527   -0.016217077506950468   7.679978328349053e-05
-0.006477052072304866   -0.008119763368126837   5.491341092382534e-05
-0.0023319808885376835   -0.008016852423561163   0.00020895382228171982
-0.002260485002045481   -0.00809553886622654   0.00015889811511895314
-0.0016712427139955527   -0.016217077506950468   7.679978328349053e-05
-0.006477052072304866   -0.008119763368126837   5.491341092382534e-05
-0.002260485002045481   -0.00809553886622654   0.00015889811511895314
-0.006010350280797777   -0.0163109628553367   -0.0001116425787097552
-0.005891042452563115   -0.016456024868270625   -0.00017744519611140013
-0.0062957174803855475   -0.008331481735337676   -5.228141060838063e-05
-0.010283972809437422   -0.016450427345340152   -0.00029987605556904657
-0.0059496779866487735   -0.016384914200585438   -0.000146106512214435
-0.0062957174803855475   -0.008331481735337676   -5.228141060838063e-05
-0.010582290329440207   -0.008426655876089944   -0.0001716550519450909
-0.010283972809437422   -0.016450427345340152   -0.00029987605556904657
-0.010635834643228021   -0.008362121906896685   -0.00014588272096876566
-0.0059496779866487735   -0.016384914200585438   -0.000146106512214435
-0.01034006144620194   -0.01638814731509723   -0.0002699068990853969
-0.010635834643228021   -0.008362121906896685   -0.00014588272096876566
-0.010283972809437422   -0.016450427345340152   -0.00029987605556904657
-0.0059496779866487735   -0.016384914200585438   -0.000146106512214435
-0.010635834643228021   -0.008362121906896685   -0.00014588272096876566
-0.006355271173320759   -0.008268649331298646   -1.907697460440788e-05
-0.0062957174803855475   -0.008331481735337676   -5.228141060838063e-05
-0.0059496779866487735   -0.016384914200585438   -0.000146106512214435
-0.010635834643228021   -0.008362121906896685   -0.00014588272096876566
-0.0062957174803855475   -0.008331481735337676   -5.228141060838063e-05
-0.010283972809437422   -0.016450427345340152   -0.00029987605556904657
-0.0059496779866487735   -0.016384914200585438   -0.000146106512214435
-0.006355271173320759   -0.008268649331298646   -1.907697460440788e-05
-0.01034006144620194   -0.01638814731509723   -0.0002699068990853969
-0.006010350280797777   -0.0163109628553367   -0.0001116425787097552
-0.006355271173320759   -0.008268649331298646   -1.907697460440788e-05
-0.010635834643228021   -0.008362121906896685   -0.00014588272096876566
-0.01034006144620194   -0.01638814731509723   -0.0002699068990853969
-0.010687125303898728   -0.008293923790603817   -0.00012016942391489301
-0.006010350280797777   -0.0163109628553367   -0.0001116425787097552
-0.0103934937705056   -0.01632476870419679   -0.00023720225335449455
-0.010687125303898728   -0.008293923790603817   -0.00012016942391489301
-0.01034006144620194   -0.01638814731509723   -0.0002699068990853969
-0.006010350280797777   -0.0163109628553367   -0.0001116425787097552
-0.010687125303898728   -0.008293923790603817   -0.00012016942391489301
-0.006417677524690181   -0.008197616437052815   1.6098952348135337e-05
-0.006355271173320759   -0.008268649331298646   -1.907697460440788e-05
-0.006010350280797777   -0.0163109628553367   -0.0001116425787097552
-0.010687125303898728   -0.008293923790603817   -0.00012016942391489301
-0.006355271173320759   -0.008268649331298646   -1.907697460440788e-05
-0.01034006144620194   -0.01638814731509723   -0.0002699068990853969
-0.006010350280797777   -0.0163109628553367   -0.0001116425787097552
-0.006417677524690181   -0.008197616437052815   1.6098952348135337e-05
-0.0103934937705056   -0.01632476870419679   -0.00023720225335449455
-0.006073531808865514   -0.01623551708635332   -7.343249643143456e-05
-0.006417677524690181   -0.008197616437052815   1.6098952348135337e-05
-0.010687125303898728   -0.008293923790603817   -0.00012016942391489301
-0.0103934937705056   -0.01632476870419679   -0.00023720225335449455
-0.010734434515354   -0.008220054979289647   -9.214918171226838e-05
-0.006073531808865514   -0.01623551708635332   -7.343249643143456e-05
-0.01044639040218169   -0.016259925662713177   -0.00020191468055385633
-0.010734434515354   -0.008220054979289647   -9.214918171226838e-05
-0.0103934937705056   -0.01632476870419679   -0.00023720225335449455
-0.006073531808865514   -0.01623551708635332   -7.343249643143456e-05
-0.010734434515354   -0.008220054979289647   -9.214918171226838e-05
-0.006477052072304866   -0.008119763368126837   5.491341092382534e-05
-0.006417677524690181   -0.008197616437052815   1.6098952348135337e-05
-0.006073531808865514   -0.01623551708635332   -7.343249643143456e-05
-0.010734434515354   -0.008220054979289647   -9.214918171226838e-05
-0.006417677524690181   -0.008197616437052815   1.6098952348135337e-05
-0.0103934937705056   -0.01632476870419679   -0.00023720225335449455
-0.010283972809437422   -0.016450427345340152   -0.00029987605556904657
-0.010582290329440207   -0.008426655876089944   -0.0001716550519450909
-0.014770029646897215   -0.016424804326269013   -0.0004025488971954225
-0.01034006144620194   -0.01638814731509723   -0.0002699068990853969
-0.010582290329440207   -0.008426655876089944   -0.0001716550519450909
-0.015019455856844834   -0.008465745371902885   -0.00028180692940200496
-0.014770029646897215   -0.016424804326269013   -0.0004025488971954225
-0.015067707163757186   -0.008407845884500855   -0.0002629858420208598
-0.01034006144620194   -0.01638814731509723   -0.0002699068990853969
-0.014823498973582878   -0.01637416602971887   -0.0003741097136242091
-0.015067707163757186   -0.008407845884500855   -0.0002629858420208598
-0.014770029646897215   -0.016424804326269013   -0.0004025488971954225
-0.01034006144620194   -0.01638814731509723   -0.0002699068990853969
-0.015067707163757186   -0.008407845884500855   -0.0002629858420208598
-0.010635834643228021   -0.008362121906896685   -0.00014588272096876566
-0.010582290329440207   -0.008426655876089944   -0.0001716550519450909
-0.01034006144620194   -0.01638814731509723   -0.0002699068990853969
-0.015067707163757186   -0.008407845884500855   -0.0002629858420208598
-0.010582290329440207   -0.008426655876089944   -0.0001716550519450909
-0.014770029646897215   -0.016424804326269013   -0.0004025488971954225
-0.01034006144620194   -0.01638814731509723   -0.0002699068990853969
-0.010635834643228021   -0.008362121906896685   -0.00014588272096876566
-0.014823498973582878   -0.01637416602971887   -0.0003741097136242091
-0.0103934937705056   -0.01632476870419679   -0.00023720225335449455
-0.010635834643228021   -0.008362121906896685   -0.00014588272096876566
-0.015067707163757186   -0.008407845884500855   -0.0002629858420208598
-0.014823498973582878   -0.01637416602971887   -0.0003741097136242091
-0.01511070675434927   -0.008344731952304224   -0.00024467892487651084
-0.0103934937705056   -0.01632476870419679   -0.00023720225335449455
-0.014868767869002174   -0.01632076012325621   -0.0003437202037189053
-0.01511070675434927   -0.008344731952304224   -0.00024467892487651084
-0.014823498973582878   -0.01637416602971887   -0.0003741097136242091
-0.0103934937705056   -0.01632476870419679   -0.00023720225335449455
-0.01511070675434927   -0.008344731952304224   -0.00024467892487651084
-0.010687125303898728   -0.008293923790603817   -0.00012016942391489301
-0.010635834643228021   -0.008362121906896685   -0.00014588272096876566
-0.0103934937705056   -0.01632476870419679   -0.00023720225335449455
-0.01511070675434927   -0.008344731952304224   -0.00024467892487651084
-0.010635834643228021   -0.008362121906896685   -0.00014588272096876566
-0.014823498973582878   -0.01637416602971887   -0.0003741097136242091
-0.0103934937705056   -0.01632476870419679   -0.00023720225335449455
-0.010687125303898728   -0.008293923790603817   -0.00012016942391489301
-0.014868767869002174   -0.01632076012325621   -0.0003437202037189053
-0.01044639040218169   -0.016259925662713177   -0.00020191468055385633
-0.010687125303898728   -0.008293923790603817   -0.00012016942391489301
-0.01511070675434927   -0.008344731952304224   -0.00024467892487651084
-0.014868767869002174   -0.01632076012325621   -0.0003437202037189053
-0.015149653503310774   -0.008277522588816144   -0.000225802265282553
-0.01044639040218169   -0.016259925662713177   -0.00020191468055385633
-0.014911551578468418   -0.016265972899835546   -0.0003105383194451134
-0.015149653503310774   -0.008277522588816144   -0.000225802265282553
-0.014868767869002174   -0.01632076012325621   -0.0003437202037189053
-0.01044639040218169   -0.016259925662713177   -0.00020191468055385633
-0.015149653503310774   -0.008277522588816144   -0.000225802265282553
-0.010734434515354   -0.008220054979289647   -9.214918171226838e-05
-0.010687125303898728   -0.008293923790603817   -0.00012016942391489301
-0.01044639040218169   -0.016259925662713177   -0.00020191468055385633
-0.015149653503310774   -0.008277522588816144   -0.000225802265282553
-0.010687125303898728   -0.008293923790603817   -0.00012016942391489301
-0.014868767869002174   -0.01632076012325621   -0.0003437202037189053
-0.014770029646897215   -0.016424804326269013   -0.0004025488971954225
-0.015019455856844834   -0.008465745371902885   -0.00028180692940200496
-0.01946994486240882   -0.016382488818422608   -0.0004782428209310834
-0.014823498973582878   -0.01637416602971887   -0.0003741097136242091
-0.015019455856844834   -0.008465745371902885   -0.00028180692940200496
-0.019615289385000796   -0.008470061378212119   -0.0003730815511646417
-0.01946994486240882   -0.016382488818422608   -0.0004782428209310834
-0.019656696201340546   -0.008413887826705395   -0.00036493695583934756
-0.014823498973582878   -0.01637416602971887   -0.0003741097136242091
-0.01950298679236541   -0.01634010000829238   -0.00045679769476982706
-0.019656696201340546   -0.008413887826705395   -0.00036493695583934756
-0.01946994486240882   -0.016382488818422608   -0.0004782428209310834
-0.014823498973582878   -0.01637416602971887   -0.0003741097136242091
-0.019656696201340546   -0.008413887826705395   -0.00036493695583934756
-0.015067707163757186   -0.008407845884500855   -0.0002629858420208598
-0.015019455856844834   -0.008465745371902885   -0.00028180692940200496
-0.014823498973582878   -0.01637416602971887   -0.0003741097136242091
-0.019656696201340546   -0.008413887826705395   -0.00036493695583934756
-0.015019455856844834   -0.008465745371902885   -0.00028180692940200496
-0.01946994486240882   -0.016382488818422608   -0.0004782428209310834
-0.014823498973582878   -0.01637416602971887   -0.0003741097136242091
-0.015067707163757186   -0.008407845884500855   -0.0002629858420208598
-0.01950298679236541   -0.01634010000829238   -0.00045679769476982706
-0.014868767869002174   -0.01632076012325621   -0.0003437202037189053
-0.015067707163757186   -0.008407845884500855   -0.0002629858420208598
-0.019656696201340546   -0.008413887826705395   -0.00036493695583934756
-0.01950298679236541   -0.01634010000829238   -0.00045679769476982706
-0.019693793146025856   -0.00835310226693259   -0.00035539948946092936
-0.014868767869002174   -0.01632076012325621   -0.0003437202037189053
-0.019533199957293978   -0.01629208556118391   -0.00043058394634977606
-0.019693793146025856   -0.00835310226693259   -0.00035539948946092936
-0.01950298679236541   -0.01634010000829238   -0.00045679769476982706
-0.014868767869002174   -0.01632076012325621   -0.0003437202037189053
-0.019693793146025856   -0.00835310226693259   -0.00035539948946092936
-0.01511070675434927   -0.008344731952304224   -0.00024467892487651084
-0.015067707163757186   -0.008407845884500855   -0.0002629858420208598
-0.014868767869002174   -0.01632076012325621   -0.0003437202037189053
-0.019693793146025856   -0.00835310226693259   -0.00035539948946092936
-0.015067707163757186   -0.008407845884500855   -0.0002629858420208598
-0.01950298679236541   -0.01634010000829238   -0.00045679769476982706
-0.014868767869002174   -0.01632076012325621   -0.0003437202037189053
-0.01511070675434927   -0.008344731952304224   -0.00024467892487651084
-0.019533199957293978   -0.01629208556118391   -0.00043058394634977606
-0.014911551578468418   -0.016265972899835546   -0.0003105383194451134
-0.01511070675434927   -0.008344731952304224   -0.00024467892487651084
-0.019693793146025856   -0.00835310226693259   -0.00035539948946092936
-0.019533199957293978   -0.01629208556118391   -0.00043058394634977606
-0.01972492341342175   -0.008288745803793834   -0.00034648832049279907
-0.014911551578468418   -0.016265972899835546   -0.0003105383194451134
-0.01954762984931156   -0.016248173160472362   -0.00040078481320792136
-0.01972492341342175   -0.008288745803793834   -0.00034648832049279907
-0.019533199957293978   -0.01629208556118391   -0.00043058394634977606
-0.014911551578468418   -0.016265972899835546   -0.0003105383194451134
-0.01972492341342175   -0.008288745803793834   -0.00034648832049279907
-0.015149653503310774   -0.008277522588816144   -0.000225802265282553
-0.01511070675434927   -0.008344731952304224   -0.00024467892487651084
-0.014911551578468418   -0.016265972899835546   -0.0003105383194451134
-0.01972492341342175   -0.008288745803793834   -0.00034648832049279907
-0.01511070675434927   -0.008344731952304224   -0.00024467892487651084
-0.019533199957293978   -0.01629208556118391   -0.00043058394634977606
0.002287739298676146   -0.008316840192677   0.00010644233229049
0.0   0.0   0.0
-0.002110984301754034   -0.008209664300381524   5.522331481815435e-05
0.002086488674712878   -0.00821197390543756   0.0002221714871917585
0.0   0.0   0.0
-0.0026481997589596616   -0.0006746238844860067   -2.1560378964377725e-05
-0.002110984301754034   -0.008209664300381524   5.522331481815435e-05
-0.002806490912577795   -0.0005249366089720546   6.998609818230109e-05
0.002086488674712878   -0.00821197390543756   0.0002221714871917585
-0.0021755214481736585   -0.008168802680382503   0.0001020252783250584
-0.002806490912577795   -0.0005249366089720546   6.998609818230109e-05
-0.002110984301754034   -0.008209664300381524   5.522331481815435e-05
0.002086488674712878   -0.00821197390543756   0.0002221714871917585
-0.002806490912577795   -0.0005249366089720546   6.998609818230109e-05
0.0   0.0   0.0
0.0   0.0   0.0
0.002086488674712878   -0.00821197390543756   0.0002221714871917585
-0.002806490912577795   -0.0005249366089720546   6.998609818230109e-05
0.0   0.0   0.0
-0.002110984301754034   -0.008209664300381524   5.522331481815435e-05
0.002086488674712878   -0.00821197390543756   0.0002221714871917585
0.0   0.0   0.0
-0.0021755214481736585   -0.008168802680382503   0.0001020252783250584
0.0019687056434415226   -0.008126430172182246   0.0003084549729079778
0.0   0.0   0.0
-0.002806490912577795   -0.0005249366089720546   6.998609818230109e-05
-0.0021755214481736585   -0.008168802680382503   0.0001020252783250584
-0.0029059297180653327   -0.00045288712075731784   0.00012293859549828405
0.0019687056434415226   -0.008126430172182246   0.0003084549729079778
-0.002260485002045481   -0.00809553886622654   0.00015889811511895314
-0.0029059297180653327   -0.00045288712075731784   0.00012293859549828405
-0.0021755214481736585   -0.008168802680382503   0.0001020252783250584
0.0019687056434415226   -0.008126430172182246   0.0003084549729079778
-0.0029059297180653327   -0.00045288712075731784   0.00012293859549828405
0.0   0.0   0.0
0.0   0.0   0.0
0.0019687056434415226   -0.008126430172182246   0.0003084549729079778
-0.0029059297180653327   -0.00045288712075731784   0.00012293859549828405
0.0   0.0   0.0
-0.0021755214481736585   -0.008168802680382503   0.0001020252783250584
0.0019687056434415226   -0.008126430172182246   0.0003084549729079778
0.0   0.0   0.0
-0.002260485002045481   -0.00809553886622654   0.00015889811511895314
0.001817657219909863   -0.007995470147842751   0.000407290913726834
0.0   0.0   0.0
-0.0029059297180653327   -0.00045288712075731784   0.00012293859549828405
-0.002260485002045481   -0.00809553886622654   0.00015889811511895314
-0.0030394177858223794   -0.00035715577253287025   0.00018373973717922387
0.001817657219909863   -0.007995470147842751   0.000407290913726834
-0.0023319808885376835   -0.008016852423561163   0.00020895382228171982
-0.0030394177858223794   -0.00035715577253287025   0.00018373973717922387
-0.002260485002045481   -0.00809553886622654   0.00015889811511895314
0.001817657219909863   -0.007995470147842751   0.000407290913726834
-0.0030394177858223794   -0.00035715577253287025   0.00018373973717922387
0.0   0.0   0.0
0.0   0.0   0.0
0.001817657219909863   -0.007995470147842751   0.000407290913726834
-0.0030394177858223794   -0.00035715577253287025   0.00018373973717922387
0.0   0.0   0.0
-0.002260485002045481   -0.00809553886622654   0.00015889811511895314
-0.002110984301754034   -0.008209664300381524   5.522331481815435e-05
-0.0026481997589596616   -0.0006746238844860067   -2.1560378964377725e-05
-0.0062957174803855475   -0.008331481735337676   -5.228141060838063e-05
-0.0021755214481736585   -0.008168802680382503   0.0001020252783250584
-0.0026481997589596616   -0.0006746238844860067   -2.1560378964377725e-05
-0.006482674067446818   -0.0008848270906866983   -1.9255628970383735e-05
-0.0062957174803855475   -0.008331481735337676   -5.228141060838063e-05
-0.006564365259809797   -0.0008031822968754874   4.346219535817281e-06
-0.0021755214481736585   -0.008168802680382503   0.0001020252783250584
-0.006355271173320759   -0.008268649331298646   -1.907697460440788e-05
-0.006564365259809797   -0.0008031822968754874   4.346219535817281e-06
-0.0062957174803855475   -0.008331481735337676   -5.228141060838063e-05
-0.0021755214481736585   -0.008168802680382503   0.0001020252783250584
-0.006564365259809797   -0.0008031822968754874   4.346219535817281e-06
-0.002806490912577795   -0.0005249366089720546   6.998609818230109e-05
-0.0026481997589596616   -0.0006746238844860067   -2.1560378964377725e-05
-0.0021755214481736585   -0.008168802680382503   0.0001020252783250584
-0.006564365259809797   -0.0008031822968754874   4.346219535817281e-06
-0.0026481997589596616   -0.0006746238844860067   -2.1560378964377725e-05
-0.0062957174803855475   -0.008331481735337676   -5.228141060838063e-05
-0.0021755214481736585   -0.008168802680382503   0.0001020252783250584
-0.002806490912577795   -0.0005249366089720546   6.998609818230109e-05
-0.006355271173320759   -0.008268649331298646   -1.907697460440788e-05
-0.002260485002045481   -0.00809553886622654   0.00015889811511895314
-0.002806490912577795   -0.0005249366089720546   6.998609818230109e-05
-0.006564365259809797   -0.0008031822968754874   4.346219535817281e-06
-0.006355271173320759   -0.008268649331298646   -1.907697460440788e-05
-0.00664575670289284   -0.0007076111387933927   4.6521273226489005e-05
-0.002260485002045481   -0.00809553886622654   0.00015889811511895314
-0.006417677524690181   -0.008197616437052815   1.6098952348135337e-05
-0.00664575670289284   -0.0007076111387933927   4.6521273226489005e-05
-0.006355271173320759   -0.008268649331298646   -1.907697460440788e-05
-0.002260485002045481   -0.00809553886622654   0.00015889811511895314
-0.00664575670289284   -0.0007076111387933927   4.6521273226489005e-05
-0.0029059297180653327   -0.00045288712075731784   0.00012293859549828405
-0.002806490912577795   -0.0005249366089720546   6.998609818230109e-05
-0.002260485002045481   -0.00809553886622654   0.00015889811511895314
-0.00664575670289284   -0.0007076111387933927   4.6521273226489005e-05
-0.002806490912577795   -0.0005249366089720546   6.998609818230109e-05
-0.006355271173320759   -0.008268649331298646   -1.907697460440788e-05
-0.002260485002045481   -0.00809553886622654   0.00015889811511895314
-0.0029059297180653327   -0.00045288712075731784   0.00012293859549828405
-0.006417677524690181   -0.008197616437052815   1.6098952348135337e-05
-0.0023319808885376835   -0.008016852423561163   0.00020895382228171982
-0.0029059297180653327   -0.00045288712075731784   0.00012293859549828405
-0.00664575670289284   -0.0007076111387933927   4.6521273226489005e-05
-0.006417677524690181   -0.008197616437052815   1.6098952348135337e-05
-0.006736054634818665   -0.0005970175668511222   8.696740655452317e-05
-0.0023319808885376835   -0.008016852423561163   0.00020895382228171982
-0.006477052072304866   -0.008119763368126837   5.491341092382534e-05
-0.006736054634818665   -0.0005970175668511222   8.696740655452317e-05
-0.006417677524690181   -0.008197616437052815   1.6098952348135337e-05
-0.0023319808885376835   -0.008016852423561163   0.00020895382228171982
-0.006736054634818665   -0.0005970175668511222   8.696740655452317e-05
-0.0030394177858223794   -0.00035715577253287025   0.00018373973717922387
-0.0029059297180653327   -0.00045288712075731784   0.00012293859549828405
-0.0023319808885376835   -0.008016852423561163   0.00020895382228171982
-0.006736054634818665   -0.0005970175668511222   8.696740655452317e-05
-0.0029059297180653327   -0.00045288712075731784   0.00012293859549828405
-0.006417677524690181   -0.008197616437052815   1.6098952348135337e-05
-0.0062957174803855475   -0.008331481735337676   -5.228141060838063e-05
-0.006482674067446818   -0.0008848270906866983   -1.9255628970383735e-05
-0.010582290329440207   -0.008426655876089944   -0.0001716550519450909
-0.006355271173320759   -0.008268649331298646   -1.907697460440788e-05
-0.006482674067446818   -0.0008848270906866983   -1.9255628970383735e-05
-0.010686708078785603   -0.0009441597900511436   -9.443378487386942e-05
-0.010582290329440207   -0.008426655876089944   -0.0001716550519450909
-0.01073632935230954   -0.0008806474214210209   -8.785703118708423e-05
-0.006355271173320759   -0.008268649331298646   -1.907697460440788e-05
-0.010635834643228021   -0.008362121906896685   -0.00014588272096876566
-0.01073632935230954   -0.0008806474214210209   -8.785703118708423e-05
-0.010582290329440207   -0.008426655876089944   -0.0001716550519450909
-0.006355271173320759   -0.008268649331298646   -1.907697460440788e-05
-0.01073632935230954   -0.0008806474214210209   -8.785703118708423e-05
-0.006564365259809797   -0.0008031822968754874   4.346219535817281e-06
-0.006482674067446818   -0.0008848270906866983   -1.9255628970383735e-05
-0.006355271173320759   -0.008268649331298646   -1.907697460440788e-05
-0.01073632935230954   -0.0008806474214210209   -8.785703118708423e-05
-0.006482674067446818   -0.0008848270906866983   -1.9255628970383735e-05
-0.010582290329440207   -0.008426655876089944   -0.0001716550519450909
-0.006355271173320759   -0.008268649331298646   -1.907697460440788e-05
-0.006564365259809797   -0.0008031822968754874   4.346219535817281e-06
-0.010635834643228021   -0.008362121906896685   -0.00014588272096876566
-0.006417677524690181   -0.008197616437052815   1.6098952348135337e-05
-0.006564365259809797   -0.0008031822968754874   4.346219535817281e-06
-0.01073632935230954   -0.0008806474214210209   -8.785703118708423e-05
-0.010635834643228021   -0.008362121906896685   -0.00014588272096876566
-0.010787936009296457   -0.0008068555849800046   -7.633749256436087e-05
-0.006417677524690181   -0.008197616437052815   1.6098952348135337e-05
-0.010687125303898728   -0.008293923790603817   -0.00012016942391489301
-0.010787936009296457   -0.0008068555849800046   -7.633749256436087e-05
-0.010635834643228021   -0.008362121906896685   -0.00014588272096876566
-0.006417677524690181   -0.008197616437052815   1.6098952348135337e-05
-0.010787936009296457   -0.0008068555849800046   -7.633749256436087e-05
-0.00664575670289284   -0.0007076111387933927   4.6521273226489005e-05
-0.006564365259809797   -0.0008031822968754874   4.346219535817281e-06
-0.006417677524690181   -0.008197616437052815   1.6098952348135337e-05
-0.010787936009296457   -0.0008068555849800046   -7.633749256436087e-05
-0.006564365259809797   -0.0008031822968754874   4.346219535817281e-06
-0.010635834643228021   -0.008362121906896685   -0.00014588272096876566
-0.006417677524690181   -0.008197616437052815   1.6098952348135337e-05
-0.00664575670289284   -0.0007076111387933927   4.6521273226489005e-05
-0.010687125303898728   -0.008293923790603817   -0.00012016942391489301
-0.006477052072304866   -0.008119763368126837   5.491341092382534e-05
-0.00664575670289284   -0.0007076111387933927   4.6521273226489005e-05
-0.010787936009296457   -0.0008068555849800046   -7.633749256436087e-05
-0.010687125303898728   -0.008293923790603817   -0.00012016942391489301
-0.010837042466601594   -0.0007169471413375414   -6.109532976668841e-05
-0.006477052072304866   -0.008119763368126837   5.491341092382534e-05
-0.010734434515354   -0.008220054979289647   -9.214918171226838e-05
-0.010837042466601594   -0.0007169471413375414   -6.109532976668841e-05
-0.010687125303898728   -0.008293923790603817   -0.00012016942391489301
-0.006477052072304866   -0.008119763368126837   5.491341092382534e-05
-0.010837042466601594   -0.0007169471413375414   -6.109532976668841e-05
-0.006736054634818665   -0.0005970175668511222   8.696740655452317e-05
-0.00664575670289284   -0.0007076111387933927   4.6521273226489005e-05
-0.006477052072304866   -0.008119763368126837   5.491341092382534e-05
-0.010837042466601594   -0.0007169471413375414   -6.109532976668841e-05
-0.00664575670289284   -0.0007076111387933927   4.6521273226489005e-05
-0.010687125303898728   -0.008293923790603817   -0.00012016942391489301
-0.010582290329440207   -0.008426655876089944   -0.0001716550519450909
-0.010686708078785603   -0.0009441597900511436   -9.443378487386942e-05
-0.015019455856844834   -0.008465745371902885   -0.00028180692940200496
-0.010635834643228021   -0.008362121906896685   -0.00014588272096876566
-0.010686708078785603   -0.0009441597900511436   -9.443378487386942e-05
-0.015097271902443914   -0.0009346417808181564   -0.00020295510764874866
-0.015019455856844834   -0.008465745371902885   -0.00028180692940200496
-0.015130801465076015   -0.0008776833552017052   -0.00020013347076485157
-0.010635834643228021   -0.008362121906896685   -0.00014588272096876566
-0.015067707163757186   -0.008407845884500855   -0.0002629858420208598
-0.015130801465076015   -0.0008776833552017052   -0.00020013347076485157
-0.015019455856844834   -0.008465745371902885   -0.00028180692940200496
-0.010635834643228021   -0.008362121906896685   -0.00014588272096876566
-0.015130801465076015   -0.0008776833552017052   -0.00020013347076485157
-0.01073632935230954   -0.0008806474214210209   -8.785703118708423e-05
-0.010686708078785603   -0.0009441597900511436   -9.443378487386942e-05
-0.010635834643228021   -0.008362121906896685   -0.00014588272096876566
-0.015130801465076015   -0.0008776833552017052   -0.00020013347076485157
-0.010686708078785603   -0.0009441597900511436   -9.443378487386942e-05
-0.015019455856844834   -0.008465745371902885   -0.00028180692940200496
-0.010635834643228021   -0.008362121906896685   -0.00014588272096876566
-0.01073632935230954   -0.0008806474214210209   -8.785703118708423e-05
-0.015067707163757186   -0.008407845884500855   -0.0002629858420208598
-0.010687125303898728   -0.008293923790603817   -0.00012016942391489301
-0.01073632935230954   -0.0008806474214210209   -8.785703118708423e-05
-0.015130801465076015   -0.0008776833552017052   -0.00020013347076485157
-0.015067707163757186   -0.008407845884500855   -0.0002629858420208598
-0.015165779174672331   -0.0008142121579092921   -0.00019813764771069604
-0.010687125303898728   -0.008293923790603817   -0.00012016942391489301
-0.01511070675434927   -0.008344731952304224   -0.00024467892487651084
-0.015165779174672331   -0.0008142121579092921   -0.00019813764771069604
-0.015067707163757186   -0.008407845884500855   -0.0002629858420208598
-0.010687125303898728   -0.008293923790603817   -0.00012016942391489301
-0.015165779174672331   -0.0008142121579092921   -0.00019813764771069604
-0.010787936009296457   -0.0008068555849800046   -7.633749256436087e-05
-0.01073632935230954   -0.0008806474214210209   -8.785703118708423e-05
-0.010687125303898728   -0.008293923790603817   -0.00012016942391489301
-0.015165779174672331   -0.0008142121579092921   -0.00019813764771069604
-0.01073632935230954   -0.0008806474214210209   -8.785703118708423e-05
-0.015067707163757186   -0.008407845884500855   -0.0002629858420208598
-0.010687125303898728   -0.008293923790603817   -0.00012016942391489301
-0.010787936009296457   -0.0008068555849800046   -7.633749256436087e-05
-0.01511070675434927   -0.008344731952304224   -0.00024467892487651084
-0.010734434515354   -0.008220054979289647   -9.214918171226838e-05
-0.010787936009296457   -0.0008068555849800046   -7.633749256436087e-05
-0.015165779174672331   -0.0008142121579092921   -0.00019813764771069604
-0.01511070675434927   -0.008344731952304224   -0.00024467892487651084
-0.015192429442136559   -0.0007454145492748766   -0.00019711340378019505
-0.010734434515354   -0.008220054979289647   -9.214918171226838e-05
-0.015149653503310774   -0.008277522588816144   -0.000225802265282553
-0.015192429442136559   -0.0007454145492748766   -0.00019711340378019505
-0.01511070675434927   -0.008344731952304224   -0.00024467892487651084
-0.010734434515354   -0.008220054979289647   -9.214918171226838e-05
-0.015192429442136559   -0.0007454145492748766   -0.00019711340378019505
-0.010837042466601594   -0.0007169471413375414   -6.109532976668841e-05
-0.010787936009296457   -0.0008068555849800046   -7.633749256436087e-05
-0.010734434515354   -0.008220054979289647   -9.214918171226838e-05
-0.015192429442136559   -0.0007454145492748766   -0.00019711340378019505
-0.010787936009296457   -0.0008068555849800046   -7.633749256436087e-05
-0.01511070675434927   -0.008344731952304224   -0.00024467892487651084
-0.015019455856844834   -0.008465745371902885   -0.00028180692940200496
-0.015097271902443914   -0.0009346417808181564   -0.00020295510764874866
-0.019615289385000796   -0.008470061378212119   -0.0003730815511646417
-0.015067707163757186   -0.008407845884500855   -0.0002629858420208598
-0.015097271902443914   -0.0009346417808181564   -0.00020295510764874866
-0.019630055239922235   -0.0009280266677439198   -0.0003098258796335192
-0.019615289385000796   -0.008470061378212119   -0.0003730815511646417
-0.019657016386604886   -0.000866266751562906   -0.0003097513008916974
-0.015067707163757186   -0.008407845884500855   -0.0002629858420208598
-0.019656696201340546   -0.008413887826705395   -0.00036493695583934756
-0.019657016386604886   -0.000866266751562906   -0.0003097513008916974
-0.019615289385000796   -0.008470061378212119   -0.0003730815511646417
-0.015067707163757186   -0.008407845884500855   -0.0002629858420208598
-0.019657016386604886   -0.000866266751562906   -0.0003097513008916974
-0.015130801465076015   -0.0008776833552017052   -0.00020013347076485157
-0.015097271902443914   -0.0009346417808181564   -0.00020295510764874866
-0.015067707163757186   -0.008407845884500855   -0.0002629858420208598
-0.019657016386604886   -0.000866266751562906   -0.0003097513008916974
-0.015097271902443914   -0.0009346417808181564   -0.00020295510764874866
-0.019615289385000796   -0.008470061378212119   -0.0003730815511646417
-0.015067707163757186   -0.008407845884500855   -0.0002629858420208598
-0.015130801465076015   -0.0008776833552017052   -0.00020013347076485157
-0.019656696201340546   -0.008413887826705395   -0.00036493695583934756
-0.01511070675434927   -0.008344731952304224   -0.00024467892487651084
-0.015130801465076015   -0.0008776833552017052   -0.00020013347076485157
-0.019657016386604886   -0.000866266751562906   -0.0003097513008916974
-0.019656696201340546   -0.008413887826705395   -0.00036493695583934756
-0.01968660554643686   -0.0008045178951386508   -0.00031449844991186874
-0.01511070675434927   -0.008344731952304224   -0.00024467892487651084
-0.019693793146025856   -0.00835310226693259   -0.00035539948946092936
-0.01968660554643686   -0.0008045178951386508   -0.00031449844991186874
-0.019656696201340546   -0.008413887826705395   -0.00036493695583934756
-0.01511070675434927   -0.008344731952304224   -0.00024467892487651084
-0.01968660554643686   -0.0008045178951386508   -0.00031449844991186874
-0.015165779174672331   -0.0008142121579092921   -0.00019813764771069604
-0.015130801465076015   -0.0008776833552017052   -0.00020013347076485157
-0.01511070675434927   -0.008344731952304224   -0.00024467892487651084
-0.01968660554643686   -0.0008045178951386508   -0.00031449844991186874
-0.015130801465076015   -0.0008776833552017052   -0.00020013347076485157
-0.019656696201340546   -0.008413887826705395   -0.00036493695583934756
-0.01511070675434927   -0.008344731952304224   -0.00024467892487651084
-0.015165779174672331   -0.0008142121579092921   -0.00019813764771069604
-0.019693793146025856   -0.00835310226693259   -0.00035539948946092936
-0.015149653503310774   -0.008277522588816144   -0.000225802265282553
-0.015165779174672331   -0.0008142121579092921   -0.00019813764771069604
-0.01968660554643686   -0.0008045178951386508   -0.00031449844991186874
-0.019693793146025856   -0.00835310226693259   -0.00035539948946092936
-0.019708432318600002   -0.0007372559201411156   -0.0003195340682258507
-0.015149653503310774   -0.008277522588816144   -0.000225802265282553
-0.01972492341342175   -0.008288745803793834   -0.00034648832049279907
-0.019708432318600002   -0.0007372559201411156   -0.0003195340682258507
-0.019693793146025856   -0.00835310226693259   -0.00035539948946092936
-0.015149653503310774   -0.008277522588816144   -0.000225802265282553
-0.019708432318600002   -0.0007372559201411156   -0.0003195340682258507
-0.015192429442136559   -0.0007454145492748766   -0.00019711340378019505
-0.015165779174672331   -0.0008142121579092921   -0.00019813764771069604
-0.015149653503310774   -0.008277522588816144   -0.000225802265282553
-0.019708432318600002   -0.0007372559201411156   -0.0003195340682258507
-0.015165779174672331   -0.0008142121579092921   -0.00019813764771069604
-0.019693793146025856   -0.00835310226693259   -0.00035539948946092936
              </DataArray>   
          </PointData>  
       </Piece>  
   </UnstructuredGrid> 
</VTKFile> 
