<?xml version="1.0"?> 
<VTKFile type="UnstructuredGrid"> 
   <UnstructuredGrid> 
      <Piece NumberOfPoints="6000"  NumberOfCells="1500">  
          <Points>  
             <DataArray type="Float64" NumberOfComponents="3" format="ascii">   
-500.0   0.0   0.0
-450.0   0.0   0.0
-500.0   30.0   0.0
-500.0   0.0   16.666666666666668
-450.0   0.0   0.0
-450.0   30.0   0.0
-500.0   30.0   0.0
-450.0   30.0   16.666666666666668
-500.0   0.0   16.666666666666668
-500.0   30.0   16.666666666666668
-450.0   30.0   16.666666666666668
-500.0   30.0   0.0
-500.0   0.0   16.666666666666668
-450.0   30.0   16.666666666666668
-450.0   0.0   16.666666666666668
-450.0   0.0   0.0
-500.0   0.0   16.666666666666668
-450.0   30.0   16.666666666666668
-450.0   0.0   0.0
-500.0   30.0   0.0
-500.0   0.0   16.666666666666668
-450.0   0.0   16.666666666666668
-500.0   30.0   16.666666666666668
-500.0   0.0   33.333333333333336
-450.0   0.0   16.666666666666668
-450.0   30.0   16.666666666666668
-500.0   30.0   16.666666666666668
-450.0   30.0   33.333333333333336
-500.0   0.0   33.333333333333336
-500.0   30.0   33.333333333333336
-450.0   30.0   33.333333333333336
-500.0   30.0   16.666666666666668
-500.0   0.0   33.333333333333336
-450.0   30.0   33.333333333333336
-450.0   0.0   33.333333333333336
-450.0   0.0   16.666666666666668
-500.0   0.0   33.333333333333336
-450.0   30.0   33.333333333333336
-450.0   0.0   16.666666666666668
-500.0   30.0   16.666666666666668
-500.0   0.0   33.333333333333336
-450.0   0.0   33.333333333333336
-500.0   30.0   33.333333333333336
-500.0   0.0   50.0
-450.0   0.0   33.333333333333336
-450.0   30.0   33.333333333333336
-500.0   30.0   33.333333333333336
-450.0   30.0   50.0
-500.0   0.0   50.0
-500.0   30.0   50.0
-450.0   30.0   50.0
-500.0   30.0   33.333333333333336
-500.0   0.0   50.0
-450.0   30.0   50.0
-450.0   0.0   50.0
-450.0   0.0   33.333333333333336
-500.0   0.0   50.0
-450.0   30.0   50.0
-450.0   0.0   33.333333333333336
-500.0   30.0   33.333333333333336
-500.0   30.0   0.0
-450.0   30.0   0.0
-500.0   60.0   0.0
-500.0   30.0   16.666666666666668
-450.0   30.0   0.0
-450.0   60.0   0.0
-500.0   60.0   0.0
-450.0   60.0   16.666666666666668
-500.0   30.0   16.666666666666668
-500.0   60.0   16.666666666666668
-450.0   60.0   16.666666666666668
-500.0   60.0   0.0
-500.0   30.0   16.666666666666668
-450.0   60.0   16.666666666666668
-450.0   30.0   16.666666666666668
-450.0   30.0   0.0
-500.0   30.0   16.666666666666668
-450.0   60.0   16.666666666666668
-450.0   30.0   0.0
-500.0   60.0   0.0
-500.0   30.0   16.666666666666668
-450.0   30.0   16.666666666666668
-500.0   60.0   16.666666666666668
-500.0   30.0   33.333333333333336
-450.0   30.0   16.666666666666668
-450.0   60.0   16.666666666666668
-500.0   60.0   16.666666666666668
-450.0   60.0   33.333333333333336
-500.0   30.0   33.333333333333336
-500.0   60.0   33.333333333333336
-450.0   60.0   33.333333333333336
-500.0   60.0   16.666666666666668
-500.0   30.0   33.333333333333336
-450.0   60.0   33.333333333333336
-450.0   30.0   33.333333333333336
-450.0   30.0   16.666666666666668
-500.0   30.0   33.333333333333336
-450.0   60.0   33.333333333333336
-450.0   30.0   16.666666666666668
-500.0   60.0   16.666666666666668
-500.0   30.0   33.333333333333336
-450.0   30.0   33.333333333333336
-500.0   60.0   33.333333333333336
-500.0   30.0   50.0
-450.0   30.0   33.333333333333336
-450.0   60.0   33.333333333333336
-500.0   60.0   33.333333333333336
-450.0   60.0   50.0
-500.0   30.0   50.0
-500.0   60.0   50.0
-450.0   60.0   50.0
-500.0   60.0   33.333333333333336
-500.0   30.0   50.0
-450.0   60.0   50.0
-450.0   30.0   50.0
-450.0   30.0   33.333333333333336
-500.0   30.0   50.0
-450.0   60.0   50.0
-450.0   30.0   33.333333333333336
-500.0   60.0   33.333333333333336
-500.0   60.0   0.0
-450.0   60.0   0.0
-500.0   90.0   0.0
-500.0   60.0   16.666666666666668
-450.0   60.0   0.0
-450.0   90.0   0.0
-500.0   90.0   0.0
-450.0   90.0   16.666666666666668
-500.0   60.0   16.666666666666668
-500.0   90.0   16.666666666666668
-450.0   90.0   16.666666666666668
-500.0   90.0   0.0
-500.0   60.0   16.666666666666668
-450.0   90.0   16.666666666666668
-450.0   60.0   16.666666666666668
-450.0   60.0   0.0
-500.0   60.0   16.666666666666668
-450.0   90.0   16.666666666666668
-450.0   60.0   0.0
-500.0   90.0   0.0
-500.0   60.0   16.666666666666668
-450.0   60.0   16.666666666666668
-500.0   90.0   16.666666666666668
-500.0   60.0   33.333333333333336
-450.0   60.0   16.666666666666668
-450.0   90.0   16.666666666666668
-500.0   90.0   16.666666666666668
-450.0   90.0   33.333333333333336
-500.0   60.0   33.333333333333336
-500.0   90.0   33.333333333333336
-450.0   90.0   33.333333333333336
-500.0   90.0   16.666666666666668
-500.0   60.0   33.333333333333336
-450.0   90.0   33.333333333333336
-450.0   60.0   33.333333333333336
-450.0   60.0   16.666666666666668
-500.0   60.0   33.333333333333336
-450.0   90.0   33.333333333333336
-450.0   60.0   16.666666666666668
-500.0   90.0   16.666666666666668
-500.0   60.0   33.333333333333336
-450.0   60.0   33.333333333333336
-500.0   90.0   33.333333333333336
-500.0   60.0   50.0
-450.0   60.0   33.333333333333336
-450.0   90.0   33.333333333333336
-500.0   90.0   33.333333333333336
-450.0   90.0   50.0
-500.0   60.0   50.0
-500.0   90.0   50.0
-450.0   90.0   50.0
-500.0   90.0   33.333333333333336
-500.0   60.0   50.0
-450.0   90.0   50.0
-450.0   60.0   50.0
-450.0   60.0   33.333333333333336
-500.0   60.0   50.0
-450.0   90.0   50.0
-450.0   60.0   33.333333333333336
-500.0   90.0   33.333333333333336
-500.0   90.0   0.0
-450.0   90.0   0.0
-500.0   120.0   0.0
-500.0   90.0   16.666666666666668
-450.0   90.0   0.0
-450.0   120.0   0.0
-500.0   120.0   0.0
-450.0   120.0   16.666666666666668
-500.0   90.0   16.666666666666668
-500.0   120.0   16.666666666666668
-450.0   120.0   16.666666666666668
-500.0   120.0   0.0
-500.0   90.0   16.666666666666668
-450.0   120.0   16.666666666666668
-450.0   90.0   16.666666666666668
-450.0   90.0   0.0
-500.0   90.0   16.666666666666668
-450.0   120.0   16.666666666666668
-450.0   90.0   0.0
-500.0   120.0   0.0
-500.0   90.0   16.666666666666668
-450.0   90.0   16.666666666666668
-500.0   120.0   16.666666666666668
-500.0   90.0   33.333333333333336
-450.0   90.0   16.666666666666668
-450.0   120.0   16.666666666666668
-500.0   120.0   16.666666666666668
-450.0   120.0   33.333333333333336
-500.0   90.0   33.333333333333336
-500.0   120.0   33.333333333333336
-450.0   120.0   33.333333333333336
-500.0   120.0   16.666666666666668
-500.0   90.0   33.333333333333336
-450.0   120.0   33.333333333333336
-450.0   90.0   33.333333333333336
-450.0   90.0   16.666666666666668
-500.0   90.0   33.333333333333336
-450.0   120.0   33.333333333333336
-450.0   90.0   16.666666666666668
-500.0   120.0   16.666666666666668
-500.0   90.0   33.333333333333336
-450.0   90.0   33.333333333333336
-500.0   120.0   33.333333333333336
-500.0   90.0   50.0
-450.0   90.0   33.333333333333336
-450.0   120.0   33.333333333333336
-500.0   120.0   33.333333333333336
-450.0   120.0   50.0
-500.0   90.0   50.0
-500.0   120.0   50.0
-450.0   120.0   50.0
-500.0   120.0   33.333333333333336
-500.0   90.0   50.0
-450.0   120.0   50.0
-450.0   90.0   50.0
-450.0   90.0   33.333333333333336
-500.0   90.0   50.0
-450.0   120.0   50.0
-450.0   90.0   33.333333333333336
-500.0   120.0   33.333333333333336
-500.0   120.0   0.0
-450.0   120.0   0.0
-500.0   150.0   0.0
-500.0   120.0   16.666666666666668
-450.0   120.0   0.0
-450.0   150.0   0.0
-500.0   150.0   0.0
-450.0   150.0   16.666666666666668
-500.0   120.0   16.666666666666668
-500.0   150.0   16.666666666666668
-450.0   150.0   16.666666666666668
-500.0   150.0   0.0
-500.0   120.0   16.666666666666668
-450.0   150.0   16.666666666666668
-450.0   120.0   16.666666666666668
-450.0   120.0   0.0
-500.0   120.0   16.666666666666668
-450.0   150.0   16.666666666666668
-450.0   120.0   0.0
-500.0   150.0   0.0
-500.0   120.0   16.666666666666668
-450.0   120.0   16.666666666666668
-500.0   150.0   16.666666666666668
-500.0   120.0   33.333333333333336
-450.0   120.0   16.666666666666668
-450.0   150.0   16.666666666666668
-500.0   150.0   16.666666666666668
-450.0   150.0   33.333333333333336
-500.0   120.0   33.333333333333336
-500.0   150.0   33.333333333333336
-450.0   150.0   33.333333333333336
-500.0   150.0   16.666666666666668
-500.0   120.0   33.333333333333336
-450.0   150.0   33.333333333333336
-450.0   120.0   33.333333333333336
-450.0   120.0   16.666666666666668
-500.0   120.0   33.333333333333336
-450.0   150.0   33.333333333333336
-450.0   120.0   16.666666666666668
-500.0   150.0   16.666666666666668
-500.0   120.0   33.333333333333336
-450.0   120.0   33.333333333333336
-500.0   150.0   33.333333333333336
-500.0   120.0   50.0
-450.0   120.0   33.333333333333336
-450.0   150.0   33.333333333333336
-500.0   150.0   33.333333333333336
-450.0   150.0   50.0
-500.0   120.0   50.0
-500.0   150.0   50.0
-450.0   150.0   50.0
-500.0   150.0   33.333333333333336
-500.0   120.0   50.0
-450.0   150.0   50.0
-450.0   120.0   50.0
-450.0   120.0   33.333333333333336
-500.0   120.0   50.0
-450.0   150.0   50.0
-450.0   120.0   33.333333333333336
-500.0   150.0   33.333333333333336
-450.0   0.0   0.0
-400.0   0.0   0.0
-450.0   30.0   0.0
-450.0   0.0   16.666666666666668
-400.0   0.0   0.0
-400.0   30.0   0.0
-450.0   30.0   0.0
-400.0   30.0   16.666666666666668
-450.0   0.0   16.666666666666668
-450.0   30.0   16.666666666666668
-400.0   30.0   16.666666666666668
-450.0   30.0   0.0
-450.0   0.0   16.666666666666668
-400.0   30.0   16.666666666666668
-400.0   0.0   16.666666666666668
-400.0   0.0   0.0
-450.0   0.0   16.666666666666668
-400.0   30.0   16.666666666666668
-400.0   0.0   0.0
-450.0   30.0   0.0
-450.0   0.0   16.666666666666668
-400.0   0.0   16.666666666666668
-450.0   30.0   16.666666666666668
-450.0   0.0   33.333333333333336
-400.0   0.0   16.666666666666668
-400.0   30.0   16.666666666666668
-450.0   30.0   16.666666666666668
-400.0   30.0   33.333333333333336
-450.0   0.0   33.333333333333336
-450.0   30.0   33.333333333333336
-400.0   30.0   33.333333333333336
-450.0   30.0   16.666666666666668
-450.0   0.0   33.333333333333336
-400.0   30.0   33.333333333333336
-400.0   0.0   33.333333333333336
-400.0   0.0   16.666666666666668
-450.0   0.0   33.333333333333336
-400.0   30.0   33.333333333333336
-400.0   0.0   16.666666666666668
-450.0   30.0   16.666666666666668
-450.0   0.0   33.333333333333336
-400.0   0.0   33.333333333333336
-450.0   30.0   33.333333333333336
-450.0   0.0   50.0
-400.0   0.0   33.333333333333336
-400.0   30.0   33.333333333333336
-450.0   30.0   33.333333333333336
-400.0   30.0   50.0
-450.0   0.0   50.0
-450.0   30.0   50.0
-400.0   30.0   50.0
-450.0   30.0   33.333333333333336
-450.0   0.0   50.0
-400.0   30.0   50.0
-400.0   0.0   50.0
-400.0   0.0   33.333333333333336
-450.0   0.0   50.0
-400.0   30.0   50.0
-400.0   0.0   33.333333333333336
-450.0   30.0   33.333333333333336
-450.0   30.0   0.0
-400.0   30.0   0.0
-450.0   60.0   0.0
-450.0   30.0   16.666666666666668
-400.0   30.0   0.0
-400.0   60.0   0.0
-450.0   60.0   0.0
-400.0   60.0   16.666666666666668
-450.0   30.0   16.666666666666668
-450.0   60.0   16.666666666666668
-400.0   60.0   16.666666666666668
-450.0   60.0   0.0
-450.0   30.0   16.666666666666668
-400.0   60.0   16.666666666666668
-400.0   30.0   16.666666666666668
-400.0   30.0   0.0
-450.0   30.0   16.666666666666668
-400.0   60.0   16.666666666666668
-400.0   30.0   0.0
-450.0   60.0   0.0
-450.0   30.0   16.666666666666668
-400.0   30.0   16.666666666666668
-450.0   60.0   16.666666666666668
-450.0   30.0   33.333333333333336
-400.0   30.0   16.666666666666668
-400.0   60.0   16.666666666666668
-450.0   60.0   16.666666666666668
-400.0   60.0   33.333333333333336
-450.0   30.0   33.333333333333336
-450.0   60.0   33.333333333333336
-400.0   60.0   33.333333333333336
-450.0   60.0   16.666666666666668
-450.0   30.0   33.333333333333336
-400.0   60.0   33.333333333333336
-400.0   30.0   33.333333333333336
-400.0   30.0   16.666666666666668
-450.0   30.0   33.333333333333336
-400.0   60.0   33.333333333333336
-400.0   30.0   16.666666666666668
-450.0   60.0   16.666666666666668
-450.0   30.0   33.333333333333336
-400.0   30.0   33.333333333333336
-450.0   60.0   33.333333333333336
-450.0   30.0   50.0
-400.0   30.0   33.333333333333336
-400.0   60.0   33.333333333333336
-450.0   60.0   33.333333333333336
-400.0   60.0   50.0
-450.0   30.0   50.0
-450.0   60.0   50.0
-400.0   60.0   50.0
-450.0   60.0   33.333333333333336
-450.0   30.0   50.0
-400.0   60.0   50.0
-400.0   30.0   50.0
-400.0   30.0   33.333333333333336
-450.0   30.0   50.0
-400.0   60.0   50.0
-400.0   30.0   33.333333333333336
-450.0   60.0   33.333333333333336
-450.0   60.0   0.0
-400.0   60.0   0.0
-450.0   90.0   0.0
-450.0   60.0   16.666666666666668
-400.0   60.0   0.0
-400.0   90.0   0.0
-450.0   90.0   0.0
-400.0   90.0   16.666666666666668
-450.0   60.0   16.666666666666668
-450.0   90.0   16.666666666666668
-400.0   90.0   16.666666666666668
-450.0   90.0   0.0
-450.0   60.0   16.666666666666668
-400.0   90.0   16.666666666666668
-400.0   60.0   16.666666666666668
-400.0   60.0   0.0
-450.0   60.0   16.666666666666668
-400.0   90.0   16.666666666666668
-400.0   60.0   0.0
-450.0   90.0   0.0
-450.0   60.0   16.666666666666668
-400.0   60.0   16.666666666666668
-450.0   90.0   16.666666666666668
-450.0   60.0   33.333333333333336
-400.0   60.0   16.666666666666668
-400.0   90.0   16.666666666666668
-450.0   90.0   16.666666666666668
-400.0   90.0   33.333333333333336
-450.0   60.0   33.333333333333336
-450.0   90.0   33.333333333333336
-400.0   90.0   33.333333333333336
-450.0   90.0   16.666666666666668
-450.0   60.0   33.333333333333336
-400.0   90.0   33.333333333333336
-400.0   60.0   33.333333333333336
-400.0   60.0   16.666666666666668
-450.0   60.0   33.333333333333336
-400.0   90.0   33.333333333333336
-400.0   60.0   16.666666666666668
-450.0   90.0   16.666666666666668
-450.0   60.0   33.333333333333336
-400.0   60.0   33.333333333333336
-450.0   90.0   33.333333333333336
-450.0   60.0   50.0
-400.0   60.0   33.333333333333336
-400.0   90.0   33.333333333333336
-450.0   90.0   33.333333333333336
-400.0   90.0   50.0
-450.0   60.0   50.0
-450.0   90.0   50.0
-400.0   90.0   50.0
-450.0   90.0   33.333333333333336
-450.0   60.0   50.0
-400.0   90.0   50.0
-400.0   60.0   50.0
-400.0   60.0   33.333333333333336
-450.0   60.0   50.0
-400.0   90.0   50.0
-400.0   60.0   33.333333333333336
-450.0   90.0   33.333333333333336
-450.0   90.0   0.0
-400.0   90.0   0.0
-450.0   120.0   0.0
-450.0   90.0   16.666666666666668
-400.0   90.0   0.0
-400.0   120.0   0.0
-450.0   120.0   0.0
-400.0   120.0   16.666666666666668
-450.0   90.0   16.666666666666668
-450.0   120.0   16.666666666666668
-400.0   120.0   16.666666666666668
-450.0   120.0   0.0
-450.0   90.0   16.666666666666668
-400.0   120.0   16.666666666666668
-400.0   90.0   16.666666666666668
-400.0   90.0   0.0
-450.0   90.0   16.666666666666668
-400.0   120.0   16.666666666666668
-400.0   90.0   0.0
-450.0   120.0   0.0
-450.0   90.0   16.666666666666668
-400.0   90.0   16.666666666666668
-450.0   120.0   16.666666666666668
-450.0   90.0   33.333333333333336
-400.0   90.0   16.666666666666668
-400.0   120.0   16.666666666666668
-450.0   120.0   16.666666666666668
-400.0   120.0   33.333333333333336
-450.0   90.0   33.333333333333336
-450.0   120.0   33.333333333333336
-400.0   120.0   33.333333333333336
-450.0   120.0   16.666666666666668
-450.0   90.0   33.333333333333336
-400.0   120.0   33.333333333333336
-400.0   90.0   33.333333333333336
-400.0   90.0   16.666666666666668
-450.0   90.0   33.333333333333336
-400.0   120.0   33.333333333333336
-400.0   90.0   16.666666666666668
-450.0   120.0   16.666666666666668
-450.0   90.0   33.333333333333336
-400.0   90.0   33.333333333333336
-450.0   120.0   33.333333333333336
-450.0   90.0   50.0
-400.0   90.0   33.333333333333336
-400.0   120.0   33.333333333333336
-450.0   120.0   33.333333333333336
-400.0   120.0   50.0
-450.0   90.0   50.0
-450.0   120.0   50.0
-400.0   120.0   50.0
-450.0   120.0   33.333333333333336
-450.0   90.0   50.0
-400.0   120.0   50.0
-400.0   90.0   50.0
-400.0   90.0   33.333333333333336
-450.0   90.0   50.0
-400.0   120.0   50.0
-400.0   90.0   33.333333333333336
-450.0   120.0   33.333333333333336
-450.0   120.0   0.0
-400.0   120.0   0.0
-450.0   150.0   0.0
-450.0   120.0   16.666666666666668
-400.0   120.0   0.0
-400.0   150.0   0.0
-450.0   150.0   0.0
-400.0   150.0   16.666666666666668
-450.0   120.0   16.666666666666668
-450.0   150.0   16.666666666666668
-400.0   150.0   16.666666666666668
-450.0   150.0   0.0
-450.0   120.0   16.666666666666668
-400.0   150.0   16.666666666666668
-400.0   120.0   16.666666666666668
-400.0   120.0   0.0
-450.0   120.0   16.666666666666668
-400.0   150.0   16.666666666666668
-400.0   120.0   0.0
-450.0   150.0   0.0
-450.0   120.0   16.666666666666668
-400.0   120.0   16.666666666666668
-450.0   150.0   16.666666666666668
-450.0   120.0   33.333333333333336
-400.0   120.0   16.666666666666668
-400.0   150.0   16.666666666666668
-450.0   150.0   16.666666666666668
-400.0   150.0   33.333333333333336
-450.0   120.0   33.333333333333336
-450.0   150.0   33.333333333333336
-400.0   150.0   33.333333333333336
-450.0   150.0   16.666666666666668
-450.0   120.0   33.333333333333336
-400.0   150.0   33.333333333333336
-400.0   120.0   33.333333333333336
-400.0   120.0   16.666666666666668
-450.0   120.0   33.333333333333336
-400.0   150.0   33.333333333333336
-400.0   120.0   16.666666666666668
-450.0   150.0   16.666666666666668
-450.0   120.0   33.333333333333336
-400.0   120.0   33.333333333333336
-450.0   150.0   33.333333333333336
-450.0   120.0   50.0
-400.0   120.0   33.333333333333336
-400.0   150.0   33.333333333333336
-450.0   150.0   33.333333333333336
-400.0   150.0   50.0
-450.0   120.0   50.0
-450.0   150.0   50.0
-400.0   150.0   50.0
-450.0   150.0   33.333333333333336
-450.0   120.0   50.0
-400.0   150.0   50.0
-400.0   120.0   50.0
-400.0   120.0   33.333333333333336
-450.0   120.0   50.0
-400.0   150.0   50.0
-400.0   120.0   33.333333333333336
-450.0   150.0   33.333333333333336
-400.0   0.0   0.0
-350.0   0.0   0.0
-400.0   30.0   0.0
-400.0   0.0   16.666666666666668
-350.0   0.0   0.0
-350.0   30.0   0.0
-400.0   30.0   0.0
-350.0   30.0   16.666666666666668
-400.0   0.0   16.666666666666668
-400.0   30.0   16.666666666666668
-350.0   30.0   16.666666666666668
-400.0   30.0   0.0
-400.0   0.0   16.666666666666668
-350.0   30.0   16.666666666666668
-350.0   0.0   16.666666666666668
-350.0   0.0   0.0
-400.0   0.0   16.666666666666668
-350.0   30.0   16.666666666666668
-350.0   0.0   0.0
-400.0   30.0   0.0
-400.0   0.0   16.666666666666668
-350.0   0.0   16.666666666666668
-400.0   30.0   16.666666666666668
-400.0   0.0   33.333333333333336
-350.0   0.0   16.666666666666668
-350.0   30.0   16.666666666666668
-400.0   30.0   16.666666666666668
-350.0   30.0   33.333333333333336
-400.0   0.0   33.333333333333336
-400.0   30.0   33.333333333333336
-350.0   30.0   33.333333333333336
-400.0   30.0   16.666666666666668
-400.0   0.0   33.333333333333336
-350.0   30.0   33.333333333333336
-350.0   0.0   33.333333333333336
-350.0   0.0   16.666666666666668
-400.0   0.0   33.333333333333336
-350.0   30.0   33.333333333333336
-350.0   0.0   16.666666666666668
-400.0   30.0   16.666666666666668
-400.0   0.0   33.333333333333336
-350.0   0.0   33.333333333333336
-400.0   30.0   33.333333333333336
-400.0   0.0   50.0
-350.0   0.0   33.333333333333336
-350.0   30.0   33.333333333333336
-400.0   30.0   33.333333333333336
-350.0   30.0   50.0
-400.0   0.0   50.0
-400.0   30.0   50.0
-350.0   30.0   50.0
-400.0   30.0   33.333333333333336
-400.0   0.0   50.0
-350.0   30.0   50.0
-350.0   0.0   50.0
-350.0   0.0   33.333333333333336
-400.0   0.0   50.0
-350.0   30.0   50.0
-350.0   0.0   33.333333333333336
-400.0   30.0   33.333333333333336
-400.0   30.0   0.0
-350.0   30.0   0.0
-400.0   60.0   0.0
-400.0   30.0   16.666666666666668
-350.0   30.0   0.0
-350.0   60.0   0.0
-400.0   60.0   0.0
-350.0   60.0   16.666666666666668
-400.0   30.0   16.666666666666668
-400.0   60.0   16.666666666666668
-350.0   60.0   16.666666666666668
-400.0   60.0   0.0
-400.0   30.0   16.666666666666668
-350.0   60.0   16.666666666666668
-350.0   30.0   16.666666666666668
-350.0   30.0   0.0
-400.0   30.0   16.666666666666668
-350.0   60.0   16.666666666666668
-350.0   30.0   0.0
-400.0   60.0   0.0
-400.0   30.0   16.666666666666668
-350.0   30.0   16.666666666666668
-400.0   60.0   16.666666666666668
-400.0   30.0   33.333333333333336
-350.0   30.0   16.666666666666668
-350.0   60.0   16.666666666666668
-400.0   60.0   16.666666666666668
-350.0   60.0   33.333333333333336
-400.0   30.0   33.333333333333336
-400.0   60.0   33.333333333333336
-350.0   60.0   33.333333333333336
-400.0   60.0   16.666666666666668
-400.0   30.0   33.333333333333336
-350.0   60.0   33.333333333333336
-350.0   30.0   33.333333333333336
-350.0   30.0   16.666666666666668
-400.0   30.0   33.333333333333336
-350.0   60.0   33.333333333333336
-350.0   30.0   16.666666666666668
-400.0   60.0   16.666666666666668
-400.0   30.0   33.333333333333336
-350.0   30.0   33.333333333333336
-400.0   60.0   33.333333333333336
-400.0   30.0   50.0
-350.0   30.0   33.333333333333336
-350.0   60.0   33.333333333333336
-400.0   60.0   33.333333333333336
-350.0   60.0   50.0
-400.0   30.0   50.0
-400.0   60.0   50.0
-350.0   60.0   50.0
-400.0   60.0   33.333333333333336
-400.0   30.0   50.0
-350.0   60.0   50.0
-350.0   30.0   50.0
-350.0   30.0   33.333333333333336
-400.0   30.0   50.0
-350.0   60.0   50.0
-350.0   30.0   33.333333333333336
-400.0   60.0   33.333333333333336
-400.0   60.0   0.0
-350.0   60.0   0.0
-400.0   90.0   0.0
-400.0   60.0   16.666666666666668
-350.0   60.0   0.0
-350.0   90.0   0.0
-400.0   90.0   0.0
-350.0   90.0   16.666666666666668
-400.0   60.0   16.666666666666668
-400.0   90.0   16.666666666666668
-350.0   90.0   16.666666666666668
-400.0   90.0   0.0
-400.0   60.0   16.666666666666668
-350.0   90.0   16.666666666666668
-350.0   60.0   16.666666666666668
-350.0   60.0   0.0
-400.0   60.0   16.666666666666668
-350.0   90.0   16.666666666666668
-350.0   60.0   0.0
-400.0   90.0   0.0
-400.0   60.0   16.666666666666668
-350.0   60.0   16.666666666666668
-400.0   90.0   16.666666666666668
-400.0   60.0   33.333333333333336
-350.0   60.0   16.666666666666668
-350.0   90.0   16.666666666666668
-400.0   90.0   16.666666666666668
-350.0   90.0   33.333333333333336
-400.0   60.0   33.333333333333336
-400.0   90.0   33.333333333333336
-350.0   90.0   33.333333333333336
-400.0   90.0   16.666666666666668
-400.0   60.0   33.333333333333336
-350.0   90.0   33.333333333333336
-350.0   60.0   33.333333333333336
-350.0   60.0   16.666666666666668
-400.0   60.0   33.333333333333336
-350.0   90.0   33.333333333333336
-350.0   60.0   16.666666666666668
-400.0   90.0   16.666666666666668
-400.0   60.0   33.333333333333336
-350.0   60.0   33.333333333333336
-400.0   90.0   33.333333333333336
-400.0   60.0   50.0
-350.0   60.0   33.333333333333336
-350.0   90.0   33.333333333333336
-400.0   90.0   33.333333333333336
-350.0   90.0   50.0
-400.0   60.0   50.0
-400.0   90.0   50.0
-350.0   90.0   50.0
-400.0   90.0   33.333333333333336
-400.0   60.0   50.0
-350.0   90.0   50.0
-350.0   60.0   50.0
-350.0   60.0   33.333333333333336
-400.0   60.0   50.0
-350.0   90.0   50.0
-350.0   60.0   33.333333333333336
-400.0   90.0   33.333333333333336
-400.0   90.0   0.0
-350.0   90.0   0.0
-400.0   120.0   0.0
-400.0   90.0   16.666666666666668
-350.0   90.0   0.0
-350.0   120.0   0.0
-400.0   120.0   0.0
-350.0   120.0   16.666666666666668
-400.0   90.0   16.666666666666668
-400.0   120.0   16.666666666666668
-350.0   120.0   16.666666666666668
-400.0   120.0   0.0
-400.0   90.0   16.666666666666668
-350.0   120.0   16.666666666666668
-350.0   90.0   16.666666666666668
-350.0   90.0   0.0
-400.0   90.0   16.666666666666668
-350.0   120.0   16.666666666666668
-350.0   90.0   0.0
-400.0   120.0   0.0
-400.0   90.0   16.666666666666668
-350.0   90.0   16.666666666666668
-400.0   120.0   16.666666666666668
-400.0   90.0   33.333333333333336
-350.0   90.0   16.666666666666668
-350.0   120.0   16.666666666666668
-400.0   120.0   16.666666666666668
-350.0   120.0   33.333333333333336
-400.0   90.0   33.333333333333336
-400.0   120.0   33.333333333333336
-350.0   120.0   33.333333333333336
-400.0   120.0   16.666666666666668
-400.0   90.0   33.333333333333336
-350.0   120.0   33.333333333333336
-350.0   90.0   33.333333333333336
-350.0   90.0   16.666666666666668
-400.0   90.0   33.333333333333336
-350.0   120.0   33.333333333333336
-350.0   90.0   16.666666666666668
-400.0   120.0   16.666666666666668
-400.0   90.0   33.333333333333336
-350.0   90.0   33.333333333333336
-400.0   120.0   33.333333333333336
-400.0   90.0   50.0
-350.0   90.0   33.333333333333336
-350.0   120.0   33.333333333333336
-400.0   120.0   33.333333333333336
-350.0   120.0   50.0
-400.0   90.0   50.0
-400.0   120.0   50.0
-350.0   120.0   50.0
-400.0   120.0   33.333333333333336
-400.0   90.0   50.0
-350.0   120.0   50.0
-350.0   90.0   50.0
-350.0   90.0   33.333333333333336
-400.0   90.0   50.0
-350.0   120.0   50.0
-350.0   90.0   33.333333333333336
-400.0   120.0   33.333333333333336
-400.0   120.0   0.0
-350.0   120.0   0.0
-400.0   150.0   0.0
-400.0   120.0   16.666666666666668
-350.0   120.0   0.0
-350.0   150.0   0.0
-400.0   150.0   0.0
-350.0   150.0   16.666666666666668
-400.0   120.0   16.666666666666668
-400.0   150.0   16.666666666666668
-350.0   150.0   16.666666666666668
-400.0   150.0   0.0
-400.0   120.0   16.666666666666668
-350.0   150.0   16.666666666666668
-350.0   120.0   16.666666666666668
-350.0   120.0   0.0
-400.0   120.0   16.666666666666668
-350.0   150.0   16.666666666666668
-350.0   120.0   0.0
-400.0   150.0   0.0
-400.0   120.0   16.666666666666668
-350.0   120.0   16.666666666666668
-400.0   150.0   16.666666666666668
-400.0   120.0   33.333333333333336
-350.0   120.0   16.666666666666668
-350.0   150.0   16.666666666666668
-400.0   150.0   16.666666666666668
-350.0   150.0   33.333333333333336
-400.0   120.0   33.333333333333336
-400.0   150.0   33.333333333333336
-350.0   150.0   33.333333333333336
-400.0   150.0   16.666666666666668
-400.0   120.0   33.333333333333336
-350.0   150.0   33.333333333333336
-350.0   120.0   33.333333333333336
-350.0   120.0   16.666666666666668
-400.0   120.0   33.333333333333336
-350.0   150.0   33.333333333333336
-350.0   120.0   16.666666666666668
-400.0   150.0   16.666666666666668
-400.0   120.0   33.333333333333336
-350.0   120.0   33.333333333333336
-400.0   150.0   33.333333333333336
-400.0   120.0   50.0
-350.0   120.0   33.333333333333336
-350.0   150.0   33.333333333333336
-400.0   150.0   33.333333333333336
-350.0   150.0   50.0
-400.0   120.0   50.0
-400.0   150.0   50.0
-350.0   150.0   50.0
-400.0   150.0   33.333333333333336
-400.0   120.0   50.0
-350.0   150.0   50.0
-350.0   120.0   50.0
-350.0   120.0   33.333333333333336
-400.0   120.0   50.0
-350.0   150.0   50.0
-350.0   120.0   33.333333333333336
-400.0   150.0   33.333333333333336
-350.0   0.0   0.0
-300.0   0.0   0.0
-350.0   30.0   0.0
-350.0   0.0   16.666666666666668
-300.0   0.0   0.0
-300.0   30.0   0.0
-350.0   30.0   0.0
-300.0   30.0   16.666666666666668
-350.0   0.0   16.666666666666668
-350.0   30.0   16.666666666666668
-300.0   30.0   16.666666666666668
-350.0   30.0   0.0
-350.0   0.0   16.666666666666668
-300.0   30.0   16.666666666666668
-300.0   0.0   16.666666666666668
-300.0   0.0   0.0
-350.0   0.0   16.666666666666668
-300.0   30.0   16.666666666666668
-300.0   0.0   0.0
-350.0   30.0   0.0
-350.0   0.0   16.666666666666668
-300.0   0.0   16.666666666666668
-350.0   30.0   16.666666666666668
-350.0   0.0   33.333333333333336
-300.0   0.0   16.666666666666668
-300.0   30.0   16.666666666666668
-350.0   30.0   16.666666666666668
-300.0   30.0   33.333333333333336
-350.0   0.0   33.333333333333336
-350.0   30.0   33.333333333333336
-300.0   30.0   33.333333333333336
-350.0   30.0   16.666666666666668
-350.0   0.0   33.333333333333336
-300.0   30.0   33.333333333333336
-300.0   0.0   33.333333333333336
-300.0   0.0   16.666666666666668
-350.0   0.0   33.333333333333336
-300.0   30.0   33.333333333333336
-300.0   0.0   16.666666666666668
-350.0   30.0   16.666666666666668
-350.0   0.0   33.333333333333336
-300.0   0.0   33.333333333333336
-350.0   30.0   33.333333333333336
-350.0   0.0   50.0
-300.0   0.0   33.333333333333336
-300.0   30.0   33.333333333333336
-350.0   30.0   33.333333333333336
-300.0   30.0   50.0
-350.0   0.0   50.0
-350.0   30.0   50.0
-300.0   30.0   50.0
-350.0   30.0   33.333333333333336
-350.0   0.0   50.0
-300.0   30.0   50.0
-300.0   0.0   50.0
-300.0   0.0   33.333333333333336
-350.0   0.0   50.0
-300.0   30.0   50.0
-300.0   0.0   33.333333333333336
-350.0   30.0   33.333333333333336
-350.0   30.0   0.0
-300.0   30.0   0.0
-350.0   60.0   0.0
-350.0   30.0   16.666666666666668
-300.0   30.0   0.0
-300.0   60.0   0.0
-350.0   60.0   0.0
-300.0   60.0   16.666666666666668
-350.0   30.0   16.666666666666668
-350.0   60.0   16.666666666666668
-300.0   60.0   16.666666666666668
-350.0   60.0   0.0
-350.0   30.0   16.666666666666668
-300.0   60.0   16.666666666666668
-300.0   30.0   16.666666666666668
-300.0   30.0   0.0
-350.0   30.0   16.666666666666668
-300.0   60.0   16.666666666666668
-300.0   30.0   0.0
-350.0   60.0   0.0
-350.0   30.0   16.666666666666668
-300.0   30.0   16.666666666666668
-350.0   60.0   16.666666666666668
-350.0   30.0   33.333333333333336
-300.0   30.0   16.666666666666668
-300.0   60.0   16.666666666666668
-350.0   60.0   16.666666666666668
-300.0   60.0   33.333333333333336
-350.0   30.0   33.333333333333336
-350.0   60.0   33.333333333333336
-300.0   60.0   33.333333333333336
-350.0   60.0   16.666666666666668
-350.0   30.0   33.333333333333336
-300.0   60.0   33.333333333333336
-300.0   30.0   33.333333333333336
-300.0   30.0   16.666666666666668
-350.0   30.0   33.333333333333336
-300.0   60.0   33.333333333333336
-300.0   30.0   16.666666666666668
-350.0   60.0   16.666666666666668
-350.0   30.0   33.333333333333336
-300.0   30.0   33.333333333333336
-350.0   60.0   33.333333333333336
-350.0   30.0   50.0
-300.0   30.0   33.333333333333336
-300.0   60.0   33.333333333333336
-350.0   60.0   33.333333333333336
-300.0   60.0   50.0
-350.0   30.0   50.0
-350.0   60.0   50.0
-300.0   60.0   50.0
-350.0   60.0   33.333333333333336
-350.0   30.0   50.0
-300.0   60.0   50.0
-300.0   30.0   50.0
-300.0   30.0   33.333333333333336
-350.0   30.0   50.0
-300.0   60.0   50.0
-300.0   30.0   33.333333333333336
-350.0   60.0   33.333333333333336
-350.0   60.0   0.0
-300.0   60.0   0.0
-350.0   90.0   0.0
-350.0   60.0   16.666666666666668
-300.0   60.0   0.0
-300.0   90.0   0.0
-350.0   90.0   0.0
-300.0   90.0   16.666666666666668
-350.0   60.0   16.666666666666668
-350.0   90.0   16.666666666666668
-300.0   90.0   16.666666666666668
-350.0   90.0   0.0
-350.0   60.0   16.666666666666668
-300.0   90.0   16.666666666666668
-300.0   60.0   16.666666666666668
-300.0   60.0   0.0
-350.0   60.0   16.666666666666668
-300.0   90.0   16.666666666666668
-300.0   60.0   0.0
-350.0   90.0   0.0
-350.0   60.0   16.666666666666668
-300.0   60.0   16.666666666666668
-350.0   90.0   16.666666666666668
-350.0   60.0   33.333333333333336
-300.0   60.0   16.666666666666668
-300.0   90.0   16.666666666666668
-350.0   90.0   16.666666666666668
-300.0   90.0   33.333333333333336
-350.0   60.0   33.333333333333336
-350.0   90.0   33.333333333333336
-300.0   90.0   33.333333333333336
-350.0   90.0   16.666666666666668
-350.0   60.0   33.333333333333336
-300.0   90.0   33.333333333333336
-300.0   60.0   33.333333333333336
-300.0   60.0   16.666666666666668
-350.0   60.0   33.333333333333336
-300.0   90.0   33.333333333333336
-300.0   60.0   16.666666666666668
-350.0   90.0   16.666666666666668
-350.0   60.0   33.333333333333336
-300.0   60.0   33.333333333333336
-350.0   90.0   33.333333333333336
-350.0   60.0   50.0
-300.0   60.0   33.333333333333336
-300.0   90.0   33.333333333333336
-350.0   90.0   33.333333333333336
-300.0   90.0   50.0
-350.0   60.0   50.0
-350.0   90.0   50.0
-300.0   90.0   50.0
-350.0   90.0   33.333333333333336
-350.0   60.0   50.0
-300.0   90.0   50.0
-300.0   60.0   50.0
-300.0   60.0   33.333333333333336
-350.0   60.0   50.0
-300.0   90.0   50.0
-300.0   60.0   33.333333333333336
-350.0   90.0   33.333333333333336
-350.0   90.0   0.0
-300.0   90.0   0.0
-350.0   120.0   0.0
-350.0   90.0   16.666666666666668
-300.0   90.0   0.0
-300.0   120.0   0.0
-350.0   120.0   0.0
-300.0   120.0   16.666666666666668
-350.0   90.0   16.666666666666668
-350.0   120.0   16.666666666666668
-300.0   120.0   16.666666666666668
-350.0   120.0   0.0
-350.0   90.0   16.666666666666668
-300.0   120.0   16.666666666666668
-300.0   90.0   16.666666666666668
-300.0   90.0   0.0
-350.0   90.0   16.666666666666668
-300.0   120.0   16.666666666666668
-300.0   90.0   0.0
-350.0   120.0   0.0
-350.0   90.0   16.666666666666668
-300.0   90.0   16.666666666666668
-350.0   120.0   16.666666666666668
-350.0   90.0   33.333333333333336
-300.0   90.0   16.666666666666668
-300.0   120.0   16.666666666666668
-350.0   120.0   16.666666666666668
-300.0   120.0   33.333333333333336
-350.0   90.0   33.333333333333336
-350.0   120.0   33.333333333333336
-300.0   120.0   33.333333333333336
-350.0   120.0   16.666666666666668
-350.0   90.0   33.333333333333336
-300.0   120.0   33.333333333333336
-300.0   90.0   33.333333333333336
-300.0   90.0   16.666666666666668
-350.0   90.0   33.333333333333336
-300.0   120.0   33.333333333333336
-300.0   90.0   16.666666666666668
-350.0   120.0   16.666666666666668
-350.0   90.0   33.333333333333336
-300.0   90.0   33.333333333333336
-350.0   120.0   33.333333333333336
-350.0   90.0   50.0
-300.0   90.0   33.333333333333336
-300.0   120.0   33.333333333333336
-350.0   120.0   33.333333333333336
-300.0   120.0   50.0
-350.0   90.0   50.0
-350.0   120.0   50.0
-300.0   120.0   50.0
-350.0   120.0   33.333333333333336
-350.0   90.0   50.0
-300.0   120.0   50.0
-300.0   90.0   50.0
-300.0   90.0   33.333333333333336
-350.0   90.0   50.0
-300.0   120.0   50.0
-300.0   90.0   33.333333333333336
-350.0   120.0   33.333333333333336
-350.0   120.0   0.0
-300.0   120.0   0.0
-350.0   150.0   0.0
-350.0   120.0   16.666666666666668
-300.0   120.0   0.0
-300.0   150.0   0.0
-350.0   150.0   0.0
-300.0   150.0   16.666666666666668
-350.0   120.0   16.666666666666668
-350.0   150.0   16.666666666666668
-300.0   150.0   16.666666666666668
-350.0   150.0   0.0
-350.0   120.0   16.666666666666668
-300.0   150.0   16.666666666666668
-300.0   120.0   16.666666666666668
-300.0   120.0   0.0
-350.0   120.0   16.666666666666668
-300.0   150.0   16.666666666666668
-300.0   120.0   0.0
-350.0   150.0   0.0
-350.0   120.0   16.666666666666668
-300.0   120.0   16.666666666666668
-350.0   150.0   16.666666666666668
-350.0   120.0   33.333333333333336
-300.0   120.0   16.666666666666668
-300.0   150.0   16.666666666666668
-350.0   150.0   16.666666666666668
-300.0   150.0   33.333333333333336
-350.0   120.0   33.333333333333336
-350.0   150.0   33.333333333333336
-300.0   150.0   33.333333333333336
-350.0   150.0   16.666666666666668
-350.0   120.0   33.333333333333336
-300.0   150.0   33.333333333333336
-300.0   120.0   33.333333333333336
-300.0   120.0   16.666666666666668
-350.0   120.0   33.333333333333336
-300.0   150.0   33.333333333333336
-300.0   120.0   16.666666666666668
-350.0   150.0   16.666666666666668
-350.0   120.0   33.333333333333336
-300.0   120.0   33.333333333333336
-350.0   150.0   33.333333333333336
-350.0   120.0   50.0
-300.0   120.0   33.333333333333336
-300.0   150.0   33.333333333333336
-350.0   150.0   33.333333333333336
-300.0   150.0   50.0
-350.0   120.0   50.0
-350.0   150.0   50.0
-300.0   150.0   50.0
-350.0   150.0   33.333333333333336
-350.0   120.0   50.0
-300.0   150.0   50.0
-300.0   120.0   50.0
-300.0   120.0   33.333333333333336
-350.0   120.0   50.0
-300.0   150.0   50.0
-300.0   120.0   33.333333333333336
-350.0   150.0   33.333333333333336
-300.0   0.0   0.0
-250.0   0.0   0.0
-300.0   30.0   0.0
-300.0   0.0   16.666666666666668
-250.0   0.0   0.0
-250.0   30.0   0.0
-300.0   30.0   0.0
-250.0   30.0   16.666666666666668
-300.0   0.0   16.666666666666668
-300.0   30.0   16.666666666666668
-250.0   30.0   16.666666666666668
-300.0   30.0   0.0
-300.0   0.0   16.666666666666668
-250.0   30.0   16.666666666666668
-250.0   0.0   16.666666666666668
-250.0   0.0   0.0
-300.0   0.0   16.666666666666668
-250.0   30.0   16.666666666666668
-250.0   0.0   0.0
-300.0   30.0   0.0
-300.0   0.0   16.666666666666668
-250.0   0.0   16.666666666666668
-300.0   30.0   16.666666666666668
-300.0   0.0   33.333333333333336
-250.0   0.0   16.666666666666668
-250.0   30.0   16.666666666666668
-300.0   30.0   16.666666666666668
-250.0   30.0   33.333333333333336
-300.0   0.0   33.333333333333336
-300.0   30.0   33.333333333333336
-250.0   30.0   33.333333333333336
-300.0   30.0   16.666666666666668
-300.0   0.0   33.333333333333336
-250.0   30.0   33.333333333333336
-250.0   0.0   33.333333333333336
-250.0   0.0   16.666666666666668
-300.0   0.0   33.333333333333336
-250.0   30.0   33.333333333333336
-250.0   0.0   16.666666666666668
-300.0   30.0   16.666666666666668
-300.0   0.0   33.333333333333336
-250.0   0.0   33.333333333333336
-300.0   30.0   33.333333333333336
-300.0   0.0   50.0
-250.0   0.0   33.333333333333336
-250.0   30.0   33.333333333333336
-300.0   30.0   33.333333333333336
-250.0   30.0   50.0
-300.0   0.0   50.0
-300.0   30.0   50.0
-250.0   30.0   50.0
-300.0   30.0   33.333333333333336
-300.0   0.0   50.0
-250.0   30.0   50.0
-250.0   0.0   50.0
-250.0   0.0   33.333333333333336
-300.0   0.0   50.0
-250.0   30.0   50.0
-250.0   0.0   33.333333333333336
-300.0   30.0   33.333333333333336
-300.0   30.0   0.0
-250.0   30.0   0.0
-300.0   60.0   0.0
-300.0   30.0   16.666666666666668
-250.0   30.0   0.0
-250.0   60.0   0.0
-300.0   60.0   0.0
-250.0   60.0   16.666666666666668
-300.0   30.0   16.666666666666668
-300.0   60.0   16.666666666666668
-250.0   60.0   16.666666666666668
-300.0   60.0   0.0
-300.0   30.0   16.666666666666668
-250.0   60.0   16.666666666666668
-250.0   30.0   16.666666666666668
-250.0   30.0   0.0
-300.0   30.0   16.666666666666668
-250.0   60.0   16.666666666666668
-250.0   30.0   0.0
-300.0   60.0   0.0
-300.0   30.0   16.666666666666668
-250.0   30.0   16.666666666666668
-300.0   60.0   16.666666666666668
-300.0   30.0   33.333333333333336
-250.0   30.0   16.666666666666668
-250.0   60.0   16.666666666666668
-300.0   60.0   16.666666666666668
-250.0   60.0   33.333333333333336
-300.0   30.0   33.333333333333336
-300.0   60.0   33.333333333333336
-250.0   60.0   33.333333333333336
-300.0   60.0   16.666666666666668
-300.0   30.0   33.333333333333336
-250.0   60.0   33.333333333333336
-250.0   30.0   33.333333333333336
-250.0   30.0   16.666666666666668
-300.0   30.0   33.333333333333336
-250.0   60.0   33.333333333333336
-250.0   30.0   16.666666666666668
-300.0   60.0   16.666666666666668
-300.0   30.0   33.333333333333336
-250.0   30.0   33.333333333333336
-300.0   60.0   33.333333333333336
-300.0   30.0   50.0
-250.0   30.0   33.333333333333336
-250.0   60.0   33.333333333333336
-300.0   60.0   33.333333333333336
-250.0   60.0   50.0
-300.0   30.0   50.0
-300.0   60.0   50.0
-250.0   60.0   50.0
-300.0   60.0   33.333333333333336
-300.0   30.0   50.0
-250.0   60.0   50.0
-250.0   30.0   50.0
-250.0   30.0   33.333333333333336
-300.0   30.0   50.0
-250.0   60.0   50.0
-250.0   30.0   33.333333333333336
-300.0   60.0   33.333333333333336
-300.0   60.0   0.0
-250.0   60.0   0.0
-300.0   90.0   0.0
-300.0   60.0   16.666666666666668
-250.0   60.0   0.0
-250.0   90.0   0.0
-300.0   90.0   0.0
-250.0   90.0   16.666666666666668
-300.0   60.0   16.666666666666668
-300.0   90.0   16.666666666666668
-250.0   90.0   16.666666666666668
-300.0   90.0   0.0
-300.0   60.0   16.666666666666668
-250.0   90.0   16.666666666666668
-250.0   60.0   16.666666666666668
-250.0   60.0   0.0
-300.0   60.0   16.666666666666668
-250.0   90.0   16.666666666666668
-250.0   60.0   0.0
-300.0   90.0   0.0
-300.0   60.0   16.666666666666668
-250.0   60.0   16.666666666666668
-300.0   90.0   16.666666666666668
-300.0   60.0   33.333333333333336
-250.0   60.0   16.666666666666668
-250.0   90.0   16.666666666666668
-300.0   90.0   16.666666666666668
-250.0   90.0   33.333333333333336
-300.0   60.0   33.333333333333336
-300.0   90.0   33.333333333333336
-250.0   90.0   33.333333333333336
-300.0   90.0   16.666666666666668
-300.0   60.0   33.333333333333336
-250.0   90.0   33.333333333333336
-250.0   60.0   33.333333333333336
-250.0   60.0   16.666666666666668
-300.0   60.0   33.333333333333336
-250.0   90.0   33.333333333333336
-250.0   60.0   16.666666666666668
-300.0   90.0   16.666666666666668
-300.0   60.0   33.333333333333336
-250.0   60.0   33.333333333333336
-300.0   90.0   33.333333333333336
-300.0   60.0   50.0
-250.0   60.0   33.333333333333336
-250.0   90.0   33.333333333333336
-300.0   90.0   33.333333333333336
-250.0   90.0   50.0
-300.0   60.0   50.0
-300.0   90.0   50.0
-250.0   90.0   50.0
-300.0   90.0   33.333333333333336
-300.0   60.0   50.0
-250.0   90.0   50.0
-250.0   60.0   50.0
-250.0   60.0   33.333333333333336
-300.0   60.0   50.0
-250.0   90.0   50.0
-250.0   60.0   33.333333333333336
-300.0   90.0   33.333333333333336
-300.0   90.0   0.0
-250.0   90.0   0.0
-300.0   120.0   0.0
-300.0   90.0   16.666666666666668
-250.0   90.0   0.0
-250.0   120.0   0.0
-300.0   120.0   0.0
-250.0   120.0   16.666666666666668
-300.0   90.0   16.666666666666668
-300.0   120.0   16.666666666666668
-250.0   120.0   16.666666666666668
-300.0   120.0   0.0
-300.0   90.0   16.666666666666668
-250.0   120.0   16.666666666666668
-250.0   90.0   16.666666666666668
-250.0   90.0   0.0
-300.0   90.0   16.666666666666668
-250.0   120.0   16.666666666666668
-250.0   90.0   0.0
-300.0   120.0   0.0
-300.0   90.0   16.666666666666668
-250.0   90.0   16.666666666666668
-300.0   120.0   16.666666666666668
-300.0   90.0   33.333333333333336
-250.0   90.0   16.666666666666668
-250.0   120.0   16.666666666666668
-300.0   120.0   16.666666666666668
-250.0   120.0   33.333333333333336
-300.0   90.0   33.333333333333336
-300.0   120.0   33.333333333333336
-250.0   120.0   33.333333333333336
-300.0   120.0   16.666666666666668
-300.0   90.0   33.333333333333336
-250.0   120.0   33.333333333333336
-250.0   90.0   33.333333333333336
-250.0   90.0   16.666666666666668
-300.0   90.0   33.333333333333336
-250.0   120.0   33.333333333333336
-250.0   90.0   16.666666666666668
-300.0   120.0   16.666666666666668
-300.0   90.0   33.333333333333336
-250.0   90.0   33.333333333333336
-300.0   120.0   33.333333333333336
-300.0   90.0   50.0
-250.0   90.0   33.333333333333336
-250.0   120.0   33.333333333333336
-300.0   120.0   33.333333333333336
-250.0   120.0   50.0
-300.0   90.0   50.0
-300.0   120.0   50.0
-250.0   120.0   50.0
-300.0   120.0   33.333333333333336
-300.0   90.0   50.0
-250.0   120.0   50.0
-250.0   90.0   50.0
-250.0   90.0   33.333333333333336
-300.0   90.0   50.0
-250.0   120.0   50.0
-250.0   90.0   33.333333333333336
-300.0   120.0   33.333333333333336
-300.0   120.0   0.0
-250.0   120.0   0.0
-300.0   150.0   0.0
-300.0   120.0   16.666666666666668
-250.0   120.0   0.0
-250.0   150.0   0.0
-300.0   150.0   0.0
-250.0   150.0   16.666666666666668
-300.0   120.0   16.666666666666668
-300.0   150.0   16.666666666666668
-250.0   150.0   16.666666666666668
-300.0   150.0   0.0
-300.0   120.0   16.666666666666668
-250.0   150.0   16.666666666666668
-250.0   120.0   16.666666666666668
-250.0   120.0   0.0
-300.0   120.0   16.666666666666668
-250.0   150.0   16.666666666666668
-250.0   120.0   0.0
-300.0   150.0   0.0
-300.0   120.0   16.666666666666668
-250.0   120.0   16.666666666666668
-300.0   150.0   16.666666666666668
-300.0   120.0   33.333333333333336
-250.0   120.0   16.666666666666668
-250.0   150.0   16.666666666666668
-300.0   150.0   16.666666666666668
-250.0   150.0   33.333333333333336
-300.0   120.0   33.333333333333336
-300.0   150.0   33.333333333333336
-250.0   150.0   33.333333333333336
-300.0   150.0   16.666666666666668
-300.0   120.0   33.333333333333336
-250.0   150.0   33.333333333333336
-250.0   120.0   33.333333333333336
-250.0   120.0   16.666666666666668
-300.0   120.0   33.333333333333336
-250.0   150.0   33.333333333333336
-250.0   120.0   16.666666666666668
-300.0   150.0   16.666666666666668
-300.0   120.0   33.333333333333336
-250.0   120.0   33.333333333333336
-300.0   150.0   33.333333333333336
-300.0   120.0   50.0
-250.0   120.0   33.333333333333336
-250.0   150.0   33.333333333333336
-300.0   150.0   33.333333333333336
-250.0   150.0   50.0
-300.0   120.0   50.0
-300.0   150.0   50.0
-250.0   150.0   50.0
-300.0   150.0   33.333333333333336
-300.0   120.0   50.0
-250.0   150.0   50.0
-250.0   120.0   50.0
-250.0   120.0   33.333333333333336
-300.0   120.0   50.0
-250.0   150.0   50.0
-250.0   120.0   33.333333333333336
-300.0   150.0   33.333333333333336
-250.0   0.0   0.0
-200.0   0.0   0.0
-250.0   30.0   0.0
-250.0   0.0   16.666666666666668
-200.0   0.0   0.0
-200.0   30.0   0.0
-250.0   30.0   0.0
-200.0   30.0   16.666666666666668
-250.0   0.0   16.666666666666668
-250.0   30.0   16.666666666666668
-200.0   30.0   16.666666666666668
-250.0   30.0   0.0
-250.0   0.0   16.666666666666668
-200.0   30.0   16.666666666666668
-200.0   0.0   16.666666666666668
-200.0   0.0   0.0
-250.0   0.0   16.666666666666668
-200.0   30.0   16.666666666666668
-200.0   0.0   0.0
-250.0   30.0   0.0
-250.0   0.0   16.666666666666668
-200.0   0.0   16.666666666666668
-250.0   30.0   16.666666666666668
-250.0   0.0   33.333333333333336
-200.0   0.0   16.666666666666668
-200.0   30.0   16.666666666666668
-250.0   30.0   16.666666666666668
-200.0   30.0   33.333333333333336
-250.0   0.0   33.333333333333336
-250.0   30.0   33.333333333333336
-200.0   30.0   33.333333333333336
-250.0   30.0   16.666666666666668
-250.0   0.0   33.333333333333336
-200.0   30.0   33.333333333333336
-200.0   0.0   33.333333333333336
-200.0   0.0   16.666666666666668
-250.0   0.0   33.333333333333336
-200.0   30.0   33.333333333333336
-200.0   0.0   16.666666666666668
-250.0   30.0   16.666666666666668
-250.0   0.0   33.333333333333336
-200.0   0.0   33.333333333333336
-250.0   30.0   33.333333333333336
-250.0   0.0   50.0
-200.0   0.0   33.333333333333336
-200.0   30.0   33.333333333333336
-250.0   30.0   33.333333333333336
-200.0   30.0   50.0
-250.0   0.0   50.0
-250.0   30.0   50.0
-200.0   30.0   50.0
-250.0   30.0   33.333333333333336
-250.0   0.0   50.0
-200.0   30.0   50.0
-200.0   0.0   50.0
-200.0   0.0   33.333333333333336
-250.0   0.0   50.0
-200.0   30.0   50.0
-200.0   0.0   33.333333333333336
-250.0   30.0   33.333333333333336
-250.0   30.0   0.0
-200.0   30.0   0.0
-250.0   60.0   0.0
-250.0   30.0   16.666666666666668
-200.0   30.0   0.0
-200.0   60.0   0.0
-250.0   60.0   0.0
-200.0   60.0   16.666666666666668
-250.0   30.0   16.666666666666668
-250.0   60.0   16.666666666666668
-200.0   60.0   16.666666666666668
-250.0   60.0   0.0
-250.0   30.0   16.666666666666668
-200.0   60.0   16.666666666666668
-200.0   30.0   16.666666666666668
-200.0   30.0   0.0
-250.0   30.0   16.666666666666668
-200.0   60.0   16.666666666666668
-200.0   30.0   0.0
-250.0   60.0   0.0
-250.0   30.0   16.666666666666668
-200.0   30.0   16.666666666666668
-250.0   60.0   16.666666666666668
-250.0   30.0   33.333333333333336
-200.0   30.0   16.666666666666668
-200.0   60.0   16.666666666666668
-250.0   60.0   16.666666666666668
-200.0   60.0   33.333333333333336
-250.0   30.0   33.333333333333336
-250.0   60.0   33.333333333333336
-200.0   60.0   33.333333333333336
-250.0   60.0   16.666666666666668
-250.0   30.0   33.333333333333336
-200.0   60.0   33.333333333333336
-200.0   30.0   33.333333333333336
-200.0   30.0   16.666666666666668
-250.0   30.0   33.333333333333336
-200.0   60.0   33.333333333333336
-200.0   30.0   16.666666666666668
-250.0   60.0   16.666666666666668
-250.0   30.0   33.333333333333336
-200.0   30.0   33.333333333333336
-250.0   60.0   33.333333333333336
-250.0   30.0   50.0
-200.0   30.0   33.333333333333336
-200.0   60.0   33.333333333333336
-250.0   60.0   33.333333333333336
-200.0   60.0   50.0
-250.0   30.0   50.0
-250.0   60.0   50.0
-200.0   60.0   50.0
-250.0   60.0   33.333333333333336
-250.0   30.0   50.0
-200.0   60.0   50.0
-200.0   30.0   50.0
-200.0   30.0   33.333333333333336
-250.0   30.0   50.0
-200.0   60.0   50.0
-200.0   30.0   33.333333333333336
-250.0   60.0   33.333333333333336
-250.0   60.0   0.0
-200.0   60.0   0.0
-250.0   90.0   0.0
-250.0   60.0   16.666666666666668
-200.0   60.0   0.0
-200.0   90.0   0.0
-250.0   90.0   0.0
-200.0   90.0   16.666666666666668
-250.0   60.0   16.666666666666668
-250.0   90.0   16.666666666666668
-200.0   90.0   16.666666666666668
-250.0   90.0   0.0
-250.0   60.0   16.666666666666668
-200.0   90.0   16.666666666666668
-200.0   60.0   16.666666666666668
-200.0   60.0   0.0
-250.0   60.0   16.666666666666668
-200.0   90.0   16.666666666666668
-200.0   60.0   0.0
-250.0   90.0   0.0
-250.0   60.0   16.666666666666668
-200.0   60.0   16.666666666666668
-250.0   90.0   16.666666666666668
-250.0   60.0   33.333333333333336
-200.0   60.0   16.666666666666668
-200.0   90.0   16.666666666666668
-250.0   90.0   16.666666666666668
-200.0   90.0   33.333333333333336
-250.0   60.0   33.333333333333336
-250.0   90.0   33.333333333333336
-200.0   90.0   33.333333333333336
-250.0   90.0   16.666666666666668
-250.0   60.0   33.333333333333336
-200.0   90.0   33.333333333333336
-200.0   60.0   33.333333333333336
-200.0   60.0   16.666666666666668
-250.0   60.0   33.333333333333336
-200.0   90.0   33.333333333333336
-200.0   60.0   16.666666666666668
-250.0   90.0   16.666666666666668
-250.0   60.0   33.333333333333336
-200.0   60.0   33.333333333333336
-250.0   90.0   33.333333333333336
-250.0   60.0   50.0
-200.0   60.0   33.333333333333336
-200.0   90.0   33.333333333333336
-250.0   90.0   33.333333333333336
-200.0   90.0   50.0
-250.0   60.0   50.0
-250.0   90.0   50.0
-200.0   90.0   50.0
-250.0   90.0   33.333333333333336
-250.0   60.0   50.0
-200.0   90.0   50.0
-200.0   60.0   50.0
-200.0   60.0   33.333333333333336
-250.0   60.0   50.0
-200.0   90.0   50.0
-200.0   60.0   33.333333333333336
-250.0   90.0   33.333333333333336
-250.0   90.0   0.0
-200.0   90.0   0.0
-250.0   120.0   0.0
-250.0   90.0   16.666666666666668
-200.0   90.0   0.0
-200.0   120.0   0.0
-250.0   120.0   0.0
-200.0   120.0   16.666666666666668
-250.0   90.0   16.666666666666668
-250.0   120.0   16.666666666666668
-200.0   120.0   16.666666666666668
-250.0   120.0   0.0
-250.0   90.0   16.666666666666668
-200.0   120.0   16.666666666666668
-200.0   90.0   16.666666666666668
-200.0   90.0   0.0
-250.0   90.0   16.666666666666668
-200.0   120.0   16.666666666666668
-200.0   90.0   0.0
-250.0   120.0   0.0
-250.0   90.0   16.666666666666668
-200.0   90.0   16.666666666666668
-250.0   120.0   16.666666666666668
-250.0   90.0   33.333333333333336
-200.0   90.0   16.666666666666668
-200.0   120.0   16.666666666666668
-250.0   120.0   16.666666666666668
-200.0   120.0   33.333333333333336
-250.0   90.0   33.333333333333336
-250.0   120.0   33.333333333333336
-200.0   120.0   33.333333333333336
-250.0   120.0   16.666666666666668
-250.0   90.0   33.333333333333336
-200.0   120.0   33.333333333333336
-200.0   90.0   33.333333333333336
-200.0   90.0   16.666666666666668
-250.0   90.0   33.333333333333336
-200.0   120.0   33.333333333333336
-200.0   90.0   16.666666666666668
-250.0   120.0   16.666666666666668
-250.0   90.0   33.333333333333336
-200.0   90.0   33.333333333333336
-250.0   120.0   33.333333333333336
-250.0   90.0   50.0
-200.0   90.0   33.333333333333336
-200.0   120.0   33.333333333333336
-250.0   120.0   33.333333333333336
-200.0   120.0   50.0
-250.0   90.0   50.0
-250.0   120.0   50.0
-200.0   120.0   50.0
-250.0   120.0   33.333333333333336
-250.0   90.0   50.0
-200.0   120.0   50.0
-200.0   90.0   50.0
-200.0   90.0   33.333333333333336
-250.0   90.0   50.0
-200.0   120.0   50.0
-200.0   90.0   33.333333333333336
-250.0   120.0   33.333333333333336
-250.0   120.0   0.0
-200.0   120.0   0.0
-250.0   150.0   0.0
-250.0   120.0   16.666666666666668
-200.0   120.0   0.0
-200.0   150.0   0.0
-250.0   150.0   0.0
-200.0   150.0   16.666666666666668
-250.0   120.0   16.666666666666668
-250.0   150.0   16.666666666666668
-200.0   150.0   16.666666666666668
-250.0   150.0   0.0
-250.0   120.0   16.666666666666668
-200.0   150.0   16.666666666666668
-200.0   120.0   16.666666666666668
-200.0   120.0   0.0
-250.0   120.0   16.666666666666668
-200.0   150.0   16.666666666666668
-200.0   120.0   0.0
-250.0   150.0   0.0
-250.0   120.0   16.666666666666668
-200.0   120.0   16.666666666666668
-250.0   150.0   16.666666666666668
-250.0   120.0   33.333333333333336
-200.0   120.0   16.666666666666668
-200.0   150.0   16.666666666666668
-250.0   150.0   16.666666666666668
-200.0   150.0   33.333333333333336
-250.0   120.0   33.333333333333336
-250.0   150.0   33.333333333333336
-200.0   150.0   33.333333333333336
-250.0   150.0   16.666666666666668
-250.0   120.0   33.333333333333336
-200.0   150.0   33.333333333333336
-200.0   120.0   33.333333333333336
-200.0   120.0   16.666666666666668
-250.0   120.0   33.333333333333336
-200.0   150.0   33.333333333333336
-200.0   120.0   16.666666666666668
-250.0   150.0   16.666666666666668
-250.0   120.0   33.333333333333336
-200.0   120.0   33.333333333333336
-250.0   150.0   33.333333333333336
-250.0   120.0   50.0
-200.0   120.0   33.333333333333336
-200.0   150.0   33.333333333333336
-250.0   150.0   33.333333333333336
-200.0   150.0   50.0
-250.0   120.0   50.0
-250.0   150.0   50.0
-200.0   150.0   50.0
-250.0   150.0   33.333333333333336
-250.0   120.0   50.0
-200.0   150.0   50.0
-200.0   120.0   50.0
-200.0   120.0   33.333333333333336
-250.0   120.0   50.0
-200.0   150.0   50.0
-200.0   120.0   33.333333333333336
-250.0   150.0   33.333333333333336
-200.0   0.0   0.0
-150.0   0.0   0.0
-200.0   30.0   0.0
-200.0   0.0   16.666666666666668
-150.0   0.0   0.0
-150.0   30.0   0.0
-200.0   30.0   0.0
-150.0   30.0   16.666666666666668
-200.0   0.0   16.666666666666668
-200.0   30.0   16.666666666666668
-150.0   30.0   16.666666666666668
-200.0   30.0   0.0
-200.0   0.0   16.666666666666668
-150.0   30.0   16.666666666666668
-150.0   0.0   16.666666666666668
-150.0   0.0   0.0
-200.0   0.0   16.666666666666668
-150.0   30.0   16.666666666666668
-150.0   0.0   0.0
-200.0   30.0   0.0
-200.0   0.0   16.666666666666668
-150.0   0.0   16.666666666666668
-200.0   30.0   16.666666666666668
-200.0   0.0   33.333333333333336
-150.0   0.0   16.666666666666668
-150.0   30.0   16.666666666666668
-200.0   30.0   16.666666666666668
-150.0   30.0   33.333333333333336
-200.0   0.0   33.333333333333336
-200.0   30.0   33.333333333333336
-150.0   30.0   33.333333333333336
-200.0   30.0   16.666666666666668
-200.0   0.0   33.333333333333336
-150.0   30.0   33.333333333333336
-150.0   0.0   33.333333333333336
-150.0   0.0   16.666666666666668
-200.0   0.0   33.333333333333336
-150.0   30.0   33.333333333333336
-150.0   0.0   16.666666666666668
-200.0   30.0   16.666666666666668
-200.0   0.0   33.333333333333336
-150.0   0.0   33.333333333333336
-200.0   30.0   33.333333333333336
-200.0   0.0   50.0
-150.0   0.0   33.333333333333336
-150.0   30.0   33.333333333333336
-200.0   30.0   33.333333333333336
-150.0   30.0   50.0
-200.0   0.0   50.0
-200.0   30.0   50.0
-150.0   30.0   50.0
-200.0   30.0   33.333333333333336
-200.0   0.0   50.0
-150.0   30.0   50.0
-150.0   0.0   50.0
-150.0   0.0   33.333333333333336
-200.0   0.0   50.0
-150.0   30.0   50.0
-150.0   0.0   33.333333333333336
-200.0   30.0   33.333333333333336
-200.0   30.0   0.0
-150.0   30.0   0.0
-200.0   60.0   0.0
-200.0   30.0   16.666666666666668
-150.0   30.0   0.0
-150.0   60.0   0.0
-200.0   60.0   0.0
-150.0   60.0   16.666666666666668
-200.0   30.0   16.666666666666668
-200.0   60.0   16.666666666666668
-150.0   60.0   16.666666666666668
-200.0   60.0   0.0
-200.0   30.0   16.666666666666668
-150.0   60.0   16.666666666666668
-150.0   30.0   16.666666666666668
-150.0   30.0   0.0
-200.0   30.0   16.666666666666668
-150.0   60.0   16.666666666666668
-150.0   30.0   0.0
-200.0   60.0   0.0
-200.0   30.0   16.666666666666668
-150.0   30.0   16.666666666666668
-200.0   60.0   16.666666666666668
-200.0   30.0   33.333333333333336
-150.0   30.0   16.666666666666668
-150.0   60.0   16.666666666666668
-200.0   60.0   16.666666666666668
-150.0   60.0   33.333333333333336
-200.0   30.0   33.333333333333336
-200.0   60.0   33.333333333333336
-150.0   60.0   33.333333333333336
-200.0   60.0   16.666666666666668
-200.0   30.0   33.333333333333336
-150.0   60.0   33.333333333333336
-150.0   30.0   33.333333333333336
-150.0   30.0   16.666666666666668
-200.0   30.0   33.333333333333336
-150.0   60.0   33.333333333333336
-150.0   30.0   16.666666666666668
-200.0   60.0   16.666666666666668
-200.0   30.0   33.333333333333336
-150.0   30.0   33.333333333333336
-200.0   60.0   33.333333333333336
-200.0   30.0   50.0
-150.0   30.0   33.333333333333336
-150.0   60.0   33.333333333333336
-200.0   60.0   33.333333333333336
-150.0   60.0   50.0
-200.0   30.0   50.0
-200.0   60.0   50.0
-150.0   60.0   50.0
-200.0   60.0   33.333333333333336
-200.0   30.0   50.0
-150.0   60.0   50.0
-150.0   30.0   50.0
-150.0   30.0   33.333333333333336
-200.0   30.0   50.0
-150.0   60.0   50.0
-150.0   30.0   33.333333333333336
-200.0   60.0   33.333333333333336
-200.0   60.0   0.0
-150.0   60.0   0.0
-200.0   90.0   0.0
-200.0   60.0   16.666666666666668
-150.0   60.0   0.0
-150.0   90.0   0.0
-200.0   90.0   0.0
-150.0   90.0   16.666666666666668
-200.0   60.0   16.666666666666668
-200.0   90.0   16.666666666666668
-150.0   90.0   16.666666666666668
-200.0   90.0   0.0
-200.0   60.0   16.666666666666668
-150.0   90.0   16.666666666666668
-150.0   60.0   16.666666666666668
-150.0   60.0   0.0
-200.0   60.0   16.666666666666668
-150.0   90.0   16.666666666666668
-150.0   60.0   0.0
-200.0   90.0   0.0
-200.0   60.0   16.666666666666668
-150.0   60.0   16.666666666666668
-200.0   90.0   16.666666666666668
-200.0   60.0   33.333333333333336
-150.0   60.0   16.666666666666668
-150.0   90.0   16.666666666666668
-200.0   90.0   16.666666666666668
-150.0   90.0   33.333333333333336
-200.0   60.0   33.333333333333336
-200.0   90.0   33.333333333333336
-150.0   90.0   33.333333333333336
-200.0   90.0   16.666666666666668
-200.0   60.0   33.333333333333336
-150.0   90.0   33.333333333333336
-150.0   60.0   33.333333333333336
-150.0   60.0   16.666666666666668
-200.0   60.0   33.333333333333336
-150.0   90.0   33.333333333333336
-150.0   60.0   16.666666666666668
-200.0   90.0   16.666666666666668
-200.0   60.0   33.333333333333336
-150.0   60.0   33.333333333333336
-200.0   90.0   33.333333333333336
-200.0   60.0   50.0
-150.0   60.0   33.333333333333336
-150.0   90.0   33.333333333333336
-200.0   90.0   33.333333333333336
-150.0   90.0   50.0
-200.0   60.0   50.0
-200.0   90.0   50.0
-150.0   90.0   50.0
-200.0   90.0   33.333333333333336
-200.0   60.0   50.0
-150.0   90.0   50.0
-150.0   60.0   50.0
-150.0   60.0   33.333333333333336
-200.0   60.0   50.0
-150.0   90.0   50.0
-150.0   60.0   33.333333333333336
-200.0   90.0   33.333333333333336
-200.0   90.0   0.0
-150.0   90.0   0.0
-200.0   120.0   0.0
-200.0   90.0   16.666666666666668
-150.0   90.0   0.0
-150.0   120.0   0.0
-200.0   120.0   0.0
-150.0   120.0   16.666666666666668
-200.0   90.0   16.666666666666668
-200.0   120.0   16.666666666666668
-150.0   120.0   16.666666666666668
-200.0   120.0   0.0
-200.0   90.0   16.666666666666668
-150.0   120.0   16.666666666666668
-150.0   90.0   16.666666666666668
-150.0   90.0   0.0
-200.0   90.0   16.666666666666668
-150.0   120.0   16.666666666666668
-150.0   90.0   0.0
-200.0   120.0   0.0
-200.0   90.0   16.666666666666668
-150.0   90.0   16.666666666666668
-200.0   120.0   16.666666666666668
-200.0   90.0   33.333333333333336
-150.0   90.0   16.666666666666668
-150.0   120.0   16.666666666666668
-200.0   120.0   16.666666666666668
-150.0   120.0   33.333333333333336
-200.0   90.0   33.333333333333336
-200.0   120.0   33.333333333333336
-150.0   120.0   33.333333333333336
-200.0   120.0   16.666666666666668
-200.0   90.0   33.333333333333336
-150.0   120.0   33.333333333333336
-150.0   90.0   33.333333333333336
-150.0   90.0   16.666666666666668
-200.0   90.0   33.333333333333336
-150.0   120.0   33.333333333333336
-150.0   90.0   16.666666666666668
-200.0   120.0   16.666666666666668
-200.0   90.0   33.333333333333336
-150.0   90.0   33.333333333333336
-200.0   120.0   33.333333333333336
-200.0   90.0   50.0
-150.0   90.0   33.333333333333336
-150.0   120.0   33.333333333333336
-200.0   120.0   33.333333333333336
-150.0   120.0   50.0
-200.0   90.0   50.0
-200.0   120.0   50.0
-150.0   120.0   50.0
-200.0   120.0   33.333333333333336
-200.0   90.0   50.0
-150.0   120.0   50.0
-150.0   90.0   50.0
-150.0   90.0   33.333333333333336
-200.0   90.0   50.0
-150.0   120.0   50.0
-150.0   90.0   33.333333333333336
-200.0   120.0   33.333333333333336
-200.0   120.0   0.0
-150.0   120.0   0.0
-200.0   150.0   0.0
-200.0   120.0   16.666666666666668
-150.0   120.0   0.0
-150.0   150.0   0.0
-200.0   150.0   0.0
-150.0   150.0   16.666666666666668
-200.0   120.0   16.666666666666668
-200.0   150.0   16.666666666666668
-150.0   150.0   16.666666666666668
-200.0   150.0   0.0
-200.0   120.0   16.666666666666668
-150.0   150.0   16.666666666666668
-150.0   120.0   16.666666666666668
-150.0   120.0   0.0
-200.0   120.0   16.666666666666668
-150.0   150.0   16.666666666666668
-150.0   120.0   0.0
-200.0   150.0   0.0
-200.0   120.0   16.666666666666668
-150.0   120.0   16.666666666666668
-200.0   150.0   16.666666666666668
-200.0   120.0   33.333333333333336
-150.0   120.0   16.666666666666668
-150.0   150.0   16.666666666666668
-200.0   150.0   16.666666666666668
-150.0   150.0   33.333333333333336
-200.0   120.0   33.333333333333336
-200.0   150.0   33.333333333333336
-150.0   150.0   33.333333333333336
-200.0   150.0   16.666666666666668
-200.0   120.0   33.333333333333336
-150.0   150.0   33.333333333333336
-150.0   120.0   33.333333333333336
-150.0   120.0   16.666666666666668
-200.0   120.0   33.333333333333336
-150.0   150.0   33.333333333333336
-150.0   120.0   16.666666666666668
-200.0   150.0   16.666666666666668
-200.0   120.0   33.333333333333336
-150.0   120.0   33.333333333333336
-200.0   150.0   33.333333333333336
-200.0   120.0   50.0
-150.0   120.0   33.333333333333336
-150.0   150.0   33.333333333333336
-200.0   150.0   33.333333333333336
-150.0   150.0   50.0
-200.0   120.0   50.0
-200.0   150.0   50.0
-150.0   150.0   50.0
-200.0   150.0   33.333333333333336
-200.0   120.0   50.0
-150.0   150.0   50.0
-150.0   120.0   50.0
-150.0   120.0   33.333333333333336
-200.0   120.0   50.0
-150.0   150.0   50.0
-150.0   120.0   33.333333333333336
-200.0   150.0   33.333333333333336
-150.0   0.0   0.0
-100.0   0.0   0.0
-150.0   30.0   0.0
-150.0   0.0   16.666666666666668
-100.0   0.0   0.0
-100.0   30.0   0.0
-150.0   30.0   0.0
-100.0   30.0   16.666666666666668
-150.0   0.0   16.666666666666668
-150.0   30.0   16.666666666666668
-100.0   30.0   16.666666666666668
-150.0   30.0   0.0
-150.0   0.0   16.666666666666668
-100.0   30.0   16.666666666666668
-100.0   0.0   16.666666666666668
-100.0   0.0   0.0
-150.0   0.0   16.666666666666668
-100.0   30.0   16.666666666666668
-100.0   0.0   0.0
-150.0   30.0   0.0
-150.0   0.0   16.666666666666668
-100.0   0.0   16.666666666666668
-150.0   30.0   16.666666666666668
-150.0   0.0   33.333333333333336
-100.0   0.0   16.666666666666668
-100.0   30.0   16.666666666666668
-150.0   30.0   16.666666666666668
-100.0   30.0   33.333333333333336
-150.0   0.0   33.333333333333336
-150.0   30.0   33.333333333333336
-100.0   30.0   33.333333333333336
-150.0   30.0   16.666666666666668
-150.0   0.0   33.333333333333336
-100.0   30.0   33.333333333333336
-100.0   0.0   33.333333333333336
-100.0   0.0   16.666666666666668
-150.0   0.0   33.333333333333336
-100.0   30.0   33.333333333333336
-100.0   0.0   16.666666666666668
-150.0   30.0   16.666666666666668
-150.0   0.0   33.333333333333336
-100.0   0.0   33.333333333333336
-150.0   30.0   33.333333333333336
-150.0   0.0   50.0
-100.0   0.0   33.333333333333336
-100.0   30.0   33.333333333333336
-150.0   30.0   33.333333333333336
-100.0   30.0   50.0
-150.0   0.0   50.0
-150.0   30.0   50.0
-100.0   30.0   50.0
-150.0   30.0   33.333333333333336
-150.0   0.0   50.0
-100.0   30.0   50.0
-100.0   0.0   50.0
-100.0   0.0   33.333333333333336
-150.0   0.0   50.0
-100.0   30.0   50.0
-100.0   0.0   33.333333333333336
-150.0   30.0   33.333333333333336
-150.0   30.0   0.0
-100.0   30.0   0.0
-150.0   60.0   0.0
-150.0   30.0   16.666666666666668
-100.0   30.0   0.0
-100.0   60.0   0.0
-150.0   60.0   0.0
-100.0   60.0   16.666666666666668
-150.0   30.0   16.666666666666668
-150.0   60.0   16.666666666666668
-100.0   60.0   16.666666666666668
-150.0   60.0   0.0
-150.0   30.0   16.666666666666668
-100.0   60.0   16.666666666666668
-100.0   30.0   16.666666666666668
-100.0   30.0   0.0
-150.0   30.0   16.666666666666668
-100.0   60.0   16.666666666666668
-100.0   30.0   0.0
-150.0   60.0   0.0
-150.0   30.0   16.666666666666668
-100.0   30.0   16.666666666666668
-150.0   60.0   16.666666666666668
-150.0   30.0   33.333333333333336
-100.0   30.0   16.666666666666668
-100.0   60.0   16.666666666666668
-150.0   60.0   16.666666666666668
-100.0   60.0   33.333333333333336
-150.0   30.0   33.333333333333336
-150.0   60.0   33.333333333333336
-100.0   60.0   33.333333333333336
-150.0   60.0   16.666666666666668
-150.0   30.0   33.333333333333336
-100.0   60.0   33.333333333333336
-100.0   30.0   33.333333333333336
-100.0   30.0   16.666666666666668
-150.0   30.0   33.333333333333336
-100.0   60.0   33.333333333333336
-100.0   30.0   16.666666666666668
-150.0   60.0   16.666666666666668
-150.0   30.0   33.333333333333336
-100.0   30.0   33.333333333333336
-150.0   60.0   33.333333333333336
-150.0   30.0   50.0
-100.0   30.0   33.333333333333336
-100.0   60.0   33.333333333333336
-150.0   60.0   33.333333333333336
-100.0   60.0   50.0
-150.0   30.0   50.0
-150.0   60.0   50.0
-100.0   60.0   50.0
-150.0   60.0   33.333333333333336
-150.0   30.0   50.0
-100.0   60.0   50.0
-100.0   30.0   50.0
-100.0   30.0   33.333333333333336
-150.0   30.0   50.0
-100.0   60.0   50.0
-100.0   30.0   33.333333333333336
-150.0   60.0   33.333333333333336
-150.0   60.0   0.0
-100.0   60.0   0.0
-150.0   90.0   0.0
-150.0   60.0   16.666666666666668
-100.0   60.0   0.0
-100.0   90.0   0.0
-150.0   90.0   0.0
-100.0   90.0   16.666666666666668
-150.0   60.0   16.666666666666668
-150.0   90.0   16.666666666666668
-100.0   90.0   16.666666666666668
-150.0   90.0   0.0
-150.0   60.0   16.666666666666668
-100.0   90.0   16.666666666666668
-100.0   60.0   16.666666666666668
-100.0   60.0   0.0
-150.0   60.0   16.666666666666668
-100.0   90.0   16.666666666666668
-100.0   60.0   0.0
-150.0   90.0   0.0
-150.0   60.0   16.666666666666668
-100.0   60.0   16.666666666666668
-150.0   90.0   16.666666666666668
-150.0   60.0   33.333333333333336
-100.0   60.0   16.666666666666668
-100.0   90.0   16.666666666666668
-150.0   90.0   16.666666666666668
-100.0   90.0   33.333333333333336
-150.0   60.0   33.333333333333336
-150.0   90.0   33.333333333333336
-100.0   90.0   33.333333333333336
-150.0   90.0   16.666666666666668
-150.0   60.0   33.333333333333336
-100.0   90.0   33.333333333333336
-100.0   60.0   33.333333333333336
-100.0   60.0   16.666666666666668
-150.0   60.0   33.333333333333336
-100.0   90.0   33.333333333333336
-100.0   60.0   16.666666666666668
-150.0   90.0   16.666666666666668
-150.0   60.0   33.333333333333336
-100.0   60.0   33.333333333333336
-150.0   90.0   33.333333333333336
-150.0   60.0   50.0
-100.0   60.0   33.333333333333336
-100.0   90.0   33.333333333333336
-150.0   90.0   33.333333333333336
-100.0   90.0   50.0
-150.0   60.0   50.0
-150.0   90.0   50.0
-100.0   90.0   50.0
-150.0   90.0   33.333333333333336
-150.0   60.0   50.0
-100.0   90.0   50.0
-100.0   60.0   50.0
-100.0   60.0   33.333333333333336
-150.0   60.0   50.0
-100.0   90.0   50.0
-100.0   60.0   33.333333333333336
-150.0   90.0   33.333333333333336
-150.0   90.0   0.0
-100.0   90.0   0.0
-150.0   120.0   0.0
-150.0   90.0   16.666666666666668
-100.0   90.0   0.0
-100.0   120.0   0.0
-150.0   120.0   0.0
-100.0   120.0   16.666666666666668
-150.0   90.0   16.666666666666668
-150.0   120.0   16.666666666666668
-100.0   120.0   16.666666666666668
-150.0   120.0   0.0
-150.0   90.0   16.666666666666668
-100.0   120.0   16.666666666666668
-100.0   90.0   16.666666666666668
-100.0   90.0   0.0
-150.0   90.0   16.666666666666668
-100.0   120.0   16.666666666666668
-100.0   90.0   0.0
-150.0   120.0   0.0
-150.0   90.0   16.666666666666668
-100.0   90.0   16.666666666666668
-150.0   120.0   16.666666666666668
-150.0   90.0   33.333333333333336
-100.0   90.0   16.666666666666668
-100.0   120.0   16.666666666666668
-150.0   120.0   16.666666666666668
-100.0   120.0   33.333333333333336
-150.0   90.0   33.333333333333336
-150.0   120.0   33.333333333333336
-100.0   120.0   33.333333333333336
-150.0   120.0   16.666666666666668
-150.0   90.0   33.333333333333336
-100.0   120.0   33.333333333333336
-100.0   90.0   33.333333333333336
-100.0   90.0   16.666666666666668
-150.0   90.0   33.333333333333336
-100.0   120.0   33.333333333333336
-100.0   90.0   16.666666666666668
-150.0   120.0   16.666666666666668
-150.0   90.0   33.333333333333336
-100.0   90.0   33.333333333333336
-150.0   120.0   33.333333333333336
-150.0   90.0   50.0
-100.0   90.0   33.333333333333336
-100.0   120.0   33.333333333333336
-150.0   120.0   33.333333333333336
-100.0   120.0   50.0
-150.0   90.0   50.0
-150.0   120.0   50.0
-100.0   120.0   50.0
-150.0   120.0   33.333333333333336
-150.0   90.0   50.0
-100.0   120.0   50.0
-100.0   90.0   50.0
-100.0   90.0   33.333333333333336
-150.0   90.0   50.0
-100.0   120.0   50.0
-100.0   90.0   33.333333333333336
-150.0   120.0   33.333333333333336
-150.0   120.0   0.0
-100.0   120.0   0.0
-150.0   150.0   0.0
-150.0   120.0   16.666666666666668
-100.0   120.0   0.0
-100.0   150.0   0.0
-150.0   150.0   0.0
-100.0   150.0   16.666666666666668
-150.0   120.0   16.666666666666668
-150.0   150.0   16.666666666666668
-100.0   150.0   16.666666666666668
-150.0   150.0   0.0
-150.0   120.0   16.666666666666668
-100.0   150.0   16.666666666666668
-100.0   120.0   16.666666666666668
-100.0   120.0   0.0
-150.0   120.0   16.666666666666668
-100.0   150.0   16.666666666666668
-100.0   120.0   0.0
-150.0   150.0   0.0
-150.0   120.0   16.666666666666668
-100.0   120.0   16.666666666666668
-150.0   150.0   16.666666666666668
-150.0   120.0   33.333333333333336
-100.0   120.0   16.666666666666668
-100.0   150.0   16.666666666666668
-150.0   150.0   16.666666666666668
-100.0   150.0   33.333333333333336
-150.0   120.0   33.333333333333336
-150.0   150.0   33.333333333333336
-100.0   150.0   33.333333333333336
-150.0   150.0   16.666666666666668
-150.0   120.0   33.333333333333336
-100.0   150.0   33.333333333333336
-100.0   120.0   33.333333333333336
-100.0   120.0   16.666666666666668
-150.0   120.0   33.333333333333336
-100.0   150.0   33.333333333333336
-100.0   120.0   16.666666666666668
-150.0   150.0   16.666666666666668
-150.0   120.0   33.333333333333336
-100.0   120.0   33.333333333333336
-150.0   150.0   33.333333333333336
-150.0   120.0   50.0
-100.0   120.0   33.333333333333336
-100.0   150.0   33.333333333333336
-150.0   150.0   33.333333333333336
-100.0   150.0   50.0
-150.0   120.0   50.0
-150.0   150.0   50.0
-100.0   150.0   50.0
-150.0   150.0   33.333333333333336
-150.0   120.0   50.0
-100.0   150.0   50.0
-100.0   120.0   50.0
-100.0   120.0   33.333333333333336
-150.0   120.0   50.0
-100.0   150.0   50.0
-100.0   120.0   33.333333333333336
-150.0   150.0   33.333333333333336
-100.0   0.0   0.0
-50.0   0.0   0.0
-100.0   30.0   0.0
-100.0   0.0   16.666666666666668
-50.0   0.0   0.0
-50.0   30.0   0.0
-100.0   30.0   0.0
-50.0   30.0   16.666666666666668
-100.0   0.0   16.666666666666668
-100.0   30.0   16.666666666666668
-50.0   30.0   16.666666666666668
-100.0   30.0   0.0
-100.0   0.0   16.666666666666668
-50.0   30.0   16.666666666666668
-50.0   0.0   16.666666666666668
-50.0   0.0   0.0
-100.0   0.0   16.666666666666668
-50.0   30.0   16.666666666666668
-50.0   0.0   0.0
-100.0   30.0   0.0
-100.0   0.0   16.666666666666668
-50.0   0.0   16.666666666666668
-100.0   30.0   16.666666666666668
-100.0   0.0   33.333333333333336
-50.0   0.0   16.666666666666668
-50.0   30.0   16.666666666666668
-100.0   30.0   16.666666666666668
-50.0   30.0   33.333333333333336
-100.0   0.0   33.333333333333336
-100.0   30.0   33.333333333333336
-50.0   30.0   33.333333333333336
-100.0   30.0   16.666666666666668
-100.0   0.0   33.333333333333336
-50.0   30.0   33.333333333333336
-50.0   0.0   33.333333333333336
-50.0   0.0   16.666666666666668
-100.0   0.0   33.333333333333336
-50.0   30.0   33.333333333333336
-50.0   0.0   16.666666666666668
-100.0   30.0   16.666666666666668
-100.0   0.0   33.333333333333336
-50.0   0.0   33.333333333333336
-100.0   30.0   33.333333333333336
-100.0   0.0   50.0
-50.0   0.0   33.333333333333336
-50.0   30.0   33.333333333333336
-100.0   30.0   33.333333333333336
-50.0   30.0   50.0
-100.0   0.0   50.0
-100.0   30.0   50.0
-50.0   30.0   50.0
-100.0   30.0   33.333333333333336
-100.0   0.0   50.0
-50.0   30.0   50.0
-50.0   0.0   50.0
-50.0   0.0   33.333333333333336
-100.0   0.0   50.0
-50.0   30.0   50.0
-50.0   0.0   33.333333333333336
-100.0   30.0   33.333333333333336
-100.0   30.0   0.0
-50.0   30.0   0.0
-100.0   60.0   0.0
-100.0   30.0   16.666666666666668
-50.0   30.0   0.0
-50.0   60.0   0.0
-100.0   60.0   0.0
-50.0   60.0   16.666666666666668
-100.0   30.0   16.666666666666668
-100.0   60.0   16.666666666666668
-50.0   60.0   16.666666666666668
-100.0   60.0   0.0
-100.0   30.0   16.666666666666668
-50.0   60.0   16.666666666666668
-50.0   30.0   16.666666666666668
-50.0   30.0   0.0
-100.0   30.0   16.666666666666668
-50.0   60.0   16.666666666666668
-50.0   30.0   0.0
-100.0   60.0   0.0
-100.0   30.0   16.666666666666668
-50.0   30.0   16.666666666666668
-100.0   60.0   16.666666666666668
-100.0   30.0   33.333333333333336
-50.0   30.0   16.666666666666668
-50.0   60.0   16.666666666666668
-100.0   60.0   16.666666666666668
-50.0   60.0   33.333333333333336
-100.0   30.0   33.333333333333336
-100.0   60.0   33.333333333333336
-50.0   60.0   33.333333333333336
-100.0   60.0   16.666666666666668
-100.0   30.0   33.333333333333336
-50.0   60.0   33.333333333333336
-50.0   30.0   33.333333333333336
-50.0   30.0   16.666666666666668
-100.0   30.0   33.333333333333336
-50.0   60.0   33.333333333333336
-50.0   30.0   16.666666666666668
-100.0   60.0   16.666666666666668
-100.0   30.0   33.333333333333336
-50.0   30.0   33.333333333333336
-100.0   60.0   33.333333333333336
-100.0   30.0   50.0
-50.0   30.0   33.333333333333336
-50.0   60.0   33.333333333333336
-100.0   60.0   33.333333333333336
-50.0   60.0   50.0
-100.0   30.0   50.0
-100.0   60.0   50.0
-50.0   60.0   50.0
-100.0   60.0   33.333333333333336
-100.0   30.0   50.0
-50.0   60.0   50.0
-50.0   30.0   50.0
-50.0   30.0   33.333333333333336
-100.0   30.0   50.0
-50.0   60.0   50.0
-50.0   30.0   33.333333333333336
-100.0   60.0   33.333333333333336
-100.0   60.0   0.0
-50.0   60.0   0.0
-100.0   90.0   0.0
-100.0   60.0   16.666666666666668
-50.0   60.0   0.0
-50.0   90.0   0.0
-100.0   90.0   0.0
-50.0   90.0   16.666666666666668
-100.0   60.0   16.666666666666668
-100.0   90.0   16.666666666666668
-50.0   90.0   16.666666666666668
-100.0   90.0   0.0
-100.0   60.0   16.666666666666668
-50.0   90.0   16.666666666666668
-50.0   60.0   16.666666666666668
-50.0   60.0   0.0
-100.0   60.0   16.666666666666668
-50.0   90.0   16.666666666666668
-50.0   60.0   0.0
-100.0   90.0   0.0
-100.0   60.0   16.666666666666668
-50.0   60.0   16.666666666666668
-100.0   90.0   16.666666666666668
-100.0   60.0   33.333333333333336
-50.0   60.0   16.666666666666668
-50.0   90.0   16.666666666666668
-100.0   90.0   16.666666666666668
-50.0   90.0   33.333333333333336
-100.0   60.0   33.333333333333336
-100.0   90.0   33.333333333333336
-50.0   90.0   33.333333333333336
-100.0   90.0   16.666666666666668
-100.0   60.0   33.333333333333336
-50.0   90.0   33.333333333333336
-50.0   60.0   33.333333333333336
-50.0   60.0   16.666666666666668
-100.0   60.0   33.333333333333336
-50.0   90.0   33.333333333333336
-50.0   60.0   16.666666666666668
-100.0   90.0   16.666666666666668
-100.0   60.0   33.333333333333336
-50.0   60.0   33.333333333333336
-100.0   90.0   33.333333333333336
-100.0   60.0   50.0
-50.0   60.0   33.333333333333336
-50.0   90.0   33.333333333333336
-100.0   90.0   33.333333333333336
-50.0   90.0   50.0
-100.0   60.0   50.0
-100.0   90.0   50.0
-50.0   90.0   50.0
-100.0   90.0   33.333333333333336
-100.0   60.0   50.0
-50.0   90.0   50.0
-50.0   60.0   50.0
-50.0   60.0   33.333333333333336
-100.0   60.0   50.0
-50.0   90.0   50.0
-50.0   60.0   33.333333333333336
-100.0   90.0   33.333333333333336
-100.0   90.0   0.0
-50.0   90.0   0.0
-100.0   120.0   0.0
-100.0   90.0   16.666666666666668
-50.0   90.0   0.0
-50.0   120.0   0.0
-100.0   120.0   0.0
-50.0   120.0   16.666666666666668
-100.0   90.0   16.666666666666668
-100.0   120.0   16.666666666666668
-50.0   120.0   16.666666666666668
-100.0   120.0   0.0
-100.0   90.0   16.666666666666668
-50.0   120.0   16.666666666666668
-50.0   90.0   16.666666666666668
-50.0   90.0   0.0
-100.0   90.0   16.666666666666668
-50.0   120.0   16.666666666666668
-50.0   90.0   0.0
-100.0   120.0   0.0
-100.0   90.0   16.666666666666668
-50.0   90.0   16.666666666666668
-100.0   120.0   16.666666666666668
-100.0   90.0   33.333333333333336
-50.0   90.0   16.666666666666668
-50.0   120.0   16.666666666666668
-100.0   120.0   16.666666666666668
-50.0   120.0   33.333333333333336
-100.0   90.0   33.333333333333336
-100.0   120.0   33.333333333333336
-50.0   120.0   33.333333333333336
-100.0   120.0   16.666666666666668
-100.0   90.0   33.333333333333336
-50.0   120.0   33.333333333333336
-50.0   90.0   33.333333333333336
-50.0   90.0   16.666666666666668
-100.0   90.0   33.333333333333336
-50.0   120.0   33.333333333333336
-50.0   90.0   16.666666666666668
-100.0   120.0   16.666666666666668
-100.0   90.0   33.333333333333336
-50.0   90.0   33.333333333333336
-100.0   120.0   33.333333333333336
-100.0   90.0   50.0
-50.0   90.0   33.333333333333336
-50.0   120.0   33.333333333333336
-100.0   120.0   33.333333333333336
-50.0   120.0   50.0
-100.0   90.0   50.0
-100.0   120.0   50.0
-50.0   120.0   50.0
-100.0   120.0   33.333333333333336
-100.0   90.0   50.0
-50.0   120.0   50.0
-50.0   90.0   50.0
-50.0   90.0   33.333333333333336
-100.0   90.0   50.0
-50.0   120.0   50.0
-50.0   90.0   33.333333333333336
-100.0   120.0   33.333333333333336
-100.0   120.0   0.0
-50.0   120.0   0.0
-100.0   150.0   0.0
-100.0   120.0   16.666666666666668
-50.0   120.0   0.0
-50.0   150.0   0.0
-100.0   150.0   0.0
-50.0   150.0   16.666666666666668
-100.0   120.0   16.666666666666668
-100.0   150.0   16.666666666666668
-50.0   150.0   16.666666666666668
-100.0   150.0   0.0
-100.0   120.0   16.666666666666668
-50.0   150.0   16.666666666666668
-50.0   120.0   16.666666666666668
-50.0   120.0   0.0
-100.0   120.0   16.666666666666668
-50.0   150.0   16.666666666666668
-50.0   120.0   0.0
-100.0   150.0   0.0
-100.0   120.0   16.666666666666668
-50.0   120.0   16.666666666666668
-100.0   150.0   16.666666666666668
-100.0   120.0   33.333333333333336
-50.0   120.0   16.666666666666668
-50.0   150.0   16.666666666666668
-100.0   150.0   16.666666666666668
-50.0   150.0   33.333333333333336
-100.0   120.0   33.333333333333336
-100.0   150.0   33.333333333333336
-50.0   150.0   33.333333333333336
-100.0   150.0   16.666666666666668
-100.0   120.0   33.333333333333336
-50.0   150.0   33.333333333333336
-50.0   120.0   33.333333333333336
-50.0   120.0   16.666666666666668
-100.0   120.0   33.333333333333336
-50.0   150.0   33.333333333333336
-50.0   120.0   16.666666666666668
-100.0   150.0   16.666666666666668
-100.0   120.0   33.333333333333336
-50.0   120.0   33.333333333333336
-100.0   150.0   33.333333333333336
-100.0   120.0   50.0
-50.0   120.0   33.333333333333336
-50.0   150.0   33.333333333333336
-100.0   150.0   33.333333333333336
-50.0   150.0   50.0
-100.0   120.0   50.0
-100.0   150.0   50.0
-50.0   150.0   50.0
-100.0   150.0   33.333333333333336
-100.0   120.0   50.0
-50.0   150.0   50.0
-50.0   120.0   50.0
-50.0   120.0   33.333333333333336
-100.0   120.0   50.0
-50.0   150.0   50.0
-50.0   120.0   33.333333333333336
-100.0   150.0   33.333333333333336
-50.0   0.0   0.0
0.0   0.0   0.0
-50.0   30.0   0.0
-50.0   0.0   16.666666666666668
0.0   0.0   0.0
0.0   30.0   0.0
-50.0   30.0   0.0
0.0   30.0   16.666666666666668
-50.0   0.0   16.666666666666668
-50.0   30.0   16.666666666666668
0.0   30.0   16.666666666666668
-50.0   30.0   0.0
-50.0   0.0   16.666666666666668
0.0   30.0   16.666666666666668
0.0   0.0   16.666666666666668
0.0   0.0   0.0
-50.0   0.0   16.666666666666668
0.0   30.0   16.666666666666668
0.0   0.0   0.0
-50.0   30.0   0.0
-50.0   0.0   16.666666666666668
0.0   0.0   16.666666666666668
-50.0   30.0   16.666666666666668
-50.0   0.0   33.333333333333336
0.0   0.0   16.666666666666668
0.0   30.0   16.666666666666668
-50.0   30.0   16.666666666666668
0.0   30.0   33.333333333333336
-50.0   0.0   33.333333333333336
-50.0   30.0   33.333333333333336
0.0   30.0   33.333333333333336
-50.0   30.0   16.666666666666668
-50.0   0.0   33.333333333333336
0.0   30.0   33.333333333333336
0.0   0.0   33.333333333333336
0.0   0.0   16.666666666666668
-50.0   0.0   33.333333333333336
0.0   30.0   33.333333333333336
0.0   0.0   16.666666666666668
-50.0   30.0   16.666666666666668
-50.0   0.0   33.333333333333336
0.0   0.0   33.333333333333336
-50.0   30.0   33.333333333333336
-50.0   0.0   50.0
0.0   0.0   33.333333333333336
0.0   30.0   33.333333333333336
-50.0   30.0   33.333333333333336
0.0   30.0   50.0
-50.0   0.0   50.0
-50.0   30.0   50.0
0.0   30.0   50.0
-50.0   30.0   33.333333333333336
-50.0   0.0   50.0
0.0   30.0   50.0
0.0   0.0   50.0
0.0   0.0   33.333333333333336
-50.0   0.0   50.0
0.0   30.0   50.0
0.0   0.0   33.333333333333336
-50.0   30.0   33.333333333333336
-50.0   30.0   0.0
0.0   30.0   0.0
-50.0   60.0   0.0
-50.0   30.0   16.666666666666668
0.0   30.0   0.0
0.0   60.0   0.0
-50.0   60.0   0.0
0.0   60.0   16.666666666666668
-50.0   30.0   16.666666666666668
-50.0   60.0   16.666666666666668
0.0   60.0   16.666666666666668
-50.0   60.0   0.0
-50.0   30.0   16.666666666666668
0.0   60.0   16.666666666666668
0.0   30.0   16.666666666666668
0.0   30.0   0.0
-50.0   30.0   16.666666666666668
0.0   60.0   16.666666666666668
0.0   30.0   0.0
-50.0   60.0   0.0
-50.0   30.0   16.666666666666668
0.0   30.0   16.666666666666668
-50.0   60.0   16.666666666666668
-50.0   30.0   33.333333333333336
0.0   30.0   16.666666666666668
0.0   60.0   16.666666666666668
-50.0   60.0   16.666666666666668
0.0   60.0   33.333333333333336
-50.0   30.0   33.333333333333336
-50.0   60.0   33.333333333333336
0.0   60.0   33.333333333333336
-50.0   60.0   16.666666666666668
-50.0   30.0   33.333333333333336
0.0   60.0   33.333333333333336
0.0   30.0   33.333333333333336
0.0   30.0   16.666666666666668
-50.0   30.0   33.333333333333336
0.0   60.0   33.333333333333336
0.0   30.0   16.666666666666668
-50.0   60.0   16.666666666666668
-50.0   30.0   33.333333333333336
0.0   30.0   33.333333333333336
-50.0   60.0   33.333333333333336
-50.0   30.0   50.0
0.0   30.0   33.333333333333336
0.0   60.0   33.333333333333336
-50.0   60.0   33.333333333333336
0.0   60.0   50.0
-50.0   30.0   50.0
-50.0   60.0   50.0
0.0   60.0   50.0
-50.0   60.0   33.333333333333336
-50.0   30.0   50.0
0.0   60.0   50.0
0.0   30.0   50.0
0.0   30.0   33.333333333333336
-50.0   30.0   50.0
0.0   60.0   50.0
0.0   30.0   33.333333333333336
-50.0   60.0   33.333333333333336
-50.0   60.0   0.0
0.0   60.0   0.0
-50.0   90.0   0.0
-50.0   60.0   16.666666666666668
0.0   60.0   0.0
0.0   90.0   0.0
-50.0   90.0   0.0
0.0   90.0   16.666666666666668
-50.0   60.0   16.666666666666668
-50.0   90.0   16.666666666666668
0.0   90.0   16.666666666666668
-50.0   90.0   0.0
-50.0   60.0   16.666666666666668
0.0   90.0   16.666666666666668
0.0   60.0   16.666666666666668
0.0   60.0   0.0
-50.0   60.0   16.666666666666668
0.0   90.0   16.666666666666668
0.0   60.0   0.0
-50.0   90.0   0.0
-50.0   60.0   16.666666666666668
0.0   60.0   16.666666666666668
-50.0   90.0   16.666666666666668
-50.0   60.0   33.333333333333336
0.0   60.0   16.666666666666668
0.0   90.0   16.666666666666668
-50.0   90.0   16.666666666666668
0.0   90.0   33.333333333333336
-50.0   60.0   33.333333333333336
-50.0   90.0   33.333333333333336
0.0   90.0   33.333333333333336
-50.0   90.0   16.666666666666668
-50.0   60.0   33.333333333333336
0.0   90.0   33.333333333333336
0.0   60.0   33.333333333333336
0.0   60.0   16.666666666666668
-50.0   60.0   33.333333333333336
0.0   90.0   33.333333333333336
0.0   60.0   16.666666666666668
-50.0   90.0   16.666666666666668
-50.0   60.0   33.333333333333336
0.0   60.0   33.333333333333336
-50.0   90.0   33.333333333333336
-50.0   60.0   50.0
0.0   60.0   33.333333333333336
0.0   90.0   33.333333333333336
-50.0   90.0   33.333333333333336
0.0   90.0   50.0
-50.0   60.0   50.0
-50.0   90.0   50.0
0.0   90.0   50.0
-50.0   90.0   33.333333333333336
-50.0   60.0   50.0
0.0   90.0   50.0
0.0   60.0   50.0
0.0   60.0   33.333333333333336
-50.0   60.0   50.0
0.0   90.0   50.0
0.0   60.0   33.333333333333336
-50.0   90.0   33.333333333333336
-50.0   90.0   0.0
0.0   90.0   0.0
-50.0   120.0   0.0
-50.0   90.0   16.666666666666668
0.0   90.0   0.0
0.0   120.0   0.0
-50.0   120.0   0.0
0.0   120.0   16.666666666666668
-50.0   90.0   16.666666666666668
-50.0   120.0   16.666666666666668
0.0   120.0   16.666666666666668
-50.0   120.0   0.0
-50.0   90.0   16.666666666666668
0.0   120.0   16.666666666666668
0.0   90.0   16.666666666666668
0.0   90.0   0.0
-50.0   90.0   16.666666666666668
0.0   120.0   16.666666666666668
0.0   90.0   0.0
-50.0   120.0   0.0
-50.0   90.0   16.666666666666668
0.0   90.0   16.666666666666668
-50.0   120.0   16.666666666666668
-50.0   90.0   33.333333333333336
0.0   90.0   16.666666666666668
0.0   120.0   16.666666666666668
-50.0   120.0   16.666666666666668
0.0   120.0   33.333333333333336
-50.0   90.0   33.333333333333336
-50.0   120.0   33.333333333333336
0.0   120.0   33.333333333333336
-50.0   120.0   16.666666666666668
-50.0   90.0   33.333333333333336
0.0   120.0   33.333333333333336
0.0   90.0   33.333333333333336
0.0   90.0   16.666666666666668
-50.0   90.0   33.333333333333336
0.0   120.0   33.333333333333336
0.0   90.0   16.666666666666668
-50.0   120.0   16.666666666666668
-50.0   90.0   33.333333333333336
0.0   90.0   33.333333333333336
-50.0   120.0   33.333333333333336
-50.0   90.0   50.0
0.0   90.0   33.333333333333336
0.0   120.0   33.333333333333336
-50.0   120.0   33.333333333333336
0.0   120.0   50.0
-50.0   90.0   50.0
-50.0   120.0   50.0
0.0   120.0   50.0
-50.0   120.0   33.333333333333336
-50.0   90.0   50.0
0.0   120.0   50.0
0.0   90.0   50.0
0.0   90.0   33.333333333333336
-50.0   90.0   50.0
0.0   120.0   50.0
0.0   90.0   33.333333333333336
-50.0   120.0   33.333333333333336
-50.0   120.0   0.0
0.0   120.0   0.0
-50.0   150.0   0.0
-50.0   120.0   16.666666666666668
0.0   120.0   0.0
0.0   150.0   0.0
-50.0   150.0   0.0
0.0   150.0   16.666666666666668
-50.0   120.0   16.666666666666668
-50.0   150.0   16.666666666666668
0.0   150.0   16.666666666666668
-50.0   150.0   0.0
-50.0   120.0   16.666666666666668
0.0   150.0   16.666666666666668
0.0   120.0   16.666666666666668
0.0   120.0   0.0
-50.0   120.0   16.666666666666668
0.0   150.0   16.666666666666668
0.0   120.0   0.0
-50.0   150.0   0.0
-50.0   120.0   16.666666666666668
0.0   120.0   16.666666666666668
-50.0   150.0   16.666666666666668
-50.0   120.0   33.333333333333336
0.0   120.0   16.666666666666668
0.0   150.0   16.666666666666668
-50.0   150.0   16.666666666666668
0.0   150.0   33.333333333333336
-50.0   120.0   33.333333333333336
-50.0   150.0   33.333333333333336
0.0   150.0   33.333333333333336
-50.0   150.0   16.666666666666668
-50.0   120.0   33.333333333333336
0.0   150.0   33.333333333333336
0.0   120.0   33.333333333333336
0.0   120.0   16.666666666666668
-50.0   120.0   33.333333333333336
0.0   150.0   33.333333333333336
0.0   120.0   16.666666666666668
-50.0   150.0   16.666666666666668
-50.0   120.0   33.333333333333336
0.0   120.0   33.333333333333336
-50.0   150.0   33.333333333333336
-50.0   120.0   50.0
0.0   120.0   33.333333333333336
0.0   150.0   33.333333333333336
-50.0   150.0   33.333333333333336
0.0   150.0   50.0
-50.0   120.0   50.0
-50.0   150.0   50.0
0.0   150.0   50.0
-50.0   150.0   33.333333333333336
-50.0   120.0   50.0
0.0   150.0   50.0
0.0   120.0   50.0
0.0   120.0   33.333333333333336
-50.0   120.0   50.0
0.0   150.0   50.0
0.0   120.0   33.333333333333336
-50.0   150.0   33.333333333333336
0.0   0.0   0.0
50.0   0.0   0.0
0.0   30.0   0.0
0.0   0.0   16.666666666666668
50.0   0.0   0.0
50.0   30.0   0.0
0.0   30.0   0.0
50.0   30.0   16.666666666666668
0.0   0.0   16.666666666666668
0.0   30.0   16.666666666666668
50.0   30.0   16.666666666666668
0.0   30.0   0.0
0.0   0.0   16.666666666666668
50.0   30.0   16.666666666666668
50.0   0.0   16.666666666666668
50.0   0.0   0.0
0.0   0.0   16.666666666666668
50.0   30.0   16.666666666666668
50.0   0.0   0.0
0.0   30.0   0.0
0.0   0.0   16.666666666666668
50.0   0.0   16.666666666666668
0.0   30.0   16.666666666666668
0.0   0.0   33.333333333333336
50.0   0.0   16.666666666666668
50.0   30.0   16.666666666666668
0.0   30.0   16.666666666666668
50.0   30.0   33.333333333333336
0.0   0.0   33.333333333333336
0.0   30.0   33.333333333333336
50.0   30.0   33.333333333333336
0.0   30.0   16.666666666666668
0.0   0.0   33.333333333333336
50.0   30.0   33.333333333333336
50.0   0.0   33.333333333333336
50.0   0.0   16.666666666666668
0.0   0.0   33.333333333333336
50.0   30.0   33.333333333333336
50.0   0.0   16.666666666666668
0.0   30.0   16.666666666666668
0.0   0.0   33.333333333333336
50.0   0.0   33.333333333333336
0.0   30.0   33.333333333333336
0.0   0.0   50.0
50.0   0.0   33.333333333333336
50.0   30.0   33.333333333333336
0.0   30.0   33.333333333333336
50.0   30.0   50.0
0.0   0.0   50.0
0.0   30.0   50.0
50.0   30.0   50.0
0.0   30.0   33.333333333333336
0.0   0.0   50.0
50.0   30.0   50.0
50.0   0.0   50.0
50.0   0.0   33.333333333333336
0.0   0.0   50.0
50.0   30.0   50.0
50.0   0.0   33.333333333333336
0.0   30.0   33.333333333333336
0.0   30.0   0.0
50.0   30.0   0.0
0.0   60.0   0.0
0.0   30.0   16.666666666666668
50.0   30.0   0.0
50.0   60.0   0.0
0.0   60.0   0.0
50.0   60.0   16.666666666666668
0.0   30.0   16.666666666666668
0.0   60.0   16.666666666666668
50.0   60.0   16.666666666666668
0.0   60.0   0.0
0.0   30.0   16.666666666666668
50.0   60.0   16.666666666666668
50.0   30.0   16.666666666666668
50.0   30.0   0.0
0.0   30.0   16.666666666666668
50.0   60.0   16.666666666666668
50.0   30.0   0.0
0.0   60.0   0.0
0.0   30.0   16.666666666666668
50.0   30.0   16.666666666666668
0.0   60.0   16.666666666666668
0.0   30.0   33.333333333333336
50.0   30.0   16.666666666666668
50.0   60.0   16.666666666666668
0.0   60.0   16.666666666666668
50.0   60.0   33.333333333333336
0.0   30.0   33.333333333333336
0.0   60.0   33.333333333333336
50.0   60.0   33.333333333333336
0.0   60.0   16.666666666666668
0.0   30.0   33.333333333333336
50.0   60.0   33.333333333333336
50.0   30.0   33.333333333333336
50.0   30.0   16.666666666666668
0.0   30.0   33.333333333333336
50.0   60.0   33.333333333333336
50.0   30.0   16.666666666666668
0.0   60.0   16.666666666666668
0.0   30.0   33.333333333333336
50.0   30.0   33.333333333333336
0.0   60.0   33.333333333333336
0.0   30.0   50.0
50.0   30.0   33.333333333333336
50.0   60.0   33.333333333333336
0.0   60.0   33.333333333333336
50.0   60.0   50.0
0.0   30.0   50.0
0.0   60.0   50.0
50.0   60.0   50.0
0.0   60.0   33.333333333333336
0.0   30.0   50.0
50.0   60.0   50.0
50.0   30.0   50.0
50.0   30.0   33.333333333333336
0.0   30.0   50.0
50.0   60.0   50.0
50.0   30.0   33.333333333333336
0.0   60.0   33.333333333333336
0.0   60.0   0.0
50.0   60.0   0.0
0.0   90.0   0.0
0.0   60.0   16.666666666666668
50.0   60.0   0.0
50.0   90.0   0.0
0.0   90.0   0.0
50.0   90.0   16.666666666666668
0.0   60.0   16.666666666666668
0.0   90.0   16.666666666666668
50.0   90.0   16.666666666666668
0.0   90.0   0.0
0.0   60.0   16.666666666666668
50.0   90.0   16.666666666666668
50.0   60.0   16.666666666666668
50.0   60.0   0.0
0.0   60.0   16.666666666666668
50.0   90.0   16.666666666666668
50.0   60.0   0.0
0.0   90.0   0.0
0.0   60.0   16.666666666666668
50.0   60.0   16.666666666666668
0.0   90.0   16.666666666666668
0.0   60.0   33.333333333333336
50.0   60.0   16.666666666666668
50.0   90.0   16.666666666666668
0.0   90.0   16.666666666666668
50.0   90.0   33.333333333333336
0.0   60.0   33.333333333333336
0.0   90.0   33.333333333333336
50.0   90.0   33.333333333333336
0.0   90.0   16.666666666666668
0.0   60.0   33.333333333333336
50.0   90.0   33.333333333333336
50.0   60.0   33.333333333333336
50.0   60.0   16.666666666666668
0.0   60.0   33.333333333333336
50.0   90.0   33.333333333333336
50.0   60.0   16.666666666666668
0.0   90.0   16.666666666666668
0.0   60.0   33.333333333333336
50.0   60.0   33.333333333333336
0.0   90.0   33.333333333333336
0.0   60.0   50.0
50.0   60.0   33.333333333333336
50.0   90.0   33.333333333333336
0.0   90.0   33.333333333333336
50.0   90.0   50.0
0.0   60.0   50.0
0.0   90.0   50.0
50.0   90.0   50.0
0.0   90.0   33.333333333333336
0.0   60.0   50.0
50.0   90.0   50.0
50.0   60.0   50.0
50.0   60.0   33.333333333333336
0.0   60.0   50.0
50.0   90.0   50.0
50.0   60.0   33.333333333333336
0.0   90.0   33.333333333333336
0.0   90.0   0.0
50.0   90.0   0.0
0.0   120.0   0.0
0.0   90.0   16.666666666666668
50.0   90.0   0.0
50.0   120.0   0.0
0.0   120.0   0.0
50.0   120.0   16.666666666666668
0.0   90.0   16.666666666666668
0.0   120.0   16.666666666666668
50.0   120.0   16.666666666666668
0.0   120.0   0.0
0.0   90.0   16.666666666666668
50.0   120.0   16.666666666666668
50.0   90.0   16.666666666666668
50.0   90.0   0.0
0.0   90.0   16.666666666666668
50.0   120.0   16.666666666666668
50.0   90.0   0.0
0.0   120.0   0.0
0.0   90.0   16.666666666666668
50.0   90.0   16.666666666666668
0.0   120.0   16.666666666666668
0.0   90.0   33.333333333333336
50.0   90.0   16.666666666666668
50.0   120.0   16.666666666666668
0.0   120.0   16.666666666666668
50.0   120.0   33.333333333333336
0.0   90.0   33.333333333333336
0.0   120.0   33.333333333333336
50.0   120.0   33.333333333333336
0.0   120.0   16.666666666666668
0.0   90.0   33.333333333333336
50.0   120.0   33.333333333333336
50.0   90.0   33.333333333333336
50.0   90.0   16.666666666666668
0.0   90.0   33.333333333333336
50.0   120.0   33.333333333333336
50.0   90.0   16.666666666666668
0.0   120.0   16.666666666666668
0.0   90.0   33.333333333333336
50.0   90.0   33.333333333333336
0.0   120.0   33.333333333333336
0.0   90.0   50.0
50.0   90.0   33.333333333333336
50.0   120.0   33.333333333333336
0.0   120.0   33.333333333333336
50.0   120.0   50.0
0.0   90.0   50.0
0.0   120.0   50.0
50.0   120.0   50.0
0.0   120.0   33.333333333333336
0.0   90.0   50.0
50.0   120.0   50.0
50.0   90.0   50.0
50.0   90.0   33.333333333333336
0.0   90.0   50.0
50.0   120.0   50.0
50.0   90.0   33.333333333333336
0.0   120.0   33.333333333333336
0.0   120.0   0.0
50.0   120.0   0.0
0.0   150.0   0.0
0.0   120.0   16.666666666666668
50.0   120.0   0.0
50.0   150.0   0.0
0.0   150.0   0.0
50.0   150.0   16.666666666666668
0.0   120.0   16.666666666666668
0.0   150.0   16.666666666666668
50.0   150.0   16.666666666666668
0.0   150.0   0.0
0.0   120.0   16.666666666666668
50.0   150.0   16.666666666666668
50.0   120.0   16.666666666666668
50.0   120.0   0.0
0.0   120.0   16.666666666666668
50.0   150.0   16.666666666666668
50.0   120.0   0.0
0.0   150.0   0.0
0.0   120.0   16.666666666666668
50.0   120.0   16.666666666666668
0.0   150.0   16.666666666666668
0.0   120.0   33.333333333333336
50.0   120.0   16.666666666666668
50.0   150.0   16.666666666666668
0.0   150.0   16.666666666666668
50.0   150.0   33.333333333333336
0.0   120.0   33.333333333333336
0.0   150.0   33.333333333333336
50.0   150.0   33.333333333333336
0.0   150.0   16.666666666666668
0.0   120.0   33.333333333333336
50.0   150.0   33.333333333333336
50.0   120.0   33.333333333333336
50.0   120.0   16.666666666666668
0.0   120.0   33.333333333333336
50.0   150.0   33.333333333333336
50.0   120.0   16.666666666666668
0.0   150.0   16.666666666666668
0.0   120.0   33.333333333333336
50.0   120.0   33.333333333333336
0.0   150.0   33.333333333333336
0.0   120.0   50.0
50.0   120.0   33.333333333333336
50.0   150.0   33.333333333333336
0.0   150.0   33.333333333333336
50.0   150.0   50.0
0.0   120.0   50.0
0.0   150.0   50.0
50.0   150.0   50.0
0.0   150.0   33.333333333333336
0.0   120.0   50.0
50.0   150.0   50.0
50.0   120.0   50.0
50.0   120.0   33.333333333333336
0.0   120.0   50.0
50.0   150.0   50.0
50.0   120.0   33.333333333333336
0.0   150.0   33.333333333333336
50.0   0.0   0.0
100.0   0.0   0.0
50.0   30.0   0.0
50.0   0.0   16.666666666666668
100.0   0.0   0.0
100.0   30.0   0.0
50.0   30.0   0.0
100.0   30.0   16.666666666666668
50.0   0.0   16.666666666666668
50.0   30.0   16.666666666666668
100.0   30.0   16.666666666666668
50.0   30.0   0.0
50.0   0.0   16.666666666666668
100.0   30.0   16.666666666666668
100.0   0.0   16.666666666666668
100.0   0.0   0.0
50.0   0.0   16.666666666666668
100.0   30.0   16.666666666666668
100.0   0.0   0.0
50.0   30.0   0.0
50.0   0.0   16.666666666666668
100.0   0.0   16.666666666666668
50.0   30.0   16.666666666666668
50.0   0.0   33.333333333333336
100.0   0.0   16.666666666666668
100.0   30.0   16.666666666666668
50.0   30.0   16.666666666666668
100.0   30.0   33.333333333333336
50.0   0.0   33.333333333333336
50.0   30.0   33.333333333333336
100.0   30.0   33.333333333333336
50.0   30.0   16.666666666666668
50.0   0.0   33.333333333333336
100.0   30.0   33.333333333333336
100.0   0.0   33.333333333333336
100.0   0.0   16.666666666666668
50.0   0.0   33.333333333333336
100.0   30.0   33.333333333333336
100.0   0.0   16.666666666666668
50.0   30.0   16.666666666666668
50.0   0.0   33.333333333333336
100.0   0.0   33.333333333333336
50.0   30.0   33.333333333333336
50.0   0.0   50.0
100.0   0.0   33.333333333333336
100.0   30.0   33.333333333333336
50.0   30.0   33.333333333333336
100.0   30.0   50.0
50.0   0.0   50.0
50.0   30.0   50.0
100.0   30.0   50.0
50.0   30.0   33.333333333333336
50.0   0.0   50.0
100.0   30.0   50.0
100.0   0.0   50.0
100.0   0.0   33.333333333333336
50.0   0.0   50.0
100.0   30.0   50.0
100.0   0.0   33.333333333333336
50.0   30.0   33.333333333333336
50.0   30.0   0.0
100.0   30.0   0.0
50.0   60.0   0.0
50.0   30.0   16.666666666666668
100.0   30.0   0.0
100.0   60.0   0.0
50.0   60.0   0.0
100.0   60.0   16.666666666666668
50.0   30.0   16.666666666666668
50.0   60.0   16.666666666666668
100.0   60.0   16.666666666666668
50.0   60.0   0.0
50.0   30.0   16.666666666666668
100.0   60.0   16.666666666666668
100.0   30.0   16.666666666666668
100.0   30.0   0.0
50.0   30.0   16.666666666666668
100.0   60.0   16.666666666666668
100.0   30.0   0.0
50.0   60.0   0.0
50.0   30.0   16.666666666666668
100.0   30.0   16.666666666666668
50.0   60.0   16.666666666666668
50.0   30.0   33.333333333333336
100.0   30.0   16.666666666666668
100.0   60.0   16.666666666666668
50.0   60.0   16.666666666666668
100.0   60.0   33.333333333333336
50.0   30.0   33.333333333333336
50.0   60.0   33.333333333333336
100.0   60.0   33.333333333333336
50.0   60.0   16.666666666666668
50.0   30.0   33.333333333333336
100.0   60.0   33.333333333333336
100.0   30.0   33.333333333333336
100.0   30.0   16.666666666666668
50.0   30.0   33.333333333333336
100.0   60.0   33.333333333333336
100.0   30.0   16.666666666666668
50.0   60.0   16.666666666666668
50.0   30.0   33.333333333333336
100.0   30.0   33.333333333333336
50.0   60.0   33.333333333333336
50.0   30.0   50.0
100.0   30.0   33.333333333333336
100.0   60.0   33.333333333333336
50.0   60.0   33.333333333333336
100.0   60.0   50.0
50.0   30.0   50.0
50.0   60.0   50.0
100.0   60.0   50.0
50.0   60.0   33.333333333333336
50.0   30.0   50.0
100.0   60.0   50.0
100.0   30.0   50.0
100.0   30.0   33.333333333333336
50.0   30.0   50.0
100.0   60.0   50.0
100.0   30.0   33.333333333333336
50.0   60.0   33.333333333333336
50.0   60.0   0.0
100.0   60.0   0.0
50.0   90.0   0.0
50.0   60.0   16.666666666666668
100.0   60.0   0.0
100.0   90.0   0.0
50.0   90.0   0.0
100.0   90.0   16.666666666666668
50.0   60.0   16.666666666666668
50.0   90.0   16.666666666666668
100.0   90.0   16.666666666666668
50.0   90.0   0.0
50.0   60.0   16.666666666666668
100.0   90.0   16.666666666666668
100.0   60.0   16.666666666666668
100.0   60.0   0.0
50.0   60.0   16.666666666666668
100.0   90.0   16.666666666666668
100.0   60.0   0.0
50.0   90.0   0.0
50.0   60.0   16.666666666666668
100.0   60.0   16.666666666666668
50.0   90.0   16.666666666666668
50.0   60.0   33.333333333333336
100.0   60.0   16.666666666666668
100.0   90.0   16.666666666666668
50.0   90.0   16.666666666666668
100.0   90.0   33.333333333333336
50.0   60.0   33.333333333333336
50.0   90.0   33.333333333333336
100.0   90.0   33.333333333333336
50.0   90.0   16.666666666666668
50.0   60.0   33.333333333333336
100.0   90.0   33.333333333333336
100.0   60.0   33.333333333333336
100.0   60.0   16.666666666666668
50.0   60.0   33.333333333333336
100.0   90.0   33.333333333333336
100.0   60.0   16.666666666666668
50.0   90.0   16.666666666666668
50.0   60.0   33.333333333333336
100.0   60.0   33.333333333333336
50.0   90.0   33.333333333333336
50.0   60.0   50.0
100.0   60.0   33.333333333333336
100.0   90.0   33.333333333333336
50.0   90.0   33.333333333333336
100.0   90.0   50.0
50.0   60.0   50.0
50.0   90.0   50.0
100.0   90.0   50.0
50.0   90.0   33.333333333333336
50.0   60.0   50.0
100.0   90.0   50.0
100.0   60.0   50.0
100.0   60.0   33.333333333333336
50.0   60.0   50.0
100.0   90.0   50.0
100.0   60.0   33.333333333333336
50.0   90.0   33.333333333333336
50.0   90.0   0.0
100.0   90.0   0.0
50.0   120.0   0.0
50.0   90.0   16.666666666666668
100.0   90.0   0.0
100.0   120.0   0.0
50.0   120.0   0.0
100.0   120.0   16.666666666666668
50.0   90.0   16.666666666666668
50.0   120.0   16.666666666666668
100.0   120.0   16.666666666666668
50.0   120.0   0.0
50.0   90.0   16.666666666666668
100.0   120.0   16.666666666666668
100.0   90.0   16.666666666666668
100.0   90.0   0.0
50.0   90.0   16.666666666666668
100.0   120.0   16.666666666666668
100.0   90.0   0.0
50.0   120.0   0.0
50.0   90.0   16.666666666666668
100.0   90.0   16.666666666666668
50.0   120.0   16.666666666666668
50.0   90.0   33.333333333333336
100.0   90.0   16.666666666666668
100.0   120.0   16.666666666666668
50.0   120.0   16.666666666666668
100.0   120.0   33.333333333333336
50.0   90.0   33.333333333333336
50.0   120.0   33.333333333333336
100.0   120.0   33.333333333333336
50.0   120.0   16.666666666666668
50.0   90.0   33.333333333333336
100.0   120.0   33.333333333333336
100.0   90.0   33.333333333333336
100.0   90.0   16.666666666666668
50.0   90.0   33.333333333333336
100.0   120.0   33.333333333333336
100.0   90.0   16.666666666666668
50.0   120.0   16.666666666666668
50.0   90.0   33.333333333333336
100.0   90.0   33.333333333333336
50.0   120.0   33.333333333333336
50.0   90.0   50.0
100.0   90.0   33.333333333333336
100.0   120.0   33.333333333333336
50.0   120.0   33.333333333333336
100.0   120.0   50.0
50.0   90.0   50.0
50.0   120.0   50.0
100.0   120.0   50.0
50.0   120.0   33.333333333333336
50.0   90.0   50.0
100.0   120.0   50.0
100.0   90.0   50.0
100.0   90.0   33.333333333333336
50.0   90.0   50.0
100.0   120.0   50.0
100.0   90.0   33.333333333333336
50.0   120.0   33.333333333333336
50.0   120.0   0.0
100.0   120.0   0.0
50.0   150.0   0.0
50.0   120.0   16.666666666666668
100.0   120.0   0.0
100.0   150.0   0.0
50.0   150.0   0.0
100.0   150.0   16.666666666666668
50.0   120.0   16.666666666666668
50.0   150.0   16.666666666666668
100.0   150.0   16.666666666666668
50.0   150.0   0.0
50.0   120.0   16.666666666666668
100.0   150.0   16.666666666666668
100.0   120.0   16.666666666666668
100.0   120.0   0.0
50.0   120.0   16.666666666666668
100.0   150.0   16.666666666666668
100.0   120.0   0.0
50.0   150.0   0.0
50.0   120.0   16.666666666666668
100.0   120.0   16.666666666666668
50.0   150.0   16.666666666666668
50.0   120.0   33.333333333333336
100.0   120.0   16.666666666666668
100.0   150.0   16.666666666666668
50.0   150.0   16.666666666666668
100.0   150.0   33.333333333333336
50.0   120.0   33.333333333333336
50.0   150.0   33.333333333333336
100.0   150.0   33.333333333333336
50.0   150.0   16.666666666666668
50.0   120.0   33.333333333333336
100.0   150.0   33.333333333333336
100.0   120.0   33.333333333333336
100.0   120.0   16.666666666666668
50.0   120.0   33.333333333333336
100.0   150.0   33.333333333333336
100.0   120.0   16.666666666666668
50.0   150.0   16.666666666666668
50.0   120.0   33.333333333333336
100.0   120.0   33.333333333333336
50.0   150.0   33.333333333333336
50.0   120.0   50.0
100.0   120.0   33.333333333333336
100.0   150.0   33.333333333333336
50.0   150.0   33.333333333333336
100.0   150.0   50.0
50.0   120.0   50.0
50.0   150.0   50.0
100.0   150.0   50.0
50.0   150.0   33.333333333333336
50.0   120.0   50.0
100.0   150.0   50.0
100.0   120.0   50.0
100.0   120.0   33.333333333333336
50.0   120.0   50.0
100.0   150.0   50.0
100.0   120.0   33.333333333333336
50.0   150.0   33.333333333333336
100.0   0.0   0.0
150.0   0.0   0.0
100.0   30.0   0.0
100.0   0.0   16.666666666666668
150.0   0.0   0.0
150.0   30.0   0.0
100.0   30.0   0.0
150.0   30.0   16.666666666666668
100.0   0.0   16.666666666666668
100.0   30.0   16.666666666666668
150.0   30.0   16.666666666666668
100.0   30.0   0.0
100.0   0.0   16.666666666666668
150.0   30.0   16.666666666666668
150.0   0.0   16.666666666666668
150.0   0.0   0.0
100.0   0.0   16.666666666666668
150.0   30.0   16.666666666666668
150.0   0.0   0.0
100.0   30.0   0.0
100.0   0.0   16.666666666666668
150.0   0.0   16.666666666666668
100.0   30.0   16.666666666666668
100.0   0.0   33.333333333333336
150.0   0.0   16.666666666666668
150.0   30.0   16.666666666666668
100.0   30.0   16.666666666666668
150.0   30.0   33.333333333333336
100.0   0.0   33.333333333333336
100.0   30.0   33.333333333333336
150.0   30.0   33.333333333333336
100.0   30.0   16.666666666666668
100.0   0.0   33.333333333333336
150.0   30.0   33.333333333333336
150.0   0.0   33.333333333333336
150.0   0.0   16.666666666666668
100.0   0.0   33.333333333333336
150.0   30.0   33.333333333333336
150.0   0.0   16.666666666666668
100.0   30.0   16.666666666666668
100.0   0.0   33.333333333333336
150.0   0.0   33.333333333333336
100.0   30.0   33.333333333333336
100.0   0.0   50.0
150.0   0.0   33.333333333333336
150.0   30.0   33.333333333333336
100.0   30.0   33.333333333333336
150.0   30.0   50.0
100.0   0.0   50.0
100.0   30.0   50.0
150.0   30.0   50.0
100.0   30.0   33.333333333333336
100.0   0.0   50.0
150.0   30.0   50.0
150.0   0.0   50.0
150.0   0.0   33.333333333333336
100.0   0.0   50.0
150.0   30.0   50.0
150.0   0.0   33.333333333333336
100.0   30.0   33.333333333333336
100.0   30.0   0.0
150.0   30.0   0.0
100.0   60.0   0.0
100.0   30.0   16.666666666666668
150.0   30.0   0.0
150.0   60.0   0.0
100.0   60.0   0.0
150.0   60.0   16.666666666666668
100.0   30.0   16.666666666666668
100.0   60.0   16.666666666666668
150.0   60.0   16.666666666666668
100.0   60.0   0.0
100.0   30.0   16.666666666666668
150.0   60.0   16.666666666666668
150.0   30.0   16.666666666666668
150.0   30.0   0.0
100.0   30.0   16.666666666666668
150.0   60.0   16.666666666666668
150.0   30.0   0.0
100.0   60.0   0.0
100.0   30.0   16.666666666666668
150.0   30.0   16.666666666666668
100.0   60.0   16.666666666666668
100.0   30.0   33.333333333333336
150.0   30.0   16.666666666666668
150.0   60.0   16.666666666666668
100.0   60.0   16.666666666666668
150.0   60.0   33.333333333333336
100.0   30.0   33.333333333333336
100.0   60.0   33.333333333333336
150.0   60.0   33.333333333333336
100.0   60.0   16.666666666666668
100.0   30.0   33.333333333333336
150.0   60.0   33.333333333333336
150.0   30.0   33.333333333333336
150.0   30.0   16.666666666666668
100.0   30.0   33.333333333333336
150.0   60.0   33.333333333333336
150.0   30.0   16.666666666666668
100.0   60.0   16.666666666666668
100.0   30.0   33.333333333333336
150.0   30.0   33.333333333333336
100.0   60.0   33.333333333333336
100.0   30.0   50.0
150.0   30.0   33.333333333333336
150.0   60.0   33.333333333333336
100.0   60.0   33.333333333333336
150.0   60.0   50.0
100.0   30.0   50.0
100.0   60.0   50.0
150.0   60.0   50.0
100.0   60.0   33.333333333333336
100.0   30.0   50.0
150.0   60.0   50.0
150.0   30.0   50.0
150.0   30.0   33.333333333333336
100.0   30.0   50.0
150.0   60.0   50.0
150.0   30.0   33.333333333333336
100.0   60.0   33.333333333333336
100.0   60.0   0.0
150.0   60.0   0.0
100.0   90.0   0.0
100.0   60.0   16.666666666666668
150.0   60.0   0.0
150.0   90.0   0.0
100.0   90.0   0.0
150.0   90.0   16.666666666666668
100.0   60.0   16.666666666666668
100.0   90.0   16.666666666666668
150.0   90.0   16.666666666666668
100.0   90.0   0.0
100.0   60.0   16.666666666666668
150.0   90.0   16.666666666666668
150.0   60.0   16.666666666666668
150.0   60.0   0.0
100.0   60.0   16.666666666666668
150.0   90.0   16.666666666666668
150.0   60.0   0.0
100.0   90.0   0.0
100.0   60.0   16.666666666666668
150.0   60.0   16.666666666666668
100.0   90.0   16.666666666666668
100.0   60.0   33.333333333333336
150.0   60.0   16.666666666666668
150.0   90.0   16.666666666666668
100.0   90.0   16.666666666666668
150.0   90.0   33.333333333333336
100.0   60.0   33.333333333333336
100.0   90.0   33.333333333333336
150.0   90.0   33.333333333333336
100.0   90.0   16.666666666666668
100.0   60.0   33.333333333333336
150.0   90.0   33.333333333333336
150.0   60.0   33.333333333333336
150.0   60.0   16.666666666666668
100.0   60.0   33.333333333333336
150.0   90.0   33.333333333333336
150.0   60.0   16.666666666666668
100.0   90.0   16.666666666666668
100.0   60.0   33.333333333333336
150.0   60.0   33.333333333333336
100.0   90.0   33.333333333333336
100.0   60.0   50.0
150.0   60.0   33.333333333333336
150.0   90.0   33.333333333333336
100.0   90.0   33.333333333333336
150.0   90.0   50.0
100.0   60.0   50.0
100.0   90.0   50.0
150.0   90.0   50.0
100.0   90.0   33.333333333333336
100.0   60.0   50.0
150.0   90.0   50.0
150.0   60.0   50.0
150.0   60.0   33.333333333333336
100.0   60.0   50.0
150.0   90.0   50.0
150.0   60.0   33.333333333333336
100.0   90.0   33.333333333333336
100.0   90.0   0.0
150.0   90.0   0.0
100.0   120.0   0.0
100.0   90.0   16.666666666666668
150.0   90.0   0.0
150.0   120.0   0.0
100.0   120.0   0.0
150.0   120.0   16.666666666666668
100.0   90.0   16.666666666666668
100.0   120.0   16.666666666666668
150.0   120.0   16.666666666666668
100.0   120.0   0.0
100.0   90.0   16.666666666666668
150.0   120.0   16.666666666666668
150.0   90.0   16.666666666666668
150.0   90.0   0.0
100.0   90.0   16.666666666666668
150.0   120.0   16.666666666666668
150.0   90.0   0.0
100.0   120.0   0.0
100.0   90.0   16.666666666666668
150.0   90.0   16.666666666666668
100.0   120.0   16.666666666666668
100.0   90.0   33.333333333333336
150.0   90.0   16.666666666666668
150.0   120.0   16.666666666666668
100.0   120.0   16.666666666666668
150.0   120.0   33.333333333333336
100.0   90.0   33.333333333333336
100.0   120.0   33.333333333333336
150.0   120.0   33.333333333333336
100.0   120.0   16.666666666666668
100.0   90.0   33.333333333333336
150.0   120.0   33.333333333333336
150.0   90.0   33.333333333333336
150.0   90.0   16.666666666666668
100.0   90.0   33.333333333333336
150.0   120.0   33.333333333333336
150.0   90.0   16.666666666666668
100.0   120.0   16.666666666666668
100.0   90.0   33.333333333333336
150.0   90.0   33.333333333333336
100.0   120.0   33.333333333333336
100.0   90.0   50.0
150.0   90.0   33.333333333333336
150.0   120.0   33.333333333333336
100.0   120.0   33.333333333333336
150.0   120.0   50.0
100.0   90.0   50.0
100.0   120.0   50.0
150.0   120.0   50.0
100.0   120.0   33.333333333333336
100.0   90.0   50.0
150.0   120.0   50.0
150.0   90.0   50.0
150.0   90.0   33.333333333333336
100.0   90.0   50.0
150.0   120.0   50.0
150.0   90.0   33.333333333333336
100.0   120.0   33.333333333333336
100.0   120.0   0.0
150.0   120.0   0.0
100.0   150.0   0.0
100.0   120.0   16.666666666666668
150.0   120.0   0.0
150.0   150.0   0.0
100.0   150.0   0.0
150.0   150.0   16.666666666666668
100.0   120.0   16.666666666666668
100.0   150.0   16.666666666666668
150.0   150.0   16.666666666666668
100.0   150.0   0.0
100.0   120.0   16.666666666666668
150.0   150.0   16.666666666666668
150.0   120.0   16.666666666666668
150.0   120.0   0.0
100.0   120.0   16.666666666666668
150.0   150.0   16.666666666666668
150.0   120.0   0.0
100.0   150.0   0.0
100.0   120.0   16.666666666666668
150.0   120.0   16.666666666666668
100.0   150.0   16.666666666666668
100.0   120.0   33.333333333333336
150.0   120.0   16.666666666666668
150.0   150.0   16.666666666666668
100.0   150.0   16.666666666666668
150.0   150.0   33.333333333333336
100.0   120.0   33.333333333333336
100.0   150.0   33.333333333333336
150.0   150.0   33.333333333333336
100.0   150.0   16.666666666666668
100.0   120.0   33.333333333333336
150.0   150.0   33.333333333333336
150.0   120.0   33.333333333333336
150.0   120.0   16.666666666666668
100.0   120.0   33.333333333333336
150.0   150.0   33.333333333333336
150.0   120.0   16.666666666666668
100.0   150.0   16.666666666666668
100.0   120.0   33.333333333333336
150.0   120.0   33.333333333333336
100.0   150.0   33.333333333333336
100.0   120.0   50.0
150.0   120.0   33.333333333333336
150.0   150.0   33.333333333333336
100.0   150.0   33.333333333333336
150.0   150.0   50.0
100.0   120.0   50.0
100.0   150.0   50.0
150.0   150.0   50.0
100.0   150.0   33.333333333333336
100.0   120.0   50.0
150.0   150.0   50.0
150.0   120.0   50.0
150.0   120.0   33.333333333333336
100.0   120.0   50.0
150.0   150.0   50.0
150.0   120.0   33.333333333333336
100.0   150.0   33.333333333333336
150.0   0.0   0.0
200.0   0.0   0.0
150.0   30.0   0.0
150.0   0.0   16.666666666666668
200.0   0.0   0.0
200.0   30.0   0.0
150.0   30.0   0.0
200.0   30.0   16.666666666666668
150.0   0.0   16.666666666666668
150.0   30.0   16.666666666666668
200.0   30.0   16.666666666666668
150.0   30.0   0.0
150.0   0.0   16.666666666666668
200.0   30.0   16.666666666666668
200.0   0.0   16.666666666666668
200.0   0.0   0.0
150.0   0.0   16.666666666666668
200.0   30.0   16.666666666666668
200.0   0.0   0.0
150.0   30.0   0.0
150.0   0.0   16.666666666666668
200.0   0.0   16.666666666666668
150.0   30.0   16.666666666666668
150.0   0.0   33.333333333333336
200.0   0.0   16.666666666666668
200.0   30.0   16.666666666666668
150.0   30.0   16.666666666666668
200.0   30.0   33.333333333333336
150.0   0.0   33.333333333333336
150.0   30.0   33.333333333333336
200.0   30.0   33.333333333333336
150.0   30.0   16.666666666666668
150.0   0.0   33.333333333333336
200.0   30.0   33.333333333333336
200.0   0.0   33.333333333333336
200.0   0.0   16.666666666666668
150.0   0.0   33.333333333333336
200.0   30.0   33.333333333333336
200.0   0.0   16.666666666666668
150.0   30.0   16.666666666666668
150.0   0.0   33.333333333333336
200.0   0.0   33.333333333333336
150.0   30.0   33.333333333333336
150.0   0.0   50.0
200.0   0.0   33.333333333333336
200.0   30.0   33.333333333333336
150.0   30.0   33.333333333333336
200.0   30.0   50.0
150.0   0.0   50.0
150.0   30.0   50.0
200.0   30.0   50.0
150.0   30.0   33.333333333333336
150.0   0.0   50.0
200.0   30.0   50.0
200.0   0.0   50.0
200.0   0.0   33.333333333333336
150.0   0.0   50.0
200.0   30.0   50.0
200.0   0.0   33.333333333333336
150.0   30.0   33.333333333333336
150.0   30.0   0.0
200.0   30.0   0.0
150.0   60.0   0.0
150.0   30.0   16.666666666666668
200.0   30.0   0.0
200.0   60.0   0.0
150.0   60.0   0.0
200.0   60.0   16.666666666666668
150.0   30.0   16.666666666666668
150.0   60.0   16.666666666666668
200.0   60.0   16.666666666666668
150.0   60.0   0.0
150.0   30.0   16.666666666666668
200.0   60.0   16.666666666666668
200.0   30.0   16.666666666666668
200.0   30.0   0.0
150.0   30.0   16.666666666666668
200.0   60.0   16.666666666666668
200.0   30.0   0.0
150.0   60.0   0.0
150.0   30.0   16.666666666666668
200.0   30.0   16.666666666666668
150.0   60.0   16.666666666666668
150.0   30.0   33.333333333333336
200.0   30.0   16.666666666666668
200.0   60.0   16.666666666666668
150.0   60.0   16.666666666666668
200.0   60.0   33.333333333333336
150.0   30.0   33.333333333333336
150.0   60.0   33.333333333333336
200.0   60.0   33.333333333333336
150.0   60.0   16.666666666666668
150.0   30.0   33.333333333333336
200.0   60.0   33.333333333333336
200.0   30.0   33.333333333333336
200.0   30.0   16.666666666666668
150.0   30.0   33.333333333333336
200.0   60.0   33.333333333333336
200.0   30.0   16.666666666666668
150.0   60.0   16.666666666666668
150.0   30.0   33.333333333333336
200.0   30.0   33.333333333333336
150.0   60.0   33.333333333333336
150.0   30.0   50.0
200.0   30.0   33.333333333333336
200.0   60.0   33.333333333333336
150.0   60.0   33.333333333333336
200.0   60.0   50.0
150.0   30.0   50.0
150.0   60.0   50.0
200.0   60.0   50.0
150.0   60.0   33.333333333333336
150.0   30.0   50.0
200.0   60.0   50.0
200.0   30.0   50.0
200.0   30.0   33.333333333333336
150.0   30.0   50.0
200.0   60.0   50.0
200.0   30.0   33.333333333333336
150.0   60.0   33.333333333333336
150.0   60.0   0.0
200.0   60.0   0.0
150.0   90.0   0.0
150.0   60.0   16.666666666666668
200.0   60.0   0.0
200.0   90.0   0.0
150.0   90.0   0.0
200.0   90.0   16.666666666666668
150.0   60.0   16.666666666666668
150.0   90.0   16.666666666666668
200.0   90.0   16.666666666666668
150.0   90.0   0.0
150.0   60.0   16.666666666666668
200.0   90.0   16.666666666666668
200.0   60.0   16.666666666666668
200.0   60.0   0.0
150.0   60.0   16.666666666666668
200.0   90.0   16.666666666666668
200.0   60.0   0.0
150.0   90.0   0.0
150.0   60.0   16.666666666666668
200.0   60.0   16.666666666666668
150.0   90.0   16.666666666666668
150.0   60.0   33.333333333333336
200.0   60.0   16.666666666666668
200.0   90.0   16.666666666666668
150.0   90.0   16.666666666666668
200.0   90.0   33.333333333333336
150.0   60.0   33.333333333333336
150.0   90.0   33.333333333333336
200.0   90.0   33.333333333333336
150.0   90.0   16.666666666666668
150.0   60.0   33.333333333333336
200.0   90.0   33.333333333333336
200.0   60.0   33.333333333333336
200.0   60.0   16.666666666666668
150.0   60.0   33.333333333333336
200.0   90.0   33.333333333333336
200.0   60.0   16.666666666666668
150.0   90.0   16.666666666666668
150.0   60.0   33.333333333333336
200.0   60.0   33.333333333333336
150.0   90.0   33.333333333333336
150.0   60.0   50.0
200.0   60.0   33.333333333333336
200.0   90.0   33.333333333333336
150.0   90.0   33.333333333333336
200.0   90.0   50.0
150.0   60.0   50.0
150.0   90.0   50.0
200.0   90.0   50.0
150.0   90.0   33.333333333333336
150.0   60.0   50.0
200.0   90.0   50.0
200.0   60.0   50.0
200.0   60.0   33.333333333333336
150.0   60.0   50.0
200.0   90.0   50.0
200.0   60.0   33.333333333333336
150.0   90.0   33.333333333333336
150.0   90.0   0.0
200.0   90.0   0.0
150.0   120.0   0.0
150.0   90.0   16.666666666666668
200.0   90.0   0.0
200.0   120.0   0.0
150.0   120.0   0.0
200.0   120.0   16.666666666666668
150.0   90.0   16.666666666666668
150.0   120.0   16.666666666666668
200.0   120.0   16.666666666666668
150.0   120.0   0.0
150.0   90.0   16.666666666666668
200.0   120.0   16.666666666666668
200.0   90.0   16.666666666666668
200.0   90.0   0.0
150.0   90.0   16.666666666666668
200.0   120.0   16.666666666666668
200.0   90.0   0.0
150.0   120.0   0.0
150.0   90.0   16.666666666666668
200.0   90.0   16.666666666666668
150.0   120.0   16.666666666666668
150.0   90.0   33.333333333333336
200.0   90.0   16.666666666666668
200.0   120.0   16.666666666666668
150.0   120.0   16.666666666666668
200.0   120.0   33.333333333333336
150.0   90.0   33.333333333333336
150.0   120.0   33.333333333333336
200.0   120.0   33.333333333333336
150.0   120.0   16.666666666666668
150.0   90.0   33.333333333333336
200.0   120.0   33.333333333333336
200.0   90.0   33.333333333333336
200.0   90.0   16.666666666666668
150.0   90.0   33.333333333333336
200.0   120.0   33.333333333333336
200.0   90.0   16.666666666666668
150.0   120.0   16.666666666666668
150.0   90.0   33.333333333333336
200.0   90.0   33.333333333333336
150.0   120.0   33.333333333333336
150.0   90.0   50.0
200.0   90.0   33.333333333333336
200.0   120.0   33.333333333333336
150.0   120.0   33.333333333333336
200.0   120.0   50.0
150.0   90.0   50.0
150.0   120.0   50.0
200.0   120.0   50.0
150.0   120.0   33.333333333333336
150.0   90.0   50.0
200.0   120.0   50.0
200.0   90.0   50.0
200.0   90.0   33.333333333333336
150.0   90.0   50.0
200.0   120.0   50.0
200.0   90.0   33.333333333333336
150.0   120.0   33.333333333333336
150.0   120.0   0.0
200.0   120.0   0.0
150.0   150.0   0.0
150.0   120.0   16.666666666666668
200.0   120.0   0.0
200.0   150.0   0.0
150.0   150.0   0.0
200.0   150.0   16.666666666666668
150.0   120.0   16.666666666666668
150.0   150.0   16.666666666666668
200.0   150.0   16.666666666666668
150.0   150.0   0.0
150.0   120.0   16.666666666666668
200.0   150.0   16.666666666666668
200.0   120.0   16.666666666666668
200.0   120.0   0.0
150.0   120.0   16.666666666666668
200.0   150.0   16.666666666666668
200.0   120.0   0.0
150.0   150.0   0.0
150.0   120.0   16.666666666666668
200.0   120.0   16.666666666666668
150.0   150.0   16.666666666666668
150.0   120.0   33.333333333333336
200.0   120.0   16.666666666666668
200.0   150.0   16.666666666666668
150.0   150.0   16.666666666666668
200.0   150.0   33.333333333333336
150.0   120.0   33.333333333333336
150.0   150.0   33.333333333333336
200.0   150.0   33.333333333333336
150.0   150.0   16.666666666666668
150.0   120.0   33.333333333333336
200.0   150.0   33.333333333333336
200.0   120.0   33.333333333333336
200.0   120.0   16.666666666666668
150.0   120.0   33.333333333333336
200.0   150.0   33.333333333333336
200.0   120.0   16.666666666666668
150.0   150.0   16.666666666666668
150.0   120.0   33.333333333333336
200.0   120.0   33.333333333333336
150.0   150.0   33.333333333333336
150.0   120.0   50.0
200.0   120.0   33.333333333333336
200.0   150.0   33.333333333333336
150.0   150.0   33.333333333333336
200.0   150.0   50.0
150.0   120.0   50.0
150.0   150.0   50.0
200.0   150.0   50.0
150.0   150.0   33.333333333333336
150.0   120.0   50.0
200.0   150.0   50.0
200.0   120.0   50.0
200.0   120.0   33.333333333333336
150.0   120.0   50.0
200.0   150.0   50.0
200.0   120.0   33.333333333333336
150.0   150.0   33.333333333333336
200.0   0.0   0.0
250.0   0.0   0.0
200.0   30.0   0.0
200.0   0.0   16.666666666666668
250.0   0.0   0.0
250.0   30.0   0.0
200.0   30.0   0.0
250.0   30.0   16.666666666666668
200.0   0.0   16.666666666666668
200.0   30.0   16.666666666666668
250.0   30.0   16.666666666666668
200.0   30.0   0.0
200.0   0.0   16.666666666666668
250.0   30.0   16.666666666666668
250.0   0.0   16.666666666666668
250.0   0.0   0.0
200.0   0.0   16.666666666666668
250.0   30.0   16.666666666666668
250.0   0.0   0.0
200.0   30.0   0.0
200.0   0.0   16.666666666666668
250.0   0.0   16.666666666666668
200.0   30.0   16.666666666666668
200.0   0.0   33.333333333333336
250.0   0.0   16.666666666666668
250.0   30.0   16.666666666666668
200.0   30.0   16.666666666666668
250.0   30.0   33.333333333333336
200.0   0.0   33.333333333333336
200.0   30.0   33.333333333333336
250.0   30.0   33.333333333333336
200.0   30.0   16.666666666666668
200.0   0.0   33.333333333333336
250.0   30.0   33.333333333333336
250.0   0.0   33.333333333333336
250.0   0.0   16.666666666666668
200.0   0.0   33.333333333333336
250.0   30.0   33.333333333333336
250.0   0.0   16.666666666666668
200.0   30.0   16.666666666666668
200.0   0.0   33.333333333333336
250.0   0.0   33.333333333333336
200.0   30.0   33.333333333333336
200.0   0.0   50.0
250.0   0.0   33.333333333333336
250.0   30.0   33.333333333333336
200.0   30.0   33.333333333333336
250.0   30.0   50.0
200.0   0.0   50.0
200.0   30.0   50.0
250.0   30.0   50.0
200.0   30.0   33.333333333333336
200.0   0.0   50.0
250.0   30.0   50.0
250.0   0.0   50.0
250.0   0.0   33.333333333333336
200.0   0.0   50.0
250.0   30.0   50.0
250.0   0.0   33.333333333333336
200.0   30.0   33.333333333333336
200.0   30.0   0.0
250.0   30.0   0.0
200.0   60.0   0.0
200.0   30.0   16.666666666666668
250.0   30.0   0.0
250.0   60.0   0.0
200.0   60.0   0.0
250.0   60.0   16.666666666666668
200.0   30.0   16.666666666666668
200.0   60.0   16.666666666666668
250.0   60.0   16.666666666666668
200.0   60.0   0.0
200.0   30.0   16.666666666666668
250.0   60.0   16.666666666666668
250.0   30.0   16.666666666666668
250.0   30.0   0.0
200.0   30.0   16.666666666666668
250.0   60.0   16.666666666666668
250.0   30.0   0.0
200.0   60.0   0.0
200.0   30.0   16.666666666666668
250.0   30.0   16.666666666666668
200.0   60.0   16.666666666666668
200.0   30.0   33.333333333333336
250.0   30.0   16.666666666666668
250.0   60.0   16.666666666666668
200.0   60.0   16.666666666666668
250.0   60.0   33.333333333333336
200.0   30.0   33.333333333333336
200.0   60.0   33.333333333333336
250.0   60.0   33.333333333333336
200.0   60.0   16.666666666666668
200.0   30.0   33.333333333333336
250.0   60.0   33.333333333333336
250.0   30.0   33.333333333333336
250.0   30.0   16.666666666666668
200.0   30.0   33.333333333333336
250.0   60.0   33.333333333333336
250.0   30.0   16.666666666666668
200.0   60.0   16.666666666666668
200.0   30.0   33.333333333333336
250.0   30.0   33.333333333333336
200.0   60.0   33.333333333333336
200.0   30.0   50.0
250.0   30.0   33.333333333333336
250.0   60.0   33.333333333333336
200.0   60.0   33.333333333333336
250.0   60.0   50.0
200.0   30.0   50.0
200.0   60.0   50.0
250.0   60.0   50.0
200.0   60.0   33.333333333333336
200.0   30.0   50.0
250.0   60.0   50.0
250.0   30.0   50.0
250.0   30.0   33.333333333333336
200.0   30.0   50.0
250.0   60.0   50.0
250.0   30.0   33.333333333333336
200.0   60.0   33.333333333333336
200.0   60.0   0.0
250.0   60.0   0.0
200.0   90.0   0.0
200.0   60.0   16.666666666666668
250.0   60.0   0.0
250.0   90.0   0.0
200.0   90.0   0.0
250.0   90.0   16.666666666666668
200.0   60.0   16.666666666666668
200.0   90.0   16.666666666666668
250.0   90.0   16.666666666666668
200.0   90.0   0.0
200.0   60.0   16.666666666666668
250.0   90.0   16.666666666666668
250.0   60.0   16.666666666666668
250.0   60.0   0.0
200.0   60.0   16.666666666666668
250.0   90.0   16.666666666666668
250.0   60.0   0.0
200.0   90.0   0.0
200.0   60.0   16.666666666666668
250.0   60.0   16.666666666666668
200.0   90.0   16.666666666666668
200.0   60.0   33.333333333333336
250.0   60.0   16.666666666666668
250.0   90.0   16.666666666666668
200.0   90.0   16.666666666666668
250.0   90.0   33.333333333333336
200.0   60.0   33.333333333333336
200.0   90.0   33.333333333333336
250.0   90.0   33.333333333333336
200.0   90.0   16.666666666666668
200.0   60.0   33.333333333333336
250.0   90.0   33.333333333333336
250.0   60.0   33.333333333333336
250.0   60.0   16.666666666666668
200.0   60.0   33.333333333333336
250.0   90.0   33.333333333333336
250.0   60.0   16.666666666666668
200.0   90.0   16.666666666666668
200.0   60.0   33.333333333333336
250.0   60.0   33.333333333333336
200.0   90.0   33.333333333333336
200.0   60.0   50.0
250.0   60.0   33.333333333333336
250.0   90.0   33.333333333333336
200.0   90.0   33.333333333333336
250.0   90.0   50.0
200.0   60.0   50.0
200.0   90.0   50.0
250.0   90.0   50.0
200.0   90.0   33.333333333333336
200.0   60.0   50.0
250.0   90.0   50.0
250.0   60.0   50.0
250.0   60.0   33.333333333333336
200.0   60.0   50.0
250.0   90.0   50.0
250.0   60.0   33.333333333333336
200.0   90.0   33.333333333333336
200.0   90.0   0.0
250.0   90.0   0.0
200.0   120.0   0.0
200.0   90.0   16.666666666666668
250.0   90.0   0.0
250.0   120.0   0.0
200.0   120.0   0.0
250.0   120.0   16.666666666666668
200.0   90.0   16.666666666666668
200.0   120.0   16.666666666666668
250.0   120.0   16.666666666666668
200.0   120.0   0.0
200.0   90.0   16.666666666666668
250.0   120.0   16.666666666666668
250.0   90.0   16.666666666666668
250.0   90.0   0.0
200.0   90.0   16.666666666666668
250.0   120.0   16.666666666666668
250.0   90.0   0.0
200.0   120.0   0.0
200.0   90.0   16.666666666666668
250.0   90.0   16.666666666666668
200.0   120.0   16.666666666666668
200.0   90.0   33.333333333333336
250.0   90.0   16.666666666666668
250.0   120.0   16.666666666666668
200.0   120.0   16.666666666666668
250.0   120.0   33.333333333333336
200.0   90.0   33.333333333333336
200.0   120.0   33.333333333333336
250.0   120.0   33.333333333333336
200.0   120.0   16.666666666666668
200.0   90.0   33.333333333333336
250.0   120.0   33.333333333333336
250.0   90.0   33.333333333333336
250.0   90.0   16.666666666666668
200.0   90.0   33.333333333333336
250.0   120.0   33.333333333333336
250.0   90.0   16.666666666666668
200.0   120.0   16.666666666666668
200.0   90.0   33.333333333333336
250.0   90.0   33.333333333333336
200.0   120.0   33.333333333333336
200.0   90.0   50.0
250.0   90.0   33.333333333333336
250.0   120.0   33.333333333333336
200.0   120.0   33.333333333333336
250.0   120.0   50.0
200.0   90.0   50.0
200.0   120.0   50.0
250.0   120.0   50.0
200.0   120.0   33.333333333333336
200.0   90.0   50.0
250.0   120.0   50.0
250.0   90.0   50.0
250.0   90.0   33.333333333333336
200.0   90.0   50.0
250.0   120.0   50.0
250.0   90.0   33.333333333333336
200.0   120.0   33.333333333333336
200.0   120.0   0.0
250.0   120.0   0.0
200.0   150.0   0.0
200.0   120.0   16.666666666666668
250.0   120.0   0.0
250.0   150.0   0.0
200.0   150.0   0.0
250.0   150.0   16.666666666666668
200.0   120.0   16.666666666666668
200.0   150.0   16.666666666666668
250.0   150.0   16.666666666666668
200.0   150.0   0.0
200.0   120.0   16.666666666666668
250.0   150.0   16.666666666666668
250.0   120.0   16.666666666666668
250.0   120.0   0.0
200.0   120.0   16.666666666666668
250.0   150.0   16.666666666666668
250.0   120.0   0.0
200.0   150.0   0.0
200.0   120.0   16.666666666666668
250.0   120.0   16.666666666666668
200.0   150.0   16.666666666666668
200.0   120.0   33.333333333333336
250.0   120.0   16.666666666666668
250.0   150.0   16.666666666666668
200.0   150.0   16.666666666666668
250.0   150.0   33.333333333333336
200.0   120.0   33.333333333333336
200.0   150.0   33.333333333333336
250.0   150.0   33.333333333333336
200.0   150.0   16.666666666666668
200.0   120.0   33.333333333333336
250.0   150.0   33.333333333333336
250.0   120.0   33.333333333333336
250.0   120.0   16.666666666666668
200.0   120.0   33.333333333333336
250.0   150.0   33.333333333333336
250.0   120.0   16.666666666666668
200.0   150.0   16.666666666666668
200.0   120.0   33.333333333333336
250.0   120.0   33.333333333333336
200.0   150.0   33.333333333333336
200.0   120.0   50.0
250.0   120.0   33.333333333333336
250.0   150.0   33.333333333333336
200.0   150.0   33.333333333333336
250.0   150.0   50.0
200.0   120.0   50.0
200.0   150.0   50.0
250.0   150.0   50.0
200.0   150.0   33.333333333333336
200.0   120.0   50.0
250.0   150.0   50.0
250.0   120.0   50.0
250.0   120.0   33.333333333333336
200.0   120.0   50.0
250.0   150.0   50.0
250.0   120.0   33.333333333333336
200.0   150.0   33.333333333333336
250.0   0.0   0.0
300.0   0.0   0.0
250.0   30.0   0.0
250.0   0.0   16.666666666666668
300.0   0.0   0.0
300.0   30.0   0.0
250.0   30.0   0.0
300.0   30.0   16.666666666666668
250.0   0.0   16.666666666666668
250.0   30.0   16.666666666666668
300.0   30.0   16.666666666666668
250.0   30.0   0.0
250.0   0.0   16.666666666666668
300.0   30.0   16.666666666666668
300.0   0.0   16.666666666666668
300.0   0.0   0.0
250.0   0.0   16.666666666666668
300.0   30.0   16.666666666666668
300.0   0.0   0.0
250.0   30.0   0.0
250.0   0.0   16.666666666666668
300.0   0.0   16.666666666666668
250.0   30.0   16.666666666666668
250.0   0.0   33.333333333333336
300.0   0.0   16.666666666666668
300.0   30.0   16.666666666666668
250.0   30.0   16.666666666666668
300.0   30.0   33.333333333333336
250.0   0.0   33.333333333333336
250.0   30.0   33.333333333333336
300.0   30.0   33.333333333333336
250.0   30.0   16.666666666666668
250.0   0.0   33.333333333333336
300.0   30.0   33.333333333333336
300.0   0.0   33.333333333333336
300.0   0.0   16.666666666666668
250.0   0.0   33.333333333333336
300.0   30.0   33.333333333333336
300.0   0.0   16.666666666666668
250.0   30.0   16.666666666666668
250.0   0.0   33.333333333333336
300.0   0.0   33.333333333333336
250.0   30.0   33.333333333333336
250.0   0.0   50.0
300.0   0.0   33.333333333333336
300.0   30.0   33.333333333333336
250.0   30.0   33.333333333333336
300.0   30.0   50.0
250.0   0.0   50.0
250.0   30.0   50.0
300.0   30.0   50.0
250.0   30.0   33.333333333333336
250.0   0.0   50.0
300.0   30.0   50.0
300.0   0.0   50.0
300.0   0.0   33.333333333333336
250.0   0.0   50.0
300.0   30.0   50.0
300.0   0.0   33.333333333333336
250.0   30.0   33.333333333333336
250.0   30.0   0.0
300.0   30.0   0.0
250.0   60.0   0.0
250.0   30.0   16.666666666666668
300.0   30.0   0.0
300.0   60.0   0.0
250.0   60.0   0.0
300.0   60.0   16.666666666666668
250.0   30.0   16.666666666666668
250.0   60.0   16.666666666666668
300.0   60.0   16.666666666666668
250.0   60.0   0.0
250.0   30.0   16.666666666666668
300.0   60.0   16.666666666666668
300.0   30.0   16.666666666666668
300.0   30.0   0.0
250.0   30.0   16.666666666666668
300.0   60.0   16.666666666666668
300.0   30.0   0.0
250.0   60.0   0.0
250.0   30.0   16.666666666666668
300.0   30.0   16.666666666666668
250.0   60.0   16.666666666666668
250.0   30.0   33.333333333333336
300.0   30.0   16.666666666666668
300.0   60.0   16.666666666666668
250.0   60.0   16.666666666666668
300.0   60.0   33.333333333333336
250.0   30.0   33.333333333333336
250.0   60.0   33.333333333333336
300.0   60.0   33.333333333333336
250.0   60.0   16.666666666666668
250.0   30.0   33.333333333333336
300.0   60.0   33.333333333333336
300.0   30.0   33.333333333333336
300.0   30.0   16.666666666666668
250.0   30.0   33.333333333333336
300.0   60.0   33.333333333333336
300.0   30.0   16.666666666666668
250.0   60.0   16.666666666666668
250.0   30.0   33.333333333333336
300.0   30.0   33.333333333333336
250.0   60.0   33.333333333333336
250.0   30.0   50.0
300.0   30.0   33.333333333333336
300.0   60.0   33.333333333333336
250.0   60.0   33.333333333333336
300.0   60.0   50.0
250.0   30.0   50.0
250.0   60.0   50.0
300.0   60.0   50.0
250.0   60.0   33.333333333333336
250.0   30.0   50.0
300.0   60.0   50.0
300.0   30.0   50.0
300.0   30.0   33.333333333333336
250.0   30.0   50.0
300.0   60.0   50.0
300.0   30.0   33.333333333333336
250.0   60.0   33.333333333333336
250.0   60.0   0.0
300.0   60.0   0.0
250.0   90.0   0.0
250.0   60.0   16.666666666666668
300.0   60.0   0.0
300.0   90.0   0.0
250.0   90.0   0.0
300.0   90.0   16.666666666666668
250.0   60.0   16.666666666666668
250.0   90.0   16.666666666666668
300.0   90.0   16.666666666666668
250.0   90.0   0.0
250.0   60.0   16.666666666666668
300.0   90.0   16.666666666666668
300.0   60.0   16.666666666666668
300.0   60.0   0.0
250.0   60.0   16.666666666666668
300.0   90.0   16.666666666666668
300.0   60.0   0.0
250.0   90.0   0.0
250.0   60.0   16.666666666666668
300.0   60.0   16.666666666666668
250.0   90.0   16.666666666666668
250.0   60.0   33.333333333333336
300.0   60.0   16.666666666666668
300.0   90.0   16.666666666666668
250.0   90.0   16.666666666666668
300.0   90.0   33.333333333333336
250.0   60.0   33.333333333333336
250.0   90.0   33.333333333333336
300.0   90.0   33.333333333333336
250.0   90.0   16.666666666666668
250.0   60.0   33.333333333333336
300.0   90.0   33.333333333333336
300.0   60.0   33.333333333333336
300.0   60.0   16.666666666666668
250.0   60.0   33.333333333333336
300.0   90.0   33.333333333333336
300.0   60.0   16.666666666666668
250.0   90.0   16.666666666666668
250.0   60.0   33.333333333333336
300.0   60.0   33.333333333333336
250.0   90.0   33.333333333333336
250.0   60.0   50.0
300.0   60.0   33.333333333333336
300.0   90.0   33.333333333333336
250.0   90.0   33.333333333333336
300.0   90.0   50.0
250.0   60.0   50.0
250.0   90.0   50.0
300.0   90.0   50.0
250.0   90.0   33.333333333333336
250.0   60.0   50.0
300.0   90.0   50.0
300.0   60.0   50.0
300.0   60.0   33.333333333333336
250.0   60.0   50.0
300.0   90.0   50.0
300.0   60.0   33.333333333333336
250.0   90.0   33.333333333333336
250.0   90.0   0.0
300.0   90.0   0.0
250.0   120.0   0.0
250.0   90.0   16.666666666666668
300.0   90.0   0.0
300.0   120.0   0.0
250.0   120.0   0.0
300.0   120.0   16.666666666666668
250.0   90.0   16.666666666666668
250.0   120.0   16.666666666666668
300.0   120.0   16.666666666666668
250.0   120.0   0.0
250.0   90.0   16.666666666666668
300.0   120.0   16.666666666666668
300.0   90.0   16.666666666666668
300.0   90.0   0.0
250.0   90.0   16.666666666666668
300.0   120.0   16.666666666666668
300.0   90.0   0.0
250.0   120.0   0.0
250.0   90.0   16.666666666666668
300.0   90.0   16.666666666666668
250.0   120.0   16.666666666666668
250.0   90.0   33.333333333333336
300.0   90.0   16.666666666666668
300.0   120.0   16.666666666666668
250.0   120.0   16.666666666666668
300.0   120.0   33.333333333333336
250.0   90.0   33.333333333333336
250.0   120.0   33.333333333333336
300.0   120.0   33.333333333333336
250.0   120.0   16.666666666666668
250.0   90.0   33.333333333333336
300.0   120.0   33.333333333333336
300.0   90.0   33.333333333333336
300.0   90.0   16.666666666666668
250.0   90.0   33.333333333333336
300.0   120.0   33.333333333333336
300.0   90.0   16.666666666666668
250.0   120.0   16.666666666666668
250.0   90.0   33.333333333333336
300.0   90.0   33.333333333333336
250.0   120.0   33.333333333333336
250.0   90.0   50.0
300.0   90.0   33.333333333333336
300.0   120.0   33.333333333333336
250.0   120.0   33.333333333333336
300.0   120.0   50.0
250.0   90.0   50.0
250.0   120.0   50.0
300.0   120.0   50.0
250.0   120.0   33.333333333333336
250.0   90.0   50.0
300.0   120.0   50.0
300.0   90.0   50.0
300.0   90.0   33.333333333333336
250.0   90.0   50.0
300.0   120.0   50.0
300.0   90.0   33.333333333333336
250.0   120.0   33.333333333333336
250.0   120.0   0.0
300.0   120.0   0.0
250.0   150.0   0.0
250.0   120.0   16.666666666666668
300.0   120.0   0.0
300.0   150.0   0.0
250.0   150.0   0.0
300.0   150.0   16.666666666666668
250.0   120.0   16.666666666666668
250.0   150.0   16.666666666666668
300.0   150.0   16.666666666666668
250.0   150.0   0.0
250.0   120.0   16.666666666666668
300.0   150.0   16.666666666666668
300.0   120.0   16.666666666666668
300.0   120.0   0.0
250.0   120.0   16.666666666666668
300.0   150.0   16.666666666666668
300.0   120.0   0.0
250.0   150.0   0.0
250.0   120.0   16.666666666666668
300.0   120.0   16.666666666666668
250.0   150.0   16.666666666666668
250.0   120.0   33.333333333333336
300.0   120.0   16.666666666666668
300.0   150.0   16.666666666666668
250.0   150.0   16.666666666666668
300.0   150.0   33.333333333333336
250.0   120.0   33.333333333333336
250.0   150.0   33.333333333333336
300.0   150.0   33.333333333333336
250.0   150.0   16.666666666666668
250.0   120.0   33.333333333333336
300.0   150.0   33.333333333333336
300.0   120.0   33.333333333333336
300.0   120.0   16.666666666666668
250.0   120.0   33.333333333333336
300.0   150.0   33.333333333333336
300.0   120.0   16.666666666666668
250.0   150.0   16.666666666666668
250.0   120.0   33.333333333333336
300.0   120.0   33.333333333333336
250.0   150.0   33.333333333333336
250.0   120.0   50.0
300.0   120.0   33.333333333333336
300.0   150.0   33.333333333333336
250.0   150.0   33.333333333333336
300.0   150.0   50.0
250.0   120.0   50.0
250.0   150.0   50.0
300.0   150.0   50.0
250.0   150.0   33.333333333333336
250.0   120.0   50.0
300.0   150.0   50.0
300.0   120.0   50.0
300.0   120.0   33.333333333333336
250.0   120.0   50.0
300.0   150.0   50.0
300.0   120.0   33.333333333333336
250.0   150.0   33.333333333333336
300.0   0.0   0.0
350.0   0.0   0.0
300.0   30.0   0.0
300.0   0.0   16.666666666666668
350.0   0.0   0.0
350.0   30.0   0.0
300.0   30.0   0.0
350.0   30.0   16.666666666666668
300.0   0.0   16.666666666666668
300.0   30.0   16.666666666666668
350.0   30.0   16.666666666666668
300.0   30.0   0.0
300.0   0.0   16.666666666666668
350.0   30.0   16.666666666666668
350.0   0.0   16.666666666666668
350.0   0.0   0.0
300.0   0.0   16.666666666666668
350.0   30.0   16.666666666666668
350.0   0.0   0.0
300.0   30.0   0.0
300.0   0.0   16.666666666666668
350.0   0.0   16.666666666666668
300.0   30.0   16.666666666666668
300.0   0.0   33.333333333333336
350.0   0.0   16.666666666666668
350.0   30.0   16.666666666666668
300.0   30.0   16.666666666666668
350.0   30.0   33.333333333333336
300.0   0.0   33.333333333333336
300.0   30.0   33.333333333333336
350.0   30.0   33.333333333333336
300.0   30.0   16.666666666666668
300.0   0.0   33.333333333333336
350.0   30.0   33.333333333333336
350.0   0.0   33.333333333333336
350.0   0.0   16.666666666666668
300.0   0.0   33.333333333333336
350.0   30.0   33.333333333333336
350.0   0.0   16.666666666666668
300.0   30.0   16.666666666666668
300.0   0.0   33.333333333333336
350.0   0.0   33.333333333333336
300.0   30.0   33.333333333333336
300.0   0.0   50.0
350.0   0.0   33.333333333333336
350.0   30.0   33.333333333333336
300.0   30.0   33.333333333333336
350.0   30.0   50.0
300.0   0.0   50.0
300.0   30.0   50.0
350.0   30.0   50.0
300.0   30.0   33.333333333333336
300.0   0.0   50.0
350.0   30.0   50.0
350.0   0.0   50.0
350.0   0.0   33.333333333333336
300.0   0.0   50.0
350.0   30.0   50.0
350.0   0.0   33.333333333333336
300.0   30.0   33.333333333333336
300.0   30.0   0.0
350.0   30.0   0.0
300.0   60.0   0.0
300.0   30.0   16.666666666666668
350.0   30.0   0.0
350.0   60.0   0.0
300.0   60.0   0.0
350.0   60.0   16.666666666666668
300.0   30.0   16.666666666666668
300.0   60.0   16.666666666666668
350.0   60.0   16.666666666666668
300.0   60.0   0.0
300.0   30.0   16.666666666666668
350.0   60.0   16.666666666666668
350.0   30.0   16.666666666666668
350.0   30.0   0.0
300.0   30.0   16.666666666666668
350.0   60.0   16.666666666666668
350.0   30.0   0.0
300.0   60.0   0.0
300.0   30.0   16.666666666666668
350.0   30.0   16.666666666666668
300.0   60.0   16.666666666666668
300.0   30.0   33.333333333333336
350.0   30.0   16.666666666666668
350.0   60.0   16.666666666666668
300.0   60.0   16.666666666666668
350.0   60.0   33.333333333333336
300.0   30.0   33.333333333333336
300.0   60.0   33.333333333333336
350.0   60.0   33.333333333333336
300.0   60.0   16.666666666666668
300.0   30.0   33.333333333333336
350.0   60.0   33.333333333333336
350.0   30.0   33.333333333333336
350.0   30.0   16.666666666666668
300.0   30.0   33.333333333333336
350.0   60.0   33.333333333333336
350.0   30.0   16.666666666666668
300.0   60.0   16.666666666666668
300.0   30.0   33.333333333333336
350.0   30.0   33.333333333333336
300.0   60.0   33.333333333333336
300.0   30.0   50.0
350.0   30.0   33.333333333333336
350.0   60.0   33.333333333333336
300.0   60.0   33.333333333333336
350.0   60.0   50.0
300.0   30.0   50.0
300.0   60.0   50.0
350.0   60.0   50.0
300.0   60.0   33.333333333333336
300.0   30.0   50.0
350.0   60.0   50.0
350.0   30.0   50.0
350.0   30.0   33.333333333333336
300.0   30.0   50.0
350.0   60.0   50.0
350.0   30.0   33.333333333333336
300.0   60.0   33.333333333333336
300.0   60.0   0.0
350.0   60.0   0.0
300.0   90.0   0.0
300.0   60.0   16.666666666666668
350.0   60.0   0.0
350.0   90.0   0.0
300.0   90.0   0.0
350.0   90.0   16.666666666666668
300.0   60.0   16.666666666666668
300.0   90.0   16.666666666666668
350.0   90.0   16.666666666666668
300.0   90.0   0.0
300.0   60.0   16.666666666666668
350.0   90.0   16.666666666666668
350.0   60.0   16.666666666666668
350.0   60.0   0.0
300.0   60.0   16.666666666666668
350.0   90.0   16.666666666666668
350.0   60.0   0.0
300.0   90.0   0.0
300.0   60.0   16.666666666666668
350.0   60.0   16.666666666666668
300.0   90.0   16.666666666666668
300.0   60.0   33.333333333333336
350.0   60.0   16.666666666666668
350.0   90.0   16.666666666666668
300.0   90.0   16.666666666666668
350.0   90.0   33.333333333333336
300.0   60.0   33.333333333333336
300.0   90.0   33.333333333333336
350.0   90.0   33.333333333333336
300.0   90.0   16.666666666666668
300.0   60.0   33.333333333333336
350.0   90.0   33.333333333333336
350.0   60.0   33.333333333333336
350.0   60.0   16.666666666666668
300.0   60.0   33.333333333333336
350.0   90.0   33.333333333333336
350.0   60.0   16.666666666666668
300.0   90.0   16.666666666666668
300.0   60.0   33.333333333333336
350.0   60.0   33.333333333333336
300.0   90.0   33.333333333333336
300.0   60.0   50.0
350.0   60.0   33.333333333333336
350.0   90.0   33.333333333333336
300.0   90.0   33.333333333333336
350.0   90.0   50.0
300.0   60.0   50.0
300.0   90.0   50.0
350.0   90.0   50.0
300.0   90.0   33.333333333333336
300.0   60.0   50.0
350.0   90.0   50.0
350.0   60.0   50.0
350.0   60.0   33.333333333333336
300.0   60.0   50.0
350.0   90.0   50.0
350.0   60.0   33.333333333333336
300.0   90.0   33.333333333333336
300.0   90.0   0.0
350.0   90.0   0.0
300.0   120.0   0.0
300.0   90.0   16.666666666666668
350.0   90.0   0.0
350.0   120.0   0.0
300.0   120.0   0.0
350.0   120.0   16.666666666666668
300.0   90.0   16.666666666666668
300.0   120.0   16.666666666666668
350.0   120.0   16.666666666666668
300.0   120.0   0.0
300.0   90.0   16.666666666666668
350.0   120.0   16.666666666666668
350.0   90.0   16.666666666666668
350.0   90.0   0.0
300.0   90.0   16.666666666666668
350.0   120.0   16.666666666666668
350.0   90.0   0.0
300.0   120.0   0.0
300.0   90.0   16.666666666666668
350.0   90.0   16.666666666666668
300.0   120.0   16.666666666666668
300.0   90.0   33.333333333333336
350.0   90.0   16.666666666666668
350.0   120.0   16.666666666666668
300.0   120.0   16.666666666666668
350.0   120.0   33.333333333333336
300.0   90.0   33.333333333333336
300.0   120.0   33.333333333333336
350.0   120.0   33.333333333333336
300.0   120.0   16.666666666666668
300.0   90.0   33.333333333333336
350.0   120.0   33.333333333333336
350.0   90.0   33.333333333333336
350.0   90.0   16.666666666666668
300.0   90.0   33.333333333333336
350.0   120.0   33.333333333333336
350.0   90.0   16.666666666666668
300.0   120.0   16.666666666666668
300.0   90.0   33.333333333333336
350.0   90.0   33.333333333333336
300.0   120.0   33.333333333333336
300.0   90.0   50.0
350.0   90.0   33.333333333333336
350.0   120.0   33.333333333333336
300.0   120.0   33.333333333333336
350.0   120.0   50.0
300.0   90.0   50.0
300.0   120.0   50.0
350.0   120.0   50.0
300.0   120.0   33.333333333333336
300.0   90.0   50.0
350.0   120.0   50.0
350.0   90.0   50.0
350.0   90.0   33.333333333333336
300.0   90.0   50.0
350.0   120.0   50.0
350.0   90.0   33.333333333333336
300.0   120.0   33.333333333333336
300.0   120.0   0.0
350.0   120.0   0.0
300.0   150.0   0.0
300.0   120.0   16.666666666666668
350.0   120.0   0.0
350.0   150.0   0.0
300.0   150.0   0.0
350.0   150.0   16.666666666666668
300.0   120.0   16.666666666666668
300.0   150.0   16.666666666666668
350.0   150.0   16.666666666666668
300.0   150.0   0.0
300.0   120.0   16.666666666666668
350.0   150.0   16.666666666666668
350.0   120.0   16.666666666666668
350.0   120.0   0.0
300.0   120.0   16.666666666666668
350.0   150.0   16.666666666666668
350.0   120.0   0.0
300.0   150.0   0.0
300.0   120.0   16.666666666666668
350.0   120.0   16.666666666666668
300.0   150.0   16.666666666666668
300.0   120.0   33.333333333333336
350.0   120.0   16.666666666666668
350.0   150.0   16.666666666666668
300.0   150.0   16.666666666666668
350.0   150.0   33.333333333333336
300.0   120.0   33.333333333333336
300.0   150.0   33.333333333333336
350.0   150.0   33.333333333333336
300.0   150.0   16.666666666666668
300.0   120.0   33.333333333333336
350.0   150.0   33.333333333333336
350.0   120.0   33.333333333333336
350.0   120.0   16.666666666666668
300.0   120.0   33.333333333333336
350.0   150.0   33.333333333333336
350.0   120.0   16.666666666666668
300.0   150.0   16.666666666666668
300.0   120.0   33.333333333333336
350.0   120.0   33.333333333333336
300.0   150.0   33.333333333333336
300.0   120.0   50.0
350.0   120.0   33.333333333333336
350.0   150.0   33.333333333333336
300.0   150.0   33.333333333333336
350.0   150.0   50.0
300.0   120.0   50.0
300.0   150.0   50.0
350.0   150.0   50.0
300.0   150.0   33.333333333333336
300.0   120.0   50.0
350.0   150.0   50.0
350.0   120.0   50.0
350.0   120.0   33.333333333333336
300.0   120.0   50.0
350.0   150.0   50.0
350.0   120.0   33.333333333333336
300.0   150.0   33.333333333333336
350.0   0.0   0.0
400.0   0.0   0.0
350.0   30.0   0.0
350.0   0.0   16.666666666666668
400.0   0.0   0.0
400.0   30.0   0.0
350.0   30.0   0.0
400.0   30.0   16.666666666666668
350.0   0.0   16.666666666666668
350.0   30.0   16.666666666666668
400.0   30.0   16.666666666666668
350.0   30.0   0.0
350.0   0.0   16.666666666666668
400.0   30.0   16.666666666666668
400.0   0.0   16.666666666666668
400.0   0.0   0.0
350.0   0.0   16.666666666666668
400.0   30.0   16.666666666666668
400.0   0.0   0.0
350.0   30.0   0.0
350.0   0.0   16.666666666666668
400.0   0.0   16.666666666666668
350.0   30.0   16.666666666666668
350.0   0.0   33.333333333333336
400.0   0.0   16.666666666666668
400.0   30.0   16.666666666666668
350.0   30.0   16.666666666666668
400.0   30.0   33.333333333333336
350.0   0.0   33.333333333333336
350.0   30.0   33.333333333333336
400.0   30.0   33.333333333333336
350.0   30.0   16.666666666666668
350.0   0.0   33.333333333333336
400.0   30.0   33.333333333333336
400.0   0.0   33.333333333333336
400.0   0.0   16.666666666666668
350.0   0.0   33.333333333333336
400.0   30.0   33.333333333333336
400.0   0.0   16.666666666666668
350.0   30.0   16.666666666666668
350.0   0.0   33.333333333333336
400.0   0.0   33.333333333333336
350.0   30.0   33.333333333333336
350.0   0.0   50.0
400.0   0.0   33.333333333333336
400.0   30.0   33.333333333333336
350.0   30.0   33.333333333333336
400.0   30.0   50.0
350.0   0.0   50.0
350.0   30.0   50.0
400.0   30.0   50.0
350.0   30.0   33.333333333333336
350.0   0.0   50.0
400.0   30.0   50.0
400.0   0.0   50.0
400.0   0.0   33.333333333333336
350.0   0.0   50.0
400.0   30.0   50.0
400.0   0.0   33.333333333333336
350.0   30.0   33.333333333333336
350.0   30.0   0.0
400.0   30.0   0.0
350.0   60.0   0.0
350.0   30.0   16.666666666666668
400.0   30.0   0.0
400.0   60.0   0.0
350.0   60.0   0.0
400.0   60.0   16.666666666666668
350.0   30.0   16.666666666666668
350.0   60.0   16.666666666666668
400.0   60.0   16.666666666666668
350.0   60.0   0.0
350.0   30.0   16.666666666666668
400.0   60.0   16.666666666666668
400.0   30.0   16.666666666666668
400.0   30.0   0.0
350.0   30.0   16.666666666666668
400.0   60.0   16.666666666666668
400.0   30.0   0.0
350.0   60.0   0.0
350.0   30.0   16.666666666666668
400.0   30.0   16.666666666666668
350.0   60.0   16.666666666666668
350.0   30.0   33.333333333333336
400.0   30.0   16.666666666666668
400.0   60.0   16.666666666666668
350.0   60.0   16.666666666666668
400.0   60.0   33.333333333333336
350.0   30.0   33.333333333333336
350.0   60.0   33.333333333333336
400.0   60.0   33.333333333333336
350.0   60.0   16.666666666666668
350.0   30.0   33.333333333333336
400.0   60.0   33.333333333333336
400.0   30.0   33.333333333333336
400.0   30.0   16.666666666666668
350.0   30.0   33.333333333333336
400.0   60.0   33.333333333333336
400.0   30.0   16.666666666666668
350.0   60.0   16.666666666666668
350.0   30.0   33.333333333333336
400.0   30.0   33.333333333333336
350.0   60.0   33.333333333333336
350.0   30.0   50.0
400.0   30.0   33.333333333333336
400.0   60.0   33.333333333333336
350.0   60.0   33.333333333333336
400.0   60.0   50.0
350.0   30.0   50.0
350.0   60.0   50.0
400.0   60.0   50.0
350.0   60.0   33.333333333333336
350.0   30.0   50.0
400.0   60.0   50.0
400.0   30.0   50.0
400.0   30.0   33.333333333333336
350.0   30.0   50.0
400.0   60.0   50.0
400.0   30.0   33.333333333333336
350.0   60.0   33.333333333333336
350.0   60.0   0.0
400.0   60.0   0.0
350.0   90.0   0.0
350.0   60.0   16.666666666666668
400.0   60.0   0.0
400.0   90.0   0.0
350.0   90.0   0.0
400.0   90.0   16.666666666666668
350.0   60.0   16.666666666666668
350.0   90.0   16.666666666666668
400.0   90.0   16.666666666666668
350.0   90.0   0.0
350.0   60.0   16.666666666666668
400.0   90.0   16.666666666666668
400.0   60.0   16.666666666666668
400.0   60.0   0.0
350.0   60.0   16.666666666666668
400.0   90.0   16.666666666666668
400.0   60.0   0.0
350.0   90.0   0.0
350.0   60.0   16.666666666666668
400.0   60.0   16.666666666666668
350.0   90.0   16.666666666666668
350.0   60.0   33.333333333333336
400.0   60.0   16.666666666666668
400.0   90.0   16.666666666666668
350.0   90.0   16.666666666666668
400.0   90.0   33.333333333333336
350.0   60.0   33.333333333333336
350.0   90.0   33.333333333333336
400.0   90.0   33.333333333333336
350.0   90.0   16.666666666666668
350.0   60.0   33.333333333333336
400.0   90.0   33.333333333333336
400.0   60.0   33.333333333333336
400.0   60.0   16.666666666666668
350.0   60.0   33.333333333333336
400.0   90.0   33.333333333333336
400.0   60.0   16.666666666666668
350.0   90.0   16.666666666666668
350.0   60.0   33.333333333333336
400.0   60.0   33.333333333333336
350.0   90.0   33.333333333333336
350.0   60.0   50.0
400.0   60.0   33.333333333333336
400.0   90.0   33.333333333333336
350.0   90.0   33.333333333333336
400.0   90.0   50.0
350.0   60.0   50.0
350.0   90.0   50.0
400.0   90.0   50.0
350.0   90.0   33.333333333333336
350.0   60.0   50.0
400.0   90.0   50.0
400.0   60.0   50.0
400.0   60.0   33.333333333333336
350.0   60.0   50.0
400.0   90.0   50.0
400.0   60.0   33.333333333333336
350.0   90.0   33.333333333333336
350.0   90.0   0.0
400.0   90.0   0.0
350.0   120.0   0.0
350.0   90.0   16.666666666666668
400.0   90.0   0.0
400.0   120.0   0.0
350.0   120.0   0.0
400.0   120.0   16.666666666666668
350.0   90.0   16.666666666666668
350.0   120.0   16.666666666666668
400.0   120.0   16.666666666666668
350.0   120.0   0.0
350.0   90.0   16.666666666666668
400.0   120.0   16.666666666666668
400.0   90.0   16.666666666666668
400.0   90.0   0.0
350.0   90.0   16.666666666666668
400.0   120.0   16.666666666666668
400.0   90.0   0.0
350.0   120.0   0.0
350.0   90.0   16.666666666666668
400.0   90.0   16.666666666666668
350.0   120.0   16.666666666666668
350.0   90.0   33.333333333333336
400.0   90.0   16.666666666666668
400.0   120.0   16.666666666666668
350.0   120.0   16.666666666666668
400.0   120.0   33.333333333333336
350.0   90.0   33.333333333333336
350.0   120.0   33.333333333333336
400.0   120.0   33.333333333333336
350.0   120.0   16.666666666666668
350.0   90.0   33.333333333333336
400.0   120.0   33.333333333333336
400.0   90.0   33.333333333333336
400.0   90.0   16.666666666666668
350.0   90.0   33.333333333333336
400.0   120.0   33.333333333333336
400.0   90.0   16.666666666666668
350.0   120.0   16.666666666666668
350.0   90.0   33.333333333333336
400.0   90.0   33.333333333333336
350.0   120.0   33.333333333333336
350.0   90.0   50.0
400.0   90.0   33.333333333333336
400.0   120.0   33.333333333333336
350.0   120.0   33.333333333333336
400.0   120.0   50.0
350.0   90.0   50.0
350.0   120.0   50.0
400.0   120.0   50.0
350.0   120.0   33.333333333333336
350.0   90.0   50.0
400.0   120.0   50.0
400.0   90.0   50.0
400.0   90.0   33.333333333333336
350.0   90.0   50.0
400.0   120.0   50.0
400.0   90.0   33.333333333333336
350.0   120.0   33.333333333333336
350.0   120.0   0.0
400.0   120.0   0.0
350.0   150.0   0.0
350.0   120.0   16.666666666666668
400.0   120.0   0.0
400.0   150.0   0.0
350.0   150.0   0.0
400.0   150.0   16.666666666666668
350.0   120.0   16.666666666666668
350.0   150.0   16.666666666666668
400.0   150.0   16.666666666666668
350.0   150.0   0.0
350.0   120.0   16.666666666666668
400.0   150.0   16.666666666666668
400.0   120.0   16.666666666666668
400.0   120.0   0.0
350.0   120.0   16.666666666666668
400.0   150.0   16.666666666666668
400.0   120.0   0.0
350.0   150.0   0.0
350.0   120.0   16.666666666666668
400.0   120.0   16.666666666666668
350.0   150.0   16.666666666666668
350.0   120.0   33.333333333333336
400.0   120.0   16.666666666666668
400.0   150.0   16.666666666666668
350.0   150.0   16.666666666666668
400.0   150.0   33.333333333333336
350.0   120.0   33.333333333333336
350.0   150.0   33.333333333333336
400.0   150.0   33.333333333333336
350.0   150.0   16.666666666666668
350.0   120.0   33.333333333333336
400.0   150.0   33.333333333333336
400.0   120.0   33.333333333333336
400.0   120.0   16.666666666666668
350.0   120.0   33.333333333333336
400.0   150.0   33.333333333333336
400.0   120.0   16.666666666666668
350.0   150.0   16.666666666666668
350.0   120.0   33.333333333333336
400.0   120.0   33.333333333333336
350.0   150.0   33.333333333333336
350.0   120.0   50.0
400.0   120.0   33.333333333333336
400.0   150.0   33.333333333333336
350.0   150.0   33.333333333333336
400.0   150.0   50.0
350.0   120.0   50.0
350.0   150.0   50.0
400.0   150.0   50.0
350.0   150.0   33.333333333333336
350.0   120.0   50.0
400.0   150.0   50.0
400.0   120.0   50.0
400.0   120.0   33.333333333333336
350.0   120.0   50.0
400.0   150.0   50.0
400.0   120.0   33.333333333333336
350.0   150.0   33.333333333333336
400.0   0.0   0.0
450.0   0.0   0.0
400.0   30.0   0.0
400.0   0.0   16.666666666666668
450.0   0.0   0.0
450.0   30.0   0.0
400.0   30.0   0.0
450.0   30.0   16.666666666666668
400.0   0.0   16.666666666666668
400.0   30.0   16.666666666666668
450.0   30.0   16.666666666666668
400.0   30.0   0.0
400.0   0.0   16.666666666666668
450.0   30.0   16.666666666666668
450.0   0.0   16.666666666666668
450.0   0.0   0.0
400.0   0.0   16.666666666666668
450.0   30.0   16.666666666666668
450.0   0.0   0.0
400.0   30.0   0.0
400.0   0.0   16.666666666666668
450.0   0.0   16.666666666666668
400.0   30.0   16.666666666666668
400.0   0.0   33.333333333333336
450.0   0.0   16.666666666666668
450.0   30.0   16.666666666666668
400.0   30.0   16.666666666666668
450.0   30.0   33.333333333333336
400.0   0.0   33.333333333333336
400.0   30.0   33.333333333333336
450.0   30.0   33.333333333333336
400.0   30.0   16.666666666666668
400.0   0.0   33.333333333333336
450.0   30.0   33.333333333333336
450.0   0.0   33.333333333333336
450.0   0.0   16.666666666666668
400.0   0.0   33.333333333333336
450.0   30.0   33.333333333333336
450.0   0.0   16.666666666666668
400.0   30.0   16.666666666666668
400.0   0.0   33.333333333333336
450.0   0.0   33.333333333333336
400.0   30.0   33.333333333333336
400.0   0.0   50.0
450.0   0.0   33.333333333333336
450.0   30.0   33.333333333333336
400.0   30.0   33.333333333333336
450.0   30.0   50.0
400.0   0.0   50.0
400.0   30.0   50.0
450.0   30.0   50.0
400.0   30.0   33.333333333333336
400.0   0.0   50.0
450.0   30.0   50.0
450.0   0.0   50.0
450.0   0.0   33.333333333333336
400.0   0.0   50.0
450.0   30.0   50.0
450.0   0.0   33.333333333333336
400.0   30.0   33.333333333333336
400.0   30.0   0.0
450.0   30.0   0.0
400.0   60.0   0.0
400.0   30.0   16.666666666666668
450.0   30.0   0.0
450.0   60.0   0.0
400.0   60.0   0.0
450.0   60.0   16.666666666666668
400.0   30.0   16.666666666666668
400.0   60.0   16.666666666666668
450.0   60.0   16.666666666666668
400.0   60.0   0.0
400.0   30.0   16.666666666666668
450.0   60.0   16.666666666666668
450.0   30.0   16.666666666666668
450.0   30.0   0.0
400.0   30.0   16.666666666666668
450.0   60.0   16.666666666666668
450.0   30.0   0.0
400.0   60.0   0.0
400.0   30.0   16.666666666666668
450.0   30.0   16.666666666666668
400.0   60.0   16.666666666666668
400.0   30.0   33.333333333333336
450.0   30.0   16.666666666666668
450.0   60.0   16.666666666666668
400.0   60.0   16.666666666666668
450.0   60.0   33.333333333333336
400.0   30.0   33.333333333333336
400.0   60.0   33.333333333333336
450.0   60.0   33.333333333333336
400.0   60.0   16.666666666666668
400.0   30.0   33.333333333333336
450.0   60.0   33.333333333333336
450.0   30.0   33.333333333333336
450.0   30.0   16.666666666666668
400.0   30.0   33.333333333333336
450.0   60.0   33.333333333333336
450.0   30.0   16.666666666666668
400.0   60.0   16.666666666666668
400.0   30.0   33.333333333333336
450.0   30.0   33.333333333333336
400.0   60.0   33.333333333333336
400.0   30.0   50.0
450.0   30.0   33.333333333333336
450.0   60.0   33.333333333333336
400.0   60.0   33.333333333333336
450.0   60.0   50.0
400.0   30.0   50.0
400.0   60.0   50.0
450.0   60.0   50.0
400.0   60.0   33.333333333333336
400.0   30.0   50.0
450.0   60.0   50.0
450.0   30.0   50.0
450.0   30.0   33.333333333333336
400.0   30.0   50.0
450.0   60.0   50.0
450.0   30.0   33.333333333333336
400.0   60.0   33.333333333333336
400.0   60.0   0.0
450.0   60.0   0.0
400.0   90.0   0.0
400.0   60.0   16.666666666666668
450.0   60.0   0.0
450.0   90.0   0.0
400.0   90.0   0.0
450.0   90.0   16.666666666666668
400.0   60.0   16.666666666666668
400.0   90.0   16.666666666666668
450.0   90.0   16.666666666666668
400.0   90.0   0.0
400.0   60.0   16.666666666666668
450.0   90.0   16.666666666666668
450.0   60.0   16.666666666666668
450.0   60.0   0.0
400.0   60.0   16.666666666666668
450.0   90.0   16.666666666666668
450.0   60.0   0.0
400.0   90.0   0.0
400.0   60.0   16.666666666666668
450.0   60.0   16.666666666666668
400.0   90.0   16.666666666666668
400.0   60.0   33.333333333333336
450.0   60.0   16.666666666666668
450.0   90.0   16.666666666666668
400.0   90.0   16.666666666666668
450.0   90.0   33.333333333333336
400.0   60.0   33.333333333333336
400.0   90.0   33.333333333333336
450.0   90.0   33.333333333333336
400.0   90.0   16.666666666666668
400.0   60.0   33.333333333333336
450.0   90.0   33.333333333333336
450.0   60.0   33.333333333333336
450.0   60.0   16.666666666666668
400.0   60.0   33.333333333333336
450.0   90.0   33.333333333333336
450.0   60.0   16.666666666666668
400.0   90.0   16.666666666666668
400.0   60.0   33.333333333333336
450.0   60.0   33.333333333333336
400.0   90.0   33.333333333333336
400.0   60.0   50.0
450.0   60.0   33.333333333333336
450.0   90.0   33.333333333333336
400.0   90.0   33.333333333333336
450.0   90.0   50.0
400.0   60.0   50.0
400.0   90.0   50.0
450.0   90.0   50.0
400.0   90.0   33.333333333333336
400.0   60.0   50.0
450.0   90.0   50.0
450.0   60.0   50.0
450.0   60.0   33.333333333333336
400.0   60.0   50.0
450.0   90.0   50.0
450.0   60.0   33.333333333333336
400.0   90.0   33.333333333333336
400.0   90.0   0.0
450.0   90.0   0.0
400.0   120.0   0.0
400.0   90.0   16.666666666666668
450.0   90.0   0.0
450.0   120.0   0.0
400.0   120.0   0.0
450.0   120.0   16.666666666666668
400.0   90.0   16.666666666666668
400.0   120.0   16.666666666666668
450.0   120.0   16.666666666666668
400.0   120.0   0.0
400.0   90.0   16.666666666666668
450.0   120.0   16.666666666666668
450.0   90.0   16.666666666666668
450.0   90.0   0.0
400.0   90.0   16.666666666666668
450.0   120.0   16.666666666666668
450.0   90.0   0.0
400.0   120.0   0.0
400.0   90.0   16.666666666666668
450.0   90.0   16.666666666666668
400.0   120.0   16.666666666666668
400.0   90.0   33.333333333333336
450.0   90.0   16.666666666666668
450.0   120.0   16.666666666666668
400.0   120.0   16.666666666666668
450.0   120.0   33.333333333333336
400.0   90.0   33.333333333333336
400.0   120.0   33.333333333333336
450.0   120.0   33.333333333333336
400.0   120.0   16.666666666666668
400.0   90.0   33.333333333333336
450.0   120.0   33.333333333333336
450.0   90.0   33.333333333333336
450.0   90.0   16.666666666666668
400.0   90.0   33.333333333333336
450.0   120.0   33.333333333333336
450.0   90.0   16.666666666666668
400.0   120.0   16.666666666666668
400.0   90.0   33.333333333333336
450.0   90.0   33.333333333333336
400.0   120.0   33.333333333333336
400.0   90.0   50.0
450.0   90.0   33.333333333333336
450.0   120.0   33.333333333333336
400.0   120.0   33.333333333333336
450.0   120.0   50.0
400.0   90.0   50.0
400.0   120.0   50.0
450.0   120.0   50.0
400.0   120.0   33.333333333333336
400.0   90.0   50.0
450.0   120.0   50.0
450.0   90.0   50.0
450.0   90.0   33.333333333333336
400.0   90.0   50.0
450.0   120.0   50.0
450.0   90.0   33.333333333333336
400.0   120.0   33.333333333333336
400.0   120.0   0.0
450.0   120.0   0.0
400.0   150.0   0.0
400.0   120.0   16.666666666666668
450.0   120.0   0.0
450.0   150.0   0.0
400.0   150.0   0.0
450.0   150.0   16.666666666666668
400.0   120.0   16.666666666666668
400.0   150.0   16.666666666666668
450.0   150.0   16.666666666666668
400.0   150.0   0.0
400.0   120.0   16.666666666666668
450.0   150.0   16.666666666666668
450.0   120.0   16.666666666666668
450.0   120.0   0.0
400.0   120.0   16.666666666666668
450.0   150.0   16.666666666666668
450.0   120.0   0.0
400.0   150.0   0.0
400.0   120.0   16.666666666666668
450.0   120.0   16.666666666666668
400.0   150.0   16.666666666666668
400.0   120.0   33.333333333333336
450.0   120.0   16.666666666666668
450.0   150.0   16.666666666666668
400.0   150.0   16.666666666666668
450.0   150.0   33.333333333333336
400.0   120.0   33.333333333333336
400.0   150.0   33.333333333333336
450.0   150.0   33.333333333333336
400.0   150.0   16.666666666666668
400.0   120.0   33.333333333333336
450.0   150.0   33.333333333333336
450.0   120.0   33.333333333333336
450.0   120.0   16.666666666666668
400.0   120.0   33.333333333333336
450.0   150.0   33.333333333333336
450.0   120.0   16.666666666666668
400.0   150.0   16.666666666666668
400.0   120.0   33.333333333333336
450.0   120.0   33.333333333333336
400.0   150.0   33.333333333333336
400.0   120.0   50.0
450.0   120.0   33.333333333333336
450.0   150.0   33.333333333333336
400.0   150.0   33.333333333333336
450.0   150.0   50.0
400.0   120.0   50.0
400.0   150.0   50.0
450.0   150.0   50.0
400.0   150.0   33.333333333333336
400.0   120.0   50.0
450.0   150.0   50.0
450.0   120.0   50.0
450.0   120.0   33.333333333333336
400.0   120.0   50.0
450.0   150.0   50.0
450.0   120.0   33.333333333333336
400.0   150.0   33.333333333333336
450.0   0.0   0.0
500.0   0.0   0.0
450.0   30.0   0.0
450.0   0.0   16.666666666666668
500.0   0.0   0.0
500.0   30.0   0.0
450.0   30.0   0.0
500.0   30.0   16.666666666666668
450.0   0.0   16.666666666666668
450.0   30.0   16.666666666666668
500.0   30.0   16.666666666666668
450.0   30.0   0.0
450.0   0.0   16.666666666666668
500.0   30.0   16.666666666666668
500.0   0.0   16.666666666666668
500.0   0.0   0.0
450.0   0.0   16.666666666666668
500.0   30.0   16.666666666666668
500.0   0.0   0.0
450.0   30.0   0.0
450.0   0.0   16.666666666666668
500.0   0.0   16.666666666666668
450.0   30.0   16.666666666666668
450.0   0.0   33.333333333333336
500.0   0.0   16.666666666666668
500.0   30.0   16.666666666666668
450.0   30.0   16.666666666666668
500.0   30.0   33.333333333333336
450.0   0.0   33.333333333333336
450.0   30.0   33.333333333333336
500.0   30.0   33.333333333333336
450.0   30.0   16.666666666666668
450.0   0.0   33.333333333333336
500.0   30.0   33.333333333333336
500.0   0.0   33.333333333333336
500.0   0.0   16.666666666666668
450.0   0.0   33.333333333333336
500.0   30.0   33.333333333333336
500.0   0.0   16.666666666666668
450.0   30.0   16.666666666666668
450.0   0.0   33.333333333333336
500.0   0.0   33.333333333333336
450.0   30.0   33.333333333333336
450.0   0.0   50.0
500.0   0.0   33.333333333333336
500.0   30.0   33.333333333333336
450.0   30.0   33.333333333333336
500.0   30.0   50.0
450.0   0.0   50.0
450.0   30.0   50.0
500.0   30.0   50.0
450.0   30.0   33.333333333333336
450.0   0.0   50.0
500.0   30.0   50.0
500.0   0.0   50.0
500.0   0.0   33.333333333333336
450.0   0.0   50.0
500.0   30.0   50.0
500.0   0.0   33.333333333333336
450.0   30.0   33.333333333333336
450.0   30.0   0.0
500.0   30.0   0.0
450.0   60.0   0.0
450.0   30.0   16.666666666666668
500.0   30.0   0.0
500.0   60.0   0.0
450.0   60.0   0.0
500.0   60.0   16.666666666666668
450.0   30.0   16.666666666666668
450.0   60.0   16.666666666666668
500.0   60.0   16.666666666666668
450.0   60.0   0.0
450.0   30.0   16.666666666666668
500.0   60.0   16.666666666666668
500.0   30.0   16.666666666666668
500.0   30.0   0.0
450.0   30.0   16.666666666666668
500.0   60.0   16.666666666666668
500.0   30.0   0.0
450.0   60.0   0.0
450.0   30.0   16.666666666666668
500.0   30.0   16.666666666666668
450.0   60.0   16.666666666666668
450.0   30.0   33.333333333333336
500.0   30.0   16.666666666666668
500.0   60.0   16.666666666666668
450.0   60.0   16.666666666666668
500.0   60.0   33.333333333333336
450.0   30.0   33.333333333333336
450.0   60.0   33.333333333333336
500.0   60.0   33.333333333333336
450.0   60.0   16.666666666666668
450.0   30.0   33.333333333333336
500.0   60.0   33.333333333333336
500.0   30.0   33.333333333333336
500.0   30.0   16.666666666666668
450.0   30.0   33.333333333333336
500.0   60.0   33.333333333333336
500.0   30.0   16.666666666666668
450.0   60.0   16.666666666666668
450.0   30.0   33.333333333333336
500.0   30.0   33.333333333333336
450.0   60.0   33.333333333333336
450.0   30.0   50.0
500.0   30.0   33.333333333333336
500.0   60.0   33.333333333333336
450.0   60.0   33.333333333333336
500.0   60.0   50.0
450.0   30.0   50.0
450.0   60.0   50.0
500.0   60.0   50.0
450.0   60.0   33.333333333333336
450.0   30.0   50.0
500.0   60.0   50.0
500.0   30.0   50.0
500.0   30.0   33.333333333333336
450.0   30.0   50.0
500.0   60.0   50.0
500.0   30.0   33.333333333333336
450.0   60.0   33.333333333333336
450.0   60.0   0.0
500.0   60.0   0.0
450.0   90.0   0.0
450.0   60.0   16.666666666666668
500.0   60.0   0.0
500.0   90.0   0.0
450.0   90.0   0.0
500.0   90.0   16.666666666666668
450.0   60.0   16.666666666666668
450.0   90.0   16.666666666666668
500.0   90.0   16.666666666666668
450.0   90.0   0.0
450.0   60.0   16.666666666666668
500.0   90.0   16.666666666666668
500.0   60.0   16.666666666666668
500.0   60.0   0.0
450.0   60.0   16.666666666666668
500.0   90.0   16.666666666666668
500.0   60.0   0.0
450.0   90.0   0.0
450.0   60.0   16.666666666666668
500.0   60.0   16.666666666666668
450.0   90.0   16.666666666666668
450.0   60.0   33.333333333333336
500.0   60.0   16.666666666666668
500.0   90.0   16.666666666666668
450.0   90.0   16.666666666666668
500.0   90.0   33.333333333333336
450.0   60.0   33.333333333333336
450.0   90.0   33.333333333333336
500.0   90.0   33.333333333333336
450.0   90.0   16.666666666666668
450.0   60.0   33.333333333333336
500.0   90.0   33.333333333333336
500.0   60.0   33.333333333333336
500.0   60.0   16.666666666666668
450.0   60.0   33.333333333333336
500.0   90.0   33.333333333333336
500.0   60.0   16.666666666666668
450.0   90.0   16.666666666666668
450.0   60.0   33.333333333333336
500.0   60.0   33.333333333333336
450.0   90.0   33.333333333333336
450.0   60.0   50.0
500.0   60.0   33.333333333333336
500.0   90.0   33.333333333333336
450.0   90.0   33.333333333333336
500.0   90.0   50.0
450.0   60.0   50.0
450.0   90.0   50.0
500.0   90.0   50.0
450.0   90.0   33.333333333333336
450.0   60.0   50.0
500.0   90.0   50.0
500.0   60.0   50.0
500.0   60.0   33.333333333333336
450.0   60.0   50.0
500.0   90.0   50.0
500.0   60.0   33.333333333333336
450.0   90.0   33.333333333333336
450.0   90.0   0.0
500.0   90.0   0.0
450.0   120.0   0.0
450.0   90.0   16.666666666666668
500.0   90.0   0.0
500.0   120.0   0.0
450.0   120.0   0.0
500.0   120.0   16.666666666666668
450.0   90.0   16.666666666666668
450.0   120.0   16.666666666666668
500.0   120.0   16.666666666666668
450.0   120.0   0.0
450.0   90.0   16.666666666666668
500.0   120.0   16.666666666666668
500.0   90.0   16.666666666666668
500.0   90.0   0.0
450.0   90.0   16.666666666666668
500.0   120.0   16.666666666666668
500.0   90.0   0.0
450.0   120.0   0.0
450.0   90.0   16.666666666666668
500.0   90.0   16.666666666666668
450.0   120.0   16.666666666666668
450.0   90.0   33.333333333333336
500.0   90.0   16.666666666666668
500.0   120.0   16.666666666666668
450.0   120.0   16.666666666666668
500.0   120.0   33.333333333333336
450.0   90.0   33.333333333333336
450.0   120.0   33.333333333333336
500.0   120.0   33.333333333333336
450.0   120.0   16.666666666666668
450.0   90.0   33.333333333333336
500.0   120.0   33.333333333333336
500.0   90.0   33.333333333333336
500.0   90.0   16.666666666666668
450.0   90.0   33.333333333333336
500.0   120.0   33.333333333333336
500.0   90.0   16.666666666666668
450.0   120.0   16.666666666666668
450.0   90.0   33.333333333333336
500.0   90.0   33.333333333333336
450.0   120.0   33.333333333333336
450.0   90.0   50.0
500.0   90.0   33.333333333333336
500.0   120.0   33.333333333333336
450.0   120.0   33.333333333333336
500.0   120.0   50.0
450.0   90.0   50.0
450.0   120.0   50.0
500.0   120.0   50.0
450.0   120.0   33.333333333333336
450.0   90.0   50.0
500.0   120.0   50.0
500.0   90.0   50.0
500.0   90.0   33.333333333333336
450.0   90.0   50.0
500.0   120.0   50.0
500.0   90.0   33.333333333333336
450.0   120.0   33.333333333333336
450.0   120.0   0.0
500.0   120.0   0.0
450.0   150.0   0.0
450.0   120.0   16.666666666666668
500.0   120.0   0.0
500.0   150.0   0.0
450.0   150.0   0.0
500.0   150.0   16.666666666666668
450.0   120.0   16.666666666666668
450.0   150.0   16.666666666666668
500.0   150.0   16.666666666666668
450.0   150.0   0.0
450.0   120.0   16.666666666666668
500.0   150.0   16.666666666666668
500.0   120.0   16.666666666666668
500.0   120.0   0.0
450.0   120.0   16.666666666666668
500.0   150.0   16.666666666666668
500.0   120.0   0.0
450.0   150.0   0.0
450.0   120.0   16.666666666666668
500.0   120.0   16.666666666666668
450.0   150.0   16.666666666666668
450.0   120.0   33.333333333333336
500.0   120.0   16.666666666666668
500.0   150.0   16.666666666666668
450.0   150.0   16.666666666666668
500.0   150.0   33.333333333333336
450.0   120.0   33.333333333333336
450.0   150.0   33.333333333333336
500.0   150.0   33.333333333333336
450.0   150.0   16.666666666666668
450.0   120.0   33.333333333333336
500.0   150.0   33.333333333333336
500.0   120.0   33.333333333333336
500.0   120.0   16.666666666666668
450.0   120.0   33.333333333333336
500.0   150.0   33.333333333333336
500.0   120.0   16.666666666666668
450.0   150.0   16.666666666666668
450.0   120.0   33.333333333333336
500.0   120.0   33.333333333333336
450.0   150.0   33.333333333333336
450.0   120.0   50.0
500.0   120.0   33.333333333333336
500.0   150.0   33.333333333333336
450.0   150.0   33.333333333333336
500.0   150.0   50.0
450.0   120.0   50.0
450.0   150.0   50.0
500.0   150.0   50.0
450.0   150.0   33.333333333333336
450.0   120.0   50.0
500.0   150.0   50.0
500.0   120.0   50.0
500.0   120.0   33.333333333333336
450.0   120.0   50.0
500.0   150.0   50.0
500.0   120.0   33.333333333333336
450.0   150.0   33.333333333333336
             </DataArray>   
          </Points>  
          <Cells>  
             <DataArray type="Int32" Name="connectivity" format="ascii">   
0   1   2   3
4   5   6   7
8   9   10   11
12   13   14   15
16   17   18   19
20   21   22   23
24   25   26   27
28   29   30   31
32   33   34   35
36   37   38   39
40   41   42   43
44   45   46   47
48   49   50   51
52   53   54   55
56   57   58   59
60   61   62   63
64   65   66   67
68   69   70   71
72   73   74   75
76   77   78   79
80   81   82   83
84   85   86   87
88   89   90   91
92   93   94   95
96   97   98   99
100   101   102   103
104   105   106   107
108   109   110   111
112   113   114   115
116   117   118   119
120   121   122   123
124   125   126   127
128   129   130   131
132   133   134   135
136   137   138   139
140   141   142   143
144   145   146   147
148   149   150   151
152   153   154   155
156   157   158   159
160   161   162   163
164   165   166   167
168   169   170   171
172   173   174   175
176   177   178   179
180   181   182   183
184   185   186   187
188   189   190   191
192   193   194   195
196   197   198   199
200   201   202   203
204   205   206   207
208   209   210   211
212   213   214   215
216   217   218   219
220   221   222   223
224   225   226   227
228   229   230   231
232   233   234   235
236   237   238   239
240   241   242   243
244   245   246   247
248   249   250   251
252   253   254   255
256   257   258   259
260   261   262   263
264   265   266   267
268   269   270   271
272   273   274   275
276   277   278   279
280   281   282   283
284   285   286   287
288   289   290   291
292   293   294   295
296   297   298   299
300   301   302   303
304   305   306   307
308   309   310   311
312   313   314   315
316   317   318   319
320   321   322   323
324   325   326   327
328   329   330   331
332   333   334   335
336   337   338   339
340   341   342   343
344   345   346   347
348   349   350   351
352   353   354   355
356   357   358   359
360   361   362   363
364   365   366   367
368   369   370   371
372   373   374   375
376   377   378   379
380   381   382   383
384   385   386   387
388   389   390   391
392   393   394   395
396   397   398   399
400   401   402   403
404   405   406   407
408   409   410   411
412   413   414   415
416   417   418   419
420   421   422   423
424   425   426   427
428   429   430   431
432   433   434   435
436   437   438   439
440   441   442   443
444   445   446   447
448   449   450   451
452   453   454   455
456   457   458   459
460   461   462   463
464   465   466   467
468   469   470   471
472   473   474   475
476   477   478   479
480   481   482   483
484   485   486   487
488   489   490   491
492   493   494   495
496   497   498   499
500   501   502   503
504   505   506   507
508   509   510   511
512   513   514   515
516   517   518   519
520   521   522   523
524   525   526   527
528   529   530   531
532   533   534   535
536   537   538   539
540   541   542   543
544   545   546   547
548   549   550   551
552   553   554   555
556   557   558   559
560   561   562   563
564   565   566   567
568   569   570   571
572   573   574   575
576   577   578   579
580   581   582   583
584   585   586   587
588   589   590   591
592   593   594   595
596   597   598   599
600   601   602   603
604   605   606   607
608   609   610   611
612   613   614   615
616   617   618   619
620   621   622   623
624   625   626   627
628   629   630   631
632   633   634   635
636   637   638   639
640   641   642   643
644   645   646   647
648   649   650   651
652   653   654   655
656   657   658   659
660   661   662   663
664   665   666   667
668   669   670   671
672   673   674   675
676   677   678   679
680   681   682   683
684   685   686   687
688   689   690   691
692   693   694   695
696   697   698   699
700   701   702   703
704   705   706   707
708   709   710   711
712   713   714   715
716   717   718   719
720   721   722   723
724   725   726   727
728   729   730   731
732   733   734   735
736   737   738   739
740   741   742   743
744   745   746   747
748   749   750   751
752   753   754   755
756   757   758   759
760   761   762   763
764   765   766   767
768   769   770   771
772   773   774   775
776   777   778   779
780   781   782   783
784   785   786   787
788   789   790   791
792   793   794   795
796   797   798   799
800   801   802   803
804   805   806   807
808   809   810   811
812   813   814   815
816   817   818   819
820   821   822   823
824   825   826   827
828   829   830   831
832   833   834   835
836   837   838   839
840   841   842   843
844   845   846   847
848   849   850   851
852   853   854   855
856   857   858   859
860   861   862   863
864   865   866   867
868   869   870   871
872   873   874   875
876   877   878   879
880   881   882   883
884   885   886   887
888   889   890   891
892   893   894   895
896   897   898   899
900   901   902   903
904   905   906   907
908   909   910   911
912   913   914   915
916   917   918   919
920   921   922   923
924   925   926   927
928   929   930   931
932   933   934   935
936   937   938   939
940   941   942   943
944   945   946   947
948   949   950   951
952   953   954   955
956   957   958   959
960   961   962   963
964   965   966   967
968   969   970   971
972   973   974   975
976   977   978   979
980   981   982   983
984   985   986   987
988   989   990   991
992   993   994   995
996   997   998   999
1000   1001   1002   1003
1004   1005   1006   1007
1008   1009   1010   1011
1012   1013   1014   1015
1016   1017   1018   1019
1020   1021   1022   1023
1024   1025   1026   1027
1028   1029   1030   1031
1032   1033   1034   1035
1036   1037   1038   1039
1040   1041   1042   1043
1044   1045   1046   1047
1048   1049   1050   1051
1052   1053   1054   1055
1056   1057   1058   1059
1060   1061   1062   1063
1064   1065   1066   1067
1068   1069   1070   1071
1072   1073   1074   1075
1076   1077   1078   1079
1080   1081   1082   1083
1084   1085   1086   1087
1088   1089   1090   1091
1092   1093   1094   1095
1096   1097   1098   1099
1100   1101   1102   1103
1104   1105   1106   1107
1108   1109   1110   1111
1112   1113   1114   1115
1116   1117   1118   1119
1120   1121   1122   1123
1124   1125   1126   1127
1128   1129   1130   1131
1132   1133   1134   1135
1136   1137   1138   1139
1140   1141   1142   1143
1144   1145   1146   1147
1148   1149   1150   1151
1152   1153   1154   1155
1156   1157   1158   1159
1160   1161   1162   1163
1164   1165   1166   1167
1168   1169   1170   1171
1172   1173   1174   1175
1176   1177   1178   1179
1180   1181   1182   1183
1184   1185   1186   1187
1188   1189   1190   1191
1192   1193   1194   1195
1196   1197   1198   1199
1200   1201   1202   1203
1204   1205   1206   1207
1208   1209   1210   1211
1212   1213   1214   1215
1216   1217   1218   1219
1220   1221   1222   1223
1224   1225   1226   1227
1228   1229   1230   1231
1232   1233   1234   1235
1236   1237   1238   1239
1240   1241   1242   1243
1244   1245   1246   1247
1248   1249   1250   1251
1252   1253   1254   1255
1256   1257   1258   1259
1260   1261   1262   1263
1264   1265   1266   1267
1268   1269   1270   1271
1272   1273   1274   1275
1276   1277   1278   1279
1280   1281   1282   1283
1284   1285   1286   1287
1288   1289   1290   1291
1292   1293   1294   1295
1296   1297   1298   1299
1300   1301   1302   1303
1304   1305   1306   1307
1308   1309   1310   1311
1312   1313   1314   1315
1316   1317   1318   1319
1320   1321   1322   1323
1324   1325   1326   1327
1328   1329   1330   1331
1332   1333   1334   1335
1336   1337   1338   1339
1340   1341   1342   1343
1344   1345   1346   1347
1348   1349   1350   1351
1352   1353   1354   1355
1356   1357   1358   1359
1360   1361   1362   1363
1364   1365   1366   1367
1368   1369   1370   1371
1372   1373   1374   1375
1376   1377   1378   1379
1380   1381   1382   1383
1384   1385   1386   1387
1388   1389   1390   1391
1392   1393   1394   1395
1396   1397   1398   1399
1400   1401   1402   1403
1404   1405   1406   1407
1408   1409   1410   1411
1412   1413   1414   1415
1416   1417   1418   1419
1420   1421   1422   1423
1424   1425   1426   1427
1428   1429   1430   1431
1432   1433   1434   1435
1436   1437   1438   1439
1440   1441   1442   1443
1444   1445   1446   1447
1448   1449   1450   1451
1452   1453   1454   1455
1456   1457   1458   1459
1460   1461   1462   1463
1464   1465   1466   1467
1468   1469   1470   1471
1472   1473   1474   1475
1476   1477   1478   1479
1480   1481   1482   1483
1484   1485   1486   1487
1488   1489   1490   1491
1492   1493   1494   1495
1496   1497   1498   1499
1500   1501   1502   1503
1504   1505   1506   1507
1508   1509   1510   1511
1512   1513   1514   1515
1516   1517   1518   1519
1520   1521   1522   1523
1524   1525   1526   1527
1528   1529   1530   1531
1532   1533   1534   1535
1536   1537   1538   1539
1540   1541   1542   1543
1544   1545   1546   1547
1548   1549   1550   1551
1552   1553   1554   1555
1556   1557   1558   1559
1560   1561   1562   1563
1564   1565   1566   1567
1568   1569   1570   1571
1572   1573   1574   1575
1576   1577   1578   1579
1580   1581   1582   1583
1584   1585   1586   1587
1588   1589   1590   1591
1592   1593   1594   1595
1596   1597   1598   1599
1600   1601   1602   1603
1604   1605   1606   1607
1608   1609   1610   1611
1612   1613   1614   1615
1616   1617   1618   1619
1620   1621   1622   1623
1624   1625   1626   1627
1628   1629   1630   1631
1632   1633   1634   1635
1636   1637   1638   1639
1640   1641   1642   1643
1644   1645   1646   1647
1648   1649   1650   1651
1652   1653   1654   1655
1656   1657   1658   1659
1660   1661   1662   1663
1664   1665   1666   1667
1668   1669   1670   1671
1672   1673   1674   1675
1676   1677   1678   1679
1680   1681   1682   1683
1684   1685   1686   1687
1688   1689   1690   1691
1692   1693   1694   1695
1696   1697   1698   1699
1700   1701   1702   1703
1704   1705   1706   1707
1708   1709   1710   1711
1712   1713   1714   1715
1716   1717   1718   1719
1720   1721   1722   1723
1724   1725   1726   1727
1728   1729   1730   1731
1732   1733   1734   1735
1736   1737   1738   1739
1740   1741   1742   1743
1744   1745   1746   1747
1748   1749   1750   1751
1752   1753   1754   1755
1756   1757   1758   1759
1760   1761   1762   1763
1764   1765   1766   1767
1768   1769   1770   1771
1772   1773   1774   1775
1776   1777   1778   1779
1780   1781   1782   1783
1784   1785   1786   1787
1788   1789   1790   1791
1792   1793   1794   1795
1796   1797   1798   1799
1800   1801   1802   1803
1804   1805   1806   1807
1808   1809   1810   1811
1812   1813   1814   1815
1816   1817   1818   1819
1820   1821   1822   1823
1824   1825   1826   1827
1828   1829   1830   1831
1832   1833   1834   1835
1836   1837   1838   1839
1840   1841   1842   1843
1844   1845   1846   1847
1848   1849   1850   1851
1852   1853   1854   1855
1856   1857   1858   1859
1860   1861   1862   1863
1864   1865   1866   1867
1868   1869   1870   1871
1872   1873   1874   1875
1876   1877   1878   1879
1880   1881   1882   1883
1884   1885   1886   1887
1888   1889   1890   1891
1892   1893   1894   1895
1896   1897   1898   1899
1900   1901   1902   1903
1904   1905   1906   1907
1908   1909   1910   1911
1912   1913   1914   1915
1916   1917   1918   1919
1920   1921   1922   1923
1924   1925   1926   1927
1928   1929   1930   1931
1932   1933   1934   1935
1936   1937   1938   1939
1940   1941   1942   1943
1944   1945   1946   1947
1948   1949   1950   1951
1952   1953   1954   1955
1956   1957   1958   1959
1960   1961   1962   1963
1964   1965   1966   1967
1968   1969   1970   1971
1972   1973   1974   1975
1976   1977   1978   1979
1980   1981   1982   1983
1984   1985   1986   1987
1988   1989   1990   1991
1992   1993   1994   1995
1996   1997   1998   1999
2000   2001   2002   2003
2004   2005   2006   2007
2008   2009   2010   2011
2012   2013   2014   2015
2016   2017   2018   2019
2020   2021   2022   2023
2024   2025   2026   2027
2028   2029   2030   2031
2032   2033   2034   2035
2036   2037   2038   2039
2040   2041   2042   2043
2044   2045   2046   2047
2048   2049   2050   2051
2052   2053   2054   2055
2056   2057   2058   2059
2060   2061   2062   2063
2064   2065   2066   2067
2068   2069   2070   2071
2072   2073   2074   2075
2076   2077   2078   2079
2080   2081   2082   2083
2084   2085   2086   2087
2088   2089   2090   2091
2092   2093   2094   2095
2096   2097   2098   2099
2100   2101   2102   2103
2104   2105   2106   2107
2108   2109   2110   2111
2112   2113   2114   2115
2116   2117   2118   2119
2120   2121   2122   2123
2124   2125   2126   2127
2128   2129   2130   2131
2132   2133   2134   2135
2136   2137   2138   2139
2140   2141   2142   2143
2144   2145   2146   2147
2148   2149   2150   2151
2152   2153   2154   2155
2156   2157   2158   2159
2160   2161   2162   2163
2164   2165   2166   2167
2168   2169   2170   2171
2172   2173   2174   2175
2176   2177   2178   2179
2180   2181   2182   2183
2184   2185   2186   2187
2188   2189   2190   2191
2192   2193   2194   2195
2196   2197   2198   2199
2200   2201   2202   2203
2204   2205   2206   2207
2208   2209   2210   2211
2212   2213   2214   2215
2216   2217   2218   2219
2220   2221   2222   2223
2224   2225   2226   2227
2228   2229   2230   2231
2232   2233   2234   2235
2236   2237   2238   2239
2240   2241   2242   2243
2244   2245   2246   2247
2248   2249   2250   2251
2252   2253   2254   2255
2256   2257   2258   2259
2260   2261   2262   2263
2264   2265   2266   2267
2268   2269   2270   2271
2272   2273   2274   2275
2276   2277   2278   2279
2280   2281   2282   2283
2284   2285   2286   2287
2288   2289   2290   2291
2292   2293   2294   2295
2296   2297   2298   2299
2300   2301   2302   2303
2304   2305   2306   2307
2308   2309   2310   2311
2312   2313   2314   2315
2316   2317   2318   2319
2320   2321   2322   2323
2324   2325   2326   2327
2328   2329   2330   2331
2332   2333   2334   2335
2336   2337   2338   2339
2340   2341   2342   2343
2344   2345   2346   2347
2348   2349   2350   2351
2352   2353   2354   2355
2356   2357   2358   2359
2360   2361   2362   2363
2364   2365   2366   2367
2368   2369   2370   2371
2372   2373   2374   2375
2376   2377   2378   2379
2380   2381   2382   2383
2384   2385   2386   2387
2388   2389   2390   2391
2392   2393   2394   2395
2396   2397   2398   2399
2400   2401   2402   2403
2404   2405   2406   2407
2408   2409   2410   2411
2412   2413   2414   2415
2416   2417   2418   2419
2420   2421   2422   2423
2424   2425   2426   2427
2428   2429   2430   2431
2432   2433   2434   2435
2436   2437   2438   2439
2440   2441   2442   2443
2444   2445   2446   2447
2448   2449   2450   2451
2452   2453   2454   2455
2456   2457   2458   2459
2460   2461   2462   2463
2464   2465   2466   2467
2468   2469   2470   2471
2472   2473   2474   2475
2476   2477   2478   2479
2480   2481   2482   2483
2484   2485   2486   2487
2488   2489   2490   2491
2492   2493   2494   2495
2496   2497   2498   2499
2500   2501   2502   2503
2504   2505   2506   2507
2508   2509   2510   2511
2512   2513   2514   2515
2516   2517   2518   2519
2520   2521   2522   2523
2524   2525   2526   2527
2528   2529   2530   2531
2532   2533   2534   2535
2536   2537   2538   2539
2540   2541   2542   2543
2544   2545   2546   2547
2548   2549   2550   2551
2552   2553   2554   2555
2556   2557   2558   2559
2560   2561   2562   2563
2564   2565   2566   2567
2568   2569   2570   2571
2572   2573   2574   2575
2576   2577   2578   2579
2580   2581   2582   2583
2584   2585   2586   2587
2588   2589   2590   2591
2592   2593   2594   2595
2596   2597   2598   2599
2600   2601   2602   2603
2604   2605   2606   2607
2608   2609   2610   2611
2612   2613   2614   2615
2616   2617   2618   2619
2620   2621   2622   2623
2624   2625   2626   2627
2628   2629   2630   2631
2632   2633   2634   2635
2636   2637   2638   2639
2640   2641   2642   2643
2644   2645   2646   2647
2648   2649   2650   2651
2652   2653   2654   2655
2656   2657   2658   2659
2660   2661   2662   2663
2664   2665   2666   2667
2668   2669   2670   2671
2672   2673   2674   2675
2676   2677   2678   2679
2680   2681   2682   2683
2684   2685   2686   2687
2688   2689   2690   2691
2692   2693   2694   2695
2696   2697   2698   2699
2700   2701   2702   2703
2704   2705   2706   2707
2708   2709   2710   2711
2712   2713   2714   2715
2716   2717   2718   2719
2720   2721   2722   2723
2724   2725   2726   2727
2728   2729   2730   2731
2732   2733   2734   2735
2736   2737   2738   2739
2740   2741   2742   2743
2744   2745   2746   2747
2748   2749   2750   2751
2752   2753   2754   2755
2756   2757   2758   2759
2760   2761   2762   2763
2764   2765   2766   2767
2768   2769   2770   2771
2772   2773   2774   2775
2776   2777   2778   2779
2780   2781   2782   2783
2784   2785   2786   2787
2788   2789   2790   2791
2792   2793   2794   2795
2796   2797   2798   2799
2800   2801   2802   2803
2804   2805   2806   2807
2808   2809   2810   2811
2812   2813   2814   2815
2816   2817   2818   2819
2820   2821   2822   2823
2824   2825   2826   2827
2828   2829   2830   2831
2832   2833   2834   2835
2836   2837   2838   2839
2840   2841   2842   2843
2844   2845   2846   2847
2848   2849   2850   2851
2852   2853   2854   2855
2856   2857   2858   2859
2860   2861   2862   2863
2864   2865   2866   2867
2868   2869   2870   2871
2872   2873   2874   2875
2876   2877   2878   2879
2880   2881   2882   2883
2884   2885   2886   2887
2888   2889   2890   2891
2892   2893   2894   2895
2896   2897   2898   2899
2900   2901   2902   2903
2904   2905   2906   2907
2908   2909   2910   2911
2912   2913   2914   2915
2916   2917   2918   2919
2920   2921   2922   2923
2924   2925   2926   2927
2928   2929   2930   2931
2932   2933   2934   2935
2936   2937   2938   2939
2940   2941   2942   2943
2944   2945   2946   2947
2948   2949   2950   2951
2952   2953   2954   2955
2956   2957   2958   2959
2960   2961   2962   2963
2964   2965   2966   2967
2968   2969   2970   2971
2972   2973   2974   2975
2976   2977   2978   2979
2980   2981   2982   2983
2984   2985   2986   2987
2988   2989   2990   2991
2992   2993   2994   2995
2996   2997   2998   2999
3000   3001   3002   3003
3004   3005   3006   3007
3008   3009   3010   3011
3012   3013   3014   3015
3016   3017   3018   3019
3020   3021   3022   3023
3024   3025   3026   3027
3028   3029   3030   3031
3032   3033   3034   3035
3036   3037   3038   3039
3040   3041   3042   3043
3044   3045   3046   3047
3048   3049   3050   3051
3052   3053   3054   3055
3056   3057   3058   3059
3060   3061   3062   3063
3064   3065   3066   3067
3068   3069   3070   3071
3072   3073   3074   3075
3076   3077   3078   3079
3080   3081   3082   3083
3084   3085   3086   3087
3088   3089   3090   3091
3092   3093   3094   3095
3096   3097   3098   3099
3100   3101   3102   3103
3104   3105   3106   3107
3108   3109   3110   3111
3112   3113   3114   3115
3116   3117   3118   3119
3120   3121   3122   3123
3124   3125   3126   3127
3128   3129   3130   3131
3132   3133   3134   3135
3136   3137   3138   3139
3140   3141   3142   3143
3144   3145   3146   3147
3148   3149   3150   3151
3152   3153   3154   3155
3156   3157   3158   3159
3160   3161   3162   3163
3164   3165   3166   3167
3168   3169   3170   3171
3172   3173   3174   3175
3176   3177   3178   3179
3180   3181   3182   3183
3184   3185   3186   3187
3188   3189   3190   3191
3192   3193   3194   3195
3196   3197   3198   3199
3200   3201   3202   3203
3204   3205   3206   3207
3208   3209   3210   3211
3212   3213   3214   3215
3216   3217   3218   3219
3220   3221   3222   3223
3224   3225   3226   3227
3228   3229   3230   3231
3232   3233   3234   3235
3236   3237   3238   3239
3240   3241   3242   3243
3244   3245   3246   3247
3248   3249   3250   3251
3252   3253   3254   3255
3256   3257   3258   3259
3260   3261   3262   3263
3264   3265   3266   3267
3268   3269   3270   3271
3272   3273   3274   3275
3276   3277   3278   3279
3280   3281   3282   3283
3284   3285   3286   3287
3288   3289   3290   3291
3292   3293   3294   3295
3296   3297   3298   3299
3300   3301   3302   3303
3304   3305   3306   3307
3308   3309   3310   3311
3312   3313   3314   3315
3316   3317   3318   3319
3320   3321   3322   3323
3324   3325   3326   3327
3328   3329   3330   3331
3332   3333   3334   3335
3336   3337   3338   3339
3340   3341   3342   3343
3344   3345   3346   3347
3348   3349   3350   3351
3352   3353   3354   3355
3356   3357   3358   3359
3360   3361   3362   3363
3364   3365   3366   3367
3368   3369   3370   3371
3372   3373   3374   3375
3376   3377   3378   3379
3380   3381   3382   3383
3384   3385   3386   3387
3388   3389   3390   3391
3392   3393   3394   3395
3396   3397   3398   3399
3400   3401   3402   3403
3404   3405   3406   3407
3408   3409   3410   3411
3412   3413   3414   3415
3416   3417   3418   3419
3420   3421   3422   3423
3424   3425   3426   3427
3428   3429   3430   3431
3432   3433   3434   3435
3436   3437   3438   3439
3440   3441   3442   3443
3444   3445   3446   3447
3448   3449   3450   3451
3452   3453   3454   3455
3456   3457   3458   3459
3460   3461   3462   3463
3464   3465   3466   3467
3468   3469   3470   3471
3472   3473   3474   3475
3476   3477   3478   3479
3480   3481   3482   3483
3484   3485   3486   3487
3488   3489   3490   3491
3492   3493   3494   3495
3496   3497   3498   3499
3500   3501   3502   3503
3504   3505   3506   3507
3508   3509   3510   3511
3512   3513   3514   3515
3516   3517   3518   3519
3520   3521   3522   3523
3524   3525   3526   3527
3528   3529   3530   3531
3532   3533   3534   3535
3536   3537   3538   3539
3540   3541   3542   3543
3544   3545   3546   3547
3548   3549   3550   3551
3552   3553   3554   3555
3556   3557   3558   3559
3560   3561   3562   3563
3564   3565   3566   3567
3568   3569   3570   3571
3572   3573   3574   3575
3576   3577   3578   3579
3580   3581   3582   3583
3584   3585   3586   3587
3588   3589   3590   3591
3592   3593   3594   3595
3596   3597   3598   3599
3600   3601   3602   3603
3604   3605   3606   3607
3608   3609   3610   3611
3612   3613   3614   3615
3616   3617   3618   3619
3620   3621   3622   3623
3624   3625   3626   3627
3628   3629   3630   3631
3632   3633   3634   3635
3636   3637   3638   3639
3640   3641   3642   3643
3644   3645   3646   3647
3648   3649   3650   3651
3652   3653   3654   3655
3656   3657   3658   3659
3660   3661   3662   3663
3664   3665   3666   3667
3668   3669   3670   3671
3672   3673   3674   3675
3676   3677   3678   3679
3680   3681   3682   3683
3684   3685   3686   3687
3688   3689   3690   3691
3692   3693   3694   3695
3696   3697   3698   3699
3700   3701   3702   3703
3704   3705   3706   3707
3708   3709   3710   3711
3712   3713   3714   3715
3716   3717   3718   3719
3720   3721   3722   3723
3724   3725   3726   3727
3728   3729   3730   3731
3732   3733   3734   3735
3736   3737   3738   3739
3740   3741   3742   3743
3744   3745   3746   3747
3748   3749   3750   3751
3752   3753   3754   3755
3756   3757   3758   3759
3760   3761   3762   3763
3764   3765   3766   3767
3768   3769   3770   3771
3772   3773   3774   3775
3776   3777   3778   3779
3780   3781   3782   3783
3784   3785   3786   3787
3788   3789   3790   3791
3792   3793   3794   3795
3796   3797   3798   3799
3800   3801   3802   3803
3804   3805   3806   3807
3808   3809   3810   3811
3812   3813   3814   3815
3816   3817   3818   3819
3820   3821   3822   3823
3824   3825   3826   3827
3828   3829   3830   3831
3832   3833   3834   3835
3836   3837   3838   3839
3840   3841   3842   3843
3844   3845   3846   3847
3848   3849   3850   3851
3852   3853   3854   3855
3856   3857   3858   3859
3860   3861   3862   3863
3864   3865   3866   3867
3868   3869   3870   3871
3872   3873   3874   3875
3876   3877   3878   3879
3880   3881   3882   3883
3884   3885   3886   3887
3888   3889   3890   3891
3892   3893   3894   3895
3896   3897   3898   3899
3900   3901   3902   3903
3904   3905   3906   3907
3908   3909   3910   3911
3912   3913   3914   3915
3916   3917   3918   3919
3920   3921   3922   3923
3924   3925   3926   3927
3928   3929   3930   3931
3932   3933   3934   3935
3936   3937   3938   3939
3940   3941   3942   3943
3944   3945   3946   3947
3948   3949   3950   3951
3952   3953   3954   3955
3956   3957   3958   3959
3960   3961   3962   3963
3964   3965   3966   3967
3968   3969   3970   3971
3972   3973   3974   3975
3976   3977   3978   3979
3980   3981   3982   3983
3984   3985   3986   3987
3988   3989   3990   3991
3992   3993   3994   3995
3996   3997   3998   3999
4000   4001   4002   4003
4004   4005   4006   4007
4008   4009   4010   4011
4012   4013   4014   4015
4016   4017   4018   4019
4020   4021   4022   4023
4024   4025   4026   4027
4028   4029   4030   4031
4032   4033   4034   4035
4036   4037   4038   4039
4040   4041   4042   4043
4044   4045   4046   4047
4048   4049   4050   4051
4052   4053   4054   4055
4056   4057   4058   4059
4060   4061   4062   4063
4064   4065   4066   4067
4068   4069   4070   4071
4072   4073   4074   4075
4076   4077   4078   4079
4080   4081   4082   4083
4084   4085   4086   4087
4088   4089   4090   4091
4092   4093   4094   4095
4096   4097   4098   4099
4100   4101   4102   4103
4104   4105   4106   4107
4108   4109   4110   4111
4112   4113   4114   4115
4116   4117   4118   4119
4120   4121   4122   4123
4124   4125   4126   4127
4128   4129   4130   4131
4132   4133   4134   4135
4136   4137   4138   4139
4140   4141   4142   4143
4144   4145   4146   4147
4148   4149   4150   4151
4152   4153   4154   4155
4156   4157   4158   4159
4160   4161   4162   4163
4164   4165   4166   4167
4168   4169   4170   4171
4172   4173   4174   4175
4176   4177   4178   4179
4180   4181   4182   4183
4184   4185   4186   4187
4188   4189   4190   4191
4192   4193   4194   4195
4196   4197   4198   4199
4200   4201   4202   4203
4204   4205   4206   4207
4208   4209   4210   4211
4212   4213   4214   4215
4216   4217   4218   4219
4220   4221   4222   4223
4224   4225   4226   4227
4228   4229   4230   4231
4232   4233   4234   4235
4236   4237   4238   4239
4240   4241   4242   4243
4244   4245   4246   4247
4248   4249   4250   4251
4252   4253   4254   4255
4256   4257   4258   4259
4260   4261   4262   4263
4264   4265   4266   4267
4268   4269   4270   4271
4272   4273   4274   4275
4276   4277   4278   4279
4280   4281   4282   4283
4284   4285   4286   4287
4288   4289   4290   4291
4292   4293   4294   4295
4296   4297   4298   4299
4300   4301   4302   4303
4304   4305   4306   4307
4308   4309   4310   4311
4312   4313   4314   4315
4316   4317   4318   4319
4320   4321   4322   4323
4324   4325   4326   4327
4328   4329   4330   4331
4332   4333   4334   4335
4336   4337   4338   4339
4340   4341   4342   4343
4344   4345   4346   4347
4348   4349   4350   4351
4352   4353   4354   4355
4356   4357   4358   4359
4360   4361   4362   4363
4364   4365   4366   4367
4368   4369   4370   4371
4372   4373   4374   4375
4376   4377   4378   4379
4380   4381   4382   4383
4384   4385   4386   4387
4388   4389   4390   4391
4392   4393   4394   4395
4396   4397   4398   4399
4400   4401   4402   4403
4404   4405   4406   4407
4408   4409   4410   4411
4412   4413   4414   4415
4416   4417   4418   4419
4420   4421   4422   4423
4424   4425   4426   4427
4428   4429   4430   4431
4432   4433   4434   4435
4436   4437   4438   4439
4440   4441   4442   4443
4444   4445   4446   4447
4448   4449   4450   4451
4452   4453   4454   4455
4456   4457   4458   4459
4460   4461   4462   4463
4464   4465   4466   4467
4468   4469   4470   4471
4472   4473   4474   4475
4476   4477   4478   4479
4480   4481   4482   4483
4484   4485   4486   4487
4488   4489   4490   4491
4492   4493   4494   4495
4496   4497   4498   4499
4500   4501   4502   4503
4504   4505   4506   4507
4508   4509   4510   4511
4512   4513   4514   4515
4516   4517   4518   4519
4520   4521   4522   4523
4524   4525   4526   4527
4528   4529   4530   4531
4532   4533   4534   4535
4536   4537   4538   4539
4540   4541   4542   4543
4544   4545   4546   4547
4548   4549   4550   4551
4552   4553   4554   4555
4556   4557   4558   4559
4560   4561   4562   4563
4564   4565   4566   4567
4568   4569   4570   4571
4572   4573   4574   4575
4576   4577   4578   4579
4580   4581   4582   4583
4584   4585   4586   4587
4588   4589   4590   4591
4592   4593   4594   4595
4596   4597   4598   4599
4600   4601   4602   4603
4604   4605   4606   4607
4608   4609   4610   4611
4612   4613   4614   4615
4616   4617   4618   4619
4620   4621   4622   4623
4624   4625   4626   4627
4628   4629   4630   4631
4632   4633   4634   4635
4636   4637   4638   4639
4640   4641   4642   4643
4644   4645   4646   4647
4648   4649   4650   4651
4652   4653   4654   4655
4656   4657   4658   4659
4660   4661   4662   4663
4664   4665   4666   4667
4668   4669   4670   4671
4672   4673   4674   4675
4676   4677   4678   4679
4680   4681   4682   4683
4684   4685   4686   4687
4688   4689   4690   4691
4692   4693   4694   4695
4696   4697   4698   4699
4700   4701   4702   4703
4704   4705   4706   4707
4708   4709   4710   4711
4712   4713   4714   4715
4716   4717   4718   4719
4720   4721   4722   4723
4724   4725   4726   4727
4728   4729   4730   4731
4732   4733   4734   4735
4736   4737   4738   4739
4740   4741   4742   4743
4744   4745   4746   4747
4748   4749   4750   4751
4752   4753   4754   4755
4756   4757   4758   4759
4760   4761   4762   4763
4764   4765   4766   4767
4768   4769   4770   4771
4772   4773   4774   4775
4776   4777   4778   4779
4780   4781   4782   4783
4784   4785   4786   4787
4788   4789   4790   4791
4792   4793   4794   4795
4796   4797   4798   4799
4800   4801   4802   4803
4804   4805   4806   4807
4808   4809   4810   4811
4812   4813   4814   4815
4816   4817   4818   4819
4820   4821   4822   4823
4824   4825   4826   4827
4828   4829   4830   4831
4832   4833   4834   4835
4836   4837   4838   4839
4840   4841   4842   4843
4844   4845   4846   4847
4848   4849   4850   4851
4852   4853   4854   4855
4856   4857   4858   4859
4860   4861   4862   4863
4864   4865   4866   4867
4868   4869   4870   4871
4872   4873   4874   4875
4876   4877   4878   4879
4880   4881   4882   4883
4884   4885   4886   4887
4888   4889   4890   4891
4892   4893   4894   4895
4896   4897   4898   4899
4900   4901   4902   4903
4904   4905   4906   4907
4908   4909   4910   4911
4912   4913   4914   4915
4916   4917   4918   4919
4920   4921   4922   4923
4924   4925   4926   4927
4928   4929   4930   4931
4932   4933   4934   4935
4936   4937   4938   4939
4940   4941   4942   4943
4944   4945   4946   4947
4948   4949   4950   4951
4952   4953   4954   4955
4956   4957   4958   4959
4960   4961   4962   4963
4964   4965   4966   4967
4968   4969   4970   4971
4972   4973   4974   4975
4976   4977   4978   4979
4980   4981   4982   4983
4984   4985   4986   4987
4988   4989   4990   4991
4992   4993   4994   4995
4996   4997   4998   4999
5000   5001   5002   5003
5004   5005   5006   5007
5008   5009   5010   5011
5012   5013   5014   5015
5016   5017   5018   5019
5020   5021   5022   5023
5024   5025   5026   5027
5028   5029   5030   5031
5032   5033   5034   5035
5036   5037   5038   5039
5040   5041   5042   5043
5044   5045   5046   5047
5048   5049   5050   5051
5052   5053   5054   5055
5056   5057   5058   5059
5060   5061   5062   5063
5064   5065   5066   5067
5068   5069   5070   5071
5072   5073   5074   5075
5076   5077   5078   5079
5080   5081   5082   5083
5084   5085   5086   5087
5088   5089   5090   5091
5092   5093   5094   5095
5096   5097   5098   5099
5100   5101   5102   5103
5104   5105   5106   5107
5108   5109   5110   5111
5112   5113   5114   5115
5116   5117   5118   5119
5120   5121   5122   5123
5124   5125   5126   5127
5128   5129   5130   5131
5132   5133   5134   5135
5136   5137   5138   5139
5140   5141   5142   5143
5144   5145   5146   5147
5148   5149   5150   5151
5152   5153   5154   5155
5156   5157   5158   5159
5160   5161   5162   5163
5164   5165   5166   5167
5168   5169   5170   5171
5172   5173   5174   5175
5176   5177   5178   5179
5180   5181   5182   5183
5184   5185   5186   5187
5188   5189   5190   5191
5192   5193   5194   5195
5196   5197   5198   5199
5200   5201   5202   5203
5204   5205   5206   5207
5208   5209   5210   5211
5212   5213   5214   5215
5216   5217   5218   5219
5220   5221   5222   5223
5224   5225   5226   5227
5228   5229   5230   5231
5232   5233   5234   5235
5236   5237   5238   5239
5240   5241   5242   5243
5244   5245   5246   5247
5248   5249   5250   5251
5252   5253   5254   5255
5256   5257   5258   5259
5260   5261   5262   5263
5264   5265   5266   5267
5268   5269   5270   5271
5272   5273   5274   5275
5276   5277   5278   5279
5280   5281   5282   5283
5284   5285   5286   5287
5288   5289   5290   5291
5292   5293   5294   5295
5296   5297   5298   5299
5300   5301   5302   5303
5304   5305   5306   5307
5308   5309   5310   5311
5312   5313   5314   5315
5316   5317   5318   5319
5320   5321   5322   5323
5324   5325   5326   5327
5328   5329   5330   5331
5332   5333   5334   5335
5336   5337   5338   5339
5340   5341   5342   5343
5344   5345   5346   5347
5348   5349   5350   5351
5352   5353   5354   5355
5356   5357   5358   5359
5360   5361   5362   5363
5364   5365   5366   5367
5368   5369   5370   5371
5372   5373   5374   5375
5376   5377   5378   5379
5380   5381   5382   5383
5384   5385   5386   5387
5388   5389   5390   5391
5392   5393   5394   5395
5396   5397   5398   5399
5400   5401   5402   5403
5404   5405   5406   5407
5408   5409   5410   5411
5412   5413   5414   5415
5416   5417   5418   5419
5420   5421   5422   5423
5424   5425   5426   5427
5428   5429   5430   5431
5432   5433   5434   5435
5436   5437   5438   5439
5440   5441   5442   5443
5444   5445   5446   5447
5448   5449   5450   5451
5452   5453   5454   5455
5456   5457   5458   5459
5460   5461   5462   5463
5464   5465   5466   5467
5468   5469   5470   5471
5472   5473   5474   5475
5476   5477   5478   5479
5480   5481   5482   5483
5484   5485   5486   5487
5488   5489   5490   5491
5492   5493   5494   5495
5496   5497   5498   5499
5500   5501   5502   5503
5504   5505   5506   5507
5508   5509   5510   5511
5512   5513   5514   5515
5516   5517   5518   5519
5520   5521   5522   5523
5524   5525   5526   5527
5528   5529   5530   5531
5532   5533   5534   5535
5536   5537   5538   5539
5540   5541   5542   5543
5544   5545   5546   5547
5548   5549   5550   5551
5552   5553   5554   5555
5556   5557   5558   5559
5560   5561   5562   5563
5564   5565   5566   5567
5568   5569   5570   5571
5572   5573   5574   5575
5576   5577   5578   5579
5580   5581   5582   5583
5584   5585   5586   5587
5588   5589   5590   5591
5592   5593   5594   5595
5596   5597   5598   5599
5600   5601   5602   5603
5604   5605   5606   5607
5608   5609   5610   5611
5612   5613   5614   5615
5616   5617   5618   5619
5620   5621   5622   5623
5624   5625   5626   5627
5628   5629   5630   5631
5632   5633   5634   5635
5636   5637   5638   5639
5640   5641   5642   5643
5644   5645   5646   5647
5648   5649   5650   5651
5652   5653   5654   5655
5656   5657   5658   5659
5660   5661   5662   5663
5664   5665   5666   5667
5668   5669   5670   5671
5672   5673   5674   5675
5676   5677   5678   5679
5680   5681   5682   5683
5684   5685   5686   5687
5688   5689   5690   5691
5692   5693   5694   5695
5696   5697   5698   5699
5700   5701   5702   5703
5704   5705   5706   5707
5708   5709   5710   5711
5712   5713   5714   5715
5716   5717   5718   5719
5720   5721   5722   5723
5724   5725   5726   5727
5728   5729   5730   5731
5732   5733   5734   5735
5736   5737   5738   5739
5740   5741   5742   5743
5744   5745   5746   5747
5748   5749   5750   5751
5752   5753   5754   5755
5756   5757   5758   5759
5760   5761   5762   5763
5764   5765   5766   5767
5768   5769   5770   5771
5772   5773   5774   5775
5776   5777   5778   5779
5780   5781   5782   5783
5784   5785   5786   5787
5788   5789   5790   5791
5792   5793   5794   5795
5796   5797   5798   5799
5800   5801   5802   5803
5804   5805   5806   5807
5808   5809   5810   5811
5812   5813   5814   5815
5816   5817   5818   5819
5820   5821   5822   5823
5824   5825   5826   5827
5828   5829   5830   5831
5832   5833   5834   5835
5836   5837   5838   5839
5840   5841   5842   5843
5844   5845   5846   5847
5848   5849   5850   5851
5852   5853   5854   5855
5856   5857   5858   5859
5860   5861   5862   5863
5864   5865   5866   5867
5868   5869   5870   5871
5872   5873   5874   5875
5876   5877   5878   5879
5880   5881   5882   5883
5884   5885   5886   5887
5888   5889   5890   5891
5892   5893   5894   5895
5896   5897   5898   5899
5900   5901   5902   5903
5904   5905   5906   5907
5908   5909   5910   5911
5912   5913   5914   5915
5916   5917   5918   5919
5920   5921   5922   5923
5924   5925   5926   5927
5928   5929   5930   5931
5932   5933   5934   5935
5936   5937   5938   5939
5940   5941   5942   5943
5944   5945   5946   5947
5948   5949   5950   5951
5952   5953   5954   5955
5956   5957   5958   5959
5960   5961   5962   5963
5964   5965   5966   5967
5968   5969   5970   5971
5972   5973   5974   5975
5976   5977   5978   5979
5980   5981   5982   5983
5984   5985   5986   5987
5988   5989   5990   5991
5992   5993   5994   5995
5996   5997   5998   5999
              </DataArray>   
              <DataArray type="Int32" Name="offsets" format="ascii">   
4
8
12
16
20
24
28
32
36
40
44
48
52
56
60
64
68
72
76
80
84
88
92
96
100
104
108
112
116
120
124
128
132
136
140
144
148
152
156
160
164
168
172
176
180
184
188
192
196
200
204
208
212
216
220
224
228
232
236
240
244
248
252
256
260
264
268
272
276
280
284
288
292
296
300
304
308
312
316
320
324
328
332
336
340
344
348
352
356
360
364
368
372
376
380
384
388
392
396
400
404
408
412
416
420
424
428
432
436
440
444
448
452
456
460
464
468
472
476
480
484
488
492
496
500
504
508
512
516
520
524
528
532
536
540
544
548
552
556
560
564
568
572
576
580
584
588
592
596
600
604
608
612
616
620
624
628
632
636
640
644
648
652
656
660
664
668
672
676
680
684
688
692
696
700
704
708
712
716
720
724
728
732
736
740
744
748
752
756
760
764
768
772
776
780
784
788
792
796
800
804
808
812
816
820
824
828
832
836
840
844
848
852
856
860
864
868
872
876
880
884
888
892
896
900
904
908
912
916
920
924
928
932
936
940
944
948
952
956
960
964
968
972
976
980
984
988
992
996
1000
1004
1008
1012
1016
1020
1024
1028
1032
1036
1040
1044
1048
1052
1056
1060
1064
1068
1072
1076
1080
1084
1088
1092
1096
1100
1104
1108
1112
1116
1120
1124
1128
1132
1136
1140
1144
1148
1152
1156
1160
1164
1168
1172
1176
1180
1184
1188
1192
1196
1200
1204
1208
1212
1216
1220
1224
1228
1232
1236
1240
1244
1248
1252
1256
1260
1264
1268
1272
1276
1280
1284
1288
1292
1296
1300
1304
1308
1312
1316
1320
1324
1328
1332
1336
1340
1344
1348
1352
1356
1360
1364
1368
1372
1376
1380
1384
1388
1392
1396
1400
1404
1408
1412
1416
1420
1424
1428
1432
1436
1440
1444
1448
1452
1456
1460
1464
1468
1472
1476
1480
1484
1488
1492
1496
1500
1504
1508
1512
1516
1520
1524
1528
1532
1536
1540
1544
1548
1552
1556
1560
1564
1568
1572
1576
1580
1584
1588
1592
1596
1600
1604
1608
1612
1616
1620
1624
1628
1632
1636
1640
1644
1648
1652
1656
1660
1664
1668
1672
1676
1680
1684
1688
1692
1696
1700
1704
1708
1712
1716
1720
1724
1728
1732
1736
1740
1744
1748
1752
1756
1760
1764
1768
1772
1776
1780
1784
1788
1792
1796
1800
1804
1808
1812
1816
1820
1824
1828
1832
1836
1840
1844
1848
1852
1856
1860
1864
1868
1872
1876
1880
1884
1888
1892
1896
1900
1904
1908
1912
1916
1920
1924
1928
1932
1936
1940
1944
1948
1952
1956
1960
1964
1968
1972
1976
1980
1984
1988
1992
1996
2000
2004
2008
2012
2016
2020
2024
2028
2032
2036
2040
2044
2048
2052
2056
2060
2064
2068
2072
2076
2080
2084
2088
2092
2096
2100
2104
2108
2112
2116
2120
2124
2128
2132
2136
2140
2144
2148
2152
2156
2160
2164
2168
2172
2176
2180
2184
2188
2192
2196
2200
2204
2208
2212
2216
2220
2224
2228
2232
2236
2240
2244
2248
2252
2256
2260
2264
2268
2272
2276
2280
2284
2288
2292
2296
2300
2304
2308
2312
2316
2320
2324
2328
2332
2336
2340
2344
2348
2352
2356
2360
2364
2368
2372
2376
2380
2384
2388
2392
2396
2400
2404
2408
2412
2416
2420
2424
2428
2432
2436
2440
2444
2448
2452
2456
2460
2464
2468
2472
2476
2480
2484
2488
2492
2496
2500
2504
2508
2512
2516
2520
2524
2528
2532
2536
2540
2544
2548
2552
2556
2560
2564
2568
2572
2576
2580
2584
2588
2592
2596
2600
2604
2608
2612
2616
2620
2624
2628
2632
2636
2640
2644
2648
2652
2656
2660
2664
2668
2672
2676
2680
2684
2688
2692
2696
2700
2704
2708
2712
2716
2720
2724
2728
2732
2736
2740
2744
2748
2752
2756
2760
2764
2768
2772
2776
2780
2784
2788
2792
2796
2800
2804
2808
2812
2816
2820
2824
2828
2832
2836
2840
2844
2848
2852
2856
2860
2864
2868
2872
2876
2880
2884
2888
2892
2896
2900
2904
2908
2912
2916
2920
2924
2928
2932
2936
2940
2944
2948
2952
2956
2960
2964
2968
2972
2976
2980
2984
2988
2992
2996
3000
3004
3008
3012
3016
3020
3024
3028
3032
3036
3040
3044
3048
3052
3056
3060
3064
3068
3072
3076
3080
3084
3088
3092
3096
3100
3104
3108
3112
3116
3120
3124
3128
3132
3136
3140
3144
3148
3152
3156
3160
3164
3168
3172
3176
3180
3184
3188
3192
3196
3200
3204
3208
3212
3216
3220
3224
3228
3232
3236
3240
3244
3248
3252
3256
3260
3264
3268
3272
3276
3280
3284
3288
3292
3296
3300
3304
3308
3312
3316
3320
3324
3328
3332
3336
3340
3344
3348
3352
3356
3360
3364
3368
3372
3376
3380
3384
3388
3392
3396
3400
3404
3408
3412
3416
3420
3424
3428
3432
3436
3440
3444
3448
3452
3456
3460
3464
3468
3472
3476
3480
3484
3488
3492
3496
3500
3504
3508
3512
3516
3520
3524
3528
3532
3536
3540
3544
3548
3552
3556
3560
3564
3568
3572
3576
3580
3584
3588
3592
3596
3600
3604
3608
3612
3616
3620
3624
3628
3632
3636
3640
3644
3648
3652
3656
3660
3664
3668
3672
3676
3680
3684
3688
3692
3696
3700
3704
3708
3712
3716
3720
3724
3728
3732
3736
3740
3744
3748
3752
3756
3760
3764
3768
3772
3776
3780
3784
3788
3792
3796
3800
3804
3808
3812
3816
3820
3824
3828
3832
3836
3840
3844
3848
3852
3856
3860
3864
3868
3872
3876
3880
3884
3888
3892
3896
3900
3904
3908
3912
3916
3920
3924
3928
3932
3936
3940
3944
3948
3952
3956
3960
3964
3968
3972
3976
3980
3984
3988
3992
3996
4000
4004
4008
4012
4016
4020
4024
4028
4032
4036
4040
4044
4048
4052
4056
4060
4064
4068
4072
4076
4080
4084
4088
4092
4096
4100
4104
4108
4112
4116
4120
4124
4128
4132
4136
4140
4144
4148
4152
4156
4160
4164
4168
4172
4176
4180
4184
4188
4192
4196
4200
4204
4208
4212
4216
4220
4224
4228
4232
4236
4240
4244
4248
4252
4256
4260
4264
4268
4272
4276
4280
4284
4288
4292
4296
4300
4304
4308
4312
4316
4320
4324
4328
4332
4336
4340
4344
4348
4352
4356
4360
4364
4368
4372
4376
4380
4384
4388
4392
4396
4400
4404
4408
4412
4416
4420
4424
4428
4432
4436
4440
4444
4448
4452
4456
4460
4464
4468
4472
4476
4480
4484
4488
4492
4496
4500
4504
4508
4512
4516
4520
4524
4528
4532
4536
4540
4544
4548
4552
4556
4560
4564
4568
4572
4576
4580
4584
4588
4592
4596
4600
4604
4608
4612
4616
4620
4624
4628
4632
4636
4640
4644
4648
4652
4656
4660
4664
4668
4672
4676
4680
4684
4688
4692
4696
4700
4704
4708
4712
4716
4720
4724
4728
4732
4736
4740
4744
4748
4752
4756
4760
4764
4768
4772
4776
4780
4784
4788
4792
4796
4800
4804
4808
4812
4816
4820
4824
4828
4832
4836
4840
4844
4848
4852
4856
4860
4864
4868
4872
4876
4880
4884
4888
4892
4896
4900
4904
4908
4912
4916
4920
4924
4928
4932
4936
4940
4944
4948
4952
4956
4960
4964
4968
4972
4976
4980
4984
4988
4992
4996
5000
5004
5008
5012
5016
5020
5024
5028
5032
5036
5040
5044
5048
5052
5056
5060
5064
5068
5072
5076
5080
5084
5088
5092
5096
5100
5104
5108
5112
5116
5120
5124
5128
5132
5136
5140
5144
5148
5152
5156
5160
5164
5168
5172
5176
5180
5184
5188
5192
5196
5200
5204
5208
5212
5216
5220
5224
5228
5232
5236
5240
5244
5248
5252
5256
5260
5264
5268
5272
5276
5280
5284
5288
5292
5296
5300
5304
5308
5312
5316
5320
5324
5328
5332
5336
5340
5344
5348
5352
5356
5360
5364
5368
5372
5376
5380
5384
5388
5392
5396
5400
5404
5408
5412
5416
5420
5424
5428
5432
5436
5440
5444
5448
5452
5456
5460
5464
5468
5472
5476
5480
5484
5488
5492
5496
5500
5504
5508
5512
5516
5520
5524
5528
5532
5536
5540
5544
5548
5552
5556
5560
5564
5568
5572
5576
5580
5584
5588
5592
5596
5600
5604
5608
5612
5616
5620
5624
5628
5632
5636
5640
5644
5648
5652
5656
5660
5664
5668
5672
5676
5680
5684
5688
5692
5696
5700
5704
5708
5712
5716
5720
5724
5728
5732
5736
5740
5744
5748
5752
5756
5760
5764
5768
5772
5776
5780
5784
5788
5792
5796
5800
5804
5808
5812
5816
5820
5824
5828
5832
5836
5840
5844
5848
5852
5856
5860
5864
5868
5872
5876
5880
5884
5888
5892
5896
5900
5904
5908
5912
5916
5920
5924
5928
5932
5936
5940
5944
5948
5952
5956
5960
5964
5968
5972
5976
5980
5984
5988
5992
5996
6000
              </DataArray>   
              <DataArray type="UInt8" Name="types" format="ascii">   
10
10
10
10
10
10
10
10
10
10
10
10
10
10
10
10
10
10
10
10
10
10
10
10
10
10
10
10
10
10
10
10
10
10
10
10
10
10
10
10
10
10
10
10
10
10
10
10
10
10
10
10
10
10
10
10
10
10
10
10
10
10
10
10
10
10
10
10
10
10
10
10
10
10
10
10
10
10
10
10
10
10
10
10
10
10
10
10
10
10
10
10
10
10
10
10
10
10
10
10
10
10
10
10
10
10
10
10
10
10
10
10
10
10
10
10
10
10
10
10
10
10
10
10
10
10
10
10
10
10
10
10
10
10
10
10
10
10
10
10
10
10
10
10
10
10
10
10
10
10
10
10
10
10
10
10
10
10
10
10
10
10
10
10
10
10
10
10
10
10
10
10
10
10
10
10
10
10
10
10
10
10
10
10
10
10
10
10
10
10
10
10
10
10
10
10
10
10
10
10
10
10
10
10
10
10
10
10
10
10
10
10
10
10
10
10
10
10
10
10
10
10
10
10
10
10
10
10
10
10
10
10
10
10
10
10
10
10
10
10
10
10
10
10
10
10
10
10
10
10
10
10
10
10
10
10
10
10
10
10
10
10
10
10
10
10
10
10
10
10
10
10
10
10
10
10
10
10
10
10
10
10
10
10
10
10
10
10
10
10
10
10
10
10
10
10
10
10
10
10
10
10
10
10
10
10
10
10
10
10
10
10
10
10
10
10
10
10
10
10
10
10
10
10
10
10
10
10
10
10
10
10
10
10
10
10
10
10
10
10
10
10
10
10
10
10
10
10
10
10
10
10
10
10
10
10
10
10
10
10
10
10
10
10
10
10
10
10
10
10
10
10
10
10
10
10
10
10
10
10
10
10
10
10
10
10
10
10
10
10
10
10
10
10
10
10
10
10
10
10
10
10
10
10
10
10
10
10
10
10
10
10
10
10
10
10
10
10
10
10
10
10
10
10
10
10
10
10
10
10
10
10
10
10
10
10
10
10
10
10
10
10
10
10
10
10
10
10
10
10
10
10
10
10
10
10
10
10
10
10
10
10
10
10
10
10
10
10
10
10
10
10
10
10
10
10
10
10
10
10
10
10
10
10
10
10
10
10
10
10
10
10
10
10
10
10
10
10
10
10
10
10
10
10
10
10
10
10
10
10
10
10
10
10
10
10
10
10
10
10
10
10
10
10
10
10
10
10
10
10
10
10
10
10
10
10
10
10
10
10
10
10
10
10
10
10
10
10
10
10
10
10
10
10
10
10
10
10
10
10
10
10
10
10
10
10
10
10
10
10
10
10
10
10
10
10
10
10
10
10
10
10
10
10
10
10
10
10
10
10
10
10
10
10
10
10
10
10
10
10
10
10
10
10
10
10
10
10
10
10
10
10
10
10
10
10
10
10
10
10
10
10
10
10
10
10
10
10
10
10
10
10
10
10
10
10
10
10
10
10
10
10
10
10
10
10
10
10
10
10
10
10
10
10
10
10
10
10
10
10
10
10
10
10
10
10
10
10
10
10
10
10
10
10
10
10
10
10
10
10
10
10
10
10
10
10
10
10
10
10
10
10
10
10
10
10
10
10
10
10
10
10
10
10
10
10
10
10
10
10
10
10
10
10
10
10
10
10
10
10
10
10
10
10
10
10
10
10
10
10
10
10
10
10
10
10
10
10
10
10
10
10
10
10
10
10
10
10
10
10
10
10
10
10
10
10
10
10
10
10
10
10
10
10
10
10
10
10
10
10
10
10
10
10
10
10
10
10
10
10
10
10
10
10
10
10
10
10
10
10
10
10
10
10
10
10
10
10
10
10
10
10
10
10
10
10
10
10
10
10
10
10
10
10
10
10
10
10
10
10
10
10
10
10
10
10
10
10
10
10
10
10
10
10
10
10
10
10
10
10
10
10
10
10
10
10
10
10
10
10
10
10
10
10
10
10
10
10
10
10
10
10
10
10
10
10
10
10
10
10
10
10
10
10
10
10
10
10
10
10
10
10
10
10
10
10
10
10
10
10
10
10
10
10
10
10
10
10
10
10
10
10
10
10
10
10
10
10
10
10
10
10
10
10
10
10
10
10
10
10
10
10
10
10
10
10
10
10
10
10
10
10
10
10
10
10
10
10
10
10
10
10
10
10
10
10
10
10
10
10
10
10
10
10
10
10
10
10
10
10
10
10
10
10
10
10
10
10
10
10
10
10
10
10
10
10
10
10
10
10
10
10
10
10
10
10
10
10
10
10
10
10
10
10
10
10
10
10
10
10
10
10
10
10
10
10
10
10
10
10
10
10
10
10
10
10
10
10
10
10
10
10
10
10
10
10
10
10
10
10
10
10
10
10
10
10
10
10
10
10
10
10
10
10
10
10
10
10
10
10
10
10
10
10
10
10
10
10
10
10
10
10
10
10
10
10
10
10
10
10
10
10
10
10
10
10
10
10
10
10
10
10
10
10
10
10
10
10
10
10
10
10
10
10
10
10
10
10
10
10
10
10
10
10
10
10
10
10
10
10
10
10
10
10
10
10
10
10
10
10
10
10
10
10
10
10
10
10
10
10
10
10
10
10
10
10
10
10
10
10
10
10
10
10
10
10
10
10
10
10
10
10
10
10
10
10
10
10
10
10
10
10
10
10
10
10
10
10
10
10
10
10
10
10
10
10
10
10
10
10
10
10
10
10
10
10
10
10
10
10
10
10
10
10
10
10
10
10
10
10
10
10
10
10
10
10
10
10
10
10
10
10
10
10
10
10
10
10
10
10
10
10
10
10
10
10
10
10
10
10
10
10
10
10
10
10
10
10
10
10
10
10
10
10
10
10
10
10
10
10
10
10
10
10
10
10
10
10
10
10
10
10
10
10
10
10
10
10
10
10
10
10
10
10
10
10
10
10
10
10
10
10
10
10
10
10
10
10
10
10
10
10
10
10
10
10
10
10
10
10
10
10
10
10
10
10
10
10
10
10
10
10
10
10
10
10
10
10
10
10
10
10
10
10
10
10
10
10
10
10
10
10
10
10
10
10
10
10
10
10
10
10
10
10
10
10
10
10
10
10
10
10
10
10
10
10
10
10
10
10
10
10
10
10
10
10
10
10
10
10
10
10
10
10
10
10
10
10
10
10
10
10
10
10
10
10
10
10
10
10
10
10
10
10
10
10
10
10
10
10
10
10
10
10
10
10
10
10
10
10
10
10
10
10
10
10
10
10
10
10
10
10
10
10
10
10
10
10
10
10
10
10
10
10
10
10
10
10
10
10
10
10
10
10
10
10
10
10
10
10
10
10
10
10
10
10
10
10
10
10
10
10
10
10
10
10
10
10
10
10
10
10
10
10
10
10
10
10
10
10
10
10
10
10
10
10
10
10
10
10
10
10
10
10
10
10
10
10
10
10
              </DataArray>   
          </Cells>  
          <PointData>  
             <DataArray type="Float64" NumberOfComponents="3" Name="Strains" format="ascii">   
-2.5528758638572054e-05   0.0   -1.694577054644598e-05
-2.5528758638572054e-05   0.0   -1.694577054644598e-05
-2.5528758638572054e-05   0.0   -1.694577054644598e-05
-2.5528758638572054e-05   0.0   -1.694577054644598e-05
-1.6225530274966557e-05   2.8027264975200487e-06   2.412459580751822e-07
-1.6225530274966557e-05   2.8027264975200487e-06   2.412459580751822e-07
-1.6225530274966557e-05   2.8027264975200487e-06   2.412459580751822e-07
-1.6225530274966557e-05   2.8027264975200487e-06   2.412459580751822e-07
-1.589160342922211e-05   0.0   -1.6018646170484654e-05
-1.589160342922211e-05   0.0   -1.6018646170484654e-05
-1.589160342922211e-05   0.0   -1.6018646170484654e-05
-1.589160342922211e-05   0.0   -1.6018646170484654e-05
-2.6700930800831677e-05   3.3755191901125136e-06   -2.8412065202814893e-08
-2.6700930800831677e-05   3.3755191901125136e-06   -2.8412065202814893e-08
-2.6700930800831677e-05   3.3755191901125136e-06   -2.8412065202814893e-08
-2.6700930800831677e-05   3.3755191901125136e-06   -2.8412065202814893e-08
-2.0710181033897047e-05   7.726036466344369e-07   -8.451245684007009e-06
-2.0710181033897047e-05   7.726036466344369e-07   -8.451245684007009e-06
-2.0710181033897047e-05   7.726036466344369e-07   -8.451245684007009e-06
-2.0710181033897047e-05   7.726036466344369e-07   -8.451245684007009e-06
-2.6700930800831724e-05   0.0   -1.8043957684552164e-05
-2.6700930800831724e-05   0.0   -1.8043957684552164e-05
-2.6700930800831724e-05   0.0   -1.8043957684552164e-05
-2.6700930800831724e-05   0.0   -1.8043957684552164e-05
-1.589160342922211e-05   3.375519190112517e-06   1.9968994488646953e-06
-1.589160342922211e-05   3.375519190112517e-06   1.9968994488646953e-06
-1.589160342922211e-05   3.375519190112517e-06   1.9968994488646953e-06
-1.589160342922211e-05   3.375519190112517e-06   1.9968994488646953e-06
-1.5922321811396996e-05   0.0   -1.6406931503019293e-05
-1.5922321811396996e-05   0.0   -1.6406931503019293e-05
-1.5922321811396996e-05   0.0   -1.6406931503019293e-05
-1.5922321811396996e-05   0.0   -1.6406931503019293e-05
-2.7517663368398777e-05   3.6196570175016668e-06   7.468435481494185e-07
-2.7517663368398777e-05   3.6196570175016668e-06   7.468435481494185e-07
-2.7517663368398777e-05   3.6196570175016668e-06   7.468435481494185e-07
-2.7517663368398777e-05   3.6196570175016668e-06   7.468435481494185e-07
-2.1311626306114325e-05   1.364188484610724e-06   -8.243270435923435e-06
-2.1311626306114325e-05   1.364188484610724e-06   -8.243270435923435e-06
-2.1311626306114325e-05   1.364188484610724e-06   -8.243270435923435e-06
-2.1311626306114325e-05   1.364188484610724e-06   -8.243270435923435e-06
-2.7517663368398825e-05   0.0   -1.8578725713520298e-05
-2.7517663368398825e-05   0.0   -1.8578725713520298e-05
-2.7517663368398825e-05   0.0   -1.8578725713520298e-05
-2.7517663368398825e-05   0.0   -1.8578725713520298e-05
-1.592232181139697e-05   3.6196570175016668e-06   2.918637758650413e-06
-1.592232181139697e-05   3.6196570175016668e-06   2.918637758650413e-06
-1.592232181139697e-05   3.6196570175016668e-06   2.918637758650413e-06
-1.592232181139697e-05   3.6196570175016668e-06   2.918637758650413e-06
-1.5898059456591583e-05   0.0   -1.6508928572903375e-05
-1.5898059456591583e-05   0.0   -1.6508928572903375e-05
-1.5898059456591583e-05   0.0   -1.6508928572903375e-05
-1.5898059456591583e-05   0.0   -1.6508928572903375e-05
-2.92911217934444e-05   4.133826614415066e-06   3.332546019869016e-06
-2.92911217934444e-05   4.133826614415066e-06   3.332546019869016e-06
-2.92911217934444e-05   4.133826614415066e-06   3.332546019869016e-06
-2.92911217934444e-05   4.133826614415066e-06   3.332546019869016e-06
-2.1707861412495168e-05   1.724830950514098e-06   -7.86082388337245e-06
-2.1707861412495168e-05   1.724830950514098e-06   -7.86082388337245e-06
-2.1707861412495168e-05   1.724830950514098e-06   -7.86082388337245e-06
-2.1707861412495168e-05   1.724830950514098e-06   -7.86082388337245e-06
-1.6225530274966584e-05   0.0   -1.5264134647933948e-05
-1.6225530274966584e-05   0.0   -1.5264134647933948e-05
-1.6225530274966584e-05   0.0   -1.5264134647933948e-05
-1.6225530274966584e-05   0.0   -1.5264134647933948e-05
-7.405498406540977e-06   1.0230348251085123e-06   4.973936117382776e-08
-7.405498406540977e-06   1.0230348251085123e-06   4.973936117382776e-08
-7.405498406540977e-06   1.0230348251085123e-06   4.973936117382776e-08
-7.405498406540977e-06   1.0230348251085123e-06   4.973936117382776e-08
-7.10876241608877e-06   0.0   -1.5139740745718042e-05
-7.10876241608877e-06   0.0   -1.5139740745718042e-05
-7.10876241608877e-06   0.0   -1.5139740745718042e-05
-7.10876241608877e-06   0.0   -1.5139740745718042e-05
-1.589160342922211e-05   1.4648423746109747e-06   -1.3805778152624443e-06
-1.589160342922211e-05   1.4648423746109747e-06   -1.3805778152624443e-06
-1.589160342922211e-05   1.4648423746109747e-06   -1.3805778152624443e-06
-1.589160342922211e-05   1.4648423746109747e-06   -1.3805778152624443e-06
-1.1667146345527665e-05   1.036615851798999e-07   -7.604631147761155e-06
-1.1667146345527665e-05   1.036615851798999e-07   -7.604631147761155e-06
-1.1667146345527665e-05   1.036615851798999e-07   -7.604631147761155e-06
-1.1667146345527665e-05   1.036615851798999e-07   -7.604631147761155e-06
-1.5891603429222098e-05   0.0   -1.601864617048464e-05
-1.5891603429222098e-05   0.0   -1.601864617048464e-05
-1.5891603429222098e-05   0.0   -1.601864617048464e-05
-1.5891603429222098e-05   0.0   -1.601864617048464e-05
-7.10876241608877e-06   1.4648423746109713e-06   -5.016723904958554e-07
-7.10876241608877e-06   1.4648423746109713e-06   -5.016723904958554e-07
-7.10876241608877e-06   1.4648423746109713e-06   -5.016723904958554e-07
-7.10876241608877e-06   1.4648423746109713e-06   -5.016723904958554e-07
-6.9363431323879235e-06   0.0   -1.532686969317209e-05
-6.9363431323879235e-06   0.0   -1.532686969317209e-05
-6.9363431323879235e-06   0.0   -1.532686969317209e-05
-6.9363431323879235e-06   0.0   -1.532686969317209e-05
-1.5922321811396996e-05   1.800103016411956e-06   -1.4303003713375285e-06
-1.5922321811396996e-05   1.800103016411956e-06   -1.4303003713375285e-06
-1.5922321811396996e-05   1.800103016411956e-06   -1.4303003713375285e-06
-1.5922321811396996e-05   1.800103016411956e-06   -1.4303003713375285e-06
-1.1413973280805e-05   5.764803977604453e-07   -8.210041017799879e-06
-1.1413973280805e-05   5.764803977604453e-07   -8.210041017799879e-06
-1.1413973280805e-05   5.764803977604453e-07   -8.210041017799879e-06
-1.1413973280805e-05   5.764803977604453e-07   -8.210041017799879e-06
-1.5922321811396996e-05   0.0   -1.6406931503019293e-05
-1.5922321811396996e-05   0.0   -1.6406931503019293e-05
-1.5922321811396996e-05   0.0   -1.6406931503019293e-05
-1.5922321811396996e-05   0.0   -1.6406931503019293e-05
-6.936343132387935e-06   1.800103016411956e-06   -3.502385614903559e-07
-6.936343132387935e-06   1.800103016411956e-06   -3.502385614903559e-07
-6.936343132387935e-06   1.800103016411956e-06   -3.502385614903559e-07
-6.936343132387935e-06   1.800103016411956e-06   -3.502385614903559e-07
-6.7770128348071515e-06   0.0   -1.525014407862083e-05
-6.7770128348071515e-06   0.0   -1.525014407862083e-05
-6.7770128348071515e-06   0.0   -1.525014407862083e-05
-6.7770128348071515e-06   0.0   -1.525014407862083e-05
-1.5898059456591542e-05   2.097974157137549e-06   -1.3071842032626483e-06
-1.5898059456591542e-05   2.097974157137549e-06   -1.3071842032626483e-06
-1.5898059456591542e-05   2.097974157137549e-06   -1.3071842032626483e-06
-1.5898059456591542e-05   2.097974157137549e-06   -1.3071842032626483e-06
-1.134966732310207e-05   9.639895203320442e-07   -8.207446976995189e-06
-1.134966732310207e-05   9.639895203320442e-07   -8.207446976995189e-06
-1.134966732310207e-05   9.639895203320442e-07   -8.207446976995189e-06
-1.134966732310207e-05   9.639895203320442e-07   -8.207446976995189e-06
-7.40549840654099e-06   0.0   -1.465031375286884e-05
-7.40549840654099e-06   0.0   -1.465031375286884e-05
-7.40549840654099e-06   0.0   -1.465031375286884e-05
-7.40549840654099e-06   0.0   -1.465031375286884e-05
9.157255546278705e-07   -1.3475004979059295e-07   -8.624571807950801e-07
9.157255546278705e-07   -1.3475004979059295e-07   -8.624571807950801e-07
9.157255546278705e-07   -1.3475004979059295e-07   -8.624571807950801e-07
9.157255546278705e-07   -1.3475004979059295e-07   -8.624571807950801e-07
1.1116672078374393e-06   0.0   -1.4982953037877865e-05
1.1116672078374393e-06   0.0   -1.4982953037877865e-05
1.1116672078374393e-06   0.0   -1.4982953037877865e-05
1.1116672078374393e-06   0.0   -1.4982953037877865e-05
-7.10876241608877e-06   2.6131284640025076e-07   -1.4390247058410235e-06
-7.10876241608877e-06   2.6131284640025076e-07   -1.4390247058410235e-06
-7.10876241608877e-06   2.6131284640025076e-07   -1.4390247058410235e-06
-7.10876241608877e-06   2.6131284640025076e-07   -1.4390247058410235e-06
-3.146915599351768e-06   -2.771994041742309e-07   -7.718995383391332e-06
-3.146915599351768e-06   -2.771994041742309e-07   -7.718995383391332e-06
-3.146915599351768e-06   -2.771994041742309e-07   -7.718995383391332e-06
-3.146915599351768e-06   -2.771994041742309e-07   -7.718995383391332e-06
-7.108762416088782e-06   0.0   -1.5139740745718067e-05
-7.108762416088782e-06   0.0   -1.5139740745718067e-05
-7.108762416088782e-06   0.0   -1.5139740745718067e-05
-7.108762416088782e-06   0.0   -1.5139740745718067e-05
1.1116672078374412e-06   2.6131284640025076e-07   -1.2822369980008728e-06
1.1116672078374412e-06   2.6131284640025076e-07   -1.2822369980008728e-06
1.1116672078374412e-06   2.6131284640025076e-07   -1.2822369980008728e-06
1.1116672078374412e-06   2.6131284640025076e-07   -1.2822369980008728e-06
1.2681802743199381e-06   0.0   -1.4960434973860623e-05
1.2681802743199381e-06   0.0   -1.4960434973860623e-05
1.2681802743199381e-06   0.0   -1.4960434973860623e-05
1.2681802743199381e-06   0.0   -1.4960434973860623e-05
-6.936343132387912e-06   6.107245321857827e-07   -1.6526640153256552e-06
-6.936343132387912e-06   6.107245321857827e-07   -1.6526640153256552e-06
-6.936343132387912e-06   6.107245321857827e-07   -1.6526640153256552e-06
-6.936343132387912e-06   6.107245321857827e-07   -1.6526640153256552e-06
-2.920291070884416e-06   1.4942147654784924e-07   -8.069302284448737e-06
-2.920291070884416e-06   1.4942147654784924e-07   -8.069302284448737e-06
-2.920291070884416e-06   1.4942147654784924e-07   -8.069302284448737e-06
-2.920291070884416e-06   1.4942147654784924e-07   -8.069302284448737e-06
-6.936343132387935e-06   0.0   -1.532686969317212e-05
-6.936343132387935e-06   0.0   -1.532686969317212e-05
-6.936343132387935e-06   0.0   -1.532686969317212e-05
-6.936343132387935e-06   0.0   -1.532686969317212e-05
1.2681802743199404e-06   6.107245321857861e-07   -1.2862292960141912e-06
1.2681802743199404e-06   6.107245321857861e-07   -1.2862292960141912e-06
1.2681802743199404e-06   6.107245321857861e-07   -1.2862292960141912e-06
1.2681802743199404e-06   6.107245321857861e-07   -1.2862292960141912e-06
1.47408918637801e-06   0.0   -1.4641387646053956e-05
1.47408918637801e-06   0.0   -1.4641387646053956e-05
1.47408918637801e-06   0.0   -1.4641387646053956e-05
1.47408918637801e-06   0.0   -1.4641387646053956e-05
-6.777012834807146e-06   1.0145940542781006e-06   -1.4983073766455579e-06
-6.777012834807146e-06   1.0145940542781006e-06   -1.4983073766455579e-06
-6.777012834807146e-06   1.0145940542781006e-06   -1.4983073766455579e-06
-6.777012834807146e-06   1.0145940542781006e-06   -1.4983073766455579e-06
-2.7311269730049567e-06   5.712350392651131e-07   -7.975435070641407e-06
-2.7311269730049567e-06   5.712350392651131e-07   -7.975435070641407e-06
-2.7311269730049567e-06   5.712350392651131e-07   -7.975435070641407e-06
-2.7311269730049567e-06   5.712350392651131e-07   -7.975435070641407e-06
9.157255546278721e-07   0.0   -1.4731163782743195e-05
9.157255546278721e-07   0.0   -1.4731163782743195e-05
9.157255546278721e-07   0.0   -1.4731163782743195e-05
9.157255546278721e-07   0.0   -1.4731163782743195e-05
9.960283126515804e-06   -1.1683137618331752e-06   -3.578894200298136e-07
9.960283126515804e-06   -1.1683137618331752e-06   -3.578894200298136e-07
9.960283126515804e-06   -1.1683137618331752e-06   -3.578894200298136e-07
9.960283126515804e-06   -1.1683137618331752e-06   -3.578894200298136e-07
9.995552690658439e-06   0.0   -1.5509021003001662e-05
9.995552690658439e-06   0.0   -1.5509021003001662e-05
9.995552690658439e-06   0.0   -1.5509021003001662e-05
9.995552690658439e-06   0.0   -1.5509021003001662e-05
1.1116672078374412e-06   -8.767799418729062e-07   -1.7647723317625636e-07
1.1116672078374412e-06   -8.767799418729062e-07   -1.7647723317625636e-07
1.1116672078374412e-06   -8.767799418729062e-07   -1.7647723317625636e-07
1.1116672078374412e-06   -8.767799418729062e-07   -1.7647723317625636e-07
5.455639122643156e-06   -6.482143502153892e-07   -7.553569779513617e-06
5.455639122643156e-06   -6.482143502153892e-07   -7.553569779513617e-06
5.455639122643156e-06   -6.482143502153892e-07   -7.553569779513617e-06
5.455639122643156e-06   -6.482143502153892e-07   -7.553569779513617e-06
1.111667207837443e-06   0.0   -1.4982953037877918e-05
1.111667207837443e-06   0.0   -1.4982953037877918e-05
1.111667207837443e-06   0.0   -1.4982953037877918e-05
1.111667207837443e-06   0.0   -1.4982953037877918e-05
9.995552690658422e-06   -8.767799418729062e-07   -7.025451983000033e-07
9.995552690658422e-06   -8.767799418729062e-07   -7.025451983000033e-07
9.995552690658422e-06   -8.767799418729062e-07   -7.025451983000033e-07
9.995552690658422e-06   -8.767799418729062e-07   -7.025451983000033e-07
9.967874774133321e-06   0.0   -1.5287683830315474e-05
9.967874774133321e-06   0.0   -1.5287683830315474e-05
9.967874774133321e-06   0.0   -1.5287683830315474e-05
9.967874774133321e-06   0.0   -1.5287683830315474e-05
1.2681802743199404e-06   -5.45414760758042e-07   -4.609441408383495e-07
1.2681802743199404e-06   -5.45414760758042e-07   -4.609441408383495e-07
1.2681802743199404e-06   -5.45414760758042e-07   -4.609441408383495e-07
1.2681802743199404e-06   -5.45414760758042e-07   -4.609441408383495e-07
5.539770990985382e-06   -2.5394232703129885e-07   -7.75514546218346e-06
5.539770990985382e-06   -2.5394232703129885e-07   -7.75514546218346e-06
5.539770990985382e-06   -2.5394232703129885e-07   -7.75514546218346e-06
5.539770990985382e-06   -2.5394232703129885e-07   -7.75514546218346e-06
1.2681802743199404e-06   0.0   -1.4960434973860649e-05
1.2681802743199404e-06   0.0   -1.4960434973860649e-05
1.2681802743199404e-06   0.0   -1.4960434973860649e-05
1.2681802743199404e-06   0.0   -1.4960434973860649e-05
9.967874774133304e-06   -5.45414760758042e-07   -7.881929972931719e-07
9.967874774133304e-06   -5.45414760758042e-07   -7.881929972931719e-07
9.967874774133304e-06   -5.45414760758042e-07   -7.881929972931719e-07
9.967874774133304e-06   -5.45414760758042e-07   -7.881929972931719e-07
1.0175461959669699e-05   0.0   -1.4702021269995686e-05
1.0175461959669699e-05   0.0   -1.4702021269995686e-05
1.0175461959669699e-05   0.0   -1.4702021269995686e-05
1.0175461959669699e-05   0.0   -1.4702021269995686e-05
1.4740891863780125e-06   -1.0105603990283893e-07   -1.3909969056784158e-07
1.4740891863780125e-06   -1.0105603990283893e-07   -1.3909969056784158e-07
1.4740891863780125e-06   -1.0105603990283893e-07   -1.3909969056784158e-07
1.4740891863780125e-06   -1.0105603990283893e-07   -1.3909969056784158e-07
5.72182111699482e-06   2.1534475322080233e-07   -7.408493384136698e-06
5.72182111699482e-06   2.1534475322080233e-07   -7.408493384136698e-06
5.72182111699482e-06   2.1534475322080233e-07   -7.408493384136698e-06
5.72182111699482e-06   2.1534475322080233e-07   -7.408493384136698e-06
9.96028312651584e-06   0.0   -1.54321520398431e-05
9.96028312651584e-06   0.0   -1.54321520398431e-05
9.96028312651584e-06   0.0   -1.54321520398431e-05
9.96028312651584e-06   0.0   -1.54321520398431e-05
2.2579600095544656e-05   -2.9734822732023714e-06   3.815953544616906e-06
2.2579600095544656e-05   -2.9734822732023714e-06   3.815953544616906e-06
2.2579600095544656e-05   -2.9734822732023714e-06   3.815953544616906e-06
2.2579600095544656e-05   -2.9734822732023714e-06   3.815953544616906e-06
2.1228695575569393e-05   0.0   -1.702143278798187e-05
2.1228695575569393e-05   0.0   -1.702143278798187e-05
2.1228695575569393e-05   0.0   -1.702143278798187e-05
2.1228695575569393e-05   0.0   -1.702143278798187e-05
9.995552690658422e-06   -2.520686308300341e-06   3.212883805183253e-06
9.995552690658422e-06   -2.520686308300341e-06   3.212883805183253e-06
9.995552690658422e-06   -2.520686308300341e-06   3.212883805183253e-06
9.995552690658422e-06   -2.520686308300341e-06   3.212883805183253e-06
1.5594489351042618e-05   -1.3244006234489738e-06   -6.836448706367852e-06
1.5594489351042618e-05   -1.3244006234489738e-06   -6.836448706367852e-06
1.5594489351042618e-05   -1.3244006234489738e-06   -6.836448706367852e-06
1.5594489351042618e-05   -1.3244006234489738e-06   -6.836448706367852e-06
9.99555269065843e-06   0.0   -1.550902100300165e-05
9.99555269065843e-06   0.0   -1.550902100300165e-05
9.99555269065843e-06   0.0   -1.550902100300165e-05
9.99555269065843e-06   0.0   -1.550902100300165e-05
2.1228695575569393e-05   -2.5206863083003445e-06   1.7004720202030488e-06
2.1228695575569393e-05   -2.5206863083003445e-06   1.7004720202030488e-06
2.1228695575569393e-05   -2.5206863083003445e-06   1.7004720202030488e-06
2.1228695575569393e-05   -2.5206863083003445e-06   1.7004720202030488e-06
2.06125742705863e-05   0.0   -1.6667713757684522e-05
2.06125742705863e-05   0.0   -1.6667713757684522e-05
2.06125742705863e-05   0.0   -1.6667713757684522e-05
2.06125742705863e-05   0.0   -1.6667713757684522e-05
9.967874774133304e-06   -2.300049878948409e-06   2.4534819971061494e-06
9.967874774133304e-06   -2.300049878948409e-06   2.4534819971061494e-06
9.967874774133304e-06   -2.300049878948409e-06   2.4534819971061494e-06
9.967874774133304e-06   -2.300049878948409e-06   2.4534819971061494e-06
1.530406348062236e-05   -9.655772955690503e-07   -7.240849397069863e-06
1.530406348062236e-05   -9.655772955690503e-07   -7.240849397069863e-06
1.530406348062236e-05   -9.655772955690503e-07   -7.240849397069863e-06
1.530406348062236e-05   -9.655772955690503e-07   -7.240849397069863e-06
9.967874774133321e-06   0.0   -1.5287683830315474e-05
9.967874774133321e-06   0.0   -1.5287683830315474e-05
9.967874774133321e-06   0.0   -1.5287683830315474e-05
9.967874774133321e-06   0.0   -1.5287683830315474e-05
2.0612574270586263e-05   -2.300049878948409e-06   1.073452069737108e-06
2.0612574270586263e-05   -2.300049878948409e-06   1.073452069737108e-06
2.0612574270586263e-05   -2.300049878948409e-06   1.073452069737108e-06
2.0612574270586263e-05   -2.300049878948409e-06   1.073452069737108e-06
1.9684766826099756e-05   0.0   -1.576807343409473e-05
1.9684766826099756e-05   0.0   -1.576807343409473e-05
1.9684766826099756e-05   0.0   -1.576807343409473e-05
1.9684766826099756e-05   0.0   -1.576807343409473e-05
1.0175461959669672e-05   -1.7767536068317416e-06   1.146820174054417e-06
1.0175461959669672e-05   -1.7767536068317416e-06   1.146820174054417e-06
1.0175461959669672e-05   -1.7767536068317416e-06   1.146820174054417e-06
1.0175461959669672e-05   -1.7767536068317416e-06   1.146820174054417e-06
1.4826320800116513e-05   -4.0032466981604745e-07   -7.430468588899723e-06
1.4826320800116513e-05   -4.0032466981604745e-07   -7.430468588899723e-06
1.4826320800116513e-05   -4.0032466981604745e-07   -7.430468588899723e-06
1.4826320800116513e-05   -4.0032466981604745e-07   -7.430468588899723e-06
-2.2008279084304847e-05   2.8027264975200454e-06   -1.4567431128887285e-05
-2.2008279084304847e-05   2.8027264975200454e-06   -1.4567431128887285e-05
-2.2008279084304847e-05   2.8027264975200454e-06   -1.4567431128887285e-05
-2.2008279084304847e-05   2.8027264975200454e-06   -1.4567431128887285e-05
-1.4108850907942351e-05   2.51187396223459e-06   -1.5762290227877066e-06
-1.4108850907942351e-05   2.51187396223459e-06   -1.5762290227877066e-06
-1.4108850907942351e-05   2.51187396223459e-06   -1.5762290227877066e-06
-1.4108850907942351e-05   2.51187396223459e-06   -1.5762290227877066e-06
-1.4456268758818052e-05   3.375519190112507e-06   -1.2246370620178696e-05
-1.4456268758818052e-05   3.375519190112507e-06   -1.2246370620178696e-05
-1.4456268758818052e-05   3.375519190112507e-06   -1.2246370620178696e-05
-1.4456268758818052e-05   3.375519190112507e-06   -1.2246370620178696e-05
-2.2230673912572237e-05   3.02261782348676e-06   9.227121227204068e-07
-2.2230673912572237e-05   3.02261782348676e-06   9.227121227204068e-07
-2.2230673912572237e-05   3.02261782348676e-06   9.227121227204068e-07
-2.2230673912572237e-05   3.02261782348676e-06   9.227121227204068e-07
-1.7479224417559412e-05   2.9315357566232523e-06   -6.9417211288495905e-06
-1.7479224417559412e-05   2.9315357566232523e-06   -6.9417211288495905e-06
-1.7479224417559412e-05   2.9315357566232523e-06   -6.9417211288495905e-06
-1.7479224417559412e-05   2.9315357566232523e-06   -6.9417211288495905e-06
-2.2230673912572237e-05   3.375519190112507e-06   -1.2034629800203246e-05
-2.2230673912572237e-05   3.375519190112507e-06   -1.2034629800203246e-05
-2.2230673912572237e-05   3.375519190112507e-06   -1.2034629800203246e-05
-2.2230673912572237e-05   3.375519190112507e-06   -1.2034629800203246e-05
-1.4456268758818103e-05   3.0226178234867734e-06   7.109713027449993e-07
-1.4456268758818103e-05   3.0226178234867734e-06   7.109713027449993e-07
-1.4456268758818103e-05   3.0226178234867734e-06   7.109713027449993e-07
-1.4456268758818103e-05   3.0226178234867734e-06   7.109713027449993e-07
-1.4521056770718679e-05   3.6196570175016634e-06   -1.1018966079220699e-05
-1.4521056770718679e-05   3.6196570175016634e-06   -1.1018966079220699e-05
-1.4521056770718679e-05   3.6196570175016634e-06   -1.1018966079220699e-05
-1.4521056770718679e-05   3.6196570175016634e-06   -1.1018966079220699e-05
-2.2373446075058606e-05   3.25343220777813e-06   2.2880843138465937e-06
-2.2373446075058606e-05   3.25343220777813e-06   2.2880843138465937e-06
-2.2373446075058606e-05   3.25343220777813e-06   2.2880843138465937e-06
-2.2373446075058606e-05   3.25343220777813e-06   2.2880843138465937e-06
-1.798285824894938e-05   3.2522881693589183e-06   -5.028875639950572e-06
-1.798285824894938e-05   3.2522881693589183e-06   -5.028875639950572e-06
-1.798285824894938e-05   3.2522881693589183e-06   -5.028875639950572e-06
-1.798285824894938e-05   3.2522881693589183e-06   -5.028875639950572e-06
-2.2373446075058572e-05   3.6196570175016634e-06   -1.0799231193386581e-05
-2.2373446075058572e-05   3.6196570175016634e-06   -1.0799231193386581e-05
-2.2373446075058572e-05   3.6196570175016634e-06   -1.0799231193386581e-05
-2.2373446075058572e-05   3.6196570175016634e-06   -1.0799231193386581e-05
-1.4521056770718703e-05   3.25343220777813e-06   2.068349428012439e-06
-1.4521056770718703e-05   3.25343220777813e-06   2.068349428012439e-06
-1.4521056770718703e-05   3.25343220777813e-06   2.068349428012439e-06
-1.4521056770718703e-05   3.25343220777813e-06   2.068349428012439e-06
-1.4429707549564345e-05   4.133826614415059e-06   -8.168545271211789e-06
-1.4429707549564345e-05   4.133826614415059e-06   -8.168545271211789e-06
-1.4429707549564345e-05   4.133826614415059e-06   -8.168545271211789e-06
-1.4429707549564345e-05   4.133826614415059e-06   -8.168545271211789e-06
-2.1733060120678997e-05   3.441153983108419e-06   4.419312592763221e-06
-2.1733060120678997e-05   3.441153983108419e-06   4.419312592763221e-06
-2.1733060120678997e-05   3.441153983108419e-06   4.419312592763221e-06
-2.1733060120678997e-05   3.441153983108419e-06   4.419312592763221e-06
-1.750271642238597e-05   3.5721456679775876e-06   -2.7098552486466533e-06
-1.750271642238597e-05   3.5721456679775876e-06   -2.7098552486466533e-06
-1.750271642238597e-05   3.5721456679775876e-06   -2.7098552486466533e-06
-1.750271642238597e-05   3.5721456679775876e-06   -2.7098552486466533e-06
-1.4108850907942351e-05   1.023034825108509e-06   -1.5547270142025007e-05
-1.4108850907942351e-05   1.023034825108509e-06   -1.5547270142025007e-05
-1.4108850907942351e-05   1.023034825108509e-06   -1.5547270142025007e-05
-1.4108850907942351e-05   1.023034825108509e-06   -1.5547270142025007e-05
-6.7082871585913035e-06   1.1690825842925015e-06   -3.1253685709295245e-06
-6.7082871585913035e-06   1.1690825842925015e-06   -3.1253685709295245e-06
-6.7082871585913035e-06   1.1690825842925015e-06   -3.1253685709295245e-06
-6.7082871585913035e-06   1.1690825842925015e-06   -3.1253685709295245e-06
-6.860500670245733e-06   1.4648423746109747e-06   -1.55196165346719e-05
-6.860500670245733e-06   1.4648423746109747e-06   -1.55196165346719e-05
-6.860500670245733e-06   1.4648423746109747e-06   -1.55196165346719e-05
-6.860500670245733e-06   1.4648423746109747e-06   -1.55196165346719e-05
-1.4456268758818052e-05   1.6385612906675499e-06   -2.9642344033519234e-06
-1.4456268758818052e-05   1.6385612906675499e-06   -2.9642344033519234e-06
-1.4456268758818052e-05   1.6385612906675499e-06   -2.9642344033519234e-06
-1.4456268758818052e-05   1.6385612906675499e-06   -2.9642344033519234e-06
-1.0503271216740184e-05   1.3186372383377232e-06   -9.360609208750527e-06
-1.0503271216740184e-05   1.3186372383377232e-06   -9.360609208750527e-06
-1.0503271216740184e-05   1.3186372383377232e-06   -9.360609208750527e-06
-1.0503271216740184e-05   1.3186372383377232e-06   -9.360609208750527e-06
-1.4456268758818039e-05   1.4648423746109713e-06   -1.562384788430579e-05
-1.4456268758818039e-05   1.4648423746109713e-06   -1.562384788430579e-05
-1.4456268758818039e-05   1.4648423746109713e-06   -1.562384788430579e-05
-1.4456268758818039e-05   1.4648423746109713e-06   -1.562384788430579e-05
-6.860500670245722e-06   1.6385612906675499e-06   -2.860003053717956e-06
-6.860500670245722e-06   1.6385612906675499e-06   -2.860003053717956e-06
-6.860500670245722e-06   1.6385612906675499e-06   -2.860003053717956e-06
-6.860500670245722e-06   1.6385612906675499e-06   -2.860003053717956e-06
-6.902286237261376e-06   1.800103016411956e-06   -1.52310968293321e-05
-6.902286237261376e-06   1.800103016411956e-06   -1.52310968293321e-05
-6.902286237261376e-06   1.800103016411956e-06   -1.52310968293321e-05
-6.902286237261376e-06   1.800103016411956e-06   -1.52310968293321e-05
-1.4521056770718679e-05   2.0281153162062248e-06   -2.669953320113112e-06
-1.4521056770718679e-05   2.0281153162062248e-06   -2.669953320113112e-06
-1.4521056770718679e-05   2.0281153162062248e-06   -2.669953320113112e-06
-1.4521056770718679e-05   2.0281153162062248e-06   -2.669953320113112e-06
-1.0577708665101855e-05   1.6776295942733064e-06   -9.03190872964806e-06
-1.0577708665101855e-05   1.6776295942733064e-06   -9.03190872964806e-06
-1.0577708665101855e-05   1.6776295942733064e-06   -9.03190872964806e-06
-1.0577708665101855e-05   1.6776295942733064e-06   -9.03190872964806e-06
-1.4521056770718679e-05   1.8001030164119526e-06   -1.5367904209208644e-05
-1.4521056770718679e-05   1.8001030164119526e-06   -1.5367904209208644e-05
-1.4521056770718679e-05   1.8001030164119526e-06   -1.5367904209208644e-05
-1.4521056770718679e-05   1.8001030164119526e-06   -1.5367904209208644e-05
-6.9022862372613875e-06   2.0281153162062383e-06   -2.533145940236575e-06
-6.9022862372613875e-06   2.0281153162062383e-06   -2.533145940236575e-06
-6.9022862372613875e-06   2.0281153162062383e-06   -2.533145940236575e-06
-6.9022862372613875e-06   2.0281153162062383e-06   -2.533145940236575e-06
-6.877289008699408e-06   2.0979741571375525e-06   -1.507851829658996e-05
-6.877289008699408e-06   2.0979741571375525e-06   -1.507851829658996e-05
-6.877289008699408e-06   2.0979741571375525e-06   -1.507851829658996e-05
-6.877289008699408e-06   2.0979741571375525e-06   -1.507851829658996e-05
-1.4429707549564359e-05   2.448062767808462e-06   -2.7012072282175876e-06
-1.4429707549564359e-05   2.448062767808462e-06   -2.7012072282175876e-06
-1.4429707549564359e-05   2.448062767808462e-06   -2.7012072282175876e-06
-1.4429707549564359e-05   2.448062767808462e-06   -2.7012072282175876e-06
-1.0631638918321367e-05   2.002599148991202e-06   -8.764043442332223e-06
-1.0631638918321367e-05   2.002599148991202e-06   -8.764043442332223e-06
-1.0631638918321367e-05   2.002599148991202e-06   -8.764043442332223e-06
-1.0631638918321367e-05   2.002599148991202e-06   -8.764043442332223e-06
-6.7082871585912925e-06   -1.3475004979058956e-07   -1.6290987998609173e-05
-6.7082871585912925e-06   -1.3475004979058956e-07   -1.6290987998609173e-05
-6.7082871585912925e-06   -1.3475004979058956e-07   -1.6290987998609173e-05
-6.7082871585912925e-06   -1.3475004979058956e-07   -1.6290987998609173e-05
5.975427821236542e-07   -3.708348124612632e-08   -4.056004822957575e-06
5.975427821236542e-07   -3.708348124612632e-08   -4.056004822957575e-06
5.975427821236542e-07   -3.708348124612632e-08   -4.056004822957575e-06
5.975427821236542e-07   -3.708348124612632e-08   -4.056004822957575e-06
5.752816430089104e-07   2.6131284640025076e-07   -1.6376211064310744e-05
5.752816430089104e-07   2.6131284640025076e-07   -1.6376211064310744e-05
5.752816430089104e-07   2.6131284640025076e-07   -1.6376211064310744e-05
5.752816430089104e-07   2.6131284640025076e-07   -1.6376211064310744e-05
-6.860500670245722e-06   3.9590915591075117e-07   -4.063998327925992e-06
-6.860500670245722e-06   3.9590915591075117e-07   -4.063998327925992e-06
-6.860500670245722e-06   3.9590915591075117e-07   -4.063998327925992e-06
-6.860500670245722e-06   3.9590915591075117e-07   -4.063998327925992e-06
-3.1168999264125094e-06   1.3225431194606926e-07   -1.0145139994602535e-05
-3.1168999264125094e-06   1.3225431194606926e-07   -1.0145139994602535e-05
-3.1168999264125094e-06   1.3225431194606926e-07   -1.0145139994602535e-05
-3.1168999264125094e-06   1.3225431194606926e-07   -1.0145139994602535e-05
-6.860500670245722e-06   2.6131284640025076e-07   -1.6456968850017045e-05
-6.860500670245722e-06   2.6131284640025076e-07   -1.6456968850017045e-05
-6.860500670245722e-06   2.6131284640025076e-07   -1.6456968850017045e-05
-6.860500670245722e-06   2.6131284640025076e-07   -1.6456968850017045e-05
5.752816430089115e-07   3.9590915591075117e-07   -3.983240542219666e-06
5.752816430089115e-07   3.9590915591075117e-07   -3.983240542219666e-06
5.752816430089115e-07   3.9590915591075117e-07   -3.983240542219666e-06
5.752816430089115e-07   3.9590915591075117e-07   -3.983240542219666e-06
5.428561913532739e-07   6.107245321857827e-07   -1.6408403034667095e-05
5.428561913532739e-07   6.107245321857827e-07   -1.6408403034667095e-05
5.428561913532739e-07   6.107245321857827e-07   -1.6408403034667095e-05
5.428561913532739e-07   6.107245321857827e-07   -1.6408403034667095e-05
-6.902286237261364e-06   8.19256613019591e-07   -4.124951568809642e-06
-6.902286237261364e-06   8.19256613019591e-07   -4.124951568809642e-06
-6.902286237261364e-06   8.19256613019591e-07   -4.124951568809642e-06
-6.902286237261364e-06   8.19256613019591e-07   -4.124951568809642e-06
-3.1667753480553983e-06   4.985821704434727e-07   -1.0158398385273907e-05
-3.1667753480553983e-06   4.985821704434727e-07   -1.0158398385273907e-05
-3.1667753480553983e-06   4.985821704434727e-07   -1.0158398385273907e-05
-3.1667753480553983e-06   4.985821704434727e-07   -1.0158398385273907e-05
-6.902286237261364e-06   6.107245321857827e-07   -1.6533522283167384e-05
-6.902286237261364e-06   6.107245321857827e-07   -1.6533522283167384e-05
-6.902286237261364e-06   6.107245321857827e-07   -1.6533522283167384e-05
-6.902286237261364e-06   6.107245321857827e-07   -1.6533522283167384e-05
5.428561913532739e-07   8.192566130195775e-07   -3.9998323203093844e-06
5.428561913532739e-07   8.192566130195775e-07   -3.9998323203093844e-06
5.428561913532739e-07   8.192566130195775e-07   -3.9998323203093844e-06
5.428561913532739e-07   8.192566130195775e-07   -3.9998323203093844e-06
4.683788746790598e-07   1.0145940542780972e-06   -1.638117606143253e-05
4.683788746790598e-07   1.0145940542780972e-06   -1.638117606143253e-05
4.683788746790598e-07   1.0145940542780972e-06   -1.638117606143253e-05
4.683788746790598e-07   1.0145940542780972e-06   -1.638117606143253e-05
-6.877289008699402e-06   1.2600105589828583e-06   -4.28564615862463e-06
-6.877289008699402e-06   1.2600105589828583e-06   -4.28564615862463e-06
-6.877289008699402e-06   1.2600105589828583e-06   -4.28564615862463e-06
-6.877289008699402e-06   1.2600105589828583e-06   -4.28564615862463e-06
-3.193664374052505e-06   8.749219579036323e-07   -1.0193967389055242e-05
-3.193664374052505e-06   8.749219579036323e-07   -1.0193967389055242e-05
-3.193664374052505e-06   8.749219579036323e-07   -1.0193967389055242e-05
-3.193664374052505e-06   8.749219579036323e-07   -1.0193967389055242e-05
5.975427821236542e-07   -1.1683137618331752e-06   -1.5026832039617324e-05
5.975427821236542e-07   -1.1683137618331752e-06   -1.5026832039617324e-05
5.975427821236542e-07   -1.1683137618331752e-06   -1.5026832039617324e-05
5.975427821236542e-07   -1.1683137618331752e-06   -1.5026832039617324e-05
8.125926848635546e-06   -1.2004528000126018e-06   -2.498808685005159e-06
8.125926848635546e-06   -1.2004528000126018e-06   -2.498808685005159e-06
8.125926848635546e-06   -1.2004528000126018e-06   -2.498808685005159e-06
8.125926848635546e-06   -1.2004528000126018e-06   -2.498808685005159e-06
8.201957655681055e-06   -8.767799418729062e-07   -1.5227658279429893e-05
8.201957655681055e-06   -8.767799418729062e-07   -1.5227658279429893e-05
8.201957655681055e-06   -8.767799418729062e-07   -1.5227658279429893e-05
8.201957655681055e-06   -8.767799418729062e-07   -1.5227658279429893e-05
5.752816430089115e-07   -8.054582417791744e-07   -2.5593246116992153e-06
5.752816430089115e-07   -8.054582417791744e-07   -2.5593246116992153e-06
5.752816430089115e-07   -8.054582417791744e-07   -2.5593246116992153e-06
5.752816430089115e-07   -8.054582417791744e-07   -2.5593246116992153e-06
4.319414174368869e-06   -9.66746372437166e-07   -8.702772618904355e-06
4.319414174368869e-06   -9.66746372437166e-07   -8.702772618904355e-06
4.319414174368869e-06   -9.66746372437166e-07   -8.702772618904355e-06
4.319414174368869e-06   -9.66746372437166e-07   -8.702772618904355e-06
5.752816430089104e-07   -8.767799418729062e-07   -1.527045129948614e-05
5.752816430089104e-07   -8.767799418729062e-07   -1.527045129948614e-05
5.752816430089104e-07   -8.767799418729062e-07   -1.527045129948614e-05
5.752816430089104e-07   -8.767799418729062e-07   -1.527045129948614e-05
8.201957655681055e-06   -8.054582417791744e-07   -2.5165315916429458e-06
8.201957655681055e-06   -8.054582417791744e-07   -2.5165315916429458e-06
8.201957655681055e-06   -8.054582417791744e-07   -2.5165315916429458e-06
8.201957655681055e-06   -8.054582417791744e-07   -2.5165315916429458e-06
8.17130614639335e-06   -5.45414760758042e-07   -1.5507585864811098e-05
8.17130614639335e-06   -5.45414760758042e-07   -1.5507585864811098e-05
8.17130614639335e-06   -5.45414760758042e-07   -1.5507585864811098e-05
8.17130614639335e-06   -5.45414760758042e-07   -1.5507585864811098e-05
5.428561913532739e-07   -4.1952806962440223e-07   -2.8690346210911493e-06
5.428561913532739e-07   -4.1952806962440223e-07   -2.8690346210911493e-06
5.428561913532739e-07   -4.1952806962440223e-07   -2.8690346210911493e-06
5.428561913532739e-07   -4.1952806962440223e-07   -2.8690346210911493e-06
4.281198403197322e-06   -6.528886793534502e-07   -8.959588608327128e-06
4.281198403197322e-06   -6.528886793534502e-07   -8.959588608327128e-06
4.281198403197322e-06   -6.528886793534502e-07   -8.959588608327128e-06
4.281198403197322e-06   -6.528886793534502e-07   -8.959588608327128e-06
5.428561913532739e-07   -5.45414760758042e-07   -1.5583117879491263e-05
5.428561913532739e-07   -5.45414760758042e-07   -1.5583117879491263e-05
5.428561913532739e-07   -5.45414760758042e-07   -1.5583117879491263e-05
5.428561913532739e-07   -5.45414760758042e-07   -1.5583117879491263e-05
8.17130614639335e-06   -4.1952806962440223e-07   -2.7935026064109837e-06
8.17130614639335e-06   -4.1952806962440223e-07   -2.7935026064109837e-06
8.17130614639335e-06   -4.1952806962440223e-07   -2.7935026064109837e-06
8.17130614639335e-06   -4.1952806962440223e-07   -2.7935026064109837e-06
7.939636491569924e-06   -1.0105603990283893e-07   -1.5536138260975092e-05
7.939636491569924e-06   -1.0105603990283893e-07   -1.5536138260975092e-05
7.939636491569924e-06   -1.0105603990283893e-07   -1.5536138260975092e-05
7.939636491569924e-06   -1.0105603990283893e-07   -1.5536138260975092e-05
4.683788746790598e-07   5.6588205008166145e-08   -3.178628779770273e-06
4.683788746790598e-07   5.6588205008166145e-08   -3.178628779770273e-06
4.683788746790598e-07   5.6588205008166145e-08   -3.178628779770273e-06
4.683788746790598e-07   5.6588205008166145e-08   -3.178628779770273e-06
4.2420854782007515e-06   -2.864166536201582e-07   -9.262336870462756e-06
4.2420854782007515e-06   -2.864166536201582e-07   -9.262336870462756e-06
4.2420854782007515e-06   -2.864166536201582e-07   -9.262336870462756e-06
4.2420854782007515e-06   -2.864166536201582e-07   -9.262336870462756e-06
8.125926848635546e-06   -2.973482273202368e-06   -9.088183133956857e-06
8.125926848635546e-06   -2.973482273202368e-06   -9.088183133956857e-06
8.125926848635546e-06   -2.973482273202368e-06   -9.088183133956857e-06
8.125926848635546e-06   -2.973482273202368e-06   -9.088183133956857e-06
1.5538850324349056e-05   -2.2237473078026986e-06   3.716530304805483e-06
1.5538850324349056e-05   -2.2237473078026986e-06   3.716530304805483e-06
1.5538850324349056e-05   -2.2237473078026986e-06   3.716530304805483e-06
1.5538850324349056e-05   -2.2237473078026986e-06   3.716530304805483e-06
1.615233996994314e-05   -2.520686308300341e-06   -1.1005779630070504e-05
1.615233996994314e-05   -2.520686308300341e-06   -1.1005779630070504e-05
1.615233996994314e-05   -2.520686308300341e-06   -1.1005779630070504e-05
1.615233996994314e-05   -2.520686308300341e-06   -1.1005779630070504e-05
8.201957655681072e-06   -2.0099368985067474e-06   1.93840791449013e-06
8.201957655681072e-06   -2.0099368985067474e-06   1.93840791449013e-06
8.201957655681072e-06   -2.0099368985067474e-06   1.93840791449013e-06
8.201957655681072e-06   -2.0099368985067474e-06   1.93840791449013e-06
1.14460463672304e-05   -2.4198395873489698e-06   -3.2224649914534157e-06
1.14460463672304e-05   -2.4198395873489698e-06   -3.2224649914534157e-06
1.14460463672304e-05   -2.4198395873489698e-06   -3.2224649914534157e-06
1.14460463672304e-05   -2.4198395873489698e-06   -3.2224649914534157e-06
8.20195765568105e-06   -2.5206863083003377e-06   -1.131222927594662e-05
8.20195765568105e-06   -2.5206863083003377e-06   -1.131222927594662e-05
8.20195765568105e-06   -2.5206863083003377e-06   -1.131222927594662e-05
8.20195765568105e-06   -2.5206863083003377e-06   -1.131222927594662e-05
1.615233996994311e-05   -2.0099368985067474e-06   2.2448575603663202e-06
1.615233996994311e-05   -2.0099368985067474e-06   2.2448575603663202e-06
1.615233996994311e-05   -2.0099368985067474e-06   2.2448575603663202e-06
1.615233996994311e-05   -2.0099368985067474e-06   2.2448575603663202e-06
1.6106195948247928e-05   -2.300049878948409e-06   -1.195870977681623e-05
1.6106195948247928e-05   -2.300049878948409e-06   -1.195870977681623e-05
1.6106195948247928e-05   -2.300049878948409e-06   -1.195870977681623e-05
1.6106195948247928e-05   -2.300049878948409e-06   -1.195870977681623e-05
8.17130614639335e-06   -1.7880480562891765e-06   9.589054660125322e-07
8.17130614639335e-06   -1.7880480562891765e-06   9.589054660125322e-07
8.17130614639335e-06   -1.7880480562891765e-06   9.589054660125322e-07
8.17130614639335e-06   -1.7880480562891765e-06   9.589054660125322e-07
1.1859855107735494e-05   -2.1318193603795974e-06   -4.982413353770132e-06
1.1859855107735494e-05   -2.1318193603795974e-06   -4.982413353770132e-06
1.1859855107735494e-05   -2.1318193603795974e-06   -4.982413353770132e-06
1.1859855107735494e-05   -2.1318193603795974e-06   -4.982413353770132e-06
8.171306146393333e-06   -2.3000498789484057e-06   -1.2265910870411756e-05
8.171306146393333e-06   -2.3000498789484057e-06   -1.2265910870411756e-05
8.171306146393333e-06   -2.3000498789484057e-06   -1.2265910870411756e-05
8.171306146393333e-06   -2.3000498789484057e-06   -1.2265910870411756e-05
1.6106195948247894e-05   -1.7880480562891765e-06   1.2661065596080454e-06
1.6106195948247894e-05   -1.7880480562891765e-06   1.2661065596080454e-06
1.6106195948247894e-05   -1.7880480562891765e-06   1.2661065596080454e-06
1.6106195948247894e-05   -1.7880480562891765e-06   1.2661065596080454e-06
1.60254177625348e-05   -1.7767536068317416e-06   -1.3910270221673929e-05
1.60254177625348e-05   -1.7767536068317416e-06   -1.3910270221673929e-05
1.60254177625348e-05   -1.7767536068317416e-06   -1.3910270221673929e-05
1.60254177625348e-05   -1.7767536068317416e-06   -1.3910270221673929e-05
7.939636491569916e-06   -1.311229355603047e-06   -7.132826541363414e-07
7.939636491569916e-06   -1.311229355603047e-06   -7.132826541363414e-07
7.939636491569916e-06   -1.311229355603047e-06   -7.132826541363414e-07
7.939636491569916e-06   -1.311229355603047e-06   -7.132826541363414e-07
1.1530664639452625e-05   -1.8317642161322674e-06   -6.386008650956654e-06
1.1530664639452625e-05   -1.8317642161322674e-06   -6.386008650956654e-06
1.1530664639452625e-05   -1.8317642161322674e-06   -6.386008650956654e-06
1.1530664639452625e-05   -1.8317642161322674e-06   -6.386008650956654e-06
-1.741515404727252e-05   2.5118739622346034e-06   -1.2107725339459446e-05
-1.741515404727252e-05   2.5118739622346034e-06   -1.2107725339459446e-05
-1.741515404727252e-05   2.5118739622346034e-06   -1.2107725339459446e-05
-1.741515404727252e-05   2.5118739622346034e-06   -1.2107725339459446e-05
-1.1445343789293257e-05   1.9092231879086095e-06   -2.5196320407562604e-06
-1.1445343789293257e-05   1.9092231879086095e-06   -2.5196320407562604e-06
-1.1445343789293257e-05   1.9092231879086095e-06   -2.5196320407562604e-06
-1.1445343789293257e-05   1.9092231879086095e-06   -2.5196320407562604e-06
-1.1496175304805421e-05   3.02261782348676e-06   -1.0058296013638613e-05
-1.1496175304805421e-05   3.02261782348676e-06   -1.0058296013638613e-05
-1.1496175304805421e-05   3.02261782348676e-06   -1.0058296013638613e-05
-1.1496175304805421e-05   3.02261782348676e-06   -1.0058296013638613e-05
-1.7138098462467317e-05   2.3150839907085607e-06   -2.3057045120184925e-07
-1.7138098462467317e-05   2.3150839907085607e-06   -2.3057045120184925e-07
-1.7138098462467317e-05   2.3150839907085607e-06   -2.3057045120184925e-07
-1.7138098462467317e-05   2.3150839907085607e-06   -2.3057045120184925e-07
-1.3765126683341078e-05   2.556942573550502e-06   -5.997305232784142e-06
-1.3765126683341078e-05   2.556942573550502e-06   -5.997305232784142e-06
-1.3765126683341078e-05   2.556942573550502e-06   -5.997305232784142e-06
-1.3765126683341078e-05   2.556942573550502e-06   -5.997305232784142e-06
-1.7138098462467317e-05   3.02261782348676e-06   -9.633775713971689e-06
-1.7138098462467317e-05   3.02261782348676e-06   -9.633775713971689e-06
-1.7138098462467317e-05   3.02261782348676e-06   -9.633775713971689e-06
-1.7138098462467317e-05   3.02261782348676e-06   -9.633775713971689e-06
-1.1496175304805421e-05   2.3150839907085607e-06   -6.550907508687809e-07
-1.1496175304805421e-05   2.3150839907085607e-06   -6.550907508687809e-07
-1.1496175304805421e-05   2.3150839907085607e-06   -6.550907508687809e-07
-1.1496175304805421e-05   2.3150839907085607e-06   -6.550907508687809e-07
-1.1479741113125126e-05   3.25343220777813e-06   -8.608841977228156e-06
-1.1479741113125126e-05   3.25343220777813e-06   -8.608841977228156e-06
-1.1479741113125126e-05   3.25343220777813e-06   -8.608841977228156e-06
-1.1479741113125126e-05   3.25343220777813e-06   -8.608841977228156e-06
-1.687056888181645e-05   2.494356016671486e-06   8.313166852546861e-07
-1.687056888181645e-05   2.494356016671486e-06   8.313166852546861e-07
-1.687056888181645e-05   2.494356016671486e-06   8.313166852546861e-07
-1.687056888181645e-05   2.494356016671486e-06   8.313166852546861e-07
-1.3876920619807263e-05   2.7921387740605105e-06   -4.336766739194009e-06
-1.3876920619807263e-05   2.7921387740605105e-06   -4.336766739194009e-06
-1.3876920619807263e-05   2.7921387740605105e-06   -4.336766739194009e-06
-1.3876920619807263e-05   2.7921387740605105e-06   -4.336766739194009e-06
-1.687056888181645e-05   3.25343220777813e-06   -8.153396262564165e-06
-1.687056888181645e-05   3.25343220777813e-06   -8.153396262564165e-06
-1.687056888181645e-05   3.25343220777813e-06   -8.153396262564165e-06
-1.687056888181645e-05   3.25343220777813e-06   -8.153396262564165e-06
-1.147974111312515e-05   2.494356016671486e-06   3.7587097059075e-07
-1.147974111312515e-05   2.494356016671486e-06   3.7587097059075e-07
-1.147974111312515e-05   2.494356016671486e-06   3.7587097059075e-07
-1.147974111312515e-05   2.494356016671486e-06   3.7587097059075e-07
-1.1487907642340623e-05   3.441153983108419e-06   -6.586933012811915e-06
-1.1487907642340623e-05   3.441153983108419e-06   -6.586933012811915e-06
-1.1487907642340623e-05   3.441153983108419e-06   -6.586933012811915e-06
-1.1487907642340623e-05   3.441153983108419e-06   -6.586933012811915e-06
-1.6524802180428013e-05   2.6739491406891865e-06   2.2682141227851825e-06
-1.6524802180428013e-05   2.6739491406891865e-06   2.2682141227851825e-06
-1.6524802180428013e-05   2.6739491406891865e-06   2.2682141227851825e-06
-1.6524802180428013e-05   2.6739491406891865e-06   2.2682141227851825e-06
-1.3554896238765656e-05   2.918395738812198e-06   -2.828297072192392e-06
-1.3554896238765656e-05   2.918395738812198e-06   -2.828297072192392e-06
-1.3554896238765656e-05   2.918395738812198e-06   -2.828297072192392e-06
-1.3554896238765656e-05   2.918395738812198e-06   -2.828297072192392e-06
-1.1445343789293257e-05   1.169082584292488e-06   -1.4106084007707224e-05
-1.1445343789293257e-05   1.169082584292488e-06   -1.4106084007707224e-05
-1.1445343789293257e-05   1.169082584292488e-06   -1.4106084007707224e-05
-1.1445343789293257e-05   1.169082584292488e-06   -1.4106084007707224e-05
-5.855831491907339e-06   9.558168994840317e-07   -4.918189589615784e-06
-5.855831491907339e-06   9.558168994840317e-07   -4.918189589615784e-06
-5.855831491907339e-06   9.558168994840317e-07   -4.918189589615784e-06
-5.855831491907339e-06   9.558168994840317e-07   -4.918189589615784e-06
-5.923255507459461e-06   1.6385612906675499e-06   -1.3903163554409727e-05
-5.923255507459461e-06   1.6385612906675499e-06   -1.3903163554409727e-05
-5.923255507459461e-06   1.6385612906675499e-06   -1.3903163554409727e-05
-5.923255507459461e-06   1.6385612906675499e-06   -1.3903163554409727e-05
-1.1496175304805421e-05   1.3557915662105308e-06   -4.445302057492234e-06
-1.1496175304805421e-05   1.3557915662105308e-06   -4.445302057492234e-06
-1.1496175304805421e-05   1.3557915662105308e-06   -4.445302057492234e-06
-1.1496175304805421e-05   1.3557915662105308e-06   -4.445302057492234e-06
-8.605292906411856e-06   1.3534591431043269e-06   -9.262039934284458e-06
-8.605292906411856e-06   1.3534591431043269e-06   -9.262039934284458e-06
-8.605292906411856e-06   1.3534591431043269e-06   -9.262039934284458e-06
-8.605292906411856e-06   1.3534591431043269e-06   -9.262039934284458e-06
-1.1496175304805411e-05   1.6385612906675499e-06   -1.3733501719735468e-05
-1.1496175304805411e-05   1.6385612906675499e-06   -1.3733501719735468e-05
-1.1496175304805411e-05   1.6385612906675499e-06   -1.3733501719735468e-05
-1.1496175304805411e-05   1.6385612906675499e-06   -1.3733501719735468e-05
-5.9232555074594715e-06   1.3557915662105308e-06   -4.614963892166459e-06
-5.9232555074594715e-06   1.3557915662105308e-06   -4.614963892166459e-06
-5.9232555074594715e-06   1.3557915662105308e-06   -4.614963892166459e-06
-5.9232555074594715e-06   1.3557915662105308e-06   -4.614963892166459e-06
-5.965702794974817e-06   2.0281153162062383e-06   -1.353660716245653e-05
-5.965702794974817e-06   2.0281153162062383e-06   -1.353660716245653e-05
-5.965702794974817e-06   2.0281153162062383e-06   -1.353660716245653e-05
-5.965702794974817e-06   2.0281153162062383e-06   -1.353660716245653e-05
-1.1479741113125126e-05   1.7123445877015395e-06   -4.15708086176987e-06
-1.1479741113125126e-05   1.7123445877015395e-06   -4.15708086176987e-06
-1.1479741113125126e-05   1.7123445877015395e-06   -4.15708086176987e-06
-1.1479741113125126e-05   1.7123445877015395e-06   -4.15708086176987e-06
-8.617868994509752e-06   1.68333361400171e-06   -8.909461141908862e-06
-8.617868994509752e-06   1.68333361400171e-06   -8.909461141908862e-06
-8.617868994509752e-06   1.68333361400171e-06   -8.909461141908862e-06
-8.617868994509752e-06   1.68333361400171e-06   -8.909461141908862e-06
-1.1479741113125126e-05   2.0281153162062383e-06   -1.3347144725353727e-05
-1.1479741113125126e-05   2.0281153162062383e-06   -1.3347144725353727e-05
-1.1479741113125126e-05   2.0281153162062383e-06   -1.3347144725353727e-05
-1.1479741113125126e-05   2.0281153162062383e-06   -1.3347144725353727e-05
-5.965702794974831e-06   1.7123445877015666e-06   -4.346543298872659e-06
-5.965702794974831e-06   1.7123445877015666e-06   -4.346543298872659e-06
-5.965702794974831e-06   1.7123445877015666e-06   -4.346543298872659e-06
-5.965702794974831e-06   1.7123445877015666e-06   -4.346543298872659e-06
-6.022001540328802e-06   2.448062767808462e-06   -1.3504942548102621e-05
-6.022001540328802e-06   2.448062767808462e-06   -1.3504942548102621e-05
-6.022001540328802e-06   2.448062767808462e-06   -1.3504942548102621e-05
-6.022001540328802e-06   2.448062767808462e-06   -1.3504942548102621e-05
-1.1487907642340617e-05   2.092907279318656e-06   -4.182005751655759e-06
-1.1487907642340617e-05   2.092907279318656e-06   -4.182005751655759e-06
-1.1487907642340617e-05   2.092907279318656e-06   -4.182005751655759e-06
-1.1487907642340617e-05   2.092907279318656e-06   -4.182005751655759e-06
-8.716513351635458e-06   2.0111520366846995e-06   -8.75194309058387e-06
-8.716513351635458e-06   2.0111520366846995e-06   -8.75194309058387e-06
-8.716513351635458e-06   2.0111520366846995e-06   -8.75194309058387e-06
-8.716513351635458e-06   2.0111520366846995e-06   -8.75194309058387e-06
-5.855831491907331e-06   -3.708348124612632e-08   -1.5223279611747044e-05
-5.855831491907331e-06   -3.708348124612632e-08   -1.5223279611747044e-05
-5.855831491907331e-06   -3.708348124612632e-08   -1.5223279611747044e-05
-5.855831491907331e-06   -3.708348124612632e-08   -1.5223279611747044e-05
-3.248827958653947e-07   5.1636960797220516e-08   -5.951799519784475e-06
-3.248827958653947e-07   5.1636960797220516e-08   -5.951799519784475e-06
-3.248827958653947e-07   5.1636960797220516e-08   -5.951799519784475e-06
-3.248827958653947e-07   5.1636960797220516e-08   -5.951799519784475e-06
-3.7851407465845745e-07   3.9590915591075117e-07   -1.5076827070626574e-05
-3.7851407465845745e-07   3.9590915591075117e-07   -1.5076827070626574e-05
-3.7851407465845745e-07   3.9590915591075117e-07   -1.5076827070626574e-05
-3.7851407465845745e-07   3.9590915591075117e-07   -1.5076827070626574e-05
-5.923255507459451e-06   4.464620858959977e-07   -5.86592310728271e-06
-5.923255507459451e-06   4.464620858959977e-07   -5.86592310728271e-06
-5.923255507459451e-06   4.464620858959977e-07   -5.86592310728271e-06
-5.923255507459451e-06   4.464620858959977e-07   -5.86592310728271e-06
-3.102593765634369e-06   2.6095935035347177e-07   -1.0455724368999025e-05
-3.102593765634369e-06   2.6095935035347177e-07   -1.0455724368999025e-05
-3.102593765634369e-06   2.6095935035347177e-07   -1.0455724368999025e-05
-3.102593765634369e-06   2.6095935035347177e-07   -1.0455724368999025e-05
-5.923255507459461e-06   3.9590915591075117e-07   -1.5107158828617721e-05
-5.923255507459461e-06   3.9590915591075117e-07   -1.5107158828617721e-05
-5.923255507459461e-06   3.9590915591075117e-07   -1.5107158828617721e-05
-5.923255507459461e-06   3.9590915591075117e-07   -1.5107158828617721e-05
-3.7851407465845745e-07   4.464620858959977e-07   -5.835591349291577e-06
-3.7851407465845745e-07   4.464620858959977e-07   -5.835591349291577e-06
-3.7851407465845745e-07   4.464620858959977e-07   -5.835591349291577e-06
-3.7851407465845745e-07   4.464620858959977e-07   -5.835591349291577e-06
-4.1597996300504574e-07   8.192566130195775e-07   -1.5115832261265852e-05
-4.1597996300504574e-07   8.192566130195775e-07   -1.5115832261265852e-05
-4.1597996300504574e-07   8.192566130195775e-07   -1.5115832261265852e-05
-4.1597996300504574e-07   8.192566130195775e-07   -1.5115832261265852e-05
-5.965702794974817e-06   8.402241626258517e-07   -5.878874737746674e-06
-5.965702794974817e-06   8.402241626258517e-07   -5.878874737746674e-06
-5.965702794974817e-06   8.402241626258517e-07   -5.878874737746674e-06
-5.965702794974817e-06   8.402241626258517e-07   -5.878874737746674e-06
-3.172890786161425e-06   6.094468320616268e-07   -1.0395095020763794e-05
-3.172890786161425e-06   6.094468320616268e-07   -1.0395095020763794e-05
-3.172890786161425e-06   6.094468320616268e-07   -1.0395095020763794e-05
-3.172890786161425e-06   6.094468320616268e-07   -1.0395095020763794e-05
-5.965702794974817e-06   8.192566130195775e-07   -1.5128412791029638e-05
-5.965702794974817e-06   8.192566130195775e-07   -1.5128412791029638e-05
-5.965702794974817e-06   8.192566130195775e-07   -1.5128412791029638e-05
-5.965702794974817e-06   8.192566130195775e-07   -1.5128412791029638e-05
-4.1597996300504574e-07   8.402241626258517e-07   -5.866294207982881e-06
-4.1597996300504574e-07   8.402241626258517e-07   -5.866294207982881e-06
-4.1597996300504574e-07   8.402241626258517e-07   -5.866294207982881e-06
-4.1597996300504574e-07   8.402241626258517e-07   -5.866294207982881e-06
-4.769547920128001e-07   1.2600105589828583e-06   -1.530963065036693e-05
-4.769547920128001e-07   1.2600105589828583e-06   -1.530963065036693e-05
-4.769547920128001e-07   1.2600105589828583e-06   -1.530963065036693e-05
-4.769547920128001e-07   1.2600105589828583e-06   -1.530963065036693e-05
-6.022001540328811e-06   1.24301721655834e-06   -6.057690064385584e-06
-6.022001540328811e-06   1.24301721655834e-06   -6.057690064385584e-06
-6.022001540328811e-06   1.24301721655834e-06   -6.057690064385584e-06
-6.022001540328811e-06   1.24301721655834e-06   -6.057690064385584e-06
-3.247776758873249e-06   9.620852737186642e-07   -1.0512838867774276e-05
-3.247776758873249e-06   9.620852737186642e-07   -1.0512838867774276e-05
-3.247776758873249e-06   9.620852737186642e-07   -1.0512838867774276e-05
-3.247776758873249e-06   9.620852737186642e-07   -1.0512838867774276e-05
-3.2488279586539515e-07   -1.2004528000126018e-06   -1.359356778566095e-05
-3.2488279586539515e-07   -1.2004528000126018e-06   -1.359356778566095e-05
-3.2488279586539515e-07   -1.2004528000126018e-06   -1.359356778566095e-05
-3.2488279586539515e-07   -1.2004528000126018e-06   -1.359356778566095e-05
5.170879140066487e-06   -7.983902087856543e-07   -4.192727004371664e-06
5.170879140066487e-06   -7.983902087856543e-07   -4.192727004371664e-06
5.170879140066487e-06   -7.983902087856543e-07   -4.192727004371664e-06
5.170879140066487e-06   -7.983902087856543e-07   -4.192727004371664e-06
5.170590564669995e-06   -8.054582417791744e-07   -1.3430580948333532e-05
5.170590564669995e-06   -8.054582417791744e-07   -1.3430580948333532e-05
5.170590564669995e-06   -8.054582417791744e-07   -1.3430580948333532e-05
5.170590564669995e-06   -8.054582417791744e-07   -1.3430580948333532e-05
-3.7851407465845745e-07   -4.349079221582211e-07   -4.404403407892012e-06
-3.7851407465845745e-07   -4.349079221582211e-07   -4.404403407892012e-06
-3.7851407465845745e-07   -4.349079221582211e-07   -4.404403407892012e-06
-3.7851407465845745e-07   -4.349079221582211e-07   -4.404403407892012e-06
2.3916638129489445e-06   -7.804940690859255e-07   -8.814014865747726e-06
2.3916638129489445e-06   -7.804940690859255e-07   -8.814014865747726e-06
2.3916638129489445e-06   -7.804940690859255e-07   -8.814014865747726e-06
2.3916638129489445e-06   -7.804940690859255e-07   -8.814014865747726e-06
-3.7851407465845745e-07   -8.054582417791744e-07   -1.3652911140106106e-05
-3.7851407465845745e-07   -8.054582417791744e-07   -1.3652911140106106e-05
-3.7851407465845745e-07   -8.054582417791744e-07   -1.3652911140106106e-05
-3.7851407465845745e-07   -8.054582417791744e-07   -1.3652911140106106e-05
5.170590564670005e-06   -4.349079221582211e-07   -4.182073216119455e-06
5.170590564670005e-06   -4.349079221582211e-07   -4.182073216119455e-06
5.170590564670005e-06   -4.349079221582211e-07   -4.182073216119455e-06
5.170590564670005e-06   -4.349079221582211e-07   -4.182073216119455e-06
5.200535846765821e-06   -4.1952806962440223e-07   -1.3780769621953e-05
5.200535846765821e-06   -4.1952806962440223e-07   -1.3780769621953e-05
5.200535846765821e-06   -4.1952806962440223e-07   -1.3780769621953e-05
5.200535846765821e-06   -4.1952806962440223e-07   -1.3780769621953e-05
-4.159799630050466e-07   -7.908650279998299e-08   -4.6241748790962184e-06
-4.159799630050466e-07   -7.908650279998299e-08   -4.6241748790962184e-06
-4.159799630050466e-07   -7.908650279998299e-08   -4.6241748790962184e-06
-4.159799630050466e-07   -7.908650279998299e-08   -4.6241748790962184e-06
2.3198023657338323e-06   -4.6568488968572587e-07   -8.95185306152955e-06
2.3198023657338323e-06   -4.6568488968572587e-07   -8.95185306152955e-06
2.3198023657338323e-06   -4.6568488968572587e-07   -8.95185306152955e-06
2.3198023657338323e-06   -4.6568488968572587e-07   -8.95185306152955e-06
-4.1597996300504574e-07   -4.1952806962440223e-07   -1.3985034562047654e-05
-4.1597996300504574e-07   -4.1952806962440223e-07   -1.3985034562047654e-05
-4.1597996300504574e-07   -4.1952806962440223e-07   -1.3985034562047654e-05
-4.1597996300504574e-07   -4.1952806962440223e-07   -1.3985034562047654e-05
5.2005358467658315e-06   -7.908650279995588e-08   -4.419909939001534e-06
5.2005358467658315e-06   -7.908650279995588e-08   -4.419909939001534e-06
5.2005358467658315e-06   -7.908650279995588e-08   -4.419909939001534e-06
5.2005358467658315e-06   -7.908650279995588e-08   -4.419909939001534e-06
5.164818844872906e-06   5.6588205008166145e-08   -1.4182493004868809e-05
5.164818844872906e-06   5.6588205008166145e-08   -1.4182493004868809e-05
5.164818844872906e-06   5.6588205008166145e-08   -1.4182493004868809e-05
5.164818844872906e-06   5.6588205008166145e-08   -1.4182493004868809e-05
-4.76954792012801e-07   3.355384874525341e-07   -4.946907112859311e-06
-4.76954792012801e-07   3.355384874525341e-07   -4.946907112859311e-06
-4.76954792012801e-07   3.355384874525341e-07   -4.946907112859311e-06
-4.76954792012801e-07   3.355384874525341e-07   -4.946907112859311e-06
2.296662408598474e-06   -1.3002687817162487e-07   -9.290263227836864e-06
2.296662408598474e-06   -1.3002687817162487e-07   -9.290263227836864e-06
2.296662408598474e-06   -1.3002687817162487e-07   -9.290263227836864e-06
2.296662408598474e-06   -1.3002687817162487e-07   -9.290263227836864e-06
5.17087914006648e-06   -2.2237473078026986e-06   -7.5868322203539415e-06
5.17087914006648e-06   -2.2237473078026986e-06   -7.5868322203539415e-06
5.17087914006648e-06   -2.2237473078026986e-06   -7.5868322203539415e-06
5.17087914006648e-06   -2.2237473078026986e-06   -7.5868322203539415e-06
1.0287566734952247e-05   -1.4379669575671783e-06   1.4124486479303092e-06
1.0287566734952247e-05   -1.4379669575671783e-06   1.4124486479303092e-06
1.0287566734952247e-05   -1.4379669575671783e-06   1.4124486479303092e-06
1.0287566734952247e-05   -1.4379669575671783e-06   1.4124486479303092e-06
1.0648962627263665e-05   -2.009936898506734e-06   -8.505294330323264e-06
1.0648962627263665e-05   -2.009936898506734e-06   -8.505294330323264e-06
1.0648962627263665e-05   -2.009936898506734e-06   -8.505294330323264e-06
1.0648962627263665e-05   -2.009936898506734e-06   -8.505294330323264e-06
5.170590564669995e-06   -1.226025045378157e-06   1.5497866212237603e-07
5.170590564669995e-06   -1.226025045378157e-06   1.5497866212237603e-07
5.170590564669995e-06   -1.226025045378157e-06   1.5497866212237603e-07
5.170590564669995e-06   -1.226025045378157e-06   1.5497866212237603e-07
7.485563260880388e-06   -1.703456020393939e-06   -3.4168505798854843e-06
7.485563260880388e-06   -1.703456020393939e-06   -3.4168505798854843e-06
7.485563260880388e-06   -1.703456020393939e-06   -3.4168505798854843e-06
7.485563260880388e-06   -1.703456020393939e-06   -3.4168505798854843e-06
5.170590564669991e-06   -2.0099368985067474e-06   -8.975641442200396e-06
5.170590564669991e-06   -2.0099368985067474e-06   -8.975641442200396e-06
5.170590564669991e-06   -2.0099368985067474e-06   -8.975641442200396e-06
5.170590564669991e-06   -2.0099368985067474e-06   -8.975641442200396e-06
1.0648962627263665e-05   -1.226025045378157e-06   6.253257739995209e-07
1.0648962627263665e-05   -1.226025045378157e-06   6.253257739995209e-07
1.0648962627263665e-05   -1.226025045378157e-06   6.253257739995209e-07
1.0648962627263665e-05   -1.226025045378157e-06   6.253257739995209e-07
1.0929545252254835e-05   -1.7880480562891765e-06   -9.58379723622419e-06
1.0929545252254835e-05   -1.7880480562891765e-06   -9.58379723622419e-06
1.0929545252254835e-05   -1.7880480562891765e-06   -9.58379723622419e-06
1.0929545252254835e-05   -1.7880480562891765e-06   -9.58379723622419e-06
5.200535846765815e-06   -1.0471075341136448e-06   -4.80012540381157e-07
5.200535846765815e-06   -1.0471075341136448e-06   -4.80012540381157e-07
5.200535846765815e-06   -1.0471075341136448e-06   -4.80012540381157e-07
5.200535846765815e-06   -1.0471075341136448e-06   -4.80012540381157e-07
7.748099958029661e-06   -1.5669891101046103e-06   -4.414023780226302e-06
7.748099958029661e-06   -1.5669891101046103e-06   -4.414023780226302e-06
7.748099958029661e-06   -1.5669891101046103e-06   -4.414023780226302e-06
7.748099958029661e-06   -1.5669891101046103e-06   -4.414023780226302e-06
5.200535846765821e-06   -1.7880480562891765e-06   -1.0028361549529511e-05
5.200535846765821e-06   -1.7880480562891765e-06   -1.0028361549529511e-05
5.200535846765821e-06   -1.7880480562891765e-06   -1.0028361549529511e-05
5.200535846765821e-06   -1.7880480562891765e-06   -1.0028361549529511e-05
1.0929545252254822e-05   -1.0471075341136177e-06   -3.544822707579869e-08
1.0929545252254822e-05   -1.0471075341136177e-06   -3.544822707579869e-08
1.0929545252254822e-05   -1.0471075341136177e-06   -3.544822707579869e-08
1.0929545252254822e-05   -1.0471075341136177e-06   -3.544822707579869e-08
1.1230937223291176e-05   -1.311229355603047e-06   -1.1425325754902138e-05
1.1230937223291176e-05   -1.311229355603047e-06   -1.1425325754902138e-05
1.1230937223291176e-05   -1.311229355603047e-06   -1.1425325754902138e-05
1.1230937223291176e-05   -1.311229355603047e-06   -1.1425325754902138e-05
5.164818844872896e-06   -6.672165701374598e-07   -1.7015361288177081e-06
5.164818844872896e-06   -6.672165701374598e-07   -1.7015361288177081e-06
5.164818844872896e-06   -6.672165701374598e-07   -1.7015361288177081e-06
5.164818844872896e-06   -6.672165701374598e-07   -1.7015361288177081e-06
7.723484954572207e-06   -1.3464100424890482e-06   -5.558463561572258e-06
7.723484954572207e-06   -1.3464100424890482e-06   -5.558463561572258e-06
7.723484954572207e-06   -1.3464100424890482e-06   -5.558463561572258e-06
7.723484954572207e-06   -1.3464100424890482e-06   -5.558463561572258e-06
-1.2415305506088765e-05   1.9092231879086095e-06   -9.510105207633196e-06
-1.2415305506088765e-05   1.9092231879086095e-06   -9.510105207633196e-06
-1.2415305506088765e-05   1.9092231879086095e-06   -9.510105207633196e-06
-1.2415305506088765e-05   1.9092231879086095e-06   -9.510105207633196e-06
-8.492295479209818e-06   1.2050138331626964e-06   -3.3942807756824965e-06
-8.492295479209818e-06   1.2050138331626964e-06   -3.3942807756824965e-06
-8.492295479209818e-06   1.2050138331626964e-06   -3.3942807756824965e-06
-8.492295479209818e-06   1.2050138331626964e-06   -3.3942807756824965e-06
-8.46062017655096e-06   2.3150839907085607e-06   -8.081097147365733e-06
-8.46062017655096e-06   2.3150839907085607e-06   -8.081097147365733e-06
-8.46062017655096e-06   2.3150839907085607e-06   -8.081097147365733e-06
-8.46062017655096e-06   2.3150839907085607e-06   -8.081097147365733e-06
-1.203471589876792e-05   1.5388013881193147e-06   -1.6585013821173052e-06
-1.203471589876792e-05   1.5388013881193147e-06   -1.6585013821173052e-06
-1.203471589876792e-05   1.5388013881193147e-06   -1.6585013821173052e-06
-1.203471589876792e-05   1.5388013881193147e-06   -1.6585013821173052e-06
-9.911368398780632e-06   1.840231299144696e-06   -5.378271828711328e-06
-9.911368398780632e-06   1.840231299144696e-06   -5.378271828711328e-06
-9.911368398780632e-06   1.840231299144696e-06   -5.378271828711328e-06
-9.911368398780632e-06   1.840231299144696e-06   -5.378271828711328e-06
-1.203471589876792e-05   2.3150839907085607e-06   -7.615327585812237e-06
-1.203471589876792e-05   2.3150839907085607e-06   -7.615327585812237e-06
-1.203471589876792e-05   2.3150839907085607e-06   -7.615327585812237e-06
-1.203471589876792e-05   2.3150839907085607e-06   -7.615327585812237e-06
-8.460620176550973e-06   1.5388013881193147e-06   -2.124270943670846e-06
-8.460620176550973e-06   1.5388013881193147e-06   -2.124270943670846e-06
-8.460620176550973e-06   1.5388013881193147e-06   -2.124270943670846e-06
-8.460620176550973e-06   1.5388013881193147e-06   -2.124270943670846e-06
-8.395941479796118e-06   2.494356016671486e-06   -7.047376139488631e-06
-8.395941479796118e-06   2.494356016671486e-06   -7.047376139488631e-06
-8.395941479796118e-06   2.494356016671486e-06   -7.047376139488631e-06
-8.395941479796118e-06   2.494356016671486e-06   -7.047376139488631e-06
-1.1751846113339294e-05   1.6956607257212497e-06   -9.749845756798638e-07
-1.1751846113339294e-05   1.6956607257212497e-06   -9.749845756798638e-07
-1.1751846113339294e-05   1.6956607257212497e-06   -9.749845756798638e-07
-1.1751846113339294e-05   1.6956607257212497e-06   -9.749845756798638e-07
-9.90887721577835e-06   2.026758782560571e-06   -4.245258239051719e-06
-9.90887721577835e-06   2.026758782560571e-06   -4.245258239051719e-06
-9.90887721577835e-06   2.026758782560571e-06   -4.245258239051719e-06
-9.90887721577835e-06   2.026758782560571e-06   -4.245258239051719e-06
-1.1751846113339294e-05   2.494356016671486e-06   -6.568158964918481e-06
-1.1751846113339294e-05   2.494356016671486e-06   -6.568158964918481e-06
-1.1751846113339294e-05   2.494356016671486e-06   -6.568158964918481e-06
-1.1751846113339294e-05   2.494356016671486e-06   -6.568158964918481e-06
-8.395941479796132e-06   1.6956607257212497e-06   -1.4542017502500104e-06
-8.395941479796132e-06   1.6956607257212497e-06   -1.4542017502500104e-06
-8.395941479796132e-06   1.6956607257212497e-06   -1.4542017502500104e-06
-8.395941479796132e-06   1.6956607257212497e-06   -1.4542017502500104e-06
-8.371115608658543e-06   2.6739491406891865e-06   -5.621433520669591e-06
-8.371115608658543e-06   2.6739491406891865e-06   -5.621433520669591e-06
-8.371115608658543e-06   2.6739491406891865e-06   -5.621433520669591e-06
-8.371115608658543e-06   2.6739491406891865e-06   -5.621433520669591e-06
-1.1383630518831478e-05   1.8949665383911581e-06   -1.331857756691878e-07
-1.1383630518831478e-05   1.8949665383911581e-06   -1.331857756691878e-07
-1.1383630518831478e-05   1.8949665383911581e-06   -1.331857756691878e-07
-1.1383630518831478e-05   1.8949665383911581e-06   -1.331857756691878e-07
-9.61410545298801e-06   2.1303809821907906e-06   -3.2236428850214134e-06
-9.61410545298801e-06   2.1303809821907906e-06   -3.2236428850214134e-06
-9.61410545298801e-06   2.1303809821907906e-06   -3.2236428850214134e-06
-9.61410545298801e-06   2.1303809821907906e-06   -3.2236428850214134e-06
-8.492295479209804e-06   9.558168994840317e-07   -1.2203228958455153e-05
-8.492295479209804e-06   9.558168994840317e-07   -1.2203228958455153e-05
-8.492295479209804e-06   9.558168994840317e-07   -1.2203228958455153e-05
-8.492295479209804e-06   9.558168994840317e-07   -1.2203228958455153e-05
-4.924394346008409e-06   6.293591301481021e-07   -6.452601731387731e-06
-4.924394346008409e-06   6.293591301481021e-07   -6.452601731387731e-06
-4.924394346008409e-06   6.293591301481021e-07   -6.452601731387731e-06
-4.924394346008409e-06   6.293591301481021e-07   -6.452601731387731e-06
-4.9271604815823675e-06   1.3557915662105308e-06   -1.2095182744954421e-05
-4.9271604815823675e-06   1.3557915662105308e-06   -1.2095182744954421e-05
-4.9271604815823675e-06   1.3557915662105308e-06   -1.2095182744954421e-05
-4.9271604815823675e-06   1.3557915662105308e-06   -1.2095182744954421e-05
-8.46062017655096e-06   9.826677479351641e-07   -5.9822089623748944e-06
-8.46062017655096e-06   9.826677479351641e-07   -5.9822089623748944e-06
-8.46062017655096e-06   9.826677479351641e-07   -5.9822089623748944e-06
-8.46062017655096e-06   9.826677479351641e-07   -5.9822089623748944e-06
-6.639017488451566e-06   1.0494247109186654e-06   -9.058267620330644e-06
-6.639017488451566e-06   1.0494247109186654e-06   -9.058267620330644e-06
-6.639017488451566e-06   1.0494247109186654e-06   -9.058267620330644e-06
-6.639017488451566e-06   1.0494247109186654e-06   -9.058267620330644e-06
-8.460620176550953e-06   1.3557915662105308e-06   -1.187130845398916e-05
-8.460620176550953e-06   1.3557915662105308e-06   -1.187130845398916e-05
-8.460620176550953e-06   1.3557915662105308e-06   -1.187130845398916e-05
-8.460620176550953e-06   1.3557915662105308e-06   -1.187130845398916e-05
-4.9271604815823675e-06   9.826677479351641e-07   -6.206083253340129e-06
-4.9271604815823675e-06   9.826677479351641e-07   -6.206083253340129e-06
-4.9271604815823675e-06   9.826677479351641e-07   -6.206083253340129e-06
-4.9271604815823675e-06   9.826677479351641e-07   -6.206083253340129e-06
-4.924067674419012e-06   1.7123445877015395e-06   -1.182443887380187e-05
-4.924067674419012e-06   1.7123445877015395e-06   -1.182443887380187e-05
-4.924067674419012e-06   1.7123445877015395e-06   -1.182443887380187e-05
-4.924067674419012e-06   1.7123445877015395e-06   -1.182443887380187e-05
-8.395941479796118e-06   1.3054930844471355e-06   -5.7938716295540595e-06
-8.395941479796118e-06   1.3054930844471355e-06   -5.7938716295540595e-06
-8.395941479796118e-06   1.3054930844471355e-06   -5.7938716295540595e-06
-8.395941479796118e-06   1.3054930844471355e-06   -5.7938716295540595e-06
-6.608714609702442e-06   1.3408224054940038e-06   -8.793780672338215e-06
-6.608714609702442e-06   1.3408224054940038e-06   -8.793780672338215e-06
-6.608714609702442e-06   1.3408224054940038e-06   -8.793780672338215e-06
-6.608714609702442e-06   1.3408224054940038e-06   -8.793780672338215e-06
-8.395941479796118e-06   1.7123445877015395e-06   -1.1580327971849238e-05
-8.395941479796118e-06   1.7123445877015395e-06   -1.1580327971849238e-05
-8.395941479796118e-06   1.7123445877015395e-06   -1.1580327971849238e-05
-8.395941479796118e-06   1.7123445877015395e-06   -1.1580327971849238e-05
-4.924067674419012e-06   1.3054930844471355e-06   -6.0379825315066586e-06
-4.924067674419012e-06   1.3054930844471355e-06   -6.0379825315066586e-06
-4.924067674419012e-06   1.3054930844471355e-06   -6.0379825315066586e-06
-4.924067674419012e-06   1.3054930844471355e-06   -6.0379825315066586e-06
-4.928821690597729e-06   2.092907279318683e-06   -1.1872564757083503e-05
-4.928821690597729e-06   2.092907279318683e-06   -1.1872564757083503e-05
-4.928821690597729e-06   2.092907279318683e-06   -1.1872564757083503e-05
-4.928821690597729e-06   2.092907279318683e-06   -1.1872564757083503e-05
-8.371115608658536e-06   1.6575168336111607e-06   -5.874173959557593e-06
-8.371115608658536e-06   1.6575168336111607e-06   -5.874173959557593e-06
-8.371115608658536e-06   1.6575168336111607e-06   -5.874173959557593e-06
-8.371115608658536e-06   1.6575168336111607e-06   -5.874173959557593e-06
-6.652089718174665e-06   1.6305067596419362e-06   -8.72301106598257e-06
-6.652089718174665e-06   1.6305067596419362e-06   -8.72301106598257e-06
-6.652089718174665e-06   1.6305067596419362e-06   -8.72301106598257e-06
-6.652089718174665e-06   1.6305067596419362e-06   -8.72301106598257e-06
-4.9243943460084155e-06   5.1636960797220516e-08   -1.3485945815451446e-05
-4.9243943460084155e-06   5.1636960797220516e-08   -1.3485945815451446e-05
-4.9243943460084155e-06   5.1636960797220516e-08   -1.3485945815451446e-05
-4.9243943460084155e-06   5.1636960797220516e-08   -1.3485945815451446e-05
-1.4002166247802843e-06   1.1231904597545851e-07   -7.5759070289642736e-06
-1.4002166247802843e-06   1.1231904597545851e-07   -7.5759070289642736e-06
-1.4002166247802843e-06   1.1231904597545851e-07   -7.5759070289642736e-06
-1.4002166247802843e-06   1.1231904597545851e-07   -7.5759070289642736e-06
-1.4035064075570131e-06   4.464620858959977e-07   -1.3332652878388871e-05
-1.4035064075570131e-06   4.464620858959977e-07   -1.3332652878388871e-05
-1.4035064075570131e-06   4.464620858959977e-07   -1.3332652878388871e-05
-1.4035064075570131e-06   4.464620858959977e-07   -1.3332652878388871e-05
-4.9271604815823675e-06   4.6894388869902224e-07   -7.473385170028428e-06
-4.9271604815823675e-06   4.6894388869902224e-07   -7.473385170028428e-06
-4.9271604815823675e-06   4.6894388869902224e-07   -7.473385170028428e-06
-4.9271604815823675e-06   4.6894388869902224e-07   -7.473385170028428e-06
-3.1424749907546565e-06   3.171397874874568e-07   -1.0356778527347692e-05
-3.1424749907546565e-06   3.171397874874568e-07   -1.0356778527347692e-05
-3.1424749907546565e-06   3.171397874874568e-07   -1.0356778527347692e-05
-3.1424749907546565e-06   3.171397874874568e-07   -1.0356778527347692e-05
-4.927160481582374e-06   4.464620858959977e-07   -1.334614196007068e-05
-4.927160481582374e-06   4.464620858959977e-07   -1.334614196007068e-05
-4.927160481582374e-06   4.464620858959977e-07   -1.334614196007068e-05
-4.927160481582374e-06   4.464620858959977e-07   -1.334614196007068e-05
-1.4035064075570131e-06   4.6894388869902224e-07   -7.459896088346602e-06
-1.4035064075570131e-06   4.6894388869902224e-07   -7.459896088346602e-06
-1.4035064075570131e-06   4.6894388869902224e-07   -7.459896088346602e-06
-1.4035064075570131e-06   4.6894388869902224e-07   -7.459896088346602e-06
-1.39926895151096e-06   8.402241626258517e-07   -1.3364866305990014e-05
-1.39926895151096e-06   8.402241626258517e-07   -1.3364866305990014e-05
-1.39926895151096e-06   8.402241626258517e-07   -1.3364866305990014e-05
-1.39926895151096e-06   8.402241626258517e-07   -1.3364866305990014e-05
-4.924067674419012e-06   8.267308404356639e-07   -7.482105774495778e-06
-4.924067674419012e-06   8.267308404356639e-07   -7.482105774495778e-06
-4.924067674419012e-06   8.267308404356639e-07   -7.482105774495778e-06
-4.924067674419012e-06   8.267308404356639e-07   -7.482105774495778e-06
-3.163997067891455e-06   6.299127008414828e-07   -1.029746590161854e-05
-3.163997067891455e-06   6.299127008414828e-07   -1.029746590161854e-05
-3.163997067891455e-06   6.299127008414828e-07   -1.029746590161854e-05
-3.163997067891455e-06   6.299127008414828e-07   -1.029746590161854e-05
-4.924067674419012e-06   8.402241626258517e-07   -1.3356770312675875e-05
-4.924067674419012e-06   8.402241626258517e-07   -1.3356770312675875e-05
-4.924067674419012e-06   8.402241626258517e-07   -1.3356770312675875e-05
-4.924067674419012e-06   8.402241626258517e-07   -1.3356770312675875e-05
-1.39926895151096e-06   8.267308404356639e-07   -7.490201767809882e-06
-1.39926895151096e-06   8.267308404356639e-07   -7.490201767809882e-06
-1.39926895151096e-06   8.267308404356639e-07   -7.490201767809882e-06
-1.39926895151096e-06   8.267308404356639e-07   -7.490201767809882e-06
-1.4016822293122592e-06   1.24301721655834e-06   -1.3566502579406692e-05
-1.4016822293122592e-06   1.24301721655834e-06   -1.3566502579406692e-05
-1.4016822293122592e-06   1.24301721655834e-06   -1.3566502579406692e-05
-1.4016822293122592e-06   1.24301721655834e-06   -1.3566502579406692e-05
-4.928821690597729e-06   1.1907725454129027e-06   -7.656590007910281e-06
-4.928821690597729e-06   1.1907725454129027e-06   -7.656590007910281e-06
-4.928821690597729e-06   1.1907725454129027e-06   -7.656590007910281e-06
-4.928821690597729e-06   1.1907725454129027e-06   -7.656590007910281e-06
-3.191660959071958e-06   9.468049317784175e-07   -1.04054773256059e-05
-3.191660959071958e-06   9.468049317784175e-07   -1.04054773256059e-05
-3.191660959071958e-06   9.468049317784175e-07   -1.04054773256059e-05
-3.191660959071958e-06   9.468049317784175e-07   -1.04054773256059e-05
-1.400216624780282e-06   -7.983902087856543e-07   -1.1931701603667855e-05
-1.400216624780282e-06   -7.983902087856543e-07   -1.1931701603667855e-05
-1.400216624780282e-06   -7.983902087856543e-07   -1.1931701603667855e-05
-1.400216624780282e-06   -7.983902087856543e-07   -1.1931701603667855e-05
2.0636145607454944e-06   -3.5942478804226697e-07   -5.8952703753455495e-06
2.0636145607454944e-06   -3.5942478804226697e-07   -5.8952703753455495e-06
2.0636145607454944e-06   -3.5942478804226697e-07   -5.8952703753455495e-06
2.0636145607454944e-06   -3.5942478804226697e-07   -5.8952703753455495e-06
2.0915713284291914e-06   -4.349079221582211e-07   -1.1653783793126992e-05
2.0915713284291914e-06   -4.349079221582211e-07   -1.1653783793126992e-05
2.0915713284291914e-06   -4.349079221582211e-07   -1.1653783793126992e-05
2.0915713284291914e-06   -4.349079221582211e-07   -1.1653783793126992e-05
-1.4035064075570106e-06   -2.210601572101697e-08   -6.076335377012295e-06
-1.4035064075570106e-06   -2.210601572101697e-08   -6.076335377012295e-06
-1.4035064075570106e-06   -2.210601572101697e-08   -6.076335377012295e-06
-1.4035064075570106e-06   -2.210601572101697e-08   -6.076335377012295e-06
3.411586320693848e-07   -3.7249889070160695e-07   -8.773874718067962e-06
3.411586320693848e-07   -3.7249889070160695e-07   -8.773874718067962e-06
3.411586320693848e-07   -3.7249889070160695e-07   -8.773874718067962e-06
3.411586320693848e-07   -3.7249889070160695e-07   -8.773874718067962e-06
-1.4035064075570131e-06   -4.349079221582211e-07   -1.1901464936989313e-05
-1.4035064075570131e-06   -4.349079221582211e-07   -1.1901464936989313e-05
-1.4035064075570131e-06   -4.349079221582211e-07   -1.1901464936989313e-05
-1.4035064075570131e-06   -4.349079221582211e-07   -1.1901464936989313e-05
2.0915713284291948e-06   -2.2106015720989866e-08   -5.828654233149981e-06
2.0915713284291948e-06   -2.2106015720989866e-08   -5.828654233149981e-06
2.0915713284291948e-06   -2.2106015720989866e-08   -5.828654233149981e-06
2.0915713284291948e-06   -2.2106015720989866e-08   -5.828654233149981e-06
2.159740187887312e-06   -7.908650279995588e-08   -1.1894636182299486e-05
2.159740187887312e-06   -7.908650279995588e-08   -1.1894636182299486e-05
2.159740187887312e-06   -7.908650279995588e-08   -1.1894636182299486e-05
2.159740187887312e-06   -7.908650279995588e-08   -1.1894636182299486e-05
-1.3992689515109574e-06   3.0109815520634373e-07   -6.191065078106148e-06
-1.3992689515109574e-06   3.0109815520634373e-07   -6.191065078106148e-06
-1.3992689515109574e-06   3.0109815520634373e-07   -6.191065078106148e-06
-1.3992689515109574e-06   3.0109815520634373e-07   -6.191065078106148e-06
3.2061395506650634e-07   -9.157620829687932e-08   -8.821931970966657e-06
3.2061395506650634e-07   -9.157620829687932e-08   -8.821931970966657e-06
3.2061395506650634e-07   -9.157620829687932e-08   -8.821931970966657e-06
3.2061395506650634e-07   -9.157620829687932e-08   -8.821931970966657e-06
-1.39926895151096e-06   -7.908650279995588e-08   -1.2122746977103283e-05
-1.39926895151096e-06   -7.908650279995588e-08   -1.2122746977103283e-05
-1.39926895151096e-06   -7.908650279995588e-08   -1.2122746977103283e-05
-1.39926895151096e-06   -7.908650279995588e-08   -1.2122746977103283e-05
2.1597401878873153e-06   3.0109815520637084e-07   -5.962954283302344e-06
2.1597401878873153e-06   3.0109815520637084e-07   -5.962954283302344e-06
2.1597401878873153e-06   3.0109815520637084e-07   -5.962954283302344e-06
2.1597401878873153e-06   3.0109815520637084e-07   -5.962954283302344e-06
2.193683128605337e-06   3.355384874525341e-07   -1.2244803811041369e-05
2.193683128605337e-06   3.355384874525341e-07   -1.2244803811041369e-05
2.193683128605337e-06   3.355384874525341e-07   -1.2244803811041369e-05
2.193683128605337e-06   3.355384874525341e-07   -1.2244803811041369e-05
-1.4016822293122592e-06   6.700715064264908e-07   -6.453248025896358e-06
-1.4016822293122592e-06   6.700715064264908e-07   -6.453248025896358e-06
-1.4016822293122592e-06   6.700715064264908e-07   -6.453248025896358e-06
-1.4016822293122592e-06   6.700715064264908e-07   -6.453248025896358e-06
3.3207896976914913e-07   2.0742340509468304e-07   -9.06526116356632e-06
3.3207896976914913e-07   2.0742340509468304e-07   -9.06526116356632e-06
3.3207896976914913e-07   2.0742340509468304e-07   -9.06526116356632e-06
3.3207896976914913e-07   2.0742340509468304e-07   -9.06526116356632e-06
2.063614560745491e-06   -1.4379669575671783e-06   -6.5346149090611175e-06
2.063614560745491e-06   -1.4379669575671783e-06   -6.5346149090611175e-06
2.063614560745491e-06   -1.4379669575671783e-06   -6.5346149090611175e-06
2.063614560745491e-06   -1.4379669575671783e-06   -6.5346149090611175e-06
5.106011997126052e-06   -6.523783747505783e-07   -9.925993654035339e-07
5.106011997126052e-06   -6.523783747505783e-07   -9.925993654035339e-07
5.106011997126052e-06   -6.523783747505783e-07   -9.925993654035339e-07
5.106011997126052e-06   -6.523783747505783e-07   -9.925993654035339e-07
5.47948057256266e-06   -1.226025045378157e-06   -6.834362757568487e-06
5.47948057256266e-06   -1.226025045378157e-06   -6.834362757568487e-06
5.47948057256266e-06   -1.226025045378157e-06   -6.834362757568487e-06
5.47948057256266e-06   -1.226025045378157e-06   -6.834362757568487e-06
2.0915713284291914e-06   -4.2207644985033316e-07   -1.6702165079960501e-06
2.0915713284291914e-06   -4.2207644985033316e-07   -1.6702165079960501e-06
2.0915713284291914e-06   -4.2207644985033316e-07   -1.6702165079960501e-06
2.0915713284291914e-06   -4.2207644985033316e-07   -1.6702165079960501e-06
3.5280321777233467e-06   -9.053542393101186e-07   -3.774351249810455e-06
3.5280321777233467e-06   -9.053542393101186e-07   -3.774351249810455e-06
3.5280321777233467e-06   -9.053542393101186e-07   -3.774351249810455e-06
3.5280321777233467e-06   -9.053542393101186e-07   -3.774351249810455e-06
2.091571328429188e-06   -1.226025045378157e-06   -7.31673191488514e-06
2.091571328429188e-06   -1.226025045378157e-06   -7.31673191488514e-06
2.091571328429188e-06   -1.226025045378157e-06   -7.31673191488514e-06
2.091571328429188e-06   -1.226025045378157e-06   -7.31673191488514e-06
5.479480572562647e-06   -4.2207644985033316e-07   -1.187847350679356e-06
5.479480572562647e-06   -4.2207644985033316e-07   -1.187847350679356e-06
5.479480572562647e-06   -4.2207644985033316e-07   -1.187847350679356e-06
5.479480572562647e-06   -4.2207644985033316e-07   -1.187847350679356e-06
5.768420609145342e-06   -1.0471075341136448e-06   -7.485302091785784e-06
5.768420609145342e-06   -1.0471075341136448e-06   -7.485302091785784e-06
5.768420609145342e-06   -1.0471075341136448e-06   -7.485302091785784e-06
5.768420609145342e-06   -1.0471075341136448e-06   -7.485302091785784e-06
2.1597401878873153e-06   -2.6471304762480685e-07   -1.9402714149157008e-06
2.1597401878873153e-06   -2.6471304762480685e-07   -1.9402714149157008e-06
2.1597401878873153e-06   -2.6471304762480685e-07   -1.9402714149157008e-06
2.1597401878873153e-06   -2.6471304762480685e-07   -1.9402714149157008e-06
3.7533466898021745e-06   -7.863489955378883e-07   -4.283300682692611e-06
3.7533466898021745e-06   -7.863489955378883e-07   -4.283300682692611e-06
3.7533466898021745e-06   -7.863489955378883e-07   -4.283300682692611e-06
3.7533466898021745e-06   -7.863489955378883e-07   -4.283300682692611e-06
2.159740187887312e-06   -1.0471075341136448e-06   -7.954738783679088e-06
2.159740187887312e-06   -1.0471075341136448e-06   -7.954738783679088e-06
2.159740187887312e-06   -1.0471075341136448e-06   -7.954738783679088e-06
2.159740187887312e-06   -1.0471075341136448e-06   -7.954738783679088e-06
5.768420609145335e-06   -2.6471304762480685e-07   -1.4708347230223628e-06
5.768420609145335e-06   -2.6471304762480685e-07   -1.4708347230223628e-06
5.768420609145335e-06   -2.6471304762480685e-07   -1.4708347230223628e-06
5.768420609145335e-06   -2.6471304762480685e-07   -1.4708347230223628e-06
6.154496806854284e-06   -6.672165701374598e-07   -8.741541982789543e-06
6.154496806854284e-06   -6.672165701374598e-07   -8.741541982789543e-06
6.154496806854284e-06   -6.672165701374598e-07   -8.741541982789543e-06
6.154496806854284e-06   -6.672165701374598e-07   -8.741541982789543e-06
2.19368312860534e-06   4.1551785990727496e-08   -2.5654468660514594e-06
2.19368312860534e-06   4.1551785990727496e-08   -2.5654468660514594e-06
2.19368312860534e-06   4.1551785990727496e-08   -2.5654468660514594e-06
2.19368312860534e-06   4.1551785990727496e-08   -2.5654468660514594e-06
3.83342140337914e-06   -6.136727902962416e-07   -4.905209244902351e-06
3.83342140337914e-06   -6.136727902962416e-07   -4.905209244902351e-06
3.83342140337914e-06   -6.136727902962416e-07   -4.905209244902351e-06
3.83342140337914e-06   -6.136727902962416e-07   -4.905209244902351e-06
-7.427146676043146e-06   1.2050138331626964e-06   -7.01929893662412e-06
-7.427146676043146e-06   1.2050138331626964e-06   -7.01929893662412e-06
-7.427146676043146e-06   1.2050138331626964e-06   -7.01929893662412e-06
-7.427146676043146e-06   1.2050138331626964e-06   -7.01929893662412e-06
-5.53600743815191e-06   4.822809664568601e-07   -4.301039926828897e-06
-5.53600743815191e-06   4.822809664568601e-07   -4.301039926828897e-06
-5.53600743815191e-06   4.822809664568601e-07   -4.301039926828897e-06
-5.53600743815191e-06   4.822809664568601e-07   -4.301039926828897e-06
-5.457467124299005e-06   1.5388013881193147e-06   -6.192625580305627e-06
-5.457467124299005e-06   1.5388013881193147e-06   -6.192625580305627e-06
-5.457467124299005e-06   1.5388013881193147e-06   -6.192625580305627e-06
-5.457467124299005e-06   1.5388013881193147e-06   -6.192625580305627e-06
-7.0171668279842925e-06   7.581680204094433e-07   -3.124746053537517e-06
-7.0171668279842925e-06   7.581680204094433e-07   -3.124746053537517e-06
-7.0171668279842925e-06   7.581680204094433e-07   -3.124746053537517e-06
-7.0171668279842925e-06   7.581680204094433e-07   -3.124746053537517e-06
-6.090169609962852e-06   1.0826429347722083e-06   -4.8644263655245135e-06
-6.090169609962852e-06   1.0826429347722083e-06   -4.8644263655245135e-06
-6.090169609962852e-06   1.0826429347722083e-06   -4.8644263655245135e-06
-6.090169609962852e-06   1.0826429347722083e-06   -4.8644263655245135e-06
-7.0171668279842925e-06   1.5388013881193147e-06   -5.724245559679742e-06
-7.0171668279842925e-06   1.5388013881193147e-06   -5.724245559679742e-06
-7.0171668279842925e-06   1.5388013881193147e-06   -5.724245559679742e-06
-7.0171668279842925e-06   1.5388013881193147e-06   -5.724245559679742e-06
-5.4574671242990115e-06   7.581680204094433e-07   -3.5931260741634764e-06
-5.4574671242990115e-06   7.581680204094433e-07   -3.5931260741634764e-06
-5.4574671242990115e-06   7.581680204094433e-07   -3.5931260741634764e-06
-5.4574671242990115e-06   7.581680204094433e-07   -3.5931260741634764e-06
-5.344485921929974e-06   1.6956607257212226e-06   -5.528462829568106e-06
-5.344485921929974e-06   1.6956607257212226e-06   -5.528462829568106e-06
-5.344485921929974e-06   1.6956607257212226e-06   -5.528462829568106e-06
-5.344485921929974e-06   1.6956607257212226e-06   -5.528462829568106e-06
-6.692725575246352e-06   8.991837696943465e-07   -2.803510567091325e-06
-6.692725575246352e-06   8.991837696943465e-07   -2.803510567091325e-06
-6.692725575246352e-06   8.991837696943465e-07   -2.803510567091325e-06
-6.692725575246352e-06   8.991837696943465e-07   -2.803510567091325e-06
-5.983470445790356e-06   1.2321724176611668e-06   -4.1853956382980745e-06
-5.983470445790356e-06   1.2321724176611668e-06   -4.1853956382980745e-06
-5.983470445790356e-06   1.2321724176611668e-06   -4.1853956382980745e-06
-5.983470445790356e-06   1.2321724176611668e-06   -4.1853956382980745e-06
-6.692725575246339e-06   1.6956607257212226e-06   -5.050576655951953e-06
-6.692725575246339e-06   1.6956607257212226e-06   -5.050576655951953e-06
-6.692725575246339e-06   1.6956607257212226e-06   -5.050576655951953e-06
-6.692725575246339e-06   1.6956607257212226e-06   -5.050576655951953e-06
-5.3444859219299874e-06   8.991837696943465e-07   -3.28139674070743e-06
-5.3444859219299874e-06   8.991837696943465e-07   -3.28139674070743e-06
-5.3444859219299874e-06   8.991837696943465e-07   -3.28139674070743e-06
-5.3444859219299874e-06   8.991837696943465e-07   -3.28139674070743e-06
-5.269835886173117e-06   1.894966538391131e-06   -4.679938827944477e-06
-5.269835886173117e-06   1.894966538391131e-06   -4.679938827944477e-06
-5.269835886173117e-06   1.894966538391131e-06   -4.679938827944477e-06
-5.269835886173117e-06   1.894966538391131e-06   -4.679938827944477e-06
-6.2802270113061705e-06   1.1233577073239487e-06   -2.5329883207489932e-06
-6.2802270113061705e-06   1.1233577073239487e-06   -2.5329883207489932e-06
-6.2802270113061705e-06   1.1233577073239487e-06   -2.5329883207489932e-06
-6.2802270113061705e-06   1.1233577073239487e-06   -2.5329883207489932e-06
-5.705600184383963e-06   1.3383991933797068e-06   -3.6197245905861712e-06
-5.705600184383963e-06   1.3383991933797068e-06   -3.6197245905861712e-06
-5.705600184383963e-06   1.3383991933797068e-06   -3.6197245905861712e-06
-5.705600184383963e-06   1.3383991933797068e-06   -3.6197245905861712e-06
-5.53600743815191e-06   6.293591301481021e-07   -1.0315384950751314e-05
-5.53600743815191e-06   6.293591301481021e-07   -1.0315384950751314e-05
-5.53600743815191e-06   6.293591301481021e-07   -1.0315384950751314e-05
-5.53600743815191e-06   6.293591301481021e-07   -1.0315384950751314e-05
-3.993058550956886e-06   2.85646600688182e-07   -7.950030989768955e-06
-3.993058550956886e-06   2.85646600688182e-07   -7.950030989768955e-06
-3.993058550956886e-06   2.85646600688182e-07   -7.950030989768955e-06
-3.993058550956886e-06   2.85646600688182e-07   -7.950030989768955e-06
-3.943620045177385e-06   9.826677479351641e-07   -1.0278435538596439e-05
-3.943620045177385e-06   9.826677479351641e-07   -1.0278435538596439e-05
-3.943620045177385e-06   9.826677479351641e-07   -1.0278435538596439e-05
-3.943620045177385e-06   9.826677479351641e-07   -1.0278435538596439e-05
-5.4574671242990115e-06   6.02881181957309e-07   -7.527485133806944e-06
-5.4574671242990115e-06   6.02881181957309e-07   -7.527485133806944e-06
-5.4574671242990115e-06   6.02881181957309e-07   -7.527485133806944e-06
-5.4574671242990115e-06   6.02881181957309e-07   -7.527485133806944e-06
-4.686323968836535e-06   6.882219135368671e-07   -8.863928165192368e-06
-4.686323968836535e-06   6.882219135368671e-07   -8.863928165192368e-06
-4.686323968836535e-06   6.882219135368671e-07   -8.863928165192368e-06
-4.686323968836535e-06   6.882219135368671e-07   -8.863928165192368e-06
-5.457467124298998e-06   9.826677479351641e-07   -1.0050563599009673e-05
-5.457467124298998e-06   9.826677479351641e-07   -1.0050563599009673e-05
-5.457467124298998e-06   9.826677479351641e-07   -1.0050563599009673e-05
-5.457467124298998e-06   9.826677479351641e-07   -1.0050563599009673e-05
-3.943620045177392e-06   6.02881181957309e-07   -7.755357073393676e-06
-3.943620045177392e-06   6.02881181957309e-07   -7.755357073393676e-06
-3.943620045177392e-06   6.02881181957309e-07   -7.755357073393676e-06
-3.943620045177392e-06   6.02881181957309e-07   -7.755357073393676e-06
-3.88874810066107e-06   1.3054930844471355e-06   -1.0111894633256784e-05
-3.88874810066107e-06   1.3054930844471355e-06   -1.0111894633256784e-05
-3.88874810066107e-06   1.3054930844471355e-06   -1.0111894633256784e-05
-3.88874810066107e-06   1.3054930844471355e-06   -1.0111894633256784e-05
-5.344485921929994e-06   8.992232104727349e-07   -7.441903006757218e-06
-5.344485921929994e-06   8.992232104727349e-07   -7.441903006757218e-06
-5.344485921929994e-06   8.992232104727349e-07   -7.441903006757218e-06
-5.344485921929994e-06   8.992232104727349e-07   -7.441903006757218e-06
-4.620271241493235e-06   9.462035237997428e-07   -8.677115662147942e-06
-4.620271241493235e-06   9.462035237997428e-07   -8.677115662147942e-06
-4.620271241493235e-06   9.462035237997428e-07   -8.677115662147942e-06
-4.620271241493235e-06   9.462035237997428e-07   -8.677115662147942e-06
-5.344485921929974e-06   1.3054930844471626e-06   -9.868132708872084e-06
-5.344485921929974e-06   1.3054930844471626e-06   -9.868132708872084e-06
-5.344485921929974e-06   1.3054930844471626e-06   -9.868132708872084e-06
-5.344485921929974e-06   1.3054930844471626e-06   -9.868132708872084e-06
-3.88874810066107e-06   8.992232104727349e-07   -7.685664931141864e-06
-3.88874810066107e-06   8.992232104727349e-07   -7.685664931141864e-06
-3.88874810066107e-06   8.992232104727349e-07   -7.685664931141864e-06
-3.88874810066107e-06   8.992232104727349e-07   -7.685664931141864e-06
-3.840723672050209e-06   1.6575168336111878e-06   -1.0210140563525472e-05
-3.840723672050209e-06   1.6575168336111878e-06   -1.0210140563525472e-05
-3.840723672050209e-06   1.6575168336111878e-06   -1.0210140563525472e-05
-3.840723672050209e-06   1.6575168336111878e-06   -1.0210140563525472e-05
-5.269835886173131e-06   1.2298449784921219e-06   -7.571683760249103e-06
-5.269835886173131e-06   1.2298449784921219e-06   -7.571683760249103e-06
-5.269835886173131e-06   1.2298449784921219e-06   -7.571683760249103e-06
-5.269835886173131e-06   1.2298449784921219e-06   -7.571683760249103e-06
-4.597102873625983e-06   1.2089930708065967e-06   -8.680394303216392e-06
-4.597102873625983e-06   1.2089930708065967e-06   -8.680394303216392e-06
-4.597102873625983e-06   1.2089930708065967e-06   -8.680394303216392e-06
-4.597102873625983e-06   1.2089930708065967e-06   -8.680394303216392e-06
-3.993058550956869e-06   1.1231904597545851e-07   -1.1681327017110777e-05
-3.993058550956869e-06   1.1231904597545851e-07   -1.1681327017110777e-05
-3.993058550956869e-06   1.1231904597545851e-07   -1.1681327017110777e-05
-3.993058550956869e-06   1.1231904597545851e-07   -1.1681327017110777e-05
-2.484106916419708e-06   1.6951859841633082e-07   -9.132087894751041e-06
-2.484106916419708e-06   1.6951859841633082e-07   -9.132087894751041e-06
-2.484106916419708e-06   1.6951859841633082e-07   -9.132087894751041e-06
-2.484106916419708e-06   1.6951859841633082e-07   -9.132087894751041e-06
-2.436400947168295e-06   4.6894388869902224e-07   -1.1530608699365617e-05
-2.436400947168295e-06   4.6894388869902224e-07   -1.1530608699365617e-05
-2.436400947168295e-06   4.6894388869902224e-07   -1.1530608699365617e-05
-2.436400947168295e-06   4.6894388869902224e-07   -1.1530608699365617e-05
-3.943620045177385e-06   4.941584818976075e-07   -9.033705625269511e-06
-3.943620045177385e-06   4.941584818976075e-07   -9.033705625269511e-06
-3.943620045177385e-06   4.941584818976075e-07   -9.033705625269511e-06
-3.943620045177385e-06   4.941584818976075e-07   -9.033705625269511e-06
-3.193516186635915e-06   3.57303503161727e-07   -1.0201765735597346e-05
-3.193516186635915e-06   3.57303503161727e-07   -1.0201765735597346e-05
-3.193516186635915e-06   3.57303503161727e-07   -1.0201765735597346e-05
-3.193516186635915e-06   3.57303503161727e-07   -1.0201765735597346e-05
-3.9436200451773784e-06   4.6894388869902224e-07   -1.15457374552847e-05
-3.9436200451773784e-06   4.6894388869902224e-07   -1.15457374552847e-05
-3.9436200451773784e-06   4.6894388869902224e-07   -1.15457374552847e-05
-3.9436200451773784e-06   4.6894388869902224e-07   -1.15457374552847e-05
-2.4364009471682913e-06   4.941584818975533e-07   -9.018576869350398e-06
-2.4364009471682913e-06   4.941584818975533e-07   -9.018576869350398e-06
-2.4364009471682913e-06   4.941584818975533e-07   -9.018576869350398e-06
-2.4364009471682913e-06   4.941584818975533e-07   -9.018576869350398e-06
-2.3818645348209586e-06   8.267308404356639e-07   -1.1559112998854105e-05
-2.3818645348209586e-06   8.267308404356639e-07   -1.1559112998854105e-05
-2.3818645348209586e-06   8.267308404356639e-07   -1.1559112998854105e-05
-2.3818645348209586e-06   8.267308404356639e-07   -1.1559112998854105e-05
-3.88874810066106e-06   8.21572302755287e-07   -9.044545266512297e-06
-3.88874810066106e-06   8.21572302755287e-07   -9.044545266512297e-06
-3.88874810066106e-06   8.21572302755287e-07   -9.044545266512297e-06
-3.88874810066106e-06   8.21572302755287e-07   -9.044545266512297e-06
-3.1629523169026105e-06   6.37274486324648e-07   -1.0143626216251367e-05
-3.1629523169026105e-06   6.37274486324648e-07   -1.0143626216251367e-05
-3.1629523169026105e-06   6.37274486324648e-07   -1.0143626216251367e-05
-3.1629523169026105e-06   6.37274486324648e-07   -1.0143626216251367e-05
-3.8887481006610534e-06   8.267308404356368e-07   -1.1556017876245844e-05
-3.8887481006610534e-06   8.267308404356368e-07   -1.1556017876245844e-05
-3.8887481006610534e-06   8.267308404356368e-07   -1.1556017876245844e-05
-3.8887481006610534e-06   8.267308404356368e-07   -1.1556017876245844e-05
-2.3818645348209544e-06   8.21572302755287e-07   -9.047640389120513e-06
-2.3818645348209544e-06   8.21572302755287e-07   -9.047640389120513e-06
-2.3818645348209544e-06   8.21572302755287e-07   -9.047640389120513e-06
-2.3818645348209544e-06   8.21572302755287e-07   -9.047640389120513e-06
-2.333116650103121e-06   1.1907725454128756e-06   -1.1753380727590304e-05
-2.333116650103121e-06   1.1907725454128756e-06   -1.1753380727590304e-05
-2.333116650103121e-06   1.1907725454128756e-06   -1.1753380727590304e-05
-2.333116650103121e-06   1.1907725454128756e-06   -1.1753380727590304e-05
-3.840723672050216e-06   1.1540085735184781e-06   -9.218643974541788e-06
-3.840723672050216e-06   1.1540085735184781e-06   -9.218643974541788e-06
-3.840723672050216e-06   1.1540085735184781e-06   -9.218643974541788e-06
-3.840723672050216e-06   1.1540085735184781e-06   -9.218643974541788e-06
-3.138548013399704e-06   9.209927557417199e-07   -1.0249127248293258e-05
-3.138548013399704e-06   9.209927557417199e-07   -1.0249127248293258e-05
-3.138548013399704e-06   9.209927557417199e-07   -1.0249127248293258e-05
-3.138548013399704e-06   9.209927557417199e-07   -1.0249127248293258e-05
-2.4841069164196995e-06   -3.5942478804226697e-07   -1.0229749884473554e-05
-2.4841069164196995e-06   -3.5942478804226697e-07   -1.0229749884473554e-05
-2.4841069164196995e-06   -3.5942478804226697e-07   -1.0229749884473554e-05
-2.4841069164196995e-06   -3.5942478804226697e-07   -1.0229749884473554e-05
-1.0312955533690786e-06   8.290475783759603e-08   -7.54299988519461e-06
-1.0312955533690786e-06   8.290475783759603e-08   -7.54299988519461e-06
-1.0312955533690786e-06   8.290475783759603e-08   -7.54299988519461e-06
-1.0312955533690786e-06   8.290475783759603e-08   -7.54299988519461e-06
-9.579449875255996e-07   -2.210601572101697e-08   -9.894651314820149e-06
-9.579449875255996e-07   -2.210601572101697e-08   -9.894651314820149e-06
-9.579449875255996e-07   -2.210601572101697e-08   -9.894651314820149e-06
-9.579449875255996e-07   -2.210601572101697e-08   -9.894651314820149e-06
-2.4364009471682913e-06   3.985551062976036e-07   -7.682954721960057e-06
-2.4364009471682913e-06   3.985551062976036e-07   -7.682954721960057e-06
-2.4364009471682913e-06   3.985551062976036e-07   -7.682954721960057e-06
-2.4364009471682913e-06   3.985551062976036e-07   -7.682954721960057e-06
-1.7099213964975044e-06   5.763741873174592e-08   -8.689203360538666e-06
-1.7099213964975044e-06   5.763741873174592e-08   -8.689203360538666e-06
-1.7099213964975044e-06   5.763741873174592e-08   -8.689203360538666e-06
-1.7099213964975044e-06   5.763741873174592e-08   -8.689203360538666e-06
-2.4364009471682866e-06   -2.210601572101697e-08   -1.014704798803129e-05
-2.4364009471682866e-06   -2.210601572101697e-08   -1.014704798803129e-05
-2.4364009471682866e-06   -2.210601572101697e-08   -1.014704798803129e-05
-2.4364009471682866e-06   -2.210601572101697e-08   -1.014704798803129e-05
-9.579449875255996e-07   3.985551062976036e-07   -7.43055804874895e-06
-9.579449875255996e-07   3.985551062976036e-07   -7.43055804874895e-06
-9.579449875255996e-07   3.985551062976036e-07   -7.43055804874895e-06
-9.579449875255996e-07   3.985551062976036e-07   -7.43055804874895e-06
-8.456770754006518e-07   3.0109815520634373e-07   -1.0023733864263827e-05
-8.456770754006518e-07   3.0109815520634373e-07   -1.0023733864263827e-05
-8.456770754006518e-07   3.0109815520634373e-07   -1.0023733864263827e-05
-8.456770754006518e-07   3.0109815520634373e-07   -1.0023733864263827e-05
-2.3818645348209544e-06   6.94835563350637e-07   -7.699663876783118e-06
-2.3818645348209544e-06   6.94835563350637e-07   -7.699663876783118e-06
-2.3818645348209544e-06   6.94835563350637e-07   -7.699663876783118e-06
-2.3818645348209544e-06   6.94835563350637e-07   -7.699663876783118e-06
-1.666576244677081e-06   3.1319459897284944e-07   -8.662826448396297e-06
-1.666576244677081e-06   3.1319459897284944e-07   -8.662826448396297e-06
-1.666576244677081e-06   3.1319459897284944e-07   -8.662826448396297e-06
-1.666576244677081e-06   3.1319459897284944e-07   -8.662826448396297e-06
-2.38186453482095e-06   3.0109815520637084e-07   -1.025997630915033e-05
-2.38186453482095e-06   3.0109815520637084e-07   -1.025997630915033e-05
-2.38186453482095e-06   3.0109815520637084e-07   -1.025997630915033e-05
-2.38186453482095e-06   3.0109815520637084e-07   -1.025997630915033e-05
-8.456770754006552e-07   6.948355633505827e-07   -7.463421431896575e-06
-8.456770754006552e-07   6.948355633505827e-07   -7.463421431896575e-06
-8.456770754006552e-07   6.948355633505827e-07   -7.463421431896575e-06
-8.456770754006552e-07   6.948355633505827e-07   -7.463421431896575e-06
-7.6786266176782e-07   6.700715064264908e-07   -1.0303721297357914e-05
-7.6786266176782e-07   6.700715064264908e-07   -1.0303721297357914e-05
-7.6786266176782e-07   6.700715064264908e-07   -1.0303721297357914e-05
-7.6786266176782e-07   6.700715064264908e-07   -1.0303721297357914e-05
-2.333116650103121e-06   1.0283559156451863e-06   -7.909935295663599e-06
-2.333116650103121e-06   1.0283559156451863e-06   -7.909935295663599e-06
-2.333116650103121e-06   1.0283559156451863e-06   -7.909935295663599e-06
-2.333116650103121e-06   1.0283559156451863e-06   -7.909935295663599e-06
-1.6218136078127647e-06   5.795473670834036e-07   -8.826155237010461e-06
-1.6218136078127647e-06   5.795473670834036e-07   -8.826155237010461e-06
-1.6218136078127647e-06   5.795473670834036e-07   -8.826155237010461e-06
-1.6218136078127647e-06   5.795473670834036e-07   -8.826155237010461e-06
-1.0312955533690752e-06   -6.523783747505783e-07   -5.5330342966936074e-06
-1.0312955533690752e-06   -6.523783747505783e-07   -5.5330342966936074e-06
-1.0312955533690752e-06   -6.523783747505783e-07   -5.5330342966936074e-06
-1.0312955533690752e-06   -6.523783747505783e-07   -5.5330342966936074e-06
2.568580035353183e-10   1.2663316052870504e-07   -3.3463733565717245e-06
2.568580035353183e-10   1.2663316052870504e-07   -3.3463733565717245e-06
2.568580035353183e-10   1.2663316052870504e-07   -3.3463733565717245e-06
2.568580035353183e-10   1.2663316052870504e-07   -3.3463733565717245e-06
4.091039789552497e-07   -4.2207644985033316e-07   -5.256410843672971e-06
4.091039789552497e-07   -4.2207644985033316e-07   -5.256410843672971e-06
4.091039789552497e-07   -4.2207644985033316e-07   -5.256410843672971e-06
4.091039789552497e-07   -4.2207644985033316e-07   -5.256410843672971e-06
-9.579449875255996e-07   3.77594793471664e-07   -3.4577986455313584e-06
-9.579449875255996e-07   3.77594793471664e-07   -3.4577986455313584e-06
-9.579449875255996e-07   3.77594793471664e-07   -3.4577986455313584e-06
-9.579449875255996e-07   3.77594793471664e-07   -3.4577986455313584e-06
-3.8185527226119114e-07   -1.1015374296600077e-07   -4.12529904910953e-06
-3.8185527226119114e-07   -1.1015374296600077e-07   -4.12529904910953e-06
-3.8185527226119114e-07   -1.1015374296600077e-07   -4.12529904910953e-06
-3.8185527226119114e-07   -1.1015374296600077e-07   -4.12529904910953e-06
-9.579449875255962e-07   -4.2207644985033316e-07   -5.736213589666137e-06
-9.579449875255962e-07   -4.2207644985033316e-07   -5.736213589666137e-06
-9.579449875255962e-07   -4.2207644985033316e-07   -5.736213589666137e-06
-9.579449875255962e-07   -4.2207644985033316e-07   -5.736213589666137e-06
4.091039789552497e-07   3.77594793471664e-07   -2.9779958995381926e-06
4.091039789552497e-07   3.77594793471664e-07   -2.9779958995381926e-06
4.091039789552497e-07   3.77594793471664e-07   -2.9779958995381926e-06
4.091039789552497e-07   3.77594793471664e-07   -2.9779958995381926e-06
7.324329386921113e-07   -2.6471304762480685e-07   -5.531439959188735e-06
7.324329386921113e-07   -2.6471304762480685e-07   -5.531439959188735e-06
7.324329386921113e-07   -2.6471304762480685e-07   -5.531439959188735e-06
7.324329386921113e-07   -2.6471304762480685e-07   -5.531439959188735e-06
-8.456770754006518e-07   5.179720135224685e-07   -3.3708676390558333e-06
-8.456770754006518e-07   5.179720135224685e-07   -3.3708676390558333e-06
-8.456770754006518e-07   5.179720135224685e-07   -3.3708676390558333e-06
-8.456770754006518e-07   5.179720135224685e-07   -3.3708676390558333e-06
-1.790197148395558e-07   1.1315750056902787e-08   -4.1779694819116245e-06
-1.790197148395558e-07   1.1315750056902787e-08   -4.1779694819116245e-06
-1.790197148395558e-07   1.1315750056902787e-08   -4.1779694819116245e-06
-1.790197148395558e-07   1.1315750056902787e-08   -4.1779694819116245e-06
-8.456770754006518e-07   -2.6471304762480685e-07   -6.001050995877103e-06
-8.456770754006518e-07   -2.6471304762480685e-07   -6.001050995877103e-06
-8.456770754006518e-07   -2.6471304762480685e-07   -6.001050995877103e-06
-8.456770754006518e-07   -2.6471304762480685e-07   -6.001050995877103e-06
7.324329386921045e-07   5.179720135225227e-07   -2.9012566023674247e-06
7.324329386921045e-07   5.179720135225227e-07   -2.9012566023674247e-06
7.324329386921045e-07   5.179720135225227e-07   -2.9012566023674247e-06
7.324329386921045e-07   5.179720135225227e-07   -2.9012566023674247e-06
1.1434910197009721e-06   4.1551785990727496e-08   -6.183560755324721e-06
1.1434910197009721e-06   4.1551785990727496e-08   -6.183560755324721e-06
1.1434910197009721e-06   4.1551785990727496e-08   -6.183560755324721e-06
1.1434910197009721e-06   4.1551785990727496e-08   -6.183560755324721e-06
-7.6786266176782e-07   7.6335044194519e-07   -3.4310504797826547e-06
-7.6786266176782e-07   7.6335044194519e-07   -3.4310504797826547e-06
-7.6786266176782e-07   7.6335044194519e-07   -3.4310504797826547e-06
-7.6786266176782e-07   7.6335044194519e-07   -3.4310504797826547e-06
1.276506653960681e-09   1.4641252935501778e-07   -4.342786346264958e-06
1.276506653960681e-09   1.4641252935501778e-07   -4.342786346264958e-06
1.276506653960681e-09   1.4641252935501778e-07   -4.342786346264958e-06
1.276506653960681e-09   1.4641252935501778e-07   -4.342786346264958e-06
-2.4933067521238424e-06   4.822809664568601e-07   -4.6067143073843766e-06
-2.4933067521238424e-06   4.822809664568601e-07   -4.6067143073843766e-06
-2.4933067521238424e-06   4.822809664568601e-07   -4.6067143073843766e-06
-2.4933067521238424e-06   4.822809664568601e-07   -4.6067143073843766e-06
-2.6175232636598583e-06   -2.3811007760616253e-07   -5.245976453048865e-06
-2.6175232636598583e-06   -2.3811007760616253e-07   -5.245976453048865e-06
-2.6175232636598583e-06   -2.3811007760616253e-07   -5.245976453048865e-06
-2.6175232636598583e-06   -2.3811007760616253e-07   -5.245976453048865e-06
-2.491695687545095e-06   7.581680204094433e-07   -4.330573309022632e-06
-2.491695687545095e-06   7.581680204094433e-07   -4.330573309022632e-06
-2.491695687545095e-06   7.581680204094433e-07   -4.330573309022632e-06
-2.491695687545095e-06   7.581680204094433e-07   -4.330573309022632e-06
-2.0417677734654806e-06   -1.671166635993813e-08   -4.6155253537603544e-06
-2.0417677734654806e-06   -1.671166635993813e-08   -4.6155253537603544e-06
-2.0417677734654806e-06   -1.671166635993813e-08   -4.6155253537603544e-06
-2.0417677734654806e-06   -1.671166635993813e-08   -4.6155253537603544e-06
-2.3060836967292225e-06   3.3251553899761e-07   -4.384535138202181e-06
-2.3060836967292225e-06   3.3251553899761e-07   -4.384535138202181e-06
-2.3060836967292225e-06   3.3251553899761e-07   -4.384535138202181e-06
-2.3060836967292225e-06   3.3251553899761e-07   -4.384535138202181e-06
-2.0417677734654535e-06   7.581680204094433e-07   -3.865645496961009e-06
-2.0417677734654535e-06   7.581680204094433e-07   -3.865645496961009e-06
-2.0417677734654535e-06   7.581680204094433e-07   -3.865645496961009e-06
-2.0417677734654535e-06   7.581680204094433e-07   -3.865645496961009e-06
-2.4916956875451084e-06   -1.671166635993813e-08   -5.080453165822059e-06
-2.4916956875451084e-06   -1.671166635993813e-08   -5.080453165822059e-06
-2.4916956875451084e-06   -1.671166635993813e-08   -5.080453165822059e-06
-2.4916956875451084e-06   -1.671166635993813e-08   -5.080453165822059e-06
-2.331875714269195e-06   8.991837696943465e-07   -4.017972991316029e-06
-2.331875714269195e-06   8.991837696943465e-07   -4.017972991316029e-06
-2.331875714269195e-06   8.991837696943465e-07   -4.017972991316029e-06
-2.331875714269195e-06   8.991837696943465e-07   -4.017972991316029e-06
-1.6714389019328418e-06   1.1040217577228291e-07   -4.645432055523337e-06
-1.6714389019328418e-06   1.1040217577228291e-07   -4.645432055523337e-06
-1.6714389019328418e-06   1.1040217577228291e-07   -4.645432055523337e-06
-1.6714389019328418e-06   1.1040217577228291e-07   -4.645432055523337e-06
-2.095195839885012e-06   4.4721991647168847e-07   -4.141261136689509e-06
-2.095195839885012e-06   4.4721991647168847e-07   -4.141261136689509e-06
-2.095195839885012e-06   4.4721991647168847e-07   -4.141261136689509e-06
-2.095195839885012e-06   4.4721991647168847e-07   -4.141261136689509e-06
-1.6714389019328283e-06   8.991837696943465e-07   -3.544704034962726e-06
-1.6714389019328283e-06   8.991837696943465e-07   -3.544704034962726e-06
-1.6714389019328283e-06   8.991837696943465e-07   -3.544704034962726e-06
-1.6714389019328283e-06   8.991837696943465e-07   -3.544704034962726e-06
-2.3318757142692017e-06   1.1040217577228291e-07   -5.118701011876532e-06
-2.3318757142692017e-06   1.1040217577228291e-07   -5.118701011876532e-06
-2.3318757142692017e-06   1.1040217577228291e-07   -5.118701011876532e-06
-2.3318757142692017e-06   1.1040217577228291e-07   -5.118701011876532e-06
-2.209765806860151e-06   1.1233577073239487e-06   -3.730966574851211e-06
-2.209765806860151e-06   1.1233577073239487e-06   -3.730966574851211e-06
-2.209765806860151e-06   1.1233577073239487e-06   -3.730966574851211e-06
-2.209765806860151e-06   1.1233577073239487e-06   -3.730966574851211e-06
-1.2141975536338306e-06   3.632733050187224e-07   -4.934196355511986e-06
-1.2141975536338306e-06   3.632733050187224e-07   -4.934196355511986e-06
-1.2141975536338306e-06   3.632733050187224e-07   -4.934196355511986e-06
-1.2141975536338306e-06   3.632733050187224e-07   -4.934196355511986e-06
-1.8338460721623842e-06   5.595067268408457e-07   -4.019188877724133e-06
-1.8338460721623842e-06   5.595067268408457e-07   -4.019188877724133e-06
-1.8338460721623842e-06   5.595067268408457e-07   -4.019188877724133e-06
-1.8338460721623842e-06   5.595067268408457e-07   -4.019188877724133e-06
-2.6175232636598447e-06   2.856466006881278e-07   -8.481712479086195e-06
-2.6175232636598447e-06   2.856466006881278e-07   -8.481712479086195e-06
-2.6175232636598447e-06   2.856466006881278e-07   -8.481712479086195e-06
-2.6175232636598447e-06   2.856466006881278e-07   -8.481712479086195e-06
-3.0861738421012e-06   -4.5468179962033454e-08   -9.461465644878582e-06
-3.0861738421012e-06   -4.5468179962033454e-08   -9.461465644878582e-06
-3.0861738421012e-06   -4.5468179962033454e-08   -9.461465644878582e-06
-3.0861738421012e-06   -4.5468179962033454e-08   -9.461465644878582e-06
-2.9865336081589627e-06   6.02881181957309e-07   -8.485601713711921e-06
-2.9865336081589627e-06   6.02881181957309e-07   -8.485601713711921e-06
-2.9865336081589627e-06   6.02881181957309e-07   -8.485601713711921e-06
-2.9865336081589627e-06   6.02881181957309e-07   -8.485601713711921e-06
-2.4916956875451084e-06   2.3509894021437943e-07   -9.089662236355943e-06
-2.4916956875451084e-06   2.3509894021437943e-07   -9.089662236355943e-06
-2.4916956875451084e-06   2.3509894021437943e-07   -9.089662236355943e-06
-2.4916956875451084e-06   2.3509894021437943e-07   -9.089662236355943e-06
-2.7630895671179983e-06   3.3285933804719616e-07   -8.695995342434312e-06
-2.7630895671179983e-06   3.3285933804719616e-07   -8.695995342434312e-06
-2.7630895671179983e-06   3.3285933804719616e-07   -8.695995342434312e-06
-2.7630895671179983e-06   3.3285933804719616e-07   -8.695995342434312e-06
-2.491695687545088e-06   6.02881181957309e-07   -8.264932368666093e-06
-2.491695687545088e-06   6.02881181957309e-07   -8.264932368666093e-06
-2.491695687545088e-06   6.02881181957309e-07   -8.264932368666093e-06
-2.491695687545088e-06   6.02881181957309e-07   -8.264932368666093e-06
-2.9865336081589593e-06   2.3509894021437943e-07   -9.310331581401717e-06
-2.9865336081589593e-06   2.3509894021437943e-07   -9.310331581401717e-06
-2.9865336081589593e-06   2.3509894021437943e-07   -9.310331581401717e-06
-2.9865336081589593e-06   2.3509894021437943e-07   -9.310331581401717e-06
-2.8827244844552707e-06   8.992232104727349e-07   -8.414139083983687e-06
-2.8827244844552707e-06   8.992232104727349e-07   -8.414139083983687e-06
-2.8827244844552707e-06   8.992232104727349e-07   -8.414139083983687e-06
-2.8827244844552707e-06   8.992232104727349e-07   -8.414139083983687e-06
-2.3318757142692017e-06   5.064568327761958e-07   -9.096560541009167e-06
-2.3318757142692017e-06   5.064568327761958e-07   -9.096560541009167e-06
-2.3318757142692017e-06   5.064568327761958e-07   -9.096560541009167e-06
-2.3318757142692017e-06   5.064568327761958e-07   -9.096560541009167e-06
-2.6634283439397295e-06   5.606528721712638e-07   -8.576490448528734e-06
-2.6634283439397295e-06   5.606528721712638e-07   -8.576490448528734e-06
-2.6634283439397295e-06   5.606528721712638e-07   -8.576490448528734e-06
-2.6634283439397295e-06   5.606528721712638e-07   -8.576490448528734e-06
-2.331875714269195e-06   8.992232104727349e-07   -8.178479257365749e-06
-2.331875714269195e-06   8.992232104727349e-07   -8.178479257365749e-06
-2.331875714269195e-06   8.992232104727349e-07   -8.178479257365749e-06
-2.331875714269195e-06   8.992232104727349e-07   -8.178479257365749e-06
-2.8827244844552673e-06   5.064568327761958e-07   -9.332220367627085e-06
-2.8827244844552673e-06   5.064568327761958e-07   -9.332220367627085e-06
-2.8827244844552673e-06   5.064568327761958e-07   -9.332220367627085e-06
-2.8827244844552673e-06   5.064568327761958e-07   -9.332220367627085e-06
-2.785662991348434e-06   1.2298449784921219e-06   -8.554051551982328e-06
-2.785662991348434e-06   1.2298449784921219e-06   -8.554051551982328e-06
-2.785662991348434e-06   1.2298449784921219e-06   -8.554051551982328e-06
-2.785662991348434e-06   1.2298449784921219e-06   -8.554051551982328e-06
-2.209765806860151e-06   8.17586918039901e-07   -9.266525356524792e-06
-2.209765806860151e-06   8.17586918039901e-07   -9.266525356524792e-06
-2.209765806860151e-06   8.17586918039901e-07   -9.266525356524792e-06
-2.209765806860151e-06   8.17586918039901e-07   -9.266525356524792e-06
-2.5765802330177036e-06   8.010318495490479e-07   -8.64523493850086e-06
-2.5765802330177036e-06   8.010318495490479e-07   -8.64523493850086e-06
-2.5765802330177036e-06   8.010318495490479e-07   -8.64523493850086e-06
-2.5765802330177036e-06   8.010318495490479e-07   -8.64523493850086e-06
-3.0861738421011933e-06   1.6951859841633082e-07   -9.896757983922906e-06
-3.0861738421011933e-06   1.6951859841633082e-07   -9.896757983922906e-06
-3.0861738421011933e-06   1.6951859841633082e-07   -9.896757983922906e-06
-3.0861738421011933e-06   1.6951859841633082e-07   -9.896757983922906e-06
-3.570092137064457e-06   2.411594218264886e-07   -1.0660303981482248e-05
-3.570092137064457e-06   2.411594218264886e-07   -1.0660303981482248e-05
-3.570092137064457e-06   2.411594218264886e-07   -1.0660303981482248e-05
-3.570092137064457e-06   2.411594218264886e-07   -1.0660303981482248e-05
-3.472648088161782e-06   4.941584818975533e-07   -9.740800346765937e-06
-3.472648088161782e-06   4.941584818975533e-07   -9.740800346765937e-06
-3.472648088161782e-06   4.941584818975533e-07   -9.740800346765937e-06
-3.472648088161782e-06   4.941584818975533e-07   -9.740800346765937e-06
-2.9865336081589593e-06   5.327416799340225e-07   -1.0574141065592486e-05
-2.9865336081589593e-06   5.327416799340225e-07   -1.0574141065592486e-05
-2.9865336081589593e-06   5.327416799340225e-07   -1.0574141065592486e-05
-2.9865336081589593e-06   5.327416799340225e-07   -1.0574141065592486e-05
-3.259063670968858e-06   4.0528297622473503e-07   -1.0043449072017215e-05
-3.259063670968858e-06   4.0528297622473503e-07   -1.0043449072017215e-05
-3.259063670968858e-06   4.0528297622473503e-07   -1.0043449072017215e-05
-3.259063670968858e-06   4.0528297622473503e-07   -1.0043449072017215e-05
-2.9865336081589526e-06   4.941584818976075e-07   -9.763950265587775e-06
-2.9865336081589526e-06   4.941584818976075e-07   -9.763950265587775e-06
-2.9865336081589526e-06   4.941584818976075e-07   -9.763950265587775e-06
-2.9865336081589526e-06   4.941584818976075e-07   -9.763950265587775e-06
-3.472648088161782e-06   5.327416799340225e-07   -1.0550991146770626e-05
-3.472648088161782e-06   5.327416799340225e-07   -1.0550991146770626e-05
-3.472648088161782e-06   5.327416799340225e-07   -1.0550991146770626e-05
-3.472648088161782e-06   5.327416799340225e-07   -1.0550991146770626e-05
-3.3694362033211873e-06   8.21572302755287e-07   -9.767674039216955e-06
-3.3694362033211873e-06   8.21572302755287e-07   -9.767674039216955e-06
-3.3694362033211873e-06   8.21572302755287e-07   -9.767674039216955e-06
-3.3694362033211873e-06   8.21572302755287e-07   -9.767674039216955e-06
-2.8827244844552673e-06   8.304812696506006e-07   -1.0584205617463952e-05
-2.8827244844552673e-06   8.304812696506006e-07   -1.0584205617463952e-05
-2.8827244844552673e-06   8.304812696506006e-07   -1.0584205617463952e-05
-2.8827244844552673e-06   8.304812696506006e-07   -1.0584205617463952e-05
-3.178362698728011e-06   6.558116726018378e-07   -9.9866735021136e-06
-3.178362698728011e-06   6.558116726018378e-07   -9.9866735021136e-06
-3.178362698728011e-06   6.558116726018378e-07   -9.9866735021136e-06
-3.178362698728011e-06   6.558116726018378e-07   -9.9866735021136e-06
-2.882724484455264e-06   8.21572302755287e-07   -9.773019419354118e-06
-2.882724484455264e-06   8.21572302755287e-07   -9.773019419354118e-06
-2.882724484455264e-06   8.21572302755287e-07   -9.773019419354118e-06
-2.882724484455264e-06   8.21572302755287e-07   -9.773019419354118e-06
-3.3694362033211814e-06   8.304812696506006e-07   -1.0578860237326731e-05
-3.3694362033211814e-06   8.304812696506006e-07   -1.0578860237326731e-05
-3.3694362033211814e-06   8.304812696506006e-07   -1.0578860237326731e-05
-3.3694362033211814e-06   8.304812696506006e-07   -1.0578860237326731e-05
-3.2722820366477948e-06   1.1540085735184781e-06   -9.957335429295396e-06
-3.2722820366477948e-06   1.1540085735184781e-06   -9.957335429295396e-06
-3.2722820366477948e-06   1.1540085735184781e-06   -9.957335429295396e-06
-3.2722820366477948e-06   1.1540085735184781e-06   -9.957335429295396e-06
-2.785662991348434e-06   1.1324639466987014e-06   -1.0755440395369167e-05
-2.785662991348434e-06   1.1324639466987014e-06   -1.0755440395369167e-05
-2.785662991348434e-06   1.1324639466987014e-06   -1.0755440395369167e-05
-2.785662991348434e-06   1.1324639466987014e-06   -1.0755440395369167e-05
-3.104757170515654e-06   9.098990686418832e-07   -1.0090077836589557e-05
-3.104757170515654e-06   9.098990686418832e-07   -1.0090077836589557e-05
-3.104757170515654e-06   9.098990686418832e-07   -1.0090077836589557e-05
-3.104757170515654e-06   9.098990686418832e-07   -1.0090077836589557e-05
-3.570092137064451e-06   8.290475783759603e-08   -8.530083207848355e-06
-3.570092137064451e-06   8.290475783759603e-08   -8.530083207848355e-06
-3.570092137064451e-06   8.290475783759603e-08   -8.530083207848355e-06
-3.570092137064451e-06   8.290475783759603e-08   -8.530083207848355e-06
-4.087838281387742e-06   5.326008584527562e-07   -9.12317578801808e-06
-4.087838281387742e-06   5.326008584527562e-07   -9.12317578801808e-06
-4.087838281387742e-06   5.326008584527562e-07   -9.12317578801808e-06
-4.087838281387742e-06   5.326008584527562e-07   -9.12317578801808e-06
-3.968517133100756e-06   3.985551062976036e-07   -8.148705284198723e-06
-3.968517133100756e-06   3.985551062976036e-07   -8.148705284198723e-06
-3.968517133100756e-06   3.985551062976036e-07   -8.148705284198723e-06
-3.968517133100756e-06   3.985551062976036e-07   -8.148705284198723e-06
-3.472648088161782e-06   8.260099649258523e-07   -9.231626607607198e-06
-3.472648088161782e-06   8.260099649258523e-07   -9.231626607607198e-06
-3.472648088161782e-06   8.260099649258523e-07   -9.231626607607198e-06
-3.472648088161782e-06   8.260099649258523e-07   -9.231626607607198e-06
-3.745377781311429e-06   4.920813857444111e-07   -8.576719971515763e-06
-3.745377781311429e-06   4.920813857444111e-07   -8.576719971515763e-06
-3.745377781311429e-06   4.920813857444111e-07   -8.576719971515763e-06
-3.745377781311429e-06   4.920813857444111e-07   -8.576719971515763e-06
-3.4726480881617765e-06   3.985551062976036e-07   -8.405178199375637e-06
-3.4726480881617765e-06   3.985551062976036e-07   -8.405178199375637e-06
-3.4726480881617765e-06   3.985551062976036e-07   -8.405178199375637e-06
-3.4726480881617765e-06   3.985551062976036e-07   -8.405178199375637e-06
-3.968517133100756e-06   8.260099649257981e-07   -8.975153692430352e-06
-3.968517133100756e-06   8.260099649257981e-07   -8.975153692430352e-06
-3.968517133100756e-06   8.260099649257981e-07   -8.975153692430352e-06
-3.968517133100756e-06   8.260099649257981e-07   -8.975153692430352e-06
-3.811065707627505e-06   6.94835563350637e-07   -8.179200572696829e-06
-3.811065707627505e-06   6.94835563350637e-07   -8.179200572696829e-06
-3.811065707627505e-06   6.94835563350637e-07   -8.179200572696829e-06
-3.811065707627505e-06   6.94835563350637e-07   -8.179200572696829e-06
-3.3694362033211814e-06   1.0956638203217929e-06   -9.155746700723364e-06
-3.3694362033211814e-06   1.0956638203217929e-06   -9.155746700723364e-06
-3.3694362033211814e-06   1.0956638203217929e-06   -9.155746700723364e-06
-3.3694362033211814e-06   1.0956638203217929e-06   -9.155746700723364e-06
-3.6385283813984463e-06   7.257641445668813e-07   -8.48531993180842e-06
-3.6385283813984463e-06   7.257641445668813e-07   -8.48531993180842e-06
-3.6385283813984463e-06   7.257641445668813e-07   -8.48531993180842e-06
-3.6385283813984463e-06   7.257641445668813e-07   -8.48531993180842e-06
-3.3694362033211754e-06   6.948355633505827e-07   -8.41969752687952e-06
-3.3694362033211754e-06   6.948355633505827e-07   -8.41969752687952e-06
-3.3694362033211754e-06   6.948355633505827e-07   -8.41969752687952e-06
-3.3694362033211754e-06   6.948355633505827e-07   -8.41969752687952e-06
-3.8110657076275083e-06   1.0956638203217387e-06   -8.915249746540687e-06
-3.8110657076275083e-06   1.0956638203217387e-06   -8.915249746540687e-06
-3.8110657076275083e-06   1.0956638203217387e-06   -8.915249746540687e-06
-3.8110657076275083e-06   1.0956638203217387e-06   -8.915249746540687e-06
-3.6881970623231814e-06   1.0283559156451863e-06   -8.405827189415907e-06
-3.6881970623231814e-06   1.0283559156451863e-06   -8.405827189415907e-06
-3.6881970623231814e-06   1.0283559156451863e-06   -8.405827189415907e-06
-3.6881970623231814e-06   1.0283559156451863e-06   -8.405827189415907e-06
-3.2722820366477948e-06   1.396257878752828e-06   -9.319760076739487e-06
-3.2722820366477948e-06   1.396257878752828e-06   -9.319760076739487e-06
-3.2722820366477948e-06   1.396257878752828e-06   -9.319760076739487e-06
-3.2722820366477948e-06   1.396257878752828e-06   -9.319760076739487e-06
-3.561233377883059e-06   9.632008681090764e-07   -8.578340301627696e-06
-3.561233377883059e-06   9.632008681090764e-07   -8.578340301627696e-06
-3.561233377883059e-06   9.632008681090764e-07   -8.578340301627696e-06
-3.561233377883059e-06   9.632008681090764e-07   -8.578340301627696e-06
-4.087838281387729e-06   1.2663316052870504e-07   -4.531045940023949e-06
-4.087838281387729e-06   1.2663316052870504e-07   -4.531045940023949e-06
-4.087838281387729e-06   1.2663316052870504e-07   -4.531045940023949e-06
-4.087838281387729e-06   1.2663316052870504e-07   -4.531045940023949e-06
-5.011442148461185e-06   9.012941650791062e-07   -5.605589115749454e-06
-5.011442148461185e-06   9.012941650791062e-07   -5.605589115749454e-06
-5.011442148461185e-06   9.012941650791062e-07   -5.605589115749454e-06
-5.011442148461185e-06   9.012941650791062e-07   -5.605589115749454e-06
-4.566750867051143e-06   3.77594793471664e-07   -3.7012766696009093e-06
-4.566750867051143e-06   3.77594793471664e-07   -3.7012766696009093e-06
-4.566750867051143e-06   3.77594793471664e-07   -3.7012766696009093e-06
-4.566750867051143e-06   3.77594793471664e-07   -3.7012766696009093e-06
-3.968517133100746e-06   1.168710145772224e-06   -5.173002104231827e-06
-3.968517133100746e-06   1.168710145772224e-06   -5.173002104231827e-06
-3.968517133100746e-06   1.168710145772224e-06   -5.173002104231827e-06
-3.968517133100746e-06   1.168710145772224e-06   -5.173002104231827e-06
-4.230305781719598e-06   6.741750565196687e-07   -4.439966636315631e-06
-4.230305781719598e-06   6.741750565196687e-07   -4.439966636315631e-06
-4.230305781719598e-06   6.741750565196687e-07   -4.439966636315631e-06
-4.230305781719598e-06   6.741750565196687e-07   -4.439966636315631e-06
-3.9685171331007355e-06   3.77594793471664e-07   -4.175945880981145e-06
-3.9685171331007355e-06   3.77594793471664e-07   -4.175945880981145e-06
-3.9685171331007355e-06   3.77594793471664e-07   -4.175945880981145e-06
-3.9685171331007355e-06   3.77594793471664e-07   -4.175945880981145e-06
-4.566750867051143e-06   1.168710145772224e-06   -4.698332892851551e-06
-4.566750867051143e-06   1.168710145772224e-06   -4.698332892851551e-06
-4.566750867051143e-06   1.168710145772224e-06   -4.698332892851551e-06
-4.566750867051143e-06   1.168710145772224e-06   -4.698332892851551e-06
-4.205058995324913e-06   5.179720135224685e-07   -3.622815990539488e-06
-4.205058995324913e-06   5.179720135224685e-07   -3.622815990539488e-06
-4.205058995324913e-06   5.179720135224685e-07   -3.622815990539488e-06
-4.205058995324913e-06   5.179720135224685e-07   -3.622815990539488e-06
-3.811065707627505e-06   1.2910233290501158e-06   -4.743302259351695e-06
-3.811065707627505e-06   1.2910233290501158e-06   -4.743302259351695e-06
-3.811065707627505e-06   1.2910233290501158e-06   -4.743302259351695e-06
-3.811065707627505e-06   1.2910233290501158e-06   -4.743302259351695e-06
-4.047521230829687e-06   7.996504416895266e-07   -4.054385988265085e-06
-4.047521230829687e-06   7.996504416895266e-07   -4.054385988265085e-06
-4.047521230829687e-06   7.996504416895266e-07   -4.054385988265085e-06
-4.047521230829687e-06   7.996504416895266e-07   -4.054385988265085e-06
-3.811065707627498e-06   5.179720135225227e-07   -4.0866467798560195e-06
-3.811065707627498e-06   5.179720135225227e-07   -4.0866467798560195e-06
-3.811065707627498e-06   5.179720135225227e-07   -4.0866467798560195e-06
-3.811065707627498e-06   5.179720135225227e-07   -4.0866467798560195e-06
-4.205058995324926e-06   1.2910233290501158e-06   -4.27947147003515e-06
-4.205058995324926e-06   1.2910233290501158e-06   -4.27947147003515e-06
-4.205058995324926e-06   1.2910233290501158e-06   -4.27947147003515e-06
-4.205058995324926e-06   1.2910233290501158e-06   -4.27947147003515e-06
-3.75916626270881e-06   7.6335044194519e-07   -3.713945608534397e-06
-3.75916626270881e-06   7.6335044194519e-07   -3.713945608534397e-06
-3.75916626270881e-06   7.6335044194519e-07   -3.713945608534397e-06
-3.75916626270881e-06   7.6335044194519e-07   -3.713945608534397e-06
-3.688197062323178e-06   1.476629459498289e-06   -4.260195019708949e-06
-3.688197062323178e-06   1.476629459498289e-06   -4.260195019708949e-06
-3.688197062323178e-06   1.476629459498289e-06   -4.260195019708949e-06
-3.688197062323178e-06   1.476629459498289e-06   -4.260195019708949e-06
-3.7661246169763424e-06   8.984917366359926e-07   -3.7834331282362806e-06
-3.7661246169763424e-06   8.984917366359926e-07   -3.7834331282362806e-06
-3.7661246169763424e-06   8.984917366359926e-07   -3.7834331282362806e-06
-3.7661246169763424e-06   8.984917366359926e-07   -3.7834331282362806e-06
2.42602046315696e-06   -2.3811007760610832e-07   -2.2480328223122064e-06
2.42602046315696e-06   -2.3811007760610832e-07   -2.2480328223122064e-06
2.42602046315696e-06   -2.3811007760610832e-07   -2.2480328223122064e-06
2.42602046315696e-06   -2.3811007760610832e-07   -2.2480328223122064e-06
2.6564143779321916e-07   -9.629642089870895e-07   -6.283577010080281e-06
2.6564143779321916e-07   -9.629642089870895e-07   -6.283577010080281e-06
2.6564143779321916e-07   -9.629642089870895e-07   -6.283577010080281e-06
2.6564143779321916e-07   -9.629642089870895e-07   -6.283577010080281e-06
4.368901337679443e-07   -1.671166635993813e-08   -2.503484597908784e-06
4.368901337679443e-07   -1.671166635993813e-08   -2.503484597908784e-06
4.368901337679443e-07   -1.671166635993813e-08   -2.503484597908784e-06
4.368901337679443e-07   -1.671166635993813e-08   -2.503484597908784e-06
2.9216871055804078e-06   -7.935846585280432e-07   -6.1786890889620465e-06
2.9216871055804078e-06   -7.935846585280432e-07   -6.1786890889620465e-06
2.9216871055804078e-06   -7.935846585280432e-07   -6.1786890889620465e-06
2.9216871055804078e-06   -7.935846585280432e-07   -6.1786890889620465e-06
1.4550171202958956e-06   -4.0573685673983e-07   -3.9669477945608345e-06
1.4550171202958956e-06   -4.0573685673983e-07   -3.9669477945608345e-06
1.4550171202958956e-06   -4.0573685673983e-07   -3.9669477945608345e-06
1.4550171202958956e-06   -4.0573685673983e-07   -3.9669477945608345e-06
2.9216871055804078e-06   -1.671166635993813e-08   -2.0373608026079995e-06
2.9216871055804078e-06   -1.671166635993813e-08   -2.0373608026079995e-06
2.9216871055804078e-06   -1.671166635993813e-08   -2.0373608026079995e-06
2.9216871055804078e-06   -1.671166635993813e-08   -2.0373608026079995e-06
4.368901337679443e-07   -7.935846585280432e-07   -6.64481288426298e-06
4.368901337679443e-07   -7.935846585280432e-07   -6.64481288426298e-06
4.368901337679443e-07   -7.935846585280432e-07   -6.64481288426298e-06
4.368901337679443e-07   -7.935846585280432e-07   -6.64481288426298e-06
6.397342401234996e-07   1.1040217577228291e-07   -2.5292943141248586e-06
6.397342401234996e-07   1.1040217577228291e-07   -2.5292943141248586e-06
6.397342401234996e-07   1.1040217577228291e-07   -2.5292943141248586e-06
6.397342401234996e-07   1.1040217577228291e-07   -2.5292943141248586e-06
3.3374187647528263e-06   -6.784901349074285e-07   -6.55209980209923e-06
3.3374187647528263e-06   -6.784901349074285e-07   -6.55209980209923e-06
3.3374187647528263e-06   -6.784901349074285e-07   -6.55209980209923e-06
3.3374187647528263e-06   -6.784901349074285e-07   -6.55209980209923e-06
1.7670821277059067e-06   -3.252422683746269e-07   -4.146820793607544e-06
1.7670821277059067e-06   -3.252422683746269e-07   -4.146820793607544e-06
1.7670821277059067e-06   -3.252422683746269e-07   -4.146820793607544e-06
1.7670821277059067e-06   -3.252422683746269e-07   -4.146820793607544e-06
3.3374187647528263e-06   1.1040217577228291e-07   -2.0559589277170236e-06
3.3374187647528263e-06   1.1040217577228291e-07   -2.0559589277170236e-06
3.3374187647528263e-06   1.1040217577228291e-07   -2.0559589277170236e-06
3.3374187647528263e-06   1.1040217577228291e-07   -2.0559589277170236e-06
6.397342401234929e-07   -6.784901349074285e-07   -7.0254351885070516e-06
6.397342401234929e-07   -6.784901349074285e-07   -7.0254351885070516e-06
6.397342401234929e-07   -6.784901349074285e-07   -7.0254351885070516e-06
6.397342401234929e-07   -6.784901349074285e-07   -7.0254351885070516e-06
8.042214087109533e-07   3.632733050186682e-07   -2.7890242134098178e-06
8.042214087109533e-07   3.632733050186682e-07   -2.7890242134098178e-06
8.042214087109533e-07   3.632733050186682e-07   -2.7890242134098178e-06
8.042214087109533e-07   3.632733050186682e-07   -2.7890242134098178e-06
3.8370966950660004e-06   -3.906008733907179e-07   -7.391491850289268e-06
3.8370966950660004e-06   -3.906008733907179e-07   -7.391491850289268e-06
3.8370966950660004e-06   -3.906008733907179e-07   -7.391491850289268e-06
3.8370966950660004e-06   -3.906008733907179e-07   -7.391491850289268e-06
2.0100106485210217e-06   -2.0513489154056668e-07   -4.457628028491084e-06
2.0100106485210217e-06   -2.0513489154056668e-07   -4.457628028491084e-06
2.0100106485210217e-06   -2.0513489154056668e-07   -4.457628028491084e-06
2.0100106485210217e-06   -2.0513489154056668e-07   -4.457628028491084e-06
2.6564143779321916e-07   -4.5468179962087664e-08   -6.699765624580354e-06
2.6564143779321916e-07   -4.5468179962087664e-08   -6.699765624580354e-06
2.6564143779321916e-07   -4.5468179962087664e-08   -6.699765624580354e-06
2.6564143779321916e-07   -4.5468179962087664e-08   -6.699765624580354e-06
-2.215283846653069e-06   -3.719678759948864e-07   -1.103054091627711e-05
-2.215283846653069e-06   -3.719678759948864e-07   -1.103054091627711e-05
-2.215283846653069e-06   -3.719678759948864e-07   -1.103054091627711e-05
-2.215283846653069e-06   -3.719678759948864e-07   -1.103054091627711e-05
-2.066942483967718e-06   2.3509894021432522e-07   -6.7361775601658684e-06
-2.066942483967718e-06   2.3509894021432522e-07   -6.7361775601658684e-06
-2.066942483967718e-06   2.3509894021432522e-07   -6.7361775601658684e-06
-2.066942483967718e-06   2.3509894021432522e-07   -6.7361775601658684e-06
4.368901337679443e-07   -1.3737421265764887e-07   -1.068574803133552e-05
4.368901337679443e-07   -1.3737421265764887e-07   -1.068574803133552e-05
4.368901337679443e-07   -1.3737421265764887e-07   -1.068574803133552e-05
4.368901337679443e-07   -1.3737421265764887e-07   -1.068574803133552e-05
-8.7480532538209e-07   -7.320115376184414e-09   -8.577621391120968e-06
-8.7480532538209e-07   -7.320115376184414e-09   -8.577621391120968e-06
-8.7480532538209e-07   -7.320115376184414e-09   -8.577621391120968e-06
-8.7480532538209e-07   -7.320115376184414e-09   -8.577621391120968e-06
4.3689013376793754e-07   2.3509894021437943e-07   -6.512693668442729e-06
4.3689013376793754e-07   2.3509894021437943e-07   -6.512693668442729e-06
4.3689013376793754e-07   2.3509894021437943e-07   -6.512693668442729e-06
4.3689013376793754e-07   2.3509894021437943e-07   -6.512693668442729e-06
-2.066942483967718e-06   -1.3737421265759466e-07   -1.0909231923058693e-05
-2.066942483967718e-06   -1.3737421265759466e-07   -1.0909231923058693e-05
-2.066942483967718e-06   -1.3737421265759466e-07   -1.0909231923058693e-05
-2.066942483967718e-06   -1.3737421265759466e-07   -1.0909231923058693e-05
-1.9176762877212337e-06   5.064568327761958e-07   -6.747449420370529e-06
-1.9176762877212337e-06   5.064568327761958e-07   -6.747449420370529e-06
-1.9176762877212337e-06   5.064568327761958e-07   -6.747449420370529e-06
-1.9176762877212337e-06   5.064568327761958e-07   -6.747449420370529e-06
6.397342401234996e-07   1.0596420425449749e-07   -1.0769504722998711e-05
6.397342401234996e-07   1.0596420425449749e-07   -1.0769504722998711e-05
6.397342401234996e-07   1.0596420425449749e-07   -1.0769504722998711e-05
6.397342401234996e-07   1.0596420425449749e-07   -1.0769504722998711e-05
-7.446167597022953e-07   1.8688054523763754e-07   -8.510802861212284e-06
-7.446167597022953e-07   1.8688054523763754e-07   -8.510802861212284e-06
-7.446167597022953e-07   1.8688054523763754e-07   -8.510802861212284e-06
-7.446167597022953e-07   1.8688054523763754e-07   -8.510802861212284e-06
6.397342401234996e-07   5.064568327761958e-07   -6.507153843257527e-06
6.397342401234996e-07   5.064568327761958e-07   -6.507153843257527e-06
6.397342401234996e-07   5.064568327761958e-07   -6.507153843257527e-06
6.397342401234996e-07   5.064568327761958e-07   -6.507153843257527e-06
-1.9176762877212337e-06   1.0596420425449749e-07   -1.100980030011172e-05
-1.9176762877212337e-06   1.0596420425449749e-07   -1.100980030011172e-05
-1.9176762877212337e-06   1.0596420425449749e-07   -1.100980030011172e-05
-1.9176762877212337e-06   1.0596420425449749e-07   -1.100980030011172e-05
-1.7757150066549532e-06   8.17586918039901e-07   -6.9186673050889705e-06
-1.7757150066549532e-06   8.17586918039901e-07   -6.9186673050889705e-06
-1.7757150066549532e-06   8.17586918039901e-07   -6.9186673050889705e-06
-1.7757150066549532e-06   8.17586918039901e-07   -6.9186673050889705e-06
8.042214087109533e-07   3.9531236462422327e-07   -1.0965196598649348e-05
8.042214087109533e-07   3.9531236462422327e-07   -1.0965196598649348e-05
8.042214087109533e-07   3.9531236462422327e-07   -1.0965196598649348e-05
8.042214087109533e-07   3.9531236462422327e-07   -1.0965196598649348e-05
-5.983254706257211e-07   4.033581221039959e-07   -8.632445920909472e-06
-5.983254706257211e-07   4.033581221039959e-07   -8.632445920909472e-06
-5.983254706257211e-07   4.033581221039959e-07   -8.632445920909472e-06
-5.983254706257211e-07   4.033581221039959e-07   -8.632445920909472e-06
-2.215283846653069e-06   2.411594218264886e-07   -8.137488272849834e-06
-2.215283846653069e-06   2.411594218264886e-07   -8.137488272849834e-06
-2.215283846653069e-06   2.411594218264886e-07   -8.137488272849834e-06
-2.215283846653069e-06   2.411594218264886e-07   -8.137488272849834e-06
-4.671212195506784e-06   3.034516564052016e-07   -1.2193326846858792e-05
-4.671212195506784e-06   3.034516564052016e-07   -1.2193326846858792e-05
-4.671212195506784e-06   3.034516564052016e-07   -1.2193326846858792e-05
-4.671212195506784e-06   3.034516564052016e-07   -1.2193326846858792e-05
-4.52223759714723e-06   5.327416799340225e-07   -7.98772210588365e-06
-4.52223759714723e-06   5.327416799340225e-07   -7.98772210588365e-06
-4.52223759714723e-06   5.327416799340225e-07   -7.98772210588365e-06
-4.52223759714723e-06   5.327416799340225e-07   -7.98772210588365e-06
-2.066942483967718e-06   5.531832440559218e-07   -1.2092145566322565e-05
-2.066942483967718e-06   5.531832440559218e-07   -1.2092145566322565e-05
-2.066942483967718e-06   5.531832440559218e-07   -1.2092145566322565e-05
-2.066942483967718e-06   5.531832440559218e-07   -1.2092145566322565e-05
-3.3495115202572983e-06   4.5828568545527425e-07   -9.897591970679592e-06
-3.3495115202572983e-06   4.5828568545527425e-07   -9.897591970679592e-06
-3.3495115202572983e-06   4.5828568545527425e-07   -9.897591970679592e-06
-3.3495115202572983e-06   4.5828568545527425e-07   -9.897591970679592e-06
-2.066942483967718e-06   5.327416799340225e-07   -7.999987044356748e-06
-2.066942483967718e-06   5.327416799340225e-07   -7.999987044356748e-06
-2.066942483967718e-06   5.327416799340225e-07   -7.999987044356748e-06
-2.066942483967718e-06   5.327416799340225e-07   -7.999987044356748e-06
-4.5222375971472215e-06   5.531832440558676e-07   -1.2079880627849468e-05
-4.5222375971472215e-06   5.531832440558676e-07   -1.2079880627849468e-05
-4.5222375971472215e-06   5.531832440558676e-07   -1.2079880627849468e-05
-4.5222375971472215e-06   5.531832440558676e-07   -1.2079880627849468e-05
-4.3702711385791796e-06   8.304812696506548e-07   -8.007592820644279e-06
-4.3702711385791796e-06   8.304812696506548e-07   -8.007592820644279e-06
-4.3702711385791796e-06   8.304812696506548e-07   -8.007592820644279e-06
-4.3702711385791796e-06   8.304812696506548e-07   -8.007592820644279e-06
-1.9176762877212404e-06   8.168843522558139e-07   -1.2087092754970569e-05
-1.9176762877212404e-06   8.168843522558139e-07   -1.2087092754970569e-05
-1.9176762877212404e-06   8.168843522558139e-07   -1.2087092754970569e-05
-1.9176762877212404e-06   8.168843522558139e-07   -1.2087092754970569e-05
-3.2192832236929327e-06   6.771522512733093e-07   -9.83390860109509e-06
-3.2192832236929327e-06   6.771522512733093e-07   -9.83390860109509e-06
-3.2192832236929327e-06   6.771522512733093e-07   -9.83390860109509e-06
-3.2192832236929327e-06   6.771522512733093e-07   -9.83390860109509e-06
-1.9176762877212404e-06   8.304812696506548e-07   -7.999434670207338e-06
-1.9176762877212404e-06   8.304812696506548e-07   -7.999434670207338e-06
-1.9176762877212404e-06   8.304812696506548e-07   -7.999434670207338e-06
-1.9176762877212404e-06   8.304812696506548e-07   -7.999434670207338e-06
-4.370271138579173e-06   8.168843522558139e-07   -1.2095250905407425e-05
-4.370271138579173e-06   8.168843522558139e-07   -1.2095250905407425e-05
-4.370271138579173e-06   8.168843522558139e-07   -1.2095250905407425e-05
-4.370271138579173e-06   8.168843522558139e-07   -1.2095250905407425e-05
-4.225476065889536e-06   1.1324639466987014e-06   -8.188573019403042e-06
-4.225476065889536e-06   1.1324639466987014e-06   -8.188573019403042e-06
-4.225476065889536e-06   1.1324639466987014e-06   -8.188573019403042e-06
-4.225476065889536e-06   1.1324639466987014e-06   -8.188573019403042e-06
-1.77571500665496e-06   1.0852214271304364e-06   -1.2243162606386307e-05
-1.77571500665496e-06   1.0852214271304364e-06   -1.2243162606386307e-05
-1.77571500665496e-06   1.0852214271304364e-06   -1.2243162606386307e-05
-1.77571500665496e-06   1.0852214271304364e-06   -1.2243162606386307e-05
-3.0987837499862328e-06   8.994339093473152e-07   -9.926575523497687e-06
-3.0987837499862328e-06   8.994339093473152e-07   -9.926575523497687e-06
-3.0987837499862328e-06   8.994339093473152e-07   -9.926575523497687e-06
-3.0987837499862328e-06   8.994339093473152e-07   -9.926575523497687e-06
-4.671212195506792e-06   5.326008584528104e-07   -6.832802399007486e-06
-4.671212195506792e-06   5.326008584528104e-07   -6.832802399007486e-06
-4.671212195506792e-06   5.326008584528104e-07   -6.832802399007486e-06
-4.671212195506792e-06   5.326008584528104e-07   -6.832802399007486e-06
-7.111289511373073e-06   9.628829093652697e-07   -1.0641428694903776e-05
-7.111289511373073e-06   9.628829093652697e-07   -1.0641428694903776e-05
-7.111289511373073e-06   9.628829093652697e-07   -1.0641428694903776e-05
-7.111289511373073e-06   9.628829093652697e-07   -1.0641428694903776e-05
-6.940019817213545e-06   8.260099649258523e-07   -6.4262221218287655e-06
-6.940019817213545e-06   8.260099649258523e-07   -6.4262221218287655e-06
-6.940019817213545e-06   8.260099649258523e-07   -6.4262221218287655e-06
-6.940019817213545e-06   8.260099649258523e-07   -6.4262221218287655e-06
-4.5222375971472215e-06   1.229569039744847e-06   -1.0697994600164024e-05
-4.5222375971472215e-06   1.229569039744847e-06   -1.0697994600164024e-05
-4.5222375971472215e-06   1.229569039744847e-06   -1.0697994600164024e-05
-4.5222375971472215e-06   1.229569039744847e-06   -1.0697994600164024e-05
-5.770750602896828e-06   9.21273966384518e-07   -8.432162546565187e-06
-5.770750602896828e-06   9.21273966384518e-07   -8.432162546565187e-06
-5.770750602896828e-06   9.21273966384518e-07   -8.432162546565187e-06
-5.770750602896828e-06   9.21273966384518e-07   -8.432162546565187e-06
-4.52223759714723e-06   8.260099649258523e-07   -6.668357566720202e-06
-4.52223759714723e-06   8.260099649258523e-07   -6.668357566720202e-06
-4.52223759714723e-06   8.260099649258523e-07   -6.668357566720202e-06
-4.52223759714723e-06   8.260099649258523e-07   -6.668357566720202e-06
-6.9400198172135555e-06   1.2295690397449012e-06   -1.0455859155272676e-05
-6.9400198172135555e-06   1.2295690397449012e-06   -1.0455859155272676e-05
-6.9400198172135555e-06   1.2295690397449012e-06   -1.0455859155272676e-05
-6.9400198172135555e-06   1.2295690397449012e-06   -1.0455859155272676e-05
-6.732011966775155e-06   1.0956638203217387e-06   -6.3604975449484515e-06
-6.732011966775155e-06   1.0956638203217387e-06   -6.3604975449484515e-06
-6.732011966775155e-06   1.0956638203217387e-06   -6.3604975449484515e-06
-6.732011966775155e-06   1.0956638203217387e-06   -6.3604975449484515e-06
-4.3702711385791796e-06   1.468966718809082e-06   -1.0520713997700835e-05
-4.3702711385791796e-06   1.468966718809082e-06   -1.0520713997700835e-05
-4.3702711385791796e-06   1.468966718809082e-06   -1.0520713997700835e-05
-4.3702711385791796e-06   1.468966718809082e-06   -1.0520713997700835e-05
-5.596676495148674e-06   1.1328083362875153e-06   -8.275010040572186e-06
-5.596676495148674e-06   1.1328083362875153e-06   -8.275010040572186e-06
-5.596676495148674e-06   1.1328083362875153e-06   -8.275010040572186e-06
-5.596676495148674e-06   1.1328083362875153e-06   -8.275010040572186e-06
-4.3702711385791796e-06   1.0956638203217387e-06   -6.584479284040878e-06
-4.3702711385791796e-06   1.0956638203217387e-06   -6.584479284040878e-06
-4.3702711385791796e-06   1.0956638203217387e-06   -6.584479284040878e-06
-4.3702711385791796e-06   1.0956638203217387e-06   -6.584479284040878e-06
-6.732011966775155e-06   1.468966718809082e-06   -1.0296732258608429e-05
-6.732011966775155e-06   1.468966718809082e-06   -1.0296732258608429e-05
-6.732011966775155e-06   1.468966718809082e-06   -1.0296732258608429e-05
-6.732011966775155e-06   1.468966718809082e-06   -1.0296732258608429e-05
-6.559473179583965e-06   1.396257878752828e-06   -6.536704737483559e-06
-6.559473179583965e-06   1.396257878752828e-06   -6.536704737483559e-06
-6.559473179583965e-06   1.396257878752828e-06   -6.536704737483559e-06
-6.559473179583965e-06   1.396257878752828e-06   -6.536704737483559e-06
-4.225476065889536e-06   1.735026524082731e-06   -1.0629961114172254e-05
-4.225476065889536e-06   1.735026524082731e-06   -1.0629961114172254e-05
-4.225476065889536e-06   1.735026524082731e-06   -1.0629961114172254e-05
-4.225476065889536e-06   1.735026524082731e-06   -1.0629961114172254e-05
-5.484431664826982e-06   1.3401049320723194e-06   -8.29474882740354e-06
-5.484431664826982e-06   1.3401049320723194e-06   -8.29474882740354e-06
-5.484431664826982e-06   1.3401049320723194e-06   -8.29474882740354e-06
-5.484431664826982e-06   1.3401049320723194e-06   -8.29474882740354e-06
-7.111289511373073e-06   9.01294165079052e-07   -3.521843098921578e-06
-7.111289511373073e-06   9.01294165079052e-07   -3.521843098921578e-06
-7.111289511373073e-06   9.01294165079052e-07   -3.521843098921578e-06
-7.111289511373073e-06   9.01294165079052e-07   -3.521843098921578e-06
-9.90682615989326e-06   1.6579820486959588e-06   -7.727058116285183e-06
-9.90682615989326e-06   1.6579820486959588e-06   -7.727058116285183e-06
-9.90682615989326e-06   1.6579820486959588e-06   -7.727058116285183e-06
-9.90682615989326e-06   1.6579820486959588e-06   -7.727058116285183e-06
-9.417757842435373e-06   1.168710145772224e-06   -2.1635058447408634e-06
-9.417757842435373e-06   1.168710145772224e-06   -2.1635058447408634e-06
-9.417757842435373e-06   1.168710145772224e-06   -2.1635058447408634e-06
-9.417757842435373e-06   1.168710145772224e-06   -2.1635058447408634e-06
-6.940019817213545e-06   1.9363179605880513e-06   -6.753633908999993e-06
-6.940019817213545e-06   1.9363179605880513e-06   -6.753633908999993e-06
-6.940019817213545e-06   1.9363179605880513e-06   -6.753633908999993e-06
-6.940019817213545e-06   1.9363179605880513e-06   -6.753633908999993e-06
-8.004849817842863e-06   1.4456335920725086e-06   -4.684506620175185e-06
-8.004849817842863e-06   1.4456335920725086e-06   -4.684506620175185e-06
-8.004849817842863e-06   1.4456335920725086e-06   -4.684506620175185e-06
-8.004849817842863e-06   1.4456335920725086e-06   -4.684506620175185e-06
-6.94001981721355e-06   1.168710145772224e-06   -2.6240705336302676e-06
-6.94001981721355e-06   1.168710145772224e-06   -2.6240705336302676e-06
-6.94001981721355e-06   1.168710145772224e-06   -2.6240705336302676e-06
-6.94001981721355e-06   1.168710145772224e-06   -2.6240705336302676e-06
-9.41775784243534e-06   1.936317960587997e-06   -6.293069220110535e-06
-9.41775784243534e-06   1.936317960587997e-06   -6.293069220110535e-06
-9.41775784243534e-06   1.936317960587997e-06   -6.293069220110535e-06
-9.41775784243534e-06   1.936317960587997e-06   -6.293069220110535e-06
-9.013660395065777e-06   1.2910233290501158e-06   -1.7412469461621774e-06
-9.013660395065777e-06   1.2910233290501158e-06   -1.7412469461621774e-06
-9.013660395065777e-06   1.2910233290501158e-06   -1.7412469461621774e-06
-9.013660395065777e-06   1.2910233290501158e-06   -1.7412469461621774e-06
-6.732011966775143e-06   2.036528515045712e-06   -5.9912974382439336e-06
-6.732011966775143e-06   2.036528515045712e-06   -5.9912974382439336e-06
-6.732011966775143e-06   2.036528515045712e-06   -5.9912974382439336e-06
-6.732011966775143e-06   2.036528515045712e-06   -5.9912974382439336e-06
-7.835453049630016e-06   1.5728112366631634e-06   -3.8739985997895645e-06
-7.835453049630016e-06   1.5728112366631634e-06   -3.8739985997895645e-06
-7.835453049630016e-06   1.5728112366631634e-06   -3.8739985997895645e-06
-7.835453049630016e-06   1.5728112366631634e-06   -3.8739985997895645e-06
-6.732011966775155e-06   1.2910233290501158e-06   -2.188550057759527e-06
-6.732011966775155e-06   1.2910233290501158e-06   -2.188550057759527e-06
-6.732011966775155e-06   1.2910233290501158e-06   -2.188550057759527e-06
-6.732011966775155e-06   1.2910233290501158e-06   -2.188550057759527e-06
-9.013660395065757e-06   2.036528515045766e-06   -5.543994326646516e-06
-9.013660395065757e-06   2.036528515045766e-06   -5.543994326646516e-06
-9.013660395065757e-06   2.036528515045766e-06   -5.543994326646516e-06
-9.013660395065757e-06   2.036528515045766e-06   -5.543994326646516e-06
-8.531951418781734e-06   1.476629459498289e-06   -1.2882354686286773e-06
-8.531951418781734e-06   1.476629459498289e-06   -1.2882354686286773e-06
-8.531951418781734e-06   1.476629459498289e-06   -1.2882354686286773e-06
-8.531951418781734e-06   1.476629459498289e-06   -1.2882354686286773e-06
-6.559473179583961e-06   2.159371775646568e-06   -4.985344590313824e-06
-6.559473179583961e-06   2.159371775646568e-06   -4.985344590313824e-06
-6.559473179583961e-06   2.159371775646568e-06   -4.985344590313824e-06
-6.559473179583961e-06   2.159371775646568e-06   -4.985344590313824e-06
-7.4514782809307365e-06   1.6326901856397063e-06   -3.1826604673985704e-06
-7.4514782809307365e-06   1.6326901856397063e-06   -3.1826604673985704e-06
-7.4514782809307365e-06   1.6326901856397063e-06   -3.1826604673985704e-06
-7.4514782809307365e-06   1.6326901856397063e-06   -3.1826604673985704e-06
7.3868495787162835e-06   -9.629642089870895e-07   8.923611321373008e-08
7.3868495787162835e-06   -9.629642089870895e-07   8.923611321373008e-08
7.3868495787162835e-06   -9.629642089870895e-07   8.923611321373008e-08
7.3868495787162835e-06   -9.629642089870895e-07   8.923611321373008e-08
3.1228571174216356e-06   -1.7178114611638177e-06   -7.4703263402500786e-06
3.1228571174216356e-06   -1.7178114611638177e-06   -7.4703263402500786e-06
3.1228571174216356e-06   -1.7178114611638177e-06   -7.4703263402500786e-06
3.1228571174216356e-06   -1.7178114611638177e-06   -7.4703263402500786e-06
3.3307996870420804e-06   -7.935846585280432e-07   -6.849015010279981e-07
3.3307996870420804e-06   -7.935846585280432e-07   -6.849015010279981e-07
3.3307996870420804e-06   -7.935846585280432e-07   -6.849015010279981e-07
3.3307996870420804e-06   -7.935846585280432e-07   -6.849015010279981e-07
7.92277960473687e-06   -1.59978327224418e-06   -7.854482195623013e-06
7.92277960473687e-06   -1.59978327224418e-06   -7.854482195623013e-06
7.92277960473687e-06   -1.59978327224418e-06   -7.854482195623013e-06
7.92277960473687e-06   -1.59978327224418e-06   -7.854482195623013e-06
5.22017748148824e-06   -1.1382581362064223e-06   -3.6270604051646054e-06
5.22017748148824e-06   -1.1382581362064223e-06   -3.6270604051646054e-06
5.22017748148824e-06   -1.1382581362064223e-06   -3.6270604051646054e-06
5.22017748148824e-06   -1.1382581362064223e-06   -3.6270604051646054e-06
7.922779604736883e-06   -7.935846585280432e-07   -2.0118233279833506e-07
7.922779604736883e-06   -7.935846585280432e-07   -2.0118233279833506e-07
7.922779604736883e-06   -7.935846585280432e-07   -2.0118233279833506e-07
7.922779604736883e-06   -7.935846585280432e-07   -2.0118233279833506e-07
3.3307996870420736e-06   -1.5997832722440715e-06   -8.338201363852608e-06
3.3307996870420736e-06   -1.5997832722440715e-06   -8.338201363852608e-06
3.3307996870420736e-06   -1.5997832722440715e-06   -8.338201363852608e-06
3.3307996870420736e-06   -1.5997832722440715e-06   -8.338201363852608e-06
3.561875411819486e-06   -6.784901349074285e-07   -1.0282158183222293e-06
3.561875411819486e-06   -6.784901349074285e-07   -1.0282158183222293e-06
3.561875411819486e-06   -6.784901349074285e-07   -1.0282158183222293e-06
3.561875411819486e-06   -6.784901349074285e-07   -1.0282158183222293e-06
8.370079822775996e-06   -1.4955880546680149e-06   -8.551631084726828e-06
8.370079822775996e-06   -1.4955880546680149e-06   -8.551631084726828e-06
8.370079822775996e-06   -1.4955880546680149e-06   -8.551631084726828e-06
8.370079822775996e-06   -1.4955880546680149e-06   -8.551631084726828e-06
5.622255186723703e-06   -1.0916977414474852e-06   -4.214257545905267e-06
5.622255186723703e-06   -1.0916977414474852e-06   -4.214257545905267e-06
5.622255186723703e-06   -1.0916977414474852e-06   -4.214257545905267e-06
5.622255186723703e-06   -1.0916977414474852e-06   -4.214257545905267e-06
8.37007982277601e-06   -6.784901349074285e-07   -5.379570664658856e-07
8.37007982277601e-06   -6.784901349074285e-07   -5.379570664658856e-07
8.37007982277601e-06   -6.784901349074285e-07   -5.379570664658856e-07
8.37007982277601e-06   -6.784901349074285e-07   -5.379570664658856e-07
3.5618754118194794e-06   -1.4955880546680149e-06   -9.041889836583131e-06
3.5618754118194794e-06   -1.4955880546680149e-06   -9.041889836583131e-06
3.5618754118194794e-06   -1.4955880546680149e-06   -9.041889836583131e-06
3.5618754118194794e-06   -1.4955880546680149e-06   -9.041889836583131e-06
3.7505953809111947e-06   -3.906008733907179e-07   -1.811525121444104e-06
3.7505953809111947e-06   -3.906008733907179e-07   -1.811525121444104e-06
3.7505953809111947e-06   -3.906008733907179e-07   -1.811525121444104e-06
3.7505953809111947e-06   -3.906008733907179e-07   -1.811525121444104e-06
8.8898592362143e-06   -1.1691823060508725e-06   -9.90981602068641e-06
8.8898592362143e-06   -1.1691823060508725e-06   -9.90981602068641e-06
8.8898592362143e-06   -1.1691823060508725e-06   -9.90981602068641e-06
8.8898592362143e-06   -1.1691823060508725e-06   -9.90981602068641e-06
5.831932782769867e-06   -9.613943858707288e-07   -4.937944683720691e-06
5.831932782769867e-06   -9.613943858707288e-07   -4.937944683720691e-06
5.831932782769867e-06   -9.613943858707288e-07   -4.937944683720691e-06
5.831932782769867e-06   -9.613943858707288e-07   -4.937944683720691e-06
3.1228571174216424e-06   -3.719678759948322e-07   -4.9147363266695325e-06
3.1228571174216424e-06   -3.719678759948322e-07   -4.9147363266695325e-06
3.1228571174216424e-06   -3.719678759948322e-07   -4.9147363266695325e-06
3.1228571174216424e-06   -3.719678759948322e-07   -4.9147363266695325e-06
-1.3637529216325932e-06   -7.901182429734342e-07   -1.264330994528044e-05
-1.3637529216325932e-06   -7.901182429734342e-07   -1.264330994528044e-05
-1.3637529216325932e-06   -7.901182429734342e-07   -1.264330994528044e-05
-1.3637529216325932e-06   -7.901182429734342e-07   -1.264330994528044e-05
-1.1719100452610315e-06   -1.3737421265764887e-07   -5.01646084499302e-06
-1.1719100452610315e-06   -1.3737421265764887e-07   -5.01646084499302e-06
-1.1719100452610315e-06   -1.3737421265764887e-07   -5.01646084499302e-06
-1.1719100452610315e-06   -1.3737421265764887e-07   -5.01646084499302e-06
3.3307996870420804e-06   -6.217478741451198e-07   -1.2230352868605764e-05
3.3307996870420804e-06   -6.217478741451198e-07   -1.2230352868605764e-05
3.3307996870420804e-06   -6.217478741451198e-07   -1.2230352868605764e-05
3.3307996870420804e-06   -6.217478741451198e-07   -1.2230352868605764e-05
9.89865067140771e-07   -3.7941795143041357e-07   -8.474193122399e-06
9.89865067140771e-07   -3.7941795143041357e-07   -8.474193122399e-06
9.89865067140771e-07   -3.7941795143041357e-07   -8.474193122399e-06
9.89865067140771e-07   -3.7941795143041357e-07   -8.474193122399e-06
3.3307996870420804e-06   -1.3737421265764887e-07   -4.72583664810049e-06
3.3307996870420804e-06   -1.3737421265764887e-07   -4.72583664810049e-06
3.3307996870420804e-06   -1.3737421265764887e-07   -4.72583664810049e-06
3.3307996870420804e-06   -1.3737421265764887e-07   -4.72583664810049e-06
-1.1719100452610247e-06   -6.217478741450113e-07   -1.252097706549822e-05
-1.1719100452610247e-06   -6.217478741450113e-07   -1.252097706549822e-05
-1.1719100452610247e-06   -6.217478741450113e-07   -1.252097706549822e-05
-1.1719100452610247e-06   -6.217478741450113e-07   -1.252097706549822e-05
-9.887988322429534e-07   1.0596420425449749e-07   -5.085674728805051e-06
-9.887988322429534e-07   1.0596420425449749e-07   -5.085674728805051e-06
-9.887988322429534e-07   1.0596420425449749e-07   -5.085674728805051e-06
-9.887988322429534e-07   1.0596420425449749e-07   -5.085674728805051e-06
3.5618754118194794e-06   -4.1635142239730347e-07   -1.2356742426251324e-05
3.5618754118194794e-06   -4.1635142239730347e-07   -1.2356742426251324e-05
3.5618754118194794e-06   -4.1635142239730347e-07   -1.2356742426251324e-05
3.5618754118194794e-06   -4.1635142239730347e-07   -1.2356742426251324e-05
1.1399877896193706e-06   -2.294238553991572e-07   -8.432419596116536e-06
1.1399877896193706e-06   -2.294238553991572e-07   -8.432419596116536e-06
1.1399877896193706e-06   -2.294238553991572e-07   -8.432419596116536e-06
1.1399877896193706e-06   -2.294238553991572e-07   -8.432419596116536e-06
3.561875411819486e-06   1.0596420425449749e-07   -4.772285352813875e-06
3.561875411819486e-06   1.0596420425449749e-07   -4.772285352813875e-06
3.561875411819486e-06   1.0596420425449749e-07   -4.772285352813875e-06
3.561875411819486e-06   1.0596420425449749e-07   -4.772285352813875e-06
-9.887988322429534e-07   -4.163514223974119e-07   -1.2670131802242432e-05
-9.887988322429534e-07   -4.163514223974119e-07   -1.2670131802242432e-05
-9.887988322429534e-07   -4.163514223974119e-07   -1.2670131802242432e-05
-9.887988322429534e-07   -4.163514223974119e-07   -1.2670131802242432e-05
-8.173935986008376e-07   3.9531236462422327e-07   -5.264270484875216e-06
-8.173935986008376e-07   3.9531236462422327e-07   -5.264270484875216e-06
-8.173935986008376e-07   3.9531236462422327e-07   -5.264270484875216e-06
-8.173935986008376e-07   3.9531236462422327e-07   -5.264270484875216e-06
3.7505953809111947e-06   -1.5696283890372954e-07   -1.2546220328611907e-05
3.7505953809111947e-06   -1.5696283890372954e-07   -1.2546220328611907e-05
3.7505953809111947e-06   -1.5696283890372954e-07   -1.2546220328611907e-05
3.7505953809111947e-06   -1.5696283890372954e-07   -1.2546220328611907e-05
1.33064287548874e-06   -4.3799239165978436e-08   -8.580864312750645e-06
1.33064287548874e-06   -4.3799239165978436e-08   -8.580864312750645e-06
1.33064287548874e-06   -4.3799239165978436e-08   -8.580864312750645e-06
1.33064287548874e-06   -4.3799239165978436e-08   -8.580864312750645e-06
-1.3637529216326e-06   3.034516564051474e-07   -6.365787818185516e-06
-1.3637529216326e-06   3.034516564051474e-07   -6.365787818185516e-06
-1.3637529216326e-06   3.034516564051474e-07   -6.365787818185516e-06
-1.3637529216326e-06   3.034516564051474e-07   -6.365787818185516e-06
-5.77122618749525e-06   1.7214804360894502e-07   -1.379035876230097e-05
-5.77122618749525e-06   1.7214804360894502e-07   -1.379035876230097e-05
-5.77122618749525e-06   1.7214804360894502e-07   -1.379035876230097e-05
-5.77122618749525e-06   1.7214804360894502e-07   -1.379035876230097e-05
-5.564948791244294e-06   5.531832440559218e-07   -6.313887053552606e-06
-5.564948791244294e-06   5.531832440559218e-07   -6.313887053552606e-06
-5.564948791244294e-06   5.531832440559218e-07   -6.313887053552606e-06
-5.564948791244294e-06   5.531832440559218e-07   -6.313887053552606e-06
-1.1719100452610247e-06   3.6232896856306426e-07   -1.3521105731562348e-05
-1.1719100452610247e-06   3.6232896856306426e-07   -1.3521105731562348e-05
-1.1719100452610247e-06   3.6232896856306426e-07   -1.3521105731562348e-05
-1.1719100452610247e-06   3.6232896856306426e-07   -1.3521105731562348e-05
-3.444785036958487e-06   4.1721858886923377e-07   -9.765914517583581e-06
-3.444785036958487e-06   4.1721858886923377e-07   -9.765914517583581e-06
-3.444785036958487e-06   4.1721858886923377e-07   -9.765914517583581e-06
-3.444785036958487e-06   4.1721858886923377e-07   -9.765914517583581e-06
-1.1719100452610315e-06   5.531832440559218e-07   -6.199374488256844e-06
-1.1719100452610315e-06   5.531832440559218e-07   -6.199374488256844e-06
-1.1719100452610315e-06   5.531832440559218e-07   -6.199374488256844e-06
-1.1719100452610315e-06   5.531832440559218e-07   -6.199374488256844e-06
-5.564948791244294e-06   3.6232896856306426e-07   -1.3635618296858009e-05
-5.564948791244294e-06   3.6232896856306426e-07   -1.3635618296858009e-05
-5.564948791244294e-06   3.6232896856306426e-07   -1.3635618296858009e-05
-5.564948791244294e-06   3.6232896856306426e-07   -1.3635618296858009e-05
-5.36561470851143e-06   8.168843522558139e-07   -6.304503475671418e-06
-5.36561470851143e-06   8.168843522558139e-07   -6.304503475671418e-06
-5.36561470851143e-06   8.168843522558139e-07   -6.304503475671418e-06
-5.36561470851143e-06   8.168843522558139e-07   -6.304503475671418e-06
-9.887988322429534e-07   5.809905322432755e-07   -1.3457660310778091e-05
-9.887988322429534e-07   5.809905322432755e-07   -1.3457660310778091e-05
-9.887988322429534e-07   5.809905322432755e-07   -1.3457660310778091e-05
-9.887988322429534e-07   5.809905322432755e-07   -1.3457660310778091e-05
-3.2680886581449293e-06   5.955548676956984e-07   -9.667582535546182e-06
-3.2680886581449293e-06   5.955548676956984e-07   -9.667582535546182e-06
-3.2680886581449293e-06   5.955548676956984e-07   -9.667582535546182e-06
-3.2680886581449293e-06   5.955548676956984e-07   -9.667582535546182e-06
-9.887988322429534e-07   8.168843522558139e-07   -6.162967183663941e-06
-9.887988322429534e-07   8.168843522558139e-07   -6.162967183663941e-06
-9.887988322429534e-07   8.168843522558139e-07   -6.162967183663941e-06
-9.887988322429534e-07   8.168843522558139e-07   -6.162967183663941e-06
-5.36561470851143e-06   5.809905322432755e-07   -1.3599196602785582e-05
-5.36561470851143e-06   5.809905322432755e-07   -1.3599196602785582e-05
-5.36561470851143e-06   5.809905322432755e-07   -1.3599196602785582e-05
-5.36561470851143e-06   5.809905322432755e-07   -1.3599196602785582e-05
-5.1814837326062665e-06   1.0852214271304364e-06   -6.45600118196122e-06
-5.1814837326062665e-06   1.0852214271304364e-06   -6.45600118196122e-06
-5.1814837326062665e-06   1.0852214271304364e-06   -6.45600118196122e-06
-5.1814837326062665e-06   1.0852214271304364e-06   -6.45600118196122e-06
-8.173935986008376e-07   8.066723914662956e-07   -1.3562355317238471e-05
-8.173935986008376e-07   8.066723914662956e-07   -1.3562355317238471e-05
-8.173935986008376e-07   8.066723914662956e-07   -1.3562355317238471e-05
-8.173935986008376e-07   8.066723914662956e-07   -1.3562355317238471e-05
-3.1109319597937704e-06   7.784986615816164e-07   -9.722887143986296e-06
-3.1109319597937704e-06   7.784986615816164e-07   -9.722887143986296e-06
-3.1109319597937704e-06   7.784986615816164e-07   -9.722887143986296e-06
-3.1109319597937704e-06   7.784986615816164e-07   -9.722887143986296e-06
-5.771226187495262e-06   9.628829093652697e-07   -5.150841064455755e-06
-5.771226187495262e-06   9.628829093652697e-07   -5.150841064455755e-06
-5.771226187495262e-06   9.628829093652697e-07   -5.150841064455755e-06
-5.771226187495262e-06   9.628829093652697e-07   -5.150841064455755e-06
-1.0113400211479526e-05   1.1694133835413482e-06   -1.226387948659053e-05
-1.0113400211479526e-05   1.1694133835413482e-06   -1.226387948659053e-05
-1.0113400211479526e-05   1.1694133835413482e-06   -1.226387948659053e-05
-1.0113400211479526e-05   1.1694133835413482e-06   -1.226387948659053e-05
-9.86373864291495e-06   1.229569039744847e-06   -4.8243709497692265e-06
-9.86373864291495e-06   1.229569039744847e-06   -4.8243709497692265e-06
-9.86373864291495e-06   1.229569039744847e-06   -4.8243709497692265e-06
-9.86373864291495e-06   1.229569039744847e-06   -4.8243709497692265e-06
-5.5649487912443024e-06   1.4089524999083168e-06   -1.209665077865163e-05
-5.5649487912443024e-06   1.4089524999083168e-06   -1.209665077865163e-05
-5.5649487912443024e-06   1.4089524999083168e-06   -1.209665077865163e-05
-5.5649487912443024e-06   1.4089524999083168e-06   -1.209665077865163e-05
-7.771469463841791e-06   1.2404706496735394e-06   -8.318027214181643e-06
-7.771469463841791e-06   1.2404706496735394e-06   -8.318027214181643e-06
-7.771469463841791e-06   1.2404706496735394e-06   -8.318027214181643e-06
-7.771469463841791e-06   1.2404706496735394e-06   -8.318027214181643e-06
-5.5649487912443024e-06   1.229569039744847e-06   -4.932001025867223e-06
-5.5649487912443024e-06   1.229569039744847e-06   -4.932001025867223e-06
-5.5649487912443024e-06   1.229569039744847e-06   -4.932001025867223e-06
-5.5649487912443024e-06   1.229569039744847e-06   -4.932001025867223e-06
-9.86373864291495e-06   1.4089524999083168e-06   -1.1989020702553614e-05
-9.86373864291495e-06   1.4089524999083168e-06   -1.1989020702553614e-05
-9.86373864291495e-06   1.4089524999083168e-06   -1.1989020702553614e-05
-9.86373864291495e-06   1.4089524999083168e-06   -1.1989020702553614e-05
-9.585198468976865e-06   1.468966718809082e-06   -4.642379953282067e-06
-9.585198468976865e-06   1.468966718809082e-06   -4.642379953282067e-06
-9.585198468976865e-06   1.468966718809082e-06   -4.642379953282067e-06
-9.585198468976865e-06   1.468966718809082e-06   -4.642379953282067e-06
-5.3656147085114405e-06   1.6149444099468812e-06   -1.1762606168740433e-05
-5.3656147085114405e-06   1.6149444099468812e-06   -1.1762606168740433e-05
-5.3656147085114405e-06   1.6149444099468812e-06   -1.1762606168740433e-05
-5.3656147085114405e-06   1.6149444099468812e-06   -1.1762606168740433e-05
-7.51660464736289e-06   1.4282049321321234e-06   -8.065579250632538e-06
-7.51660464736289e-06   1.4282049321321234e-06   -8.065579250632538e-06
-7.51660464736289e-06   1.4282049321321234e-06   -8.065579250632538e-06
-7.51660464736289e-06   1.4282049321321234e-06   -8.065579250632538e-06
-5.3656147085114405e-06   1.468966718809082e-06   -4.72996656796476e-06
-5.3656147085114405e-06   1.468966718809082e-06   -4.72996656796476e-06
-5.3656147085114405e-06   1.468966718809082e-06   -4.72996656796476e-06
-5.3656147085114405e-06   1.468966718809082e-06   -4.72996656796476e-06
-9.585198468976865e-06   1.6149444099469897e-06   -1.1675019554057808e-05
-9.585198468976865e-06   1.6149444099469897e-06   -1.1675019554057808e-05
-9.585198468976865e-06   1.6149444099469897e-06   -1.1675019554057808e-05
-9.585198468976865e-06   1.6149444099469897e-06   -1.1675019554057808e-05
-9.350431433406946e-06   1.735026524082731e-06   -4.750706509034849e-06
-9.350431433406946e-06   1.735026524082731e-06   -4.750706509034849e-06
-9.350431433406946e-06   1.735026524082731e-06   -4.750706509034849e-06
-9.350431433406946e-06   1.735026524082731e-06   -4.750706509034849e-06
-5.181483732606275e-06   1.8412726390349765e-06   -1.1762700346007275e-05
-5.181483732606275e-06   1.8412726390349765e-06   -1.1762700346007275e-05
-5.181483732606275e-06   1.8412726390349765e-06   -1.1762700346007275e-05
-5.181483732606275e-06   1.8412726390349765e-06   -1.1762700346007275e-05
-7.36371071945384e-06   1.6005123608168169e-06   -7.981199200997281e-06
-7.36371071945384e-06   1.6005123608168169e-06   -7.981199200997281e-06
-7.36371071945384e-06   1.6005123608168169e-06   -7.981199200997281e-06
-7.36371071945384e-06   1.6005123608168169e-06   -7.981199200997281e-06
-1.0113400211479526e-05   1.6579820486959588e-06   -2.566564931501592e-06
-1.0113400211479526e-05   1.6579820486959588e-06   -2.566564931501592e-06
-1.0113400211479526e-05   1.6579820486959588e-06   -2.566564931501592e-06
-1.0113400211479526e-05   1.6579820486959588e-06   -2.566564931501592e-06
-1.470946029131609e-05   2.275457687257818e-06   -9.856179681425482e-06
-1.470946029131609e-05   2.275457687257818e-06   -9.856179681425482e-06
-1.470946029131609e-05   2.275457687257818e-06   -9.856179681425482e-06
-1.470946029131609e-05   2.275457687257818e-06   -9.856179681425482e-06
-1.412010102793829e-05   1.9363179605880513e-06   -7.275235495103399e-07
-1.412010102793829e-05   1.9363179605880513e-06   -7.275235495103399e-07
-1.412010102793829e-05   1.9363179605880513e-06   -7.275235495103399e-07
-1.412010102793829e-05   1.9363179605880513e-06   -7.275235495103399e-07
-9.863738642914933e-06   2.594021550565012e-06   -8.216083011868772e-06
-9.863738642914933e-06   2.594021550565012e-06   -8.216083011868772e-06
-9.863738642914933e-06   2.594021550565012e-06   -8.216083011868772e-06
-9.863738642914933e-06   2.594021550565012e-06   -8.216083011868772e-06
-1.1698177448998335e-05   2.1669812376609815e-06   -4.9024608139873525e-06
-1.1698177448998335e-05   2.1669812376609815e-06   -4.9024608139873525e-06
-1.1698177448998335e-05   2.1669812376609815e-06   -4.9024608139873525e-06
-1.1698177448998335e-05   2.1669812376609815e-06   -4.9024608139873525e-06
-9.863738642914943e-06   1.9363179605880513e-06   -1.122145703496408e-06
-9.863738642914943e-06   1.9363179605880513e-06   -1.122145703496408e-06
-9.863738642914943e-06   1.9363179605880513e-06   -1.122145703496408e-06
-9.863738642914943e-06   1.9363179605880513e-06   -1.122145703496408e-06
-1.4120101027938267e-05   2.5940215505649037e-06   -7.821460857882542e-06
-1.4120101027938267e-05   2.5940215505649037e-06   -7.821460857882542e-06
-1.4120101027938267e-05   2.5940215505649037e-06   -7.821460857882542e-06
-1.4120101027938267e-05   2.5940215505649037e-06   -7.821460857882542e-06
-1.3635442003823347e-05   2.036528515045712e-06   4.83622924139478e-08
-1.3635442003823347e-05   2.036528515045712e-06   4.83622924139478e-08
-1.3635442003823347e-05   2.036528515045712e-06   4.83622924139478e-08
-1.3635442003823347e-05   2.036528515045712e-06   4.83622924139478e-08
-9.585198468976865e-06   2.6787075572648304e-06   -7.087351024328333e-06
-9.585198468976865e-06   2.6787075572648304e-06   -7.087351024328333e-06
-9.585198468976865e-06   2.6787075572648304e-06   -7.087351024328333e-06
-9.585198468976865e-06   2.6787075572648304e-06   -7.087351024328333e-06
-1.1510158468393908e-05   2.296758081699865e-06   -3.6499146732941557e-06
-1.1510158468393908e-05   2.296758081699865e-06   -3.6499146732941557e-06
-1.1510158468393908e-05   2.296758081699865e-06   -3.6499146732941557e-06
-1.1510158468393908e-05   2.296758081699865e-06   -3.6499146732941557e-06
-9.585198468976865e-06   2.036528515045712e-06   -3.3694513291755853e-07
-9.585198468976865e-06   2.036528515045712e-06   -3.3694513291755853e-07
-9.585198468976865e-06   2.036528515045712e-06   -3.3694513291755853e-07
-9.585198468976865e-06   2.036528515045712e-06   -3.3694513291755853e-07
-1.36354420038233e-05   2.6787075572648304e-06   -6.702043598996895e-06
-1.36354420038233e-05   2.6787075572648304e-06   -6.702043598996895e-06
-1.36354420038233e-05   2.6787075572648304e-06   -6.702043598996895e-06
-1.36354420038233e-05   2.6787075572648304e-06   -6.702043598996895e-06
-1.310855050588614e-05   2.159371775646568e-06   1.0431451079276235e-06
-1.310855050588614e-05   2.159371775646568e-06   1.0431451079276235e-06
-1.310855050588614e-05   2.159371775646568e-06   1.0431451079276235e-06
-1.310855050588614e-05   2.159371775646568e-06   1.0431451079276235e-06
-9.350431433406938e-06   2.7468655761500116e-06   -5.572882959839704e-06
-9.350431433406938e-06   2.7468655761500116e-06   -5.572882959839704e-06
-9.350431433406938e-06   2.7468655761500116e-06   -5.572882959839704e-06
-9.350431433406938e-06   2.7468655761500116e-06   -5.572882959839704e-06
-1.1011785981037352e-05   2.3172239393998725e-06   -2.546173731739226e-06
-1.1011785981037352e-05   2.3172239393998725e-06   -2.546173731739226e-06
-1.1011785981037352e-05   2.3172239393998725e-06   -2.546173731739226e-06
-1.1011785981037352e-05   2.3172239393998725e-06   -2.546173731739226e-06
1.2379138971398718e-05   -1.7178114611638177e-06   2.5976144672078716e-06
1.2379138971398718e-05   -1.7178114611638177e-06   2.5976144672078716e-06
1.2379138971398718e-05   -1.7178114611638177e-06   2.5976144672078716e-06
1.2379138971398718e-05   -1.7178114611638177e-06   2.5976144672078716e-06
5.9335968113938015e-06   -2.521886132764075e-06   -8.627400602427137e-06
5.9335968113938015e-06   -2.521886132764075e-06   -8.627400602427137e-06
5.9335968113938015e-06   -2.521886132764075e-06   -8.627400602427137e-06
5.9335968113938015e-06   -2.521886132764075e-06   -8.627400602427137e-06
6.163162214080854e-06   -1.5997832722440715e-06   1.3281425239610421e-06
6.163162214080854e-06   -1.5997832722440715e-06   1.3281425239610421e-06
6.163162214080854e-06   -1.5997832722440715e-06   1.3281425239610421e-06
6.163162214080854e-06   -1.5997832722440715e-06   1.3281425239610421e-06
1.2924799240968452e-05   -2.465546863639656e-06   -9.421794366014282e-06
1.2924799240968452e-05   -2.465546863639656e-06   -9.421794366014282e-06
1.2924799240968452e-05   -2.465546863639656e-06   -9.421794366014282e-06
1.2924799240968452e-05   -2.465546863639656e-06   -9.421794366014282e-06
8.968509713148763e-06   -1.8760215427679429e-06   -3.1816936788378093e-06
8.968509713148763e-06   -1.8760215427679429e-06   -3.1816936788378093e-06
8.968509713148763e-06   -1.8760215427679429e-06   -3.1816936788378093e-06
8.968509713148763e-06   -1.8760215427679429e-06   -3.1816936788378093e-06
1.2924799240968452e-05   -1.5997832722440715e-06   1.84760067879842e-06
1.2924799240968452e-05   -1.5997832722440715e-06   1.84760067879842e-06
1.2924799240968452e-05   -1.5997832722440715e-06   1.84760067879842e-06
1.2924799240968452e-05   -1.5997832722440715e-06   1.84760067879842e-06
6.16316221408084e-06   -2.465546863639656e-06   -9.941252520851633e-06
6.16316221408084e-06   -2.465546863639656e-06   -9.941252520851633e-06
6.16316221408084e-06   -2.465546863639656e-06   -9.941252520851633e-06
6.16316221408084e-06   -2.465546863639656e-06   -9.941252520851633e-06
6.391875538870361e-06   -1.4955880546680149e-06   7.01083540344434e-07
6.391875538870361e-06   -1.4955880546680149e-06   7.01083540344434e-07
6.391875538870361e-06   -1.4955880546680149e-06   7.01083540344434e-07
6.391875538870361e-06   -1.4955880546680149e-06   7.01083540344434e-07
1.3341687983112977e-05   -2.379089602663558e-06   -1.0351836271262603e-05
1.3341687983112977e-05   -2.379089602663558e-06   -1.0351836271262603e-05
1.3341687983112977e-05   -2.379089602663558e-06   -1.0351836271262603e-05
1.3341687983112977e-05   -2.379089602663558e-06   -1.0351836271262603e-05
9.430152821734064e-06   -1.8692705894306823e-06   -4.138502410237484e-06
9.430152821734064e-06   -1.8692705894306823e-06   -4.138502410237484e-06
9.430152821734064e-06   -1.8692705894306823e-06   -4.138502410237484e-06
9.430152821734064e-06   -1.8692705894306823e-06   -4.138502410237484e-06
1.3341687983112977e-05   -1.4955880546680149e-06   1.23118446914176e-06
1.3341687983112977e-05   -1.4955880546680149e-06   1.23118446914176e-06
1.3341687983112977e-05   -1.4955880546680149e-06   1.23118446914176e-06
1.3341687983112977e-05   -1.4955880546680149e-06   1.23118446914176e-06
6.391875538870361e-06   -2.379089602663558e-06   -1.0881937200059983e-05
6.391875538870361e-06   -2.379089602663558e-06   -1.0881937200059983e-05
6.391875538870361e-06   -2.379089602663558e-06   -1.0881937200059983e-05
6.391875538870361e-06   -2.379089602663558e-06   -1.0881937200059983e-05
6.545032387647339e-06   -1.169182306050764e-06   -5.518222280597829e-07
6.545032387647339e-06   -1.169182306050764e-06   -5.518222280597829e-07
6.545032387647339e-06   -1.169182306050764e-06   -5.518222280597829e-07
6.545032387647339e-06   -1.169182306050764e-06   -5.518222280597829e-07
1.3783240381337414e-05   -2.0449874383058004e-06   -1.2090019138190247e-05
1.3783240381337414e-05   -2.0449874383058004e-06   -1.2090019138190247e-05
1.3783240381337414e-05   -2.0449874383058004e-06   -1.2090019138190247e-05
1.3783240381337414e-05   -2.0449874383058004e-06   -1.2090019138190247e-05
9.549425644133146e-06   -1.7239614801192325e-06   -5.226276817761957e-06
9.549425644133146e-06   -1.7239614801192325e-06   -5.226276817761957e-06
9.549425644133146e-06   -1.7239614801192325e-06   -5.226276817761957e-06
9.549425644133146e-06   -1.7239614801192325e-06   -5.226276817761957e-06
5.933596811393808e-06   -7.901182429734342e-07   -2.806923720595443e-06
5.933596811393808e-06   -7.901182429734342e-07   -2.806923720595443e-06
5.933596811393808e-06   -7.901182429734342e-07   -2.806923720595443e-06
5.933596811393808e-06   -7.901182429734342e-07   -2.806923720595443e-06
-4.1673410840510476e-07   -1.5996361053861614e-06   -1.3876519304374636e-05
-4.1673410840510476e-07   -1.5996361053861614e-06   -1.3876519304374636e-05
-4.1673410840510476e-07   -1.5996361053861614e-06   -1.3876519304374636e-05
-4.1673410840510476e-07   -1.5996361053861614e-06   -1.3876519304374636e-05
-1.823436744764634e-07   -6.217478741451198e-07   -3.1018977482122323e-06
-1.823436744764634e-07   -6.217478741451198e-07   -3.1018977482122323e-06
-1.823436744764634e-07   -6.217478741451198e-07   -3.1018977482122323e-06
-1.823436744764634e-07   -6.217478741451198e-07   -3.1018977482122323e-06
6.163162214080854e-06   -1.518229153178903e-06   -1.3139852128387557e-05
6.163162214080854e-06   -1.518229153178903e-06   -1.3139852128387557e-05
6.163162214080854e-06   -1.518229153178903e-06   -1.3139852128387557e-05
6.163162214080854e-06   -1.518229153178903e-06   -1.3139852128387557e-05
2.8819682528947066e-06   -9.69360538339984e-07   -8.000516695313926e-06
2.8819682528947066e-06   -9.69360538339984e-07   -8.000516695313926e-06
2.8819682528947066e-06   -9.69360538339984e-07   -8.000516695313926e-06
2.8819682528947066e-06   -9.69360538339984e-07   -8.000516695313926e-06
6.163162214080847e-06   -6.217478741451198e-07   -2.5640089807919312e-06
6.163162214080847e-06   -6.217478741451198e-07   -2.5640089807919312e-06
6.163162214080847e-06   -6.217478741451198e-07   -2.5640089807919312e-06
6.163162214080847e-06   -6.217478741451198e-07   -2.5640089807919312e-06
-1.823436744764634e-07   -1.518229153178903e-06   -1.3677740895807783e-05
-1.823436744764634e-07   -1.518229153178903e-06   -1.3677740895807783e-05
-1.823436744764634e-07   -1.518229153178903e-06   -1.3677740895807783e-05
-1.823436744764634e-07   -1.518229153178903e-06   -1.3677740895807783e-05
2.385172103940269e-08   -4.163514223974119e-07   -3.1860835506483534e-06
2.385172103940269e-08   -4.163514223974119e-07   -3.1860835506483534e-06
2.385172103940269e-08   -4.163514223974119e-07   -3.1860835506483534e-06
2.385172103940269e-08   -4.163514223974119e-07   -3.1860835506483534e-06
6.391875538870361e-06   -1.3702089246050422e-06   -1.322714207904204e-05
6.391875538870361e-06   -1.3702089246050422e-06   -1.322714207904204e-05
6.391875538870361e-06   -1.3702089246050422e-06   -1.322714207904204e-05
6.391875538870361e-06   -1.3702089246050422e-06   -1.322714207904204e-05
3.038512073900278e-06   -8.846815296519278e-07   -7.92951940773023e-06
3.038512073900278e-06   -8.846815296519278e-07   -7.92951940773023e-06
3.038512073900278e-06   -8.846815296519278e-07   -7.92951940773023e-06
3.038512073900278e-06   -8.846815296519278e-07   -7.92951940773023e-06
6.391875538870361e-06   -4.163514223974119e-07   -2.613769049323759e-06
6.391875538870361e-06   -4.163514223974119e-07   -2.613769049323759e-06
6.391875538870361e-06   -4.163514223974119e-07   -2.613769049323759e-06
6.391875538870361e-06   -4.163514223974119e-07   -2.613769049323759e-06
2.385172103940269e-08   -1.3702089246050422e-06   -1.3799456580366608e-05
2.385172103940269e-08   -1.3702089246050422e-06   -1.3799456580366608e-05
2.385172103940269e-08   -1.3702089246050422e-06   -1.3799456580366608e-05
2.385172103940269e-08   -1.3702089246050422e-06   -1.3799456580366608e-05
1.6956278149067138e-07   -1.5696283890383796e-07   -3.3225006249907826e-06
1.6956278149067138e-07   -1.5696283890383796e-07   -3.3225006249907826e-06
1.6956278149067138e-07   -1.5696283890383796e-07   -3.3225006249907826e-06
1.6956278149067138e-07   -1.5696283890383796e-07   -3.3225006249907826e-06
6.545032387647352e-06   -1.159334419906623e-06   -1.3346860353316981e-05
6.545032387647352e-06   -1.159334419906623e-06   -1.3346860353316981e-05
6.545032387647352e-06   -1.159334419906623e-06   -1.3346860353316981e-05
6.545032387647352e-06   -1.159334419906623e-06   -1.3346860353316981e-05
3.2304637613351286e-06   -7.376684469139806e-07   -8.075578893258951e-06
3.2304637613351286e-06   -7.376684469139806e-07   -8.075578893258951e-06
3.2304637613351286e-06   -7.376684469139806e-07   -8.075578893258951e-06
3.2304637613351286e-06   -7.376684469139806e-07   -8.075578893258951e-06
-4.1673410840510476e-07   1.7214804360894502e-07   -4.360901087386004e-06
-4.1673410840510476e-07   1.7214804360894502e-07   -4.360901087386004e-06
-4.1673410840510476e-07   1.7214804360894502e-07   -4.360901087386004e-06
-4.1673410840510476e-07   1.7214804360894502e-07   -4.360901087386004e-06
-6.673423855667278e-06   -7.861951115942147e-07   -1.5363723225944907e-05
-6.673423855667278e-06   -7.861951115942147e-07   -1.5363723225944907e-05
-6.673423855667278e-06   -7.861951115942147e-07   -1.5363723225944907e-05
-6.673423855667278e-06   -7.861951115942147e-07   -1.5363723225944907e-05
-6.391731924400713e-06   3.623289685631727e-07   -4.732683162717228e-06
-6.391731924400713e-06   3.623289685631727e-07   -4.732683162717228e-06
-6.391731924400713e-06   3.623289685631727e-07   -4.732683162717228e-06
-6.391731924400713e-06   3.623289685631727e-07   -4.732683162717228e-06
-1.823436744764634e-07   -6.887656121716329e-07   -1.4451006830816851e-05
-1.823436744764634e-07   -6.887656121716329e-07   -1.4451006830816851e-05
-1.823436744764634e-07   -6.887656121716329e-07   -1.4451006830816851e-05
-1.823436744764634e-07   -6.887656121716329e-07   -1.4451006830816851e-05
-3.3774499369832586e-06   -1.1697733285568734e-07   -9.468902694228365e-06
-3.3774499369832586e-06   -1.1697733285568734e-07   -9.468902694228365e-06
-3.3774499369832586e-06   -1.1697733285568734e-07   -9.468902694228365e-06
-3.3774499369832586e-06   -1.1697733285568734e-07   -9.468902694228365e-06
-1.823436744764634e-07   3.623289685631727e-07   -4.102026414276371e-06
-1.823436744764634e-07   3.623289685631727e-07   -4.102026414276371e-06
-1.823436744764634e-07   3.623289685631727e-07   -4.102026414276371e-06
-1.823436744764634e-07   3.623289685631727e-07   -4.102026414276371e-06
-6.391731924400713e-06   -6.887656121716329e-07   -1.5081663579257637e-05
-6.391731924400713e-06   -6.887656121716329e-07   -1.5081663579257637e-05
-6.391731924400713e-06   -6.887656121716329e-07   -1.5081663579257637e-05
-6.391731924400713e-06   -6.887656121716329e-07   -1.5081663579257637e-05
-6.133350609667571e-06   5.809905322432755e-07   -4.6475206531030266e-06
-6.133350609667571e-06   5.809905322432755e-07   -4.6475206531030266e-06
-6.133350609667571e-06   5.809905322432755e-07   -4.6475206531030266e-06
-6.133350609667571e-06   5.809905322432755e-07   -4.6475206531030266e-06
2.385172103940269e-08   -5.421904576217561e-07   -1.42356159436956e-05
2.385172103940269e-08   -5.421904576217561e-07   -1.42356159436956e-05
2.385172103940269e-08   -5.421904576217561e-07   -1.42356159436956e-05
2.385172103940269e-08   -5.421904576217561e-07   -1.42356159436956e-05
-3.149061988473321e-06   -7.3219863930620854e-09   -9.268347510578277e-06
-3.149061988473321e-06   -7.3219863930620854e-09   -9.268347510578277e-06
-3.149061988473321e-06   -7.3219863930620854e-09   -9.268347510578277e-06
-3.149061988473321e-06   -7.3219863930620854e-09   -9.268347510578277e-06
2.385172103940269e-08   5.809905322432755e-07   -3.973612059183959e-06
2.385172103940269e-08   5.809905322432755e-07   -3.973612059183959e-06
2.385172103940269e-08   5.809905322432755e-07   -3.973612059183959e-06
2.385172103940269e-08   5.809905322432755e-07   -3.973612059183959e-06
-6.133350609667571e-06   -5.421904576217561e-07   -1.490952453761464e-05
-6.133350609667571e-06   -5.421904576217561e-07   -1.490952453761464e-05
-6.133350609667571e-06   -5.421904576217561e-07   -1.490952453761464e-05
-6.133350609667571e-06   -5.421904576217561e-07   -1.490952453761464e-05
-5.9595674260042156e-06   8.066723914662956e-07   -4.7327586575168215e-06
-5.9595674260042156e-06   8.066723914662956e-07   -4.7327586575168215e-06
-5.9595674260042156e-06   8.066723914662956e-07   -4.7327586575168215e-06
-5.9595674260042156e-06   8.066723914662956e-07   -4.7327586575168215e-06
1.695627814906646e-07   -4.024745518940243e-07   -1.4222487503992131e-05
1.695627814906646e-07   -4.024745518940243e-07   -1.4222487503992131e-05
1.695627814906646e-07   -4.024745518940243e-07   -1.4222487503992131e-05
1.695627814906646e-07   -4.024745518940243e-07   -1.4222487503992131e-05
-2.9872856587200403e-06   1.151754250150309e-07   -9.271663423119866e-06
-2.9872856587200403e-06   1.151754250150309e-07   -9.271663423119866e-06
-2.9872856587200403e-06   1.151754250150309e-07   -9.271663423119866e-06
-2.9872856587200403e-06   1.151754250150309e-07   -9.271663423119866e-06
-6.673423855667278e-06   1.1694133835413482e-06   -3.5333459893031205e-06
-6.673423855667278e-06   1.1694133835413482e-06   -3.5333459893031205e-06
-6.673423855667278e-06   1.1694133835413482e-06   -3.5333459893031205e-06
-6.673423855667278e-06   1.1694133835413482e-06   -3.5333459893031205e-06
-1.3024465369154475e-05   3.1488383408280907e-07   -1.463113290812361e-05
-1.3024465369154475e-05   3.1488383408280907e-07   -1.463113290812361e-05
-1.3024465369154475e-05   3.1488383408280907e-07   -1.463113290812361e-05
-1.3024465369154475e-05   3.1488383408280907e-07   -1.463113290812361e-05
-1.262287413770716e-05   1.4089524999083168e-06   -3.7463557345705453e-06
-1.262287413770716e-05   1.4089524999083168e-06   -3.7463557345705453e-06
-1.262287413770716e-05   1.4089524999083168e-06   -3.7463557345705453e-06
-1.262287413770716e-05   1.4089524999083168e-06   -3.7463557345705453e-06
-6.391731924400713e-06   4.878856831420312e-07   -1.357895266668825e-05
-6.391731924400713e-06   4.878856831420312e-07   -1.357895266668825e-05
-6.391731924400713e-06   4.878856831420312e-07   -1.357895266668825e-05
-6.391731924400713e-06   4.878856831420312e-07   -1.357895266668825e-05
-9.580443959167097e-06   9.236052720015234e-07   -8.525864362059985e-06
-9.580443959167097e-06   9.236052720015234e-07   -8.525864362059985e-06
-9.580443959167097e-06   9.236052720015234e-07   -8.525864362059985e-06
-9.580443959167097e-06   9.236052720015234e-07   -8.525864362059985e-06
-6.391731924400713e-06   1.4089524999083168e-06   -3.1937156445108024e-06
-6.391731924400713e-06   1.4089524999083168e-06   -3.1937156445108024e-06
-6.391731924400713e-06   1.4089524999083168e-06   -3.1937156445108024e-06
-6.391731924400713e-06   1.4089524999083168e-06   -3.1937156445108024e-06
-1.262287413770718e-05   4.878856831420312e-07   -1.4131592756748e-05
-1.262287413770718e-05   4.878856831420312e-07   -1.4131592756748e-05
-1.262287413770718e-05   4.878856831420312e-07   -1.4131592756748e-05
-1.262287413770718e-05   4.878856831420312e-07   -1.4131592756748e-05
-1.2232252040078025e-05   1.6149444099469897e-06   -3.3920581456317123e-06
-1.2232252040078025e-05   1.6149444099469897e-06   -3.3920581456317123e-06
-1.2232252040078025e-05   1.6149444099469897e-06   -3.3920581456317123e-06
-1.2232252040078025e-05   1.6149444099469897e-06   -3.3920581456317123e-06
-6.133350609667581e-06   6.463978656570668e-07   -1.2975765936408621e-05
-6.133350609667581e-06   6.463978656570668e-07   -1.2975765936408621e-05
-6.133350609667581e-06   6.463978656570668e-07   -1.2975765936408621e-05
-6.133350609667581e-06   6.463978656570668e-07   -1.2975765936408621e-05
-9.213919953889063e-06   1.0742407363538084e-06   -8.098189418457457e-06
-9.213919953889063e-06   1.0742407363538084e-06   -8.098189418457457e-06
-9.213919953889063e-06   1.0742407363538084e-06   -8.098189418457457e-06
-9.213919953889063e-06   1.0742407363538084e-06   -8.098189418457457e-06
-6.133350609667571e-06   1.6149444099469897e-06   -2.810930219057844e-06
-6.133350609667571e-06   1.6149444099469897e-06   -2.810930219057844e-06
-6.133350609667571e-06   1.6149444099469897e-06   -2.810930219057844e-06
-6.133350609667571e-06   1.6149444099469897e-06   -2.810930219057844e-06
-1.2232252040078045e-05   6.463978656570668e-07   -1.3556893862982564e-05
-1.2232252040078045e-05   6.463978656570668e-07   -1.3556893862982564e-05
-1.2232252040078045e-05   6.463978656570668e-07   -1.3556893862982564e-05
-1.2232252040078045e-05   6.463978656570668e-07   -1.3556893862982564e-05
-1.1939435794420631e-05   1.8412726390349765e-06   -3.403408610642522e-06
-1.1939435794420631e-05   1.8412726390349765e-06   -3.403408610642522e-06
-1.1939435794420631e-05   1.8412726390349765e-06   -3.403408610642522e-06
-1.1939435794420631e-05   1.8412726390349765e-06   -3.403408610642522e-06
-5.959567426004227e-06   7.788820627761166e-07   -1.273242154558121e-05
-5.959567426004227e-06   7.788820627761166e-07   -1.273242154558121e-05
-5.959567426004227e-06   7.788820627761166e-07   -1.273242154558121e-05
-5.959567426004227e-06   7.788820627761166e-07   -1.273242154558121e-05
-9.016762820706371e-06   1.1798476944543143e-06   -7.877675266751335e-06
-9.016762820706371e-06   1.1798476944543143e-06   -7.877675266751335e-06
-9.016762820706371e-06   1.1798476944543143e-06   -7.877675266751335e-06
-9.016762820706371e-06   1.1798476944543143e-06   -7.877675266751335e-06
-1.3024465369154475e-05   2.2754576872579266e-06   -2.0088492969503246e-06
-1.3024465369154475e-05   2.2754576872579266e-06   -2.0088492969503246e-06
-1.3024465369154475e-05   2.2754576872579266e-06   -2.0088492969503246e-06
-1.3024465369154475e-05   2.2754576872579266e-06   -2.0088492969503246e-06
-1.9680690795288852e-05   2.1705905324906523e-06   -1.3165478633367952e-05
-1.9680690795288852e-05   2.1705905324906523e-06   -1.3165478633367952e-05
-1.9680690795288852e-05   2.1705905324906523e-06   -1.3165478633367952e-05
-1.9680690795288852e-05   2.1705905324906523e-06   -1.3165478633367952e-05
-1.8869229462068295e-05   2.594021550565012e-06   1.0049175052100241e-07
-1.8869229462068295e-05   2.594021550565012e-06   1.0049175052100241e-07
-1.8869229462068295e-05   2.594021550565012e-06   1.0049175052100241e-07
-1.8869229462068295e-05   2.594021550565012e-06   1.0049175052100241e-07
-1.2622874137707138e-05   2.7172045412429463e-06   -1.038401025115431e-05
-1.2622874137707138e-05   2.7172045412429463e-06   -1.038401025115431e-05
-1.2622874137707138e-05   2.7172045412429463e-06   -1.038401025115431e-05
-1.2622874137707138e-05   2.7172045412429463e-06   -1.038401025115431e-05
-1.5358425397494182e-05   2.558018219256451e-06   -5.729246358317371e-06
-1.5358425397494182e-05   2.558018219256451e-06   -5.729246358317371e-06
-1.5358425397494182e-05   2.558018219256451e-06   -5.729246358317371e-06
-1.5358425397494182e-05   2.558018219256451e-06   -5.729246358317371e-06
-1.262287413770717e-05   2.594021550565012e-06   2.6581956114241946e-08
-1.262287413770717e-05   2.594021550565012e-06   2.6581956114241946e-08
-1.262287413770717e-05   2.594021550565012e-06   2.6581956114241946e-08
-1.262287413770717e-05   2.594021550565012e-06   2.6581956114241946e-08
-1.886922946206826e-05   2.7172045412429463e-06   -1.031010045674755e-05
-1.886922946206826e-05   2.7172045412429463e-06   -1.031010045674755e-05
-1.886922946206826e-05   2.7172045412429463e-06   -1.031010045674755e-05
-1.886922946206826e-05   2.7172045412429463e-06   -1.031010045674755e-05
-1.8199113625245883e-05   2.678707557264722e-06   1.2932484877625143e-06
-1.8199113625245883e-05   2.678707557264722e-06   1.2932484877625143e-06
-1.8199113625245883e-05   2.678707557264722e-06   1.2932484877625143e-06
-1.8199113625245883e-05   2.678707557264722e-06   1.2932484877625143e-06
-1.2232252040078025e-05   2.8414377300395614e-06   -8.749158924515428e-06
-1.2232252040078025e-05   2.8414377300395614e-06   -8.749158924515428e-06
-1.2232252040078025e-05   2.8414377300395614e-06   -8.749158924515428e-06
-1.2232252040078025e-05   2.8414377300395614e-06   -8.749158924515428e-06
-1.5068502601412832e-05   2.7405553301115848e-06   -3.961545215667154e-06
-1.5068502601412832e-05   2.7405553301115848e-06   -3.961545215667154e-06
-1.5068502601412832e-05   2.7405553301115848e-06   -3.961545215667154e-06
-1.5068502601412832e-05   2.7405553301115848e-06   -3.961545215667154e-06
-1.2232252040078045e-05   2.6787075572648304e-06   1.1956103840976676e-06
-1.2232252040078045e-05   2.6787075572648304e-06   1.1956103840976676e-06
-1.2232252040078045e-05   2.6787075572648304e-06   1.1956103840976676e-06
-1.2232252040078045e-05   2.6787075572648304e-06   1.1956103840976676e-06
-1.819911362524591e-05   2.8414377300395614e-06   -8.651520820850676e-06
-1.819911362524591e-05   2.8414377300395614e-06   -8.651520820850676e-06
-1.819911362524591e-05   2.8414377300395614e-06   -8.651520820850676e-06
-1.819911362524591e-05   2.8414377300395614e-06   -8.651520820850676e-06
-1.749518537185435e-05   2.7468655761500116e-06   2.901920224450004e-06
-1.749518537185435e-05   2.7468655761500116e-06   2.901920224450004e-06
-1.749518537185435e-05   2.7468655761500116e-06   2.901920224450004e-06
-1.749518537185435e-05   2.7468655761500116e-06   2.901920224450004e-06
-1.1939435794420641e-05   3.0456307726438835e-06   -6.536921522502532e-06
-1.1939435794420641e-05   3.0456307726438835e-06   -6.536921522502532e-06
-1.1939435794420641e-05   3.0456307726438835e-06   -6.536921522502532e-06
-1.1939435794420641e-05   3.0456307726438835e-06   -6.536921522502532e-06
-1.4382567968388433e-05   2.798181607062541e-06   -2.31656506654104e-06
-1.4382567968388433e-05   2.798181607062541e-06   -2.31656506654104e-06
-1.4382567968388433e-05   2.798181607062541e-06   -2.31656506654104e-06
-1.4382567968388433e-05   2.798181607062541e-06   -2.31656506654104e-06
1.6896223985680754e-05   -2.521886132764075e-06   5.877386005916438e-06
1.6896223985680754e-05   -2.521886132764075e-06   5.877386005916438e-06
1.6896223985680754e-05   -2.521886132764075e-06   5.877386005916438e-06
1.6896223985680754e-05   -2.521886132764075e-06   5.877386005916438e-06
8.458651386274251e-06   -3.1723867426006885e-06   -8.575535358996424e-06
8.458651386274251e-06   -3.1723867426006885e-06   -8.575535358996424e-06
8.458651386274251e-06   -3.1723867426006885e-06   -8.575535358996424e-06
8.458651386274251e-06   -3.1723867426006885e-06   -8.575535358996424e-06
8.653882224419061e-06   -2.465546863639656e-06   4.243668145320558e-06
8.653882224419061e-06   -2.465546863639656e-06   4.243668145320558e-06
8.653882224419061e-06   -2.465546863639656e-06   4.243668145320558e-06
8.653882224419061e-06   -2.465546863639656e-06   4.243668145320558e-06
1.7302425613388437e-05   -3.2518643016613957e-06   -9.698780373482022e-06
1.7302425613388437e-05   -3.2518643016613957e-06   -9.698780373482022e-06
1.7302425613388437e-05   -3.2518643016613957e-06   -9.698780373482022e-06
1.7302425613388437e-05   -3.2518643016613957e-06   -9.698780373482022e-06
1.2314364792017561e-05   -2.5754582902752445e-06   -1.7911892780289162e-06
1.2314364792017561e-05   -2.5754582902752445e-06   -1.7911892780289162e-06
1.2314364792017561e-05   -2.5754582902752445e-06   -1.7911892780289162e-06
1.2314364792017561e-05   -2.5754582902752445e-06   -1.7911892780289162e-06
1.7302425613388437e-05   -2.465546863639656e-06   4.71545860813355e-06
1.7302425613388437e-05   -2.465546863639656e-06   4.71545860813355e-06
1.7302425613388437e-05   -2.465546863639656e-06   4.71545860813355e-06
1.7302425613388437e-05   -2.465546863639656e-06   4.71545860813355e-06
8.653882224419061e-06   -3.2518643016613957e-06   -1.0170570836295e-05
8.653882224419061e-06   -3.2518643016613957e-06   -1.0170570836295e-05
8.653882224419061e-06   -3.2518643016613957e-06   -1.0170570836295e-05
8.653882224419061e-06   -3.2518643016613957e-06   -1.0170570836295e-05
8.818631866589002e-06   -2.379089602663558e-06   3.363124569945601e-06
8.818631866589002e-06   -2.379089602663558e-06   3.363124569945601e-06
8.818631866589002e-06   -2.379089602663558e-06   3.363124569945601e-06
8.818631866589002e-06   -2.379089602663558e-06   3.363124569945601e-06
1.755441019698944e-05   -3.2201721474735354e-06   -1.0691856453835704e-05
1.755441019698944e-05   -3.2201721474735354e-06   -1.0691856453835704e-05
1.755441019698944e-05   -3.2201721474735354e-06   -1.0691856453835704e-05
1.755441019698944e-05   -3.2201721474735354e-06   -1.0691856453835704e-05
1.2738256463125875e-05   -2.6540624959114326e-06   -3.004599355000418e-06
1.2738256463125875e-05   -2.6540624959114326e-06   -3.004599355000418e-06
1.2738256463125875e-05   -2.6540624959114326e-06   -3.004599355000418e-06
1.2738256463125875e-05   -2.6540624959114326e-06   -3.004599355000418e-06
1.755441019698944e-05   -2.379089602663558e-06   3.867774096831661e-06
1.755441019698944e-05   -2.379089602663558e-06   3.867774096831661e-06
1.755441019698944e-05   -2.379089602663558e-06   3.867774096831661e-06
1.755441019698944e-05   -2.379089602663558e-06   3.867774096831661e-06
8.818631866589002e-06   -3.2201721474735354e-06   -1.1196505980721777e-05
8.818631866589002e-06   -3.2201721474735354e-06   -1.1196505980721777e-05
8.818631866589002e-06   -3.2201721474735354e-06   -1.1196505980721777e-05
8.818631866589002e-06   -3.2201721474735354e-06   -1.1196505980721777e-05
8.989075899667273e-06   -2.044987438305692e-06   1.6676470011066174e-06
8.989075899667273e-06   -2.044987438305692e-06   1.6676470011066174e-06
8.989075899667273e-06   -2.044987438305692e-06   1.6676470011066174e-06
8.989075899667273e-06   -2.044987438305692e-06   1.6676470011066174e-06
1.7802665423632343e-05   -3.0345441099805534e-06   -1.2427934869163658e-05
1.7802665423632343e-05   -3.0345441099805534e-06   -1.2427934869163658e-05
1.7802665423632343e-05   -3.0345441099805534e-06   -1.2427934869163658e-05
1.7802665423632343e-05   -3.0345441099805534e-06   -1.2427934869163658e-05
1.2733610732357592e-05   -2.5506657781145317e-06   -4.2698373828253485e-06
1.2733610732357592e-05   -2.5506657781145317e-06   -4.2698373828253485e-06
1.2733610732357592e-05   -2.5506657781145317e-06   -4.2698373828253485e-06
1.2733610732357592e-05   -2.5506657781145317e-06   -4.2698373828253485e-06
8.458651386274251e-06   -1.5996361053862698e-06   7.236776555145271e-07
8.458651386274251e-06   -1.5996361053862698e-06   7.236776555145271e-07
8.458651386274251e-06   -1.5996361053862698e-06   7.236776555145271e-07
8.458651386274251e-06   -1.5996361053862698e-06   7.236776555145271e-07
9.114906961035335e-07   -3.0995029014792546e-06   -1.27548435724258e-05
9.114906961035335e-07   -3.0995029014792546e-06   -1.27548435724258e-05
9.114906961035335e-07   -3.0995029014792546e-06   -1.27548435724258e-05
9.114906961035335e-07   -3.0995029014792546e-06   -1.27548435724258e-05
1.1379392688162885e-06   -1.518229153178903e-06   1.085114187097014e-07
1.1379392688162885e-06   -1.518229153178903e-06   1.085114187097014e-07
1.1379392688162885e-06   -1.518229153178903e-06   1.085114187097014e-07
1.1379392688162885e-06   -1.518229153178903e-06   1.085114187097014e-07
8.653882224419082e-06   -3.079157684970457e-06   -1.1481503054886627e-05
8.653882224419082e-06   -3.079157684970457e-06   -1.1481503054886627e-05
8.653882224419082e-06   -3.079157684970457e-06   -1.1481503054886627e-05
8.653882224419082e-06   -3.079157684970457e-06   -1.1481503054886627e-05
4.807049527602102e-06   -2.0958883823333813e-06   -5.6600768084406265e-06
4.807049527602102e-06   -2.0958883823333813e-06   -5.6600768084406265e-06
4.807049527602102e-06   -2.0958883823333813e-06   -5.6600768084406265e-06
4.807049527602102e-06   -2.0958883823333813e-06   -5.6600768084406265e-06
8.653882224419054e-06   -1.518229153178903e-06   1.0450685377847083e-06
8.653882224419054e-06   -1.518229153178903e-06   1.0450685377847083e-06
8.653882224419054e-06   -1.518229153178903e-06   1.0450685377847083e-06
8.653882224419054e-06   -1.518229153178903e-06   1.0450685377847083e-06
1.1379392688162885e-06   -3.0791576849703486e-06   -1.2418060173961614e-05
1.1379392688162885e-06   -3.0791576849703486e-06   -1.2418060173961614e-05
1.1379392688162885e-06   -3.0791576849703486e-06   -1.2418060173961614e-05
1.1379392688162885e-06   -3.0791576849703486e-06   -1.2418060173961614e-05
1.3422090909575421e-06   -1.3702089246049338e-06   2.094256911660576e-08
1.3422090909575421e-06   -1.3702089246049338e-06   2.094256911660576e-08
1.3422090909575421e-06   -1.3702089246049338e-06   2.094256911660576e-08
1.3422090909575421e-06   -1.3702089246049338e-06   2.094256911660576e-08
8.818631866589002e-06   -3.0318374610165686e-06   -1.1442784935088894e-05
8.818631866589002e-06   -3.0318374610165686e-06   -1.1442784935088894e-05
8.818631866589002e-06   -3.0318374610165686e-06   -1.1442784935088894e-05
8.818631866589002e-06   -3.0318374610165686e-06   -1.1442784935088894e-05
4.931791799391641e-06   -2.1136188508466915e-06   -5.515649322528299e-06
4.931791799391641e-06   -2.1136188508466915e-06   -5.515649322528299e-06
4.931791799391641e-06   -2.1136188508466915e-06   -5.515649322528299e-06
4.931791799391641e-06   -2.1136188508466915e-06   -5.515649322528299e-06
8.818631866589002e-06   -1.3702089246050422e-06   1.0179196909635297e-06
8.818631866589002e-06   -1.3702089246050422e-06   1.0179196909635297e-06
8.818631866589002e-06   -1.3702089246050422e-06   1.0179196909635297e-06
8.818631866589002e-06   -1.3702089246050422e-06   1.0179196909635297e-06
1.3422090909575421e-06   -3.0318374610165686e-06   -1.2439762056935832e-05
1.3422090909575421e-06   -3.0318374610165686e-06   -1.2439762056935832e-05
1.3422090909575421e-06   -3.0318374610165686e-06   -1.2439762056935832e-05
1.3422090909575421e-06   -3.0318374610165686e-06   -1.2439762056935832e-05
1.6479992655639913e-06   -1.159334419906623e-06   -1.3281891001365757e-07
1.6479992655639913e-06   -1.159334419906623e-06   -1.3281891001365757e-07
1.6479992655639913e-06   -1.159334419906623e-06   -1.3281891001365757e-07
1.6479992655639913e-06   -1.159334419906623e-06   -1.3281891001365757e-07
8.989075899667266e-06   -2.941180712150767e-06   -1.1298838858172513e-05
8.989075899667266e-06   -2.941180712150767e-06   -1.1298838858172513e-05
8.989075899667266e-06   -2.941180712150767e-06   -1.1298838858172513e-05
8.989075899667266e-06   -2.941180712150767e-06   -1.1298838858172513e-05
5.179337273068244e-06   -2.0737808036027684e-06   -5.469714425636297e-06
5.179337273068244e-06   -2.0737808036027684e-06   -5.469714425636297e-06
5.179337273068244e-06   -2.0737808036027684e-06   -5.469714425636297e-06
5.179337273068244e-06   -2.0737808036027684e-06   -5.469714425636297e-06
9.114906961035335e-07   -7.861951115941063e-07   -1.0884404505896158e-06
9.114906961035335e-07   -7.861951115941063e-07   -1.0884404505896158e-06
9.114906961035335e-07   -7.861951115941063e-07   -1.0884404505896158e-06
9.114906961035335e-07   -7.861951115941063e-07   -1.0884404505896158e-06
-6.553791656347623e-06   -3.6510283132472777e-06   -1.5249477625666667e-05
-6.553791656347623e-06   -3.6510283132472777e-06   -1.5249477625666667e-05
-6.553791656347623e-06   -3.6510283132472777e-06   -1.5249477625666667e-05
-6.553791656347623e-06   -3.6510283132472777e-06   -1.5249477625666667e-05
-6.200052147325115e-06   -6.887656121716329e-07   -2.486477050944757e-06
-6.200052147325115e-06   -6.887656121716329e-07   -2.486477050944757e-06
-6.200052147325115e-06   -6.887656121716329e-07   -2.486477050944757e-06
-6.200052147325115e-06   -6.887656121716329e-07   -2.486477050944757e-06
1.1379392688162885e-06   -3.7249698365807073e-06   -1.2894740209868391e-05
1.1379392688162885e-06   -3.7249698365807073e-06   -1.2894740209868391e-05
1.1379392688162885e-06   -3.7249698365807073e-06   -1.2894740209868391e-05
1.1379392688162885e-06   -3.7249698365807073e-06   -1.2894740209868391e-05
-2.593846897522177e-06   -2.0426048290917093e-06   -7.68451560379763e-06
-2.593846897522177e-06   -2.0426048290917093e-06   -7.68451560379763e-06
-2.593846897522177e-06   -2.0426048290917093e-06   -7.68451560379763e-06
-2.593846897522177e-06   -2.0426048290917093e-06   -7.68451560379763e-06
1.1379392688162885e-06   -6.887656121716329e-07   -6.647545162993259e-07
1.1379392688162885e-06   -6.887656121716329e-07   -6.647545162993259e-07
1.1379392688162885e-06   -6.887656121716329e-07   -6.647545162993259e-07
1.1379392688162885e-06   -6.887656121716329e-07   -6.647545162993259e-07
-6.2000521473251254e-06   -3.724969836580599e-06   -1.4716462744513836e-05
-6.2000521473251254e-06   -3.724969836580599e-06   -1.4716462744513836e-05
-6.2000521473251254e-06   -3.724969836580599e-06   -1.4716462744513836e-05
-6.2000521473251254e-06   -3.724969836580599e-06   -1.4716462744513836e-05
-5.894076962641926e-06   -5.421904576217561e-07   -2.309505087413606e-06
-5.894076962641926e-06   -5.421904576217561e-07   -2.309505087413606e-06
-5.894076962641926e-06   -5.421904576217561e-07   -2.309505087413606e-06
-5.894076962641926e-06   -5.421904576217561e-07   -2.309505087413606e-06
1.3422090909575421e-06   -3.699337612957142e-06   -1.2475693550211475e-05
1.3422090909575421e-06   -3.699337612957142e-06   -1.2475693550211475e-05
1.3422090909575421e-06   -3.699337612957142e-06   -1.2475693550211475e-05
1.3422090909575421e-06   -3.699337612957142e-06   -1.2475693550211475e-05
-2.3431907337054895e-06   -2.0829871586233836e-06   -7.3031707817066555e-06
-2.3431907337054895e-06   -2.0829871586233836e-06   -7.3031707817066555e-06
-2.3431907337054895e-06   -2.0829871586233836e-06   -7.3031707817066555e-06
-2.3431907337054895e-06   -2.0829871586233836e-06   -7.3031707817066555e-06
1.3422090909575421e-06   -5.421904576217561e-07   -4.1521679421238546e-07
1.3422090909575421e-06   -5.421904576217561e-07   -4.1521679421238546e-07
1.3422090909575421e-06   -5.421904576217561e-07   -4.1521679421238546e-07
1.3422090909575421e-06   -5.421904576217561e-07   -4.1521679421238546e-07
-5.894076962641946e-06   -3.6993376129570337e-06   -1.4369981843412696e-05
-5.894076962641946e-06   -3.6993376129570337e-06   -1.4369981843412696e-05
-5.894076962641946e-06   -3.6993376129570337e-06   -1.4369981843412696e-05
-5.894076962641946e-06   -3.6993376129570337e-06   -1.4369981843412696e-05
-5.36543744627454e-06   -4.0247455189391587e-07   -2.3015427955955974e-06
-5.36543744627454e-06   -4.0247455189391587e-07   -2.3015427955955974e-06
-5.36543744627454e-06   -4.0247455189391587e-07   -2.3015427955955974e-06
-5.36543744627454e-06   -4.0247455189391587e-07   -2.3015427955955974e-06
1.647999265563998e-06   -3.560007357741586e-06   -1.2096084298484657e-05
1.647999265563998e-06   -3.560007357741586e-06   -1.2096084298484657e-05
1.647999265563998e-06   -3.560007357741586e-06   -1.2096084298484657e-05
1.647999265563998e-06   -3.560007357741586e-06   -1.2096084298484657e-05
-2.017005922290098e-06   -2.029293770822898e-06   -6.906170470879076e-06
-2.017005922290098e-06   -2.029293770822898e-06   -6.906170470879076e-06
-2.017005922290098e-06   -2.029293770822898e-06   -6.906170470879076e-06
-2.017005922290098e-06   -2.029293770822898e-06   -6.906170470879076e-06
-6.55379165634761e-06   3.1488383408270065e-07   -1.5620323240848553e-06
-6.55379165634761e-06   3.1488383408270065e-07   -1.5620323240848553e-06
-6.55379165634761e-06   3.1488383408270065e-07   -1.5620323240848553e-06
-6.55379165634761e-06   3.1488383408270065e-07   -1.5620323240848553e-06
-1.4847178688184943e-05   -4.466294107812385e-06   -1.8253050808950827e-05
-1.4847178688184943e-05   -4.466294107812385e-06   -1.8253050808950827e-05
-1.4847178688184943e-05   -4.466294107812385e-06   -1.8253050808950827e-05
-1.4847178688184943e-05   -4.466294107812385e-06   -1.8253050808950827e-05
-1.4417937703868812e-05   4.878856831420312e-07   -4.289798271598169e-06
-1.4417937703868812e-05   4.878856831420312e-07   -4.289798271598169e-06
-1.4417937703868812e-05   4.878856831420312e-07   -4.289798271598169e-06
-1.4417937703868812e-05   4.878856831420312e-07   -4.289798271598169e-06
-6.200052147325115e-06   -5.0221678722293895e-06   -1.4680242065948166e-05
-6.200052147325115e-06   -5.0221678722293895e-06   -1.4680242065948166e-05
-6.200052147325115e-06   -5.0221678722293895e-06   -1.4680242065948166e-05
-6.200052147325115e-06   -5.0221678722293895e-06   -1.4680242065948166e-05
-1.0358209992497723e-05   -2.2263498854555985e-06   -9.427469782724714e-06
-1.0358209992497723e-05   -2.2263498854555985e-06   -9.427469782724714e-06
-1.0358209992497723e-05   -2.2263498854555985e-06   -9.427469782724714e-06
-1.0358209992497723e-05   -2.2263498854555985e-06   -9.427469782724714e-06
-6.200052147325115e-06   4.878856831420312e-07   -9.837661383753893e-07
-6.200052147325115e-06   4.878856831420312e-07   -9.837661383753893e-07
-6.200052147325115e-06   4.878856831420312e-07   -9.837661383753893e-07
-6.200052147325115e-06   4.878856831420312e-07   -9.837661383753893e-07
-1.4417937703868837e-05   -5.0221678722293895e-06   -1.7986274199171073e-05
-1.4417937703868837e-05   -5.0221678722293895e-06   -1.7986274199171073e-05
-1.4417937703868837e-05   -5.0221678722293895e-06   -1.7986274199171073e-05
-1.4417937703868837e-05   -5.0221678722293895e-06   -1.7986274199171073e-05
-1.4007227457846942e-05   6.463978656570668e-07   -3.78871527417535e-06
-1.4007227457846942e-05   6.463978656570668e-07   -3.78871527417535e-06
-1.4007227457846942e-05   6.463978656570668e-07   -3.78871527417535e-06
-1.4007227457846942e-05   6.463978656570668e-07   -3.78871527417535e-06
-5.894076962641936e-06   -5.041883447622574e-06   -1.3897663978215907e-05
-5.894076962641936e-06   -5.041883447622574e-06   -1.3897663978215907e-05
-5.894076962641936e-06   -5.041883447622574e-06   -1.3897663978215907e-05
-5.894076962641936e-06   -5.041883447622574e-06   -1.3897663978215907e-05
-9.939447382787725e-06   -2.2264058937624233e-06   -8.844666476955668e-06
-9.939447382787725e-06   -2.2264058937624233e-06   -8.844666476955668e-06
-9.939447382787725e-06   -2.2264058937624233e-06   -8.844666476955668e-06
-9.939447382787725e-06   -2.2264058937624233e-06   -8.844666476955668e-06
-5.894076962641936e-06   6.463978656570668e-07   -3.7574648620756195e-07
-5.894076962641936e-06   6.463978656570668e-07   -3.7574648620756195e-07
-5.894076962641936e-06   6.463978656570668e-07   -3.7574648620756195e-07
-5.894076962641936e-06   6.463978656570668e-07   -3.7574648620756195e-07
-1.4007227457846965e-05   -5.041883447622574e-06   -1.7310632766183724e-05
-1.4007227457846965e-05   -5.041883447622574e-06   -1.7310632766183724e-05
-1.4007227457846965e-05   -5.041883447622574e-06   -1.7310632766183724e-05
-1.4007227457846965e-05   -5.041883447622574e-06   -1.7310632766183724e-05
-1.3328790562956346e-05   7.788820627760082e-07   -3.284378261965632e-06
-1.3328790562956346e-05   7.788820627760082e-07   -3.284378261965632e-06
-1.3328790562956346e-05   7.788820627760082e-07   -3.284378261965632e-06
-1.3328790562956346e-05   7.788820627760082e-07   -3.284378261965632e-06
-5.365437446274561e-06   -4.551767255219093e-06   -1.335824386563823e-05
-5.365437446274561e-06   -4.551767255219093e-06   -1.335824386563823e-05
-5.365437446274561e-06   -4.551767255219093e-06   -1.335824386563823e-05
-5.365437446274561e-06   -4.551767255219093e-06   -1.335824386563823e-05
-9.532286850464391e-06   -1.931072383178328e-06   -7.985911781879557e-06
-9.532286850464391e-06   -1.931072383178328e-06   -7.985911781879557e-06
-9.532286850464391e-06   -1.931072383178328e-06   -7.985911781879557e-06
-9.532286850464391e-06   -1.931072383178328e-06   -7.985911781879557e-06
-1.4847178688184943e-05   2.1705905324906523e-06   -2.902164521606138e-06
-1.4847178688184943e-05   2.1705905324906523e-06   -2.902164521606138e-06
-1.4847178688184943e-05   2.1705905324906523e-06   -2.902164521606138e-06
-1.4847178688184943e-05   2.1705905324906523e-06   -2.902164521606138e-06
-2.5371505157211334e-05   0.0   -2.174506295614468e-05
-2.5371505157211334e-05   0.0   -2.174506295614468e-05
-2.5371505157211334e-05   0.0   -2.174506295614468e-05
-2.5371505157211334e-05   0.0   -2.174506295614468e-05
-2.474966903219754e-05   2.7172045412429463e-06   -2.1725384907503005e-06
-2.474966903219754e-05   2.7172045412429463e-06   -2.1725384907503005e-06
-2.474966903219754e-05   2.7172045412429463e-06   -2.1725384907503005e-06
-2.474966903219754e-05   2.7172045412429463e-06   -2.1725384907503005e-06
-1.4417937703868812e-05   0.0   -1.7761767979885775e-05
-1.4417937703868812e-05   0.0   -1.7761767979885775e-05
-1.4417937703868812e-05   0.0   -1.7761767979885775e-05
-1.4417937703868812e-05   0.0   -1.7761767979885775e-05
-1.900506679118739e-05   8.481495931249045e-07   -1.0625442590229739e-05
-1.900506679118739e-05   8.481495931249045e-07   -1.0625442590229739e-05
-1.900506679118739e-05   8.481495931249045e-07   -1.0625442590229739e-05
-1.900506679118739e-05   8.481495931249045e-07   -1.0625442590229739e-05
-1.4417937703868825e-05   2.7172045412429463e-06   -5.422157660045243e-07
-1.4417937703868825e-05   2.7172045412429463e-06   -5.422157660045243e-07
-1.4417937703868825e-05   2.7172045412429463e-06   -5.422157660045243e-07
-1.4417937703868825e-05   2.7172045412429463e-06   -5.422157660045243e-07
-2.4749669032197497e-05   0.0   -1.9392090704631543e-05
-2.4749669032197497e-05   0.0   -1.9392090704631543e-05
-2.4749669032197497e-05   0.0   -1.9392090704631543e-05
-2.4749669032197497e-05   0.0   -1.9392090704631543e-05
-2.4219632614588873e-05   2.8414377300395614e-06   -6.8584297373194e-07
-2.4219632614588873e-05   2.8414377300395614e-06   -6.8584297373194e-07
-2.4219632614588873e-05   2.8414377300395614e-06   -6.8584297373194e-07
-2.4219632614588873e-05   2.8414377300395614e-06   -6.8584297373194e-07
-1.4007227457846965e-05   0.0   -1.6001655596944867e-05
-1.4007227457846965e-05   0.0   -1.6001655596944867e-05
-1.4007227457846965e-05   0.0   -1.6001655596944867e-05
-1.4007227457846965e-05   0.0   -1.6001655596944867e-05
-1.8836547009568508e-05   1.3200813801452112e-06   -8.744838505495814e-06
-1.8836547009568508e-05   1.3200813801452112e-06   -8.744838505495814e-06
-1.8836547009568508e-05   1.3200813801452112e-06   -8.744838505495814e-06
-1.8836547009568508e-05   1.3200813801452112e-06   -8.744838505495814e-06
-1.4007227457846965e-05   2.8414377300395614e-06   1.0190196642917504e-06
-1.4007227457846965e-05   2.8414377300395614e-06   1.0190196642917504e-06
-1.4007227457846965e-05   2.8414377300395614e-06   1.0190196642917504e-06
-1.4007227457846965e-05   2.8414377300395614e-06   1.0190196642917504e-06
-2.4219632614588833e-05   0.0   -1.770651823496854e-05
-2.4219632614588833e-05   0.0   -1.770651823496854e-05
-2.4219632614588833e-05   0.0   -1.770651823496854e-05
-2.4219632614588833e-05   0.0   -1.770651823496854e-05
-2.3158024852256545e-05   3.0456307726438835e-06   1.7211776432820756e-06
-2.3158024852256545e-05   3.0456307726438835e-06   1.7211776432820756e-06
-2.3158024852256545e-05   3.0456307726438835e-06   1.7211776432820756e-06
-2.3158024852256545e-05   3.0456307726438835e-06   1.7211776432820756e-06
-1.3328790562956362e-05   0.0   -1.2833501041965313e-05
-1.3328790562956362e-05   0.0   -1.2833501041965313e-05
-1.3328790562956362e-05   0.0   -1.2833501041965313e-05
-1.3328790562956362e-05   0.0   -1.2833501041965313e-05
-1.7895919413606928e-05   1.6211471742647358e-06   -6.194307928773275e-06
-1.7895919413606928e-05   1.6211471742647358e-06   -6.194307928773275e-06
-1.7895919413606928e-05   1.6211471742647358e-06   -6.194307928773275e-06
-1.7895919413606928e-05   1.6211471742647358e-06   -6.194307928773275e-06
1.869006306590275e-05   -3.1723867426006885e-06   1.1088654145128757e-05
1.869006306590275e-05   -3.1723867426006885e-06   1.1088654145128757e-05
1.869006306590275e-05   -3.1723867426006885e-06   1.1088654145128757e-05
1.869006306590275e-05   -3.1723867426006885e-06   1.1088654145128757e-05
9.653156517352475e-06   -2.4784682921762894e-06   -3.55650569886705e-06
9.653156517352475e-06   -2.4784682921762894e-06   -3.55650569886705e-06
9.653156517352475e-06   -2.4784682921762894e-06   -3.55650569886705e-06
9.653156517352475e-06   -2.4784682921762894e-06   -3.55650569886705e-06
9.419259596541247e-06   -3.2518643016613957e-06   9.753799061027076e-06
9.419259596541247e-06   -3.2518643016613957e-06   9.753799061027076e-06
9.419259596541247e-06   -3.2518643016613957e-06   9.753799061027076e-06
9.419259596541247e-06   -3.2518643016613957e-06   9.753799061027076e-06
1.850257117369717e-05   -2.718647660756267e-06   -5.704983552109154e-06
1.850257117369717e-05   -2.718647660756267e-06   -5.704983552109154e-06
1.850257117369717e-05   -2.718647660756267e-06   -5.704983552109154e-06
1.850257117369717e-05   -2.718647660756267e-06   -5.704983552109154e-06
1.3488487623408215e-05   -2.7518000149552167e-06   2.6717137775585044e-06
1.3488487623408215e-05   -2.7518000149552167e-06   2.6717137775585044e-06
1.3488487623408215e-05   -2.7518000149552167e-06   2.6717137775585044e-06
1.3488487623408215e-05   -2.7518000149552167e-06   2.6717137775585044e-06
1.850257117369717e-05   -3.2518643016613957e-06   9.433869076484053e-06
1.850257117369717e-05   -3.2518643016613957e-06   9.433869076484053e-06
1.850257117369717e-05   -3.2518643016613957e-06   9.433869076484053e-06
1.850257117369717e-05   -3.2518643016613957e-06   9.433869076484053e-06
9.419259596541247e-06   -2.718647660756267e-06   -5.385053567566131e-06
9.419259596541247e-06   -2.718647660756267e-06   -5.385053567566131e-06
9.419259596541247e-06   -2.718647660756267e-06   -5.385053567566131e-06
9.419259596541247e-06   -2.718647660756267e-06   -5.385053567566131e-06
9.206831472284483e-06   -3.2201721474735354e-06   8.737277703151471e-06
9.206831472284483e-06   -3.2201721474735354e-06   8.737277703151471e-06
9.206831472284483e-06   -3.2201721474735354e-06   8.737277703151471e-06
9.206831472284483e-06   -3.2201721474735354e-06   8.737277703151471e-06
1.8282505412449013e-05   -2.7381787980768893e-06   -6.6780415400940975e-06
1.8282505412449013e-05   -2.7381787980768893e-06   -6.6780415400940975e-06
1.8282505412449013e-05   -2.7381787980768893e-06   -6.6780415400940975e-06
1.8282505412449013e-05   -2.7381787980768893e-06   -6.6780415400940975e-06
1.3488811575412448e-05   -2.8001506257380247e-06   1.3486312848968356e-06
1.3488811575412448e-05   -2.8001506257380247e-06   1.3486312848968356e-06
1.3488811575412448e-05   -2.8001506257380247e-06   1.3486312848968356e-06
1.3488811575412448e-05   -2.8001506257380247e-06   1.3486312848968356e-06
1.828250541244904e-05   -3.2201721474735354e-06   8.448081693513483e-06
1.828250541244904e-05   -3.2201721474735354e-06   8.448081693513483e-06
1.828250541244904e-05   -3.2201721474735354e-06   8.448081693513483e-06
1.828250541244904e-05   -3.2201721474735354e-06   8.448081693513483e-06
9.206831472284483e-06   -2.7381787980768893e-06   -6.388845530456056e-06
9.206831472284483e-06   -2.7381787980768893e-06   -6.388845530456056e-06
9.206831472284483e-06   -2.7381787980768893e-06   -6.388845530456056e-06
9.206831472284483e-06   -2.7381787980768893e-06   -6.388845530456056e-06
8.947210081793352e-06   -3.0345441099805534e-06   7.08338416556683e-06
8.947210081793352e-06   -3.0345441099805534e-06   7.08338416556683e-06
8.947210081793352e-06   -3.0345441099805534e-06   7.08338416556683e-06
8.947210081793352e-06   -3.0345441099805534e-06   7.08338416556683e-06
1.7937404859686542e-05   -2.672306172570591e-06   -8.117616560034558e-06
1.7937404859686542e-05   -2.672306172570591e-06   -8.117616560034558e-06
1.7937404859686542e-05   -2.672306172570591e-06   -8.117616560034558e-06
1.7937404859686542e-05   -2.672306172570591e-06   -8.117616560034558e-06
1.3037819834368115e-05   -2.6617229777018965e-06   4.200856524154439e-08
1.3037819834368115e-05   -2.6617229777018965e-06   4.200856524154439e-08
1.3037819834368115e-05   -2.6617229777018965e-06   4.200856524154439e-08
1.3037819834368115e-05   -2.6617229777018965e-06   4.200856524154439e-08
9.653156517352475e-06   -3.0995029014792546e-06   8.225617079609826e-06
9.653156517352475e-06   -3.0995029014792546e-06   8.225617079609826e-06
9.653156517352475e-06   -3.0995029014792546e-06   8.225617079609826e-06
9.653156517352475e-06   -3.0995029014792546e-06   8.225617079609826e-06
1.93204882058378e-06   -1.4936264719075335e-06   -3.679369890594909e-06
1.93204882058378e-06   -1.4936264719075335e-06   -3.679369890594909e-06
1.93204882058378e-06   -1.4936264719075335e-06   -3.679369890594909e-06
1.93204882058378e-06   -1.4936264719075335e-06   -3.679369890594909e-06
1.5620744913861663e-06   -3.0791576849703486e-06   9.341467257295468e-06
1.5620744913861663e-06   -3.0791576849703486e-06   9.341467257295468e-06
1.5620744913861663e-06   -3.0791576849703486e-06   9.341467257295468e-06
1.5620744913861663e-06   -3.0791576849703486e-06   9.341467257295468e-06
9.419259596541247e-06   -1.5814903268705337e-06   -4.652441666156348e-06
9.419259596541247e-06   -1.5814903268705337e-06   -4.652441666156348e-06
9.419259596541247e-06   -1.5814903268705337e-06   -4.652441666156348e-06
9.419259596541247e-06   -1.5814903268705337e-06   -4.652441666156348e-06
5.631978571710122e-06   -2.2271303322112684e-06   2.0470773784333617e-06
5.631978571710122e-06   -2.2271303322112684e-06   2.0470773784333617e-06
5.631978571710122e-06   -2.2271303322112684e-06   2.0470773784333617e-06
5.631978571710122e-06   -2.2271303322112684e-06   2.0470773784333617e-06
9.41925959654124e-06   -3.0791576849703486e-06   8.442866842435476e-06
9.41925959654124e-06   -3.0791576849703486e-06   8.442866842435476e-06
9.41925959654124e-06   -3.0791576849703486e-06   8.442866842435476e-06
9.41925959654124e-06   -3.0791576849703486e-06   8.442866842435476e-06
1.5620744913861595e-06   -1.5814903268705337e-06   -3.7538412512963287e-06
1.5620744913861595e-06   -1.5814903268705337e-06   -3.7538412512963287e-06
1.5620744913861595e-06   -1.5814903268705337e-06   -3.7538412512963287e-06
1.5620744913861595e-06   -1.5814903268705337e-06   -3.7538412512963287e-06
1.2968740761113787e-06   -3.0318374610165686e-06   9.339822274300597e-06
1.2968740761113787e-06   -3.0318374610165686e-06   9.339822274300597e-06
1.2968740761113787e-06   -3.0318374610165686e-06   9.339822274300597e-06
1.2968740761113787e-06   -3.0318374610165686e-06   9.339822274300597e-06
9.206831472284483e-06   -1.6171315851562723e-06   -4.692263578170834e-06
9.206831472284483e-06   -1.6171315851562723e-06   -4.692263578170834e-06
9.206831472284483e-06   -1.6171315851562723e-06   -4.692263578170834e-06
9.206831472284483e-06   -1.6171315851562723e-06   -4.692263578170834e-06
5.311573068015293e-06   -2.178885356686434e-06   2.1368860251961316e-06
5.311573068015293e-06   -2.178885356686434e-06   2.1368860251961316e-06
5.311573068015293e-06   -2.178885356686434e-06   2.1368860251961316e-06
5.311573068015293e-06   -2.178885356686434e-06   2.1368860251961316e-06
9.2068314722845e-06   -3.031837461016677e-06   8.490998748784368e-06
9.2068314722845e-06   -3.031837461016677e-06   8.490998748784368e-06
9.2068314722845e-06   -3.031837461016677e-06   8.490998748784368e-06
9.2068314722845e-06   -3.031837461016677e-06   8.490998748784368e-06
1.2968740761113787e-06   -1.6171315851562723e-06   -3.843440052654591e-06
1.2968740761113787e-06   -1.6171315851562723e-06   -3.843440052654591e-06
1.2968740761113787e-06   -1.6171315851562723e-06   -3.843440052654591e-06
1.2968740761113787e-06   -1.6171315851562723e-06   -3.843440052654591e-06
1.002427693010966e-06   -2.941180712150767e-06   9.62618471954846e-06
1.002427693010966e-06   -2.941180712150767e-06   9.62618471954846e-06
1.002427693010966e-06   -2.941180712150767e-06   9.62618471954846e-06
1.002427693010966e-06   -2.941180712150767e-06   9.62618471954846e-06
8.947210081793342e-06   -1.5745631455078282e-06   -4.4350898017413e-06
8.947210081793342e-06   -1.5745631455078282e-06   -4.4350898017413e-06
8.947210081793342e-06   -1.5745631455078282e-06   -4.4350898017413e-06
8.947210081793342e-06   -1.5745631455078282e-06   -4.4350898017413e-06
5.118324360403575e-06   -2.0785618269354277e-06   2.2487856094315626e-06
5.118324360403575e-06   -2.0785618269354277e-06   2.2487856094315626e-06
5.118324360403575e-06   -2.0785618269354277e-06   2.2487856094315626e-06
5.118324360403575e-06   -2.0785618269354277e-06   2.2487856094315626e-06
1.93204882058378e-06   -3.6510283132472777e-06   8.4134088051039e-06
1.93204882058378e-06   -3.6510283132472777e-06   8.4134088051039e-06
1.93204882058378e-06   -3.6510283132472777e-06   8.4134088051039e-06
1.93204882058378e-06   -3.6510283132472777e-06   8.4134088051039e-06
-5.493937786470569e-06   -5.680782865317155e-07   -2.1134655239574748e-06
-5.493937786470569e-06   -5.680782865317155e-07   -2.1134655239574748e-06
-5.493937786470569e-06   -5.680782865317155e-07   -2.1134655239574748e-06
-5.493937786470569e-06   -5.680782865317155e-07   -2.1134655239574748e-06
-6.06844879445858e-06   -3.724969836580599e-06   1.0740996978561362e-05
-6.06844879445858e-06   -3.724969836580599e-06   1.0740996978561362e-05
-6.06844879445858e-06   -3.724969836580599e-06   1.0740996978561362e-05
-6.06844879445858e-06   -3.724969836580599e-06   1.0740996978561362e-05
1.5620744913861595e-06   -5.979535746262381e-07   -3.852751588352525e-06
1.5620744913861595e-06   -5.979535746262381e-07   -3.852751588352525e-06
1.5620744913861595e-06   -5.979535746262381e-07   -3.852751588352525e-06
1.5620744913861595e-06   -5.979535746262381e-07   -3.852751588352525e-06
-1.9541206906939114e-06   -2.0652291977090852e-06   2.887939088963982e-06
-1.9541206906939114e-06   -2.0652291977090852e-06   2.887939088963982e-06
-1.9541206906939114e-06   -2.0652291977090852e-06   2.887939088963982e-06
-1.9541206906939114e-06   -2.0652291977090852e-06   2.887939088963982e-06
1.5620744913861663e-06   -3.7249698365807073e-06   8.864787221388759e-06
1.5620744913861663e-06   -3.7249698365807073e-06   8.864787221388759e-06
1.5620744913861663e-06   -3.7249698365807073e-06   8.864787221388759e-06
1.5620744913861663e-06   -3.7249698365807073e-06   8.864787221388759e-06
-6.068448794458567e-06   -5.979535746262381e-07   -1.976541831179854e-06
-6.068448794458567e-06   -5.979535746262381e-07   -1.976541831179854e-06
-6.068448794458567e-06   -5.979535746262381e-07   -1.976541831179854e-06
-6.068448794458567e-06   -5.979535746262381e-07   -1.976541831179854e-06
-6.421863209807455e-06   -3.6993376129570337e-06   1.114221085502773e-05
-6.421863209807455e-06   -3.6993376129570337e-06   1.114221085502773e-05
-6.421863209807455e-06   -3.6993376129570337e-06   1.114221085502773e-05
-6.421863209807455e-06   -3.6993376129570337e-06   1.114221085502773e-05
1.2968740761113787e-06   -6.354708229524804e-07   -3.5606713621731028e-06
1.2968740761113787e-06   -6.354708229524804e-07   -3.5606713621731028e-06
1.2968740761113787e-06   -6.354708229524804e-07   -3.5606713621731028e-06
1.2968740761113787e-06   -6.354708229524804e-07   -3.5606713621731028e-06
-2.3441635647323454e-06   -2.0524417925094768e-06   3.35790728763394e-06
-2.3441635647323454e-06   -2.0524417925094768e-06   3.35790728763394e-06
-2.3441635647323454e-06   -2.0524417925094768e-06   3.35790728763394e-06
-2.3441635647323454e-06   -2.0524417925094768e-06   3.35790728763394e-06
1.2968740761113787e-06   -3.699337612957142e-06   9.303890781024852e-06
1.2968740761113787e-06   -3.699337612957142e-06   9.303890781024852e-06
1.2968740761113787e-06   -3.699337612957142e-06   9.303890781024852e-06
1.2968740761113787e-06   -3.699337612957142e-06   9.303890781024852e-06
-6.421863209807448e-06   -6.354708229524804e-07   -1.7223512881703817e-06
-6.421863209807448e-06   -6.354708229524804e-07   -1.7223512881703817e-06
-6.421863209807448e-06   -6.354708229524804e-07   -1.7223512881703817e-06
-6.421863209807448e-06   -6.354708229524804e-07   -1.7223512881703817e-06
-6.834830281314698e-06   -3.560007357741586e-06   1.1657967895893683e-05
-6.834830281314698e-06   -3.560007357741586e-06   1.1657967895893683e-05
-6.834830281314698e-06   -3.560007357741586e-06   1.1657967895893683e-05
-6.834830281314698e-06   -3.560007357741586e-06   1.1657967895893683e-05
1.002427693010966e-06   -6.268059555570573e-07   -3.164049569293222e-06
1.002427693010966e-06   -6.268059555570573e-07   -3.164049569293222e-06
1.002427693010966e-06   -6.268059555570573e-07   -3.164049569293222e-06
1.002427693010966e-06   -6.268059555570573e-07   -3.164049569293222e-06
-2.6629451763527756e-06   -1.9624774625389536e-06   3.7463081171688515e-06
-2.6629451763527756e-06   -1.9624774625389536e-06   3.7463081171688515e-06
-2.6629451763527756e-06   -1.9624774625389536e-06   3.7463081171688515e-06
-2.6629451763527756e-06   -1.9624774625389536e-06   3.7463081171688515e-06
-5.493937786470576e-06   -4.466294107812385e-06   1.012831240298605e-05
-5.493937786470576e-06   -4.466294107812385e-06   1.012831240298605e-05
-5.493937786470576e-06   -4.466294107812385e-06   1.012831240298605e-05
-5.493937786470576e-06   -4.466294107812385e-06   1.012831240298605e-05
-1.3882798435085629e-05   7.823318171032607e-07   -7.039464564229559e-07
-1.3882798435085629e-05   7.823318171032607e-07   -7.039464564229559e-07
-1.3882798435085629e-05   7.823318171032607e-07   -7.039464564229559e-07
-1.3882798435085629e-05   7.823318171032607e-07   -7.039464564229559e-07
-1.4581632412425635e-05   -5.0221678722293895e-06   1.4241237147355913e-05
-1.4581632412425635e-05   -5.0221678722293895e-06   1.4241237147355913e-05
-1.4581632412425635e-05   -5.0221678722293895e-06   1.4241237147355913e-05
-1.4581632412425635e-05   -5.0221678722293895e-06   1.4241237147355913e-05
-6.068448794458567e-06   7.51197944818963e-07   -3.411421706151483e-06
-6.068448794458567e-06   7.51197944818963e-07   -3.411421706151483e-06
-6.068448794458567e-06   7.51197944818963e-07   -3.411421706151483e-06
-6.068448794458567e-06   7.51197944818963e-07   -3.411421706151483e-06
-9.872379674190819e-06   -1.7762532176495848e-06   4.444933790883363e-06
-9.872379674190819e-06   -1.7762532176495848e-06   4.444933790883363e-06
-9.872379674190819e-06   -1.7762532176495848e-06   4.444933790883363e-06
-9.872379674190819e-06   -1.7762532176495848e-06   4.444933790883363e-06
-6.068448794458567e-06   -5.0221678722293895e-06   1.077721765712695e-05
-6.068448794458567e-06   -5.0221678722293895e-06   1.077721765712695e-05
-6.068448794458567e-06   -5.0221678722293895e-06   1.077721765712695e-05
-6.068448794458567e-06   -5.0221678722293895e-06   1.077721765712695e-05
-1.4581632412425614e-05   7.51197944818963e-07   5.259778407745242e-08
-1.4581632412425614e-05   7.51197944818963e-07   5.259778407745242e-08
-1.4581632412425614e-05   7.51197944818963e-07   5.259778407745242e-08
-1.4581632412425614e-05   7.51197944818963e-07   5.259778407745242e-08
-1.5005897050828333e-05   -5.041883447622574e-06   1.5049458690071058e-05
-1.5005897050828333e-05   -5.041883447622574e-06   1.5049458690071058e-05
-1.5005897050828333e-05   -5.041883447622574e-06   1.5049458690071058e-05
-1.5005897050828333e-05   -5.041883447622574e-06   1.5049458690071058e-05
-6.421863209807448e-06   6.829998354552103e-07   -2.692194348143692e-06
-6.421863209807448e-06   6.829998354552103e-07   -2.692194348143692e-06
-6.421863209807448e-06   6.829998354552103e-07   -2.692194348143692e-06
-6.421863209807448e-06   6.829998354552103e-07   -2.692194348143692e-06
-1.032061297217579e-05   -2.0733802171048763e-06   5.4595499540062474e-06
-1.032061297217579e-05   -2.0733802171048763e-06   5.4595499540062474e-06
-1.032061297217579e-05   -2.0733802171048763e-06   5.4595499540062474e-06
-1.032061297217579e-05   -2.0733802171048763e-06   5.4595499540062474e-06
-6.421863209807448e-06   -5.041883447622574e-06   1.1614528720224382e-05
-6.421863209807448e-06   -5.041883447622574e-06   1.1614528720224382e-05
-6.421863209807448e-06   -5.041883447622574e-06   1.1614528720224382e-05
-6.421863209807448e-06   -5.041883447622574e-06   1.1614528720224382e-05
-1.5005897050828309e-05   6.829998354552103e-07   7.427356217029569e-07
-1.5005897050828309e-05   6.829998354552103e-07   7.427356217029569e-07
-1.5005897050828309e-05   6.829998354552103e-07   7.427356217029569e-07
-1.5005897050828309e-05   6.829998354552103e-07   7.427356217029569e-07
-1.546496459624334e-05   -4.551767255219093e-06   1.538401685021438e-05
-1.546496459624334e-05   -4.551767255219093e-06   1.538401685021438e-05
-1.546496459624334e-05   -4.551767255219093e-06   1.538401685021438e-05
-1.546496459624334e-05   -4.551767255219093e-06   1.538401685021438e-05
-6.834830281314698e-06   6.043808080572572e-07   -2.0932291792990685e-06
-6.834830281314698e-06   6.043808080572572e-07   -2.0932291792990685e-06
-6.834830281314698e-06   6.043808080572572e-07   -2.0932291792990685e-06
-6.834830281314698e-06   6.043808080572572e-07   -2.0932291792990685e-06
-1.0789368301429029e-05   -2.0834896919745788e-06   6.110389820910558e-06
-1.0789368301429029e-05   -2.0834896919745788e-06   6.110389820910558e-06
-1.0789368301429029e-05   -2.0834896919745788e-06   6.110389820910558e-06
-1.0789368301429029e-05   -2.0834896919745788e-06   6.110389820910558e-06
-1.3882798435085581e-05   0.0   1.1087830130235959e-05
-1.3882798435085581e-05   0.0   1.1087830130235959e-05
-1.3882798435085581e-05   0.0   1.1087830130235959e-05
-1.3882798435085581e-05   0.0   1.1087830130235959e-05
-2.4250341158400964e-05   3.2027281334606446e-06   -4.2697708618799125e-06
-2.4250341158400964e-05   3.2027281334606446e-06   -4.2697708618799125e-06
-2.4250341158400964e-05   3.2027281334606446e-06   -4.2697708618799125e-06
-2.4250341158400964e-05   3.2027281334606446e-06   -4.2697708618799125e-06
-2.5198155569758046e-05   0.0   1.6331867096826703e-05
-2.5198155569758046e-05   0.0   1.6331867096826703e-05
-2.5198155569758046e-05   0.0   1.6331867096826703e-05
-2.5198155569758046e-05   0.0   1.6331867096826703e-05
-1.4581632412425614e-05   3.1102062169759657e-06   -3.2284618955797035e-06
-1.4581632412425614e-05   3.1102062169759657e-06   -3.2284618955797035e-06
-1.4581632412425614e-05   3.1102062169759657e-06   -3.2284618955797035e-06
-1.4581632412425614e-05   3.1102062169759657e-06   -3.2284618955797035e-06
-1.8650822363069144e-05   1.8987679184014625e-06   4.280384334637608e-06
-1.8650822363069144e-05   1.8987679184014625e-06   4.280384334637608e-06
-1.8650822363069144e-05   1.8987679184014625e-06   4.280384334637608e-06
-1.8650822363069144e-05   1.8987679184014625e-06   4.280384334637608e-06
-1.45816324124256e-05   0.0   1.4465743366641166e-05
-1.45816324124256e-05   0.0   1.4465743366641166e-05
-1.45816324124256e-05   0.0   1.4465743366641166e-05
-1.45816324124256e-05   0.0   1.4465743366641166e-05
-2.519815556975809e-05   3.1102062169759657e-06   -1.3623381653940481e-06
-2.519815556975809e-05   3.1102062169759657e-06   -1.3623381653940481e-06
-2.519815556975809e-05   3.1102062169759657e-06   -1.3623381653940481e-06
-2.519815556975809e-05   3.1102062169759657e-06   -1.3623381653940481e-06
-2.567354456892722e-05   0.0   1.8180949830259223e-05
-2.567354456892722e-05   0.0   1.8180949830259223e-05
-2.567354456892722e-05   0.0   1.8180949830259223e-05
-2.567354456892722e-05   0.0   1.8180949830259223e-05
-1.5005897050828309e-05   3.037523284915404e-06   -1.420976670855e-06
-1.5005897050828309e-05   3.037523284915404e-06   -1.420976670855e-06
-1.5005897050828309e-05   3.037523284915404e-06   -1.420976670855e-06
-1.5005897050828309e-05   3.037523284915404e-06   -1.420976670855e-06
-1.958568725522269e-05   1.5907241767546313e-06   7.080086468032272e-06
-1.958568725522269e-05   1.5907241767546313e-06   7.080086468032272e-06
-1.958568725522269e-05   1.5907241767546313e-06   7.080086468032272e-06
-1.958568725522269e-05   1.5907241767546313e-06   7.080086468032272e-06
-1.5005897050828309e-05   0.0   1.6358435859309902e-05
-1.5005897050828309e-05   0.0   1.6358435859309902e-05
-1.5005897050828309e-05   0.0   1.6358435859309902e-05
-1.5005897050828309e-05   0.0   1.6358435859309902e-05
-2.567354456892726e-05   3.037523284915404e-06   4.0153730009425325e-07
-2.567354456892726e-05   3.037523284915404e-06   4.0153730009425325e-07
-2.567354456892726e-05   3.037523284915404e-06   4.0153730009425325e-07
-2.567354456892726e-05   3.037523284915404e-06   4.0153730009425325e-07
-2.6195411291030045e-05   0.0   2.0642739662442647e-05
-2.6195411291030045e-05   0.0   2.0642739662442647e-05
-2.6195411291030045e-05   0.0   2.0642739662442647e-05
-2.6195411291030045e-05   0.0   2.0642739662442647e-05
-1.546496459624333e-05   2.5593173295972377e-06   1.2230714400397681e-06
-1.546496459624333e-05   2.5593173295972377e-06   1.2230714400397681e-06
-1.546496459624333e-05   2.5593173295972377e-06   1.2230714400397681e-06
-1.546496459624333e-05   2.5593173295972377e-06   1.2230714400397681e-06
-1.972236199576352e-05   1.1305526827059815e-06   9.175992560707987e-06
-1.972236199576352e-05   1.1305526827059815e-06   9.175992560707987e-06
-1.972236199576352e-05   1.1305526827059815e-06   9.175992560707987e-06
-1.972236199576352e-05   1.1305526827059815e-06   9.175992560707987e-06
1.6586702725987098e-05   -2.4784682921762894e-06   1.1646273305406101e-05
1.6586702725987098e-05   -2.4784682921762894e-06   1.1646273305406101e-05
1.6586702725987098e-05   -2.4784682921762894e-06   1.1646273305406101e-05
1.6586702725987098e-05   -2.4784682921762894e-06   1.1646273305406101e-05
8.358052220054565e-06   -1.8970961740989029e-06   -1.7193209336349886e-06
8.358052220054565e-06   -1.8970961740989029e-06   -1.7193209336349886e-06
8.358052220054565e-06   -1.8970961740989029e-06   -1.7193209336349886e-06
8.358052220054565e-06   -1.8970961740989029e-06   -1.7193209336349886e-06
8.146111195095435e-06   -2.7186476607563752e-06   1.0136995870066586e-05
8.146111195095435e-06   -2.7186476607563752e-06   1.0136995870066586e-05
8.146111195095435e-06   -2.7186476607563752e-06   1.0136995870066586e-05
8.146111195095435e-06   -2.7186476607563752e-06   1.0136995870066586e-05
1.6212087729845944e-05   -2.1426906415104603e-06   -3.6518725660651067e-06
1.6212087729845944e-05   -2.1426906415104603e-06   -3.6518725660651067e-06
1.6212087729845944e-05   -2.1426906415104603e-06   -3.6518725660651067e-06
1.6212087729845944e-05   -2.1426906415104603e-06   -3.6518725660651067e-06
1.1777030738424666e-05   -2.2191330000364672e-06   3.7857545014193417e-06
1.1777030738424666e-05   -2.2191330000364672e-06   3.7857545014193417e-06
1.1777030738424666e-05   -2.2191330000364672e-06   3.7857545014193417e-06
1.1777030738424666e-05   -2.2191330000364672e-06   3.7857545014193417e-06
1.6212087729845917e-05   -2.7186476607563752e-06   9.791421658519016e-06
1.6212087729845917e-05   -2.7186476607563752e-06   9.791421658519016e-06
1.6212087729845917e-05   -2.7186476607563752e-06   9.791421658519016e-06
1.6212087729845917e-05   -2.7186476607563752e-06   9.791421658519016e-06
8.146111195095452e-06   -2.1426906415104603e-06   -3.3062983545175902e-06
8.146111195095452e-06   -2.1426906415104603e-06   -3.3062983545175902e-06
8.146111195095452e-06   -2.1426906415104603e-06   -3.3062983545175902e-06
8.146111195095452e-06   -2.1426906415104603e-06   -3.3062983545175902e-06
7.87318068929348e-06   -2.7381787980768893e-06   9.081470596111697e-06
7.87318068929348e-06   -2.7381787980768893e-06   9.081470596111697e-06
7.87318068929348e-06   -2.7381787980768893e-06   9.081470596111697e-06
7.87318068929348e-06   -2.7381787980768893e-06   9.081470596111697e-06
1.5831448777680607e-05   -2.177403447248499e-06   -4.518774761697248e-06
1.5831448777680607e-05   -2.177403447248499e-06   -4.518774761697248e-06
1.5831448777680607e-05   -2.177403447248499e-06   -4.518774761697248e-06
1.5831448777680607e-05   -2.177403447248499e-06   -4.518774761697248e-06
1.1680563280487012e-05   -2.3142865339708177e-06   2.4814975856587984e-06
1.1680563280487012e-05   -2.3142865339708177e-06   2.4814975856587984e-06
1.1680563280487012e-05   -2.3142865339708177e-06   2.4814975856587984e-06
1.1680563280487012e-05   -2.3142865339708177e-06   2.4814975856587984e-06
1.5831448777680607e-05   -2.7381787980768893e-06   8.745005385614689e-06
1.5831448777680607e-05   -2.7381787980768893e-06   8.745005385614689e-06
1.5831448777680607e-05   -2.7381787980768893e-06   8.745005385614689e-06
1.5831448777680607e-05   -2.7381787980768893e-06   8.745005385614689e-06
7.87318068929348e-06   -2.177403447248499e-06   -4.182309551200192e-06
7.87318068929348e-06   -2.177403447248499e-06   -4.182309551200192e-06
7.87318068929348e-06   -2.177403447248499e-06   -4.182309551200192e-06
7.87318068929348e-06   -2.177403447248499e-06   -4.182309551200192e-06
7.586174525533082e-06   -2.672306172570591e-06   7.50905111244598e-06
7.586174525533082e-06   -2.672306172570591e-06   7.50905111244598e-06
7.586174525533082e-06   -2.672306172570591e-06   7.50905111244598e-06
7.586174525533082e-06   -2.672306172570591e-06   7.50905111244598e-06
1.535442725764061e-05   -2.1556668137697778e-06   -5.748020389680314e-06
1.535442725764061e-05   -2.1556668137697778e-06   -5.748020389680314e-06
1.535442725764061e-05   -2.1556668137697778e-06   -5.748020389680314e-06
1.535442725764061e-05   -2.1556668137697778e-06   -5.748020389680314e-06
1.1174513319989466e-05   -2.2510423473601454e-06   1.2757281598926428e-06
1.1174513319989466e-05   -2.2510423473601454e-06   1.2757281598926428e-06
1.1174513319989466e-05   -2.2510423473601454e-06   1.2757281598926428e-06
1.1174513319989466e-05   -2.2510423473601454e-06   1.2757281598926428e-06
8.358052220054565e-06   -1.4936264719075335e-06   1.090870652678163e-05
8.358052220054565e-06   -1.4936264719075335e-06   1.090870652678163e-05
8.358052220054565e-06   -1.4936264719075335e-06   1.090870652678163e-05
8.358052220054565e-06   -1.4936264719075335e-06   1.090870652678163e-05
8.41736861898661e-07   -6.596691154021591e-07   -1.118111322908396e-06
8.41736861898661e-07   -6.596691154021591e-07   -1.118111322908396e-06
8.41736861898661e-07   -6.596691154021591e-07   -1.118111322908396e-06
8.41736861898661e-07   -6.596691154021591e-07   -1.118111322908396e-06
6.303220278445275e-07   -1.5814903268705337e-06   1.134456390476543e-05
6.303220278445275e-07   -1.5814903268705337e-06   1.134456390476543e-05
6.303220278445275e-07   -1.5814903268705337e-06   1.134456390476543e-05
6.303220278445275e-07   -1.5814903268705337e-06   1.134456390476543e-05
8.146111195095452e-06   -7.898967713886561e-07   -1.6567075072751502e-06
8.146111195095452e-06   -7.898967713886561e-07   -1.6567075072751502e-06
8.146111195095452e-06   -7.898967713886561e-07   -1.6567075072751502e-06
8.146111195095452e-06   -7.898967713886561e-07   -1.6567075072751502e-06
4.4505114870971494e-06   -1.0530227042569772e-06   4.660500899109624e-06
4.4505114870971494e-06   -1.0530227042569772e-06   4.660500899109624e-06
4.4505114870971494e-06   -1.0530227042569772e-06   4.660500899109624e-06
4.4505114870971494e-06   -1.0530227042569772e-06   4.660500899109624e-06
8.146111195095442e-06   -1.5814903268705337e-06   1.0869607771476396e-05
8.146111195095442e-06   -1.5814903268705337e-06   1.0869607771476396e-05
8.146111195095442e-06   -1.5814903268705337e-06   1.0869607771476396e-05
8.146111195095442e-06   -1.5814903268705337e-06   1.0869607771476396e-05
6.303220278445275e-07   -7.898967713886561e-07   -1.1817513739861428e-06
6.303220278445275e-07   -7.898967713886561e-07   -1.1817513739861428e-06
6.303220278445275e-07   -7.898967713886561e-07   -1.1817513739861428e-06
6.303220278445275e-07   -7.898967713886561e-07   -1.1817513739861428e-06
3.6138653869084486e-07   -1.6171315851562723e-06   1.1224599625291748e-05
3.6138653869084486e-07   -1.6171315851562723e-06   1.1224599625291748e-05
3.6138653869084486e-07   -1.6171315851562723e-06   1.1224599625291748e-05
3.6138653869084486e-07   -1.6171315851562723e-06   1.1224599625291748e-05
7.87318068929348e-06   -8.728864569982611e-07   -1.741604369274064e-06
7.87318068929348e-06   -8.728864569982611e-07   -1.741604369274064e-06
7.87318068929348e-06   -8.728864569982611e-07   -1.741604369274064e-06
7.87318068929348e-06   -8.728864569982611e-07   -1.741604369274064e-06
4.1808689530731155e-06   -1.1010402061115403e-06   4.549140773894698e-06
4.1808689530731155e-06   -1.1010402061115403e-06   4.549140773894698e-06
4.1808689530731155e-06   -1.1010402061115403e-06   4.549140773894698e-06
4.1808689530731155e-06   -1.1010402061115403e-06   4.549140773894698e-06
7.873180689293467e-06   -1.6171315851562723e-06   1.0778052548396912e-05
7.873180689293467e-06   -1.6171315851562723e-06   1.0778052548396912e-05
7.873180689293467e-06   -1.6171315851562723e-06   1.0778052548396912e-05
7.873180689293467e-06   -1.6171315851562723e-06   1.0778052548396912e-05
3.6138653869084486e-07   -8.728864569982611e-07   -1.2950572923792897e-06
3.6138653869084486e-07   -8.728864569982611e-07   -1.2950572923792897e-06
3.6138653869084486e-07   -8.728864569982611e-07   -1.2950572923792897e-06
3.6138653869084486e-07   -8.728864569982611e-07   -1.2950572923792897e-06
6.440403570719892e-08   -1.5745631455078282e-06   1.1376011687632423e-05
6.440403570719892e-08   -1.5745631455078282e-06   1.1376011687632423e-05
6.440403570719892e-08   -1.5745631455078282e-06   1.1376011687632423e-05
6.440403570719892e-08   -1.5745631455078282e-06   1.1376011687632423e-05
7.586174525533072e-06   -9.04935513275926e-07   -1.5620490414165267e-06
7.586174525533072e-06   -9.04935513275926e-07   -1.5620490414165267e-06
7.586174525533072e-06   -9.04935513275926e-07   -1.5620490414165267e-06
7.586174525533072e-06   -9.04935513275926e-07   -1.5620490414165267e-06
3.965074643951549e-06   -1.0872210866666996e-06   4.58248877192066e-06
3.965074643951549e-06   -1.0872210866666996e-06   4.58248877192066e-06
3.965074643951549e-06   -1.0872210866666996e-06   4.58248877192066e-06
3.965074643951549e-06   -1.0872210866666996e-06   4.58248877192066e-06
8.41736861898661e-07   -5.680782865317155e-07   1.1125215291293073e-05
8.41736861898661e-07   -5.680782865317155e-07   1.1125215291293073e-05
8.41736861898661e-07   -5.680782865317155e-07   1.1125215291293073e-05
8.41736861898661e-07   -5.680782865317155e-07   1.1125215291293073e-05
-6.447128657075215e-06   6.073551117748545e-07   -3.176338680127696e-07
-6.447128657075215e-06   6.073551117748545e-07   -3.176338680127696e-07
-6.447128657075215e-06   6.073551117748545e-07   -3.176338680127696e-07
-6.447128657075215e-06   6.073551117748545e-07   -3.176338680127696e-07
-6.68569057665554e-06   -5.979535746262381e-07   1.1910942412932698e-05
-6.68569057665554e-06   -5.979535746262381e-07   1.1910942412932698e-05
-6.68569057665554e-06   -5.979535746262381e-07   1.1910942412932698e-05
-6.68569057665554e-06   -5.979535746262381e-07   1.1910942412932698e-05
6.303220278445275e-07   5.108611674127777e-07   -9.477007731242652e-07
6.303220278445275e-07   5.108611674127777e-07   -9.477007731242652e-07
6.303220278445275e-07   5.108611674127777e-07   -9.477007731242652e-07
6.303220278445275e-07   5.108611674127777e-07   -9.477007731242652e-07
-2.910165900530141e-06   3.8948457319900286e-08   5.236260066889318e-06
-2.910165900530141e-06   3.8948457319900286e-08   5.236260066889318e-06
-2.910165900530141e-06   3.8948457319900286e-08   5.236260066889318e-06
-2.910165900530141e-06   3.8948457319900286e-08   5.236260066889318e-06
6.303220278445343e-07   -5.979535746262381e-07   1.1245653567709262e-05
6.303220278445343e-07   -5.979535746262381e-07   1.1245653567709262e-05
6.303220278445343e-07   -5.979535746262381e-07   1.1245653567709262e-05
6.303220278445343e-07   -5.979535746262381e-07   1.1245653567709262e-05
-6.68569057665554e-06   5.108611674127777e-07   -2.8241192790074733e-07
-6.68569057665554e-06   5.108611674127777e-07   -2.8241192790074733e-07
-6.68569057665554e-06   5.108611674127777e-07   -2.8241192790074733e-07
-6.68569057665554e-06   5.108611674127777e-07   -2.8241192790074733e-07
-7.003387961175535e-06   -6.354708229524804e-07   1.2141288167839923e-05
-7.003387961175535e-06   -6.354708229524804e-07   1.2141288167839923e-05
-7.003387961175535e-06   -6.354708229524804e-07   1.2141288167839923e-05
-7.003387961175535e-06   -6.354708229524804e-07   1.2141288167839923e-05
3.6138653869084486e-07   4.2106226382540406e-07   -7.672558506707696e-07
3.6138653869084486e-07   4.2106226382540406e-07   -7.672558506707696e-07
3.6138653869084486e-07   4.2106226382540406e-07   -7.672558506707696e-07
3.6138653869084486e-07   4.2106226382540406e-07   -7.672558506707696e-07
-3.144909172224257e-06   1.4028316760506844e-08   5.32079070242664e-06
-3.144909172224257e-06   1.4028316760506844e-08   5.32079070242664e-06
-3.144909172224257e-06   1.4028316760506844e-08   5.32079070242664e-06
-3.144909172224257e-06   1.4028316760506844e-08   5.32079070242664e-06
3.6138653869084486e-07   -6.354708229524804e-07   1.1507368315773236e-05
3.6138653869084486e-07   -6.354708229524804e-07   1.1507368315773236e-05
3.6138653869084486e-07   -6.354708229524804e-07   1.1507368315773236e-05
3.6138653869084486e-07   -6.354708229524804e-07   1.1507368315773236e-05
-7.003387961175535e-06   4.2106226382540406e-07   -1.333359986040823e-07
-7.003387961175535e-06   4.2106226382540406e-07   -1.333359986040823e-07
-7.003387961175535e-06   4.2106226382540406e-07   -1.333359986040823e-07
-7.003387961175535e-06   4.2106226382540406e-07   -1.333359986040823e-07
-7.341817573063052e-06   -6.268059555570573e-07   1.2417467180333834e-05
-7.341817573063052e-06   -6.268059555570573e-07   1.2417467180333834e-05
-7.341817573063052e-06   -6.268059555570573e-07   1.2417467180333834e-05
-7.341817573063052e-06   -6.268059555570573e-07   1.2417467180333834e-05
6.440403570719892e-08   3.5717037817476795e-07   -5.166213011890378e-07
6.440403570719892e-08   3.5717037817476795e-07   -5.166213011890378e-07
6.440403570719892e-08   3.5717037817476795e-07   -5.166213011890378e-07
6.440403570719892e-08   3.5717037817476795e-07   -5.166213011890378e-07
-3.4434429351406468e-06   -2.6465078025112235e-09   5.545680448477242e-06
-3.4434429351406468e-06   -2.6465078025112235e-09   5.545680448477242e-06
-3.4434429351406468e-06   -2.6465078025112235e-09   5.545680448477242e-06
-3.4434429351406468e-06   -2.6465078025112235e-09   5.545680448477242e-06
-6.447128657075195e-06   7.823318171032607e-07   1.009081884286212e-05
-6.447128657075195e-06   7.823318171032607e-07   1.009081884286212e-05
-6.447128657075195e-06   7.823318171032607e-07   1.009081884286212e-05
-6.447128657075195e-06   7.823318171032607e-07   1.009081884286212e-05
-1.3612413676065731e-05   1.951069863384211e-06   -1.1500800276868979e-06
-1.3612413676065731e-05   1.951069863384211e-06   -1.1500800276868979e-06
-1.3612413676065731e-05   1.951069863384211e-06   -1.1500800276868979e-06
-1.3612413676065731e-05   1.951069863384211e-06   -1.1500800276868979e-06
-1.3955332660575665e-05   7.51197944818963e-07   1.1139004836965426e-05
-1.3955332660575665e-05   7.51197944818963e-07   1.1139004836965426e-05
-1.3955332660575665e-05   7.51197944818963e-07   1.1139004836965426e-05
-1.3955332660575665e-05   7.51197944818963e-07   1.1139004836965426e-05
-6.685690576655533e-06   1.8561017764928906e-06   -1.6400076019056683e-06
-6.685690576655533e-06   1.8561017764928906e-06   -1.6400076019056683e-06
-6.685690576655533e-06   1.8561017764928906e-06   -1.6400076019056683e-06
-6.685690576655533e-06   1.8561017764928906e-06   -1.6400076019056683e-06
-1.0097986718244134e-05   1.3534644855436677e-06   4.348735008644842e-06
-1.0097986718244134e-05   1.3534644855436677e-06   4.348735008644842e-06
-1.0097986718244134e-05   1.3534644855436677e-06   4.348735008644842e-06
-1.0097986718244134e-05   1.3534644855436677e-06   4.348735008644842e-06
-6.68569057665554e-06   7.51197944818963e-07   1.047606253796115e-05
-6.68569057665554e-06   7.51197944818963e-07   1.047606253796115e-05
-6.68569057665554e-06   7.51197944818963e-07   1.047606253796115e-05
-6.68569057665554e-06   7.51197944818963e-07   1.047606253796115e-05
-1.3955332660575631e-05   1.8561017764928906e-06   -9.770653029013117e-07
-1.3955332660575631e-05   1.8561017764928906e-06   -9.770653029013117e-07
-1.3955332660575631e-05   1.8561017764928906e-06   -9.770653029013117e-07
-1.3955332660575631e-05   1.8561017764928906e-06   -9.770653029013117e-07
-1.4377136914402113e-05   6.829998354552103e-07   1.1821632580194736e-05
-1.4377136914402113e-05   6.829998354552103e-07   1.1821632580194736e-05
-1.4377136914402113e-05   6.829998354552103e-07   1.1821632580194736e-05
-1.4377136914402113e-05   6.829998354552103e-07   1.1821632580194736e-05
-7.003387961175535e-06   1.7666456226686587e-06   -1.1181364808442976e-06
-7.003387961175535e-06   1.7666456226686587e-06   -1.1181364808442976e-06
-7.003387961175535e-06   1.7666456226686587e-06   -1.1181364808442976e-06
-7.003387961175535e-06   1.7666456226686587e-06   -1.1181364808442976e-06
-1.0350278906588093e-05   1.335254928274169e-06   4.718849511479978e-06
-1.0350278906588093e-05   1.335254928274169e-06   4.718849511479978e-06
-1.0350278906588093e-05   1.335254928274169e-06   4.718849511479978e-06
-1.0350278906588093e-05   1.335254928274169e-06   4.718849511479978e-06
-7.003387961175535e-06   6.829998354552103e-07   1.1171445107866613e-05
-7.003387961175535e-06   6.829998354552103e-07   1.1171445107866613e-05
-7.003387961175535e-06   6.829998354552103e-07   1.1171445107866613e-05
-7.003387961175535e-06   6.829998354552103e-07   1.1171445107866613e-05
-1.4377136914402086e-05   1.7666456226686587e-06   -4.679490085162286e-07
-1.4377136914402086e-05   1.7666456226686587e-06   -4.679490085162286e-07
-1.4377136914402086e-05   1.7666456226686587e-06   -4.679490085162286e-07
-1.4377136914402086e-05   1.7666456226686587e-06   -4.679490085162286e-07
-1.4821691929455436e-05   6.043808080572572e-07   1.2352459098223176e-05
-1.4821691929455436e-05   6.043808080572572e-07   1.2352459098223176e-05
-1.4821691929455436e-05   6.043808080572572e-07   1.2352459098223176e-05
-1.4821691929455436e-05   6.043808080572572e-07   1.2352459098223176e-05
-7.341817573063045e-06   1.6445347567337672e-06   -7.380905316367852e-07
-7.341817573063045e-06   1.6445347567337672e-06   -7.380905316367852e-07
-7.341817573063045e-06   1.6445347567337672e-06   -7.380905316367852e-07
-7.341817573063045e-06   1.6445347567337672e-06   -7.380905316367852e-07
-1.0781544580673e-05   1.2639926341578042e-06   5.223113087925608e-06
-1.0781544580673e-05   1.2639926341578042e-06   5.223113087925608e-06
-1.0781544580673e-05   1.2639926341578042e-06   5.223113087925608e-06
-1.0781544580673e-05   1.2639926341578042e-06   5.223113087925608e-06
-1.3612413676065731e-05   3.2027281334606446e-06   5.304600385097299e-06
-1.3612413676065731e-05   3.2027281334606446e-06   5.304600385097299e-06
-1.3612413676065731e-05   3.2027281334606446e-06   5.304600385097299e-06
-1.3612413676065731e-05   3.2027281334606446e-06   5.304600385097299e-06
-2.0505067596934765e-05   3.173148069048645e-06   -6.200904188331672e-06
-2.0505067596934765e-05   3.173148069048645e-06   -6.200904188331672e-06
-2.0505067596934765e-05   3.173148069048645e-06   -6.200904188331672e-06
-2.0505067596934765e-05   3.173148069048645e-06   -6.200904188331672e-06
-2.112325061579625e-05   3.1102062169759657e-06   7.937159860436102e-06
-2.112325061579625e-05   3.1102062169759657e-06   7.937159860436102e-06
-2.112325061579625e-05   3.1102062169759657e-06   7.937159860436102e-06
-2.112325061579625e-05   3.1102062169759657e-06   7.937159860436102e-06
-1.3955332660575631e-05   3.2422307221888387e-06   -4.088584768059352e-06
-1.3955332660575631e-05   3.2422307221888387e-06   -4.088584768059352e-06
-1.3955332660575631e-05   3.2422307221888387e-06   -4.088584768059352e-06
-1.3955332660575631e-05   3.2422307221888387e-06   -4.088584768059352e-06
-1.660266772358686e-05   3.2248100092668224e-06   3.3409276471252445e-07
-1.660266772358686e-05   3.2248100092668224e-06   3.3409276471252445e-07
-1.660266772358686e-05   3.2248100092668224e-06   3.3409276471252445e-07
-1.660266772358686e-05   3.2248100092668224e-06   3.3409276471252445e-07
-1.3955332660575624e-05   3.1102062169759657e-06   7.857945157308338e-06
-1.3955332660575624e-05   3.1102062169759657e-06   7.857945157308338e-06
-1.3955332660575624e-05   3.1102062169759657e-06   7.857945157308338e-06
-1.3955332660575624e-05   3.1102062169759657e-06   7.857945157308338e-06
-2.112325061579625e-05   3.2422307221888387e-06   -4.009370064931683e-06
-2.112325061579625e-05   3.2422307221888387e-06   -4.009370064931683e-06
-2.112325061579625e-05   3.2422307221888387e-06   -4.009370064931683e-06
-2.112325061579625e-05   3.2422307221888387e-06   -4.009370064931683e-06
-2.1729287309059873e-05   3.0375232849155125e-06   9.768347050770343e-06
-2.1729287309059873e-05   3.0375232849155125e-06   9.768347050770343e-06
-2.1729287309059873e-05   3.0375232849155125e-06   9.768347050770343e-06
-2.1729287309059873e-05   3.0375232849155125e-06   9.768347050770343e-06
-1.4377136914402086e-05   3.221567890138101e-06   -2.5956637034596887e-06
-1.4377136914402086e-05   3.221567890138101e-06   -2.5956637034596887e-06
-1.4377136914402086e-05   3.221567890138101e-06   -2.5956637034596887e-06
-1.4377136914402086e-05   3.221567890138101e-06   -2.5956637034596887e-06
-1.7325970929747247e-05   3.231591175857152e-06   2.3130456840178104e-06
-1.7325970929747247e-05   3.231591175857152e-06   2.3130456840178104e-06
-1.7325970929747247e-05   3.231591175857152e-06   2.3130456840178104e-06
-1.7325970929747247e-05   3.231591175857152e-06   2.3130456840178104e-06
-1.4377136914402086e-05   3.037523284915404e-06   9.657920287636738e-06
-1.4377136914402086e-05   3.037523284915404e-06   9.657920287636738e-06
-1.4377136914402086e-05   3.037523284915404e-06   9.657920287636738e-06
-1.4377136914402086e-05   3.037523284915404e-06   9.657920287636738e-06
-2.1729287309059913e-05   3.221567890138101e-06   -2.4852369403260163e-06
-2.1729287309059913e-05   3.221567890138101e-06   -2.4852369403260163e-06
-2.1729287309059913e-05   3.221567890138101e-06   -2.4852369403260163e-06
-2.1729287309059913e-05   3.221567890138101e-06   -2.4852369403260163e-06
-2.2445398815056906e-05   2.5593173295972377e-06   1.2823806577397939e-05
-2.2445398815056906e-05   2.5593173295972377e-06   1.2823806577397939e-05
-2.2445398815056906e-05   2.5593173295972377e-06   1.2823806577397939e-05
-2.2445398815056906e-05   2.5593173295972377e-06   1.2823806577397939e-05
-1.4821691929455415e-05   2.9738768259335562e-06   -1.3110726307304652e-07
-1.4821691929455415e-05   2.9738768259335562e-06   -1.3110726307304652e-07
-1.4821691929455415e-05   2.9738768259335562e-06   -1.3110726307304652e-07
-1.4821691929455415e-05   2.9738768259335562e-06   -1.3110726307304652e-07
-1.7564375277907772e-05   3.084179474219272e-06   4.373850062042682e-06
-1.7564375277907772e-05   3.084179474219272e-06   4.373850062042682e-06
-1.7564375277907772e-05   3.084179474219272e-06   4.373850062042682e-06
-1.7564375277907772e-05   3.084179474219272e-06   4.373850062042682e-06
1.3614741663147814e-05   -1.8970961740989029e-06   1.0372345315618251e-05
1.3614741663147814e-05   -1.8970961740989029e-06   1.0372345315618251e-05
1.3614741663147814e-05   -1.8970961740989029e-06   1.0372345315618251e-05
1.3614741663147814e-05   -1.8970961740989029e-06   1.0372345315618251e-05
6.715461638872388e-06   -1.4124566641268753e-06   -8.356710188577488e-07
6.715461638872388e-06   -1.4124566641268753e-06   -8.356710188577488e-07
6.715461638872388e-06   -1.4124566641268753e-06   -8.356710188577488e-07
6.715461638872388e-06   -1.4124566641268753e-06   -8.356710188577488e-07
6.470855197066985e-06   -2.1426906415104603e-06   8.999766298678578e-06
6.470855197066985e-06   -2.1426906415104603e-06   8.999766298678578e-06
6.470855197066985e-06   -2.1426906415104603e-06   8.999766298678578e-06
6.470855197066985e-06   -2.1426906415104603e-06   8.999766298678578e-06
1.3166082806648561e-05   -1.6321514025932626e-06   -2.4652699273076083e-06
1.3166082806648561e-05   -1.6321514025932626e-06   -2.4652699273076083e-06
1.3166082806648561e-05   -1.6321514025932626e-06   -2.4652699273076083e-06
1.3166082806648561e-05   -1.6321514025932626e-06   -2.4652699273076083e-06
9.534759193581804e-06   -1.7524891537942853e-06   3.659138745190914e-06
9.534759193581804e-06   -1.7524891537942853e-06   3.659138745190914e-06
9.534759193581804e-06   -1.7524891537942853e-06   3.659138745190914e-06
9.534759193581804e-06   -1.7524891537942853e-06   3.659138745190914e-06
1.3166082806648537e-05   -2.1426906415104603e-06   8.69344275532829e-06
1.3166082806648537e-05   -2.1426906415104603e-06   8.69344275532829e-06
1.3166082806648537e-05   -2.1426906415104603e-06   8.69344275532829e-06
1.3166082806648537e-05   -2.1426906415104603e-06   8.69344275532829e-06
6.470855197067009e-06   -1.6321514025932626e-06   -2.1589463839573548e-06
6.470855197067009e-06   -1.6321514025932626e-06   -2.1589463839573548e-06
6.470855197067009e-06   -1.6321514025932626e-06   -2.1589463839573548e-06
6.470855197067009e-06   -1.6321514025932626e-06   -2.1589463839573548e-06
6.198322061943216e-06   -2.177403447248499e-06   8.052283702884627e-06
6.198322061943216e-06   -2.177403447248499e-06   8.052283702884627e-06
6.198322061943216e-06   -2.177403447248499e-06   8.052283702884627e-06
6.198322061943216e-06   -2.177403447248499e-06   8.052283702884627e-06
1.275828706738034e-05   -1.6750691386857976e-06   -3.1823918913147123e-06
1.275828706738034e-05   -1.6750691386857976e-06   -3.1823918913147123e-06
1.275828706738034e-05   -1.6750691386857976e-06   -3.1823918913147123e-06
1.275828706738034e-05   -1.6750691386857976e-06   -3.1823918913147123e-06
9.373985728394881e-06   -1.838188738357508e-06   2.555982100130636e-06
9.373985728394881e-06   -1.838188738357508e-06   2.555982100130636e-06
9.373985728394881e-06   -1.838188738357508e-06   2.555982100130636e-06
9.373985728394881e-06   -1.838188738357508e-06   2.555982100130636e-06
1.2758287067380296e-05   -2.1774034472483907e-06   7.750883117747074e-06
1.2758287067380296e-05   -2.1774034472483907e-06   7.750883117747074e-06
1.2758287067380296e-05   -2.1774034472483907e-06   7.750883117747074e-06
1.2758287067380296e-05   -2.1774034472483907e-06   7.750883117747074e-06
6.1983220619432295e-06   -1.6750691386857976e-06   -2.8809913061771456e-06
6.1983220619432295e-06   -1.6750691386857976e-06   -2.8809913061771456e-06
6.1983220619432295e-06   -1.6750691386857976e-06   -2.8809913061771456e-06
6.1983220619432295e-06   -1.6750691386857976e-06   -2.8809913061771456e-06
5.935519179963496e-06   -2.1556668137697778e-06   6.720912173308936e-06
5.935519179963496e-06   -2.1556668137697778e-06   6.720912173308936e-06
5.935519179963496e-06   -2.1556668137697778e-06   6.720912173308936e-06
5.935519179963496e-06   -2.1556668137697778e-06   6.720912173308936e-06
1.229499040945168e-05   -1.686210547907326e-06   -4.159880302022194e-06
1.229499040945168e-05   -1.686210547907326e-06   -4.159880302022194e-06
1.229499040945168e-05   -1.686210547907326e-06   -4.159880302022194e-06
1.229499040945168e-05   -1.686210547907326e-06   -4.159880302022194e-06
8.907612470194322e-06   -1.8045924356584176e-06   1.556778729390945e-06
8.907612470194322e-06   -1.8045924356584176e-06   1.556778729390945e-06
8.907612470194322e-06   -1.8045924356584176e-06   1.556778729390945e-06
8.907612470194322e-06   -1.8045924356584176e-06   1.556778729390945e-06
6.715461638872388e-06   -6.596691154021591e-07   1.0763964218424775e-05
6.715461638872388e-06   -6.596691154021591e-07   1.0763964218424775e-05
6.715461638872388e-06   -6.596691154021591e-07   1.0763964218424775e-05
6.715461638872388e-06   -6.596691154021591e-07   1.0763964218424775e-05
2.3819642648246749e-07   -2.726095078564583e-07   2.007579623024107e-07
2.3819642648246749e-07   -2.726095078564583e-07   2.007579623024107e-07
2.3819642648246749e-07   -2.726095078564583e-07   2.007579623024107e-07
2.3819642648246749e-07   -2.726095078564583e-07   2.007579623024107e-07
2.6115307217769836e-09   -7.898967713887645e-07   1.0867194310731638e-05
2.6115307217769836e-09   -7.898967713887645e-07   1.0867194310731638e-05
2.6115307217769836e-09   -7.898967713887645e-07   1.0867194310731638e-05
2.6115307217769836e-09   -7.898967713887645e-07   1.0867194310731638e-05
6.470855197067009e-06   -4.268348300377669e-07   -1.3104896465438234e-07
6.470855197067009e-06   -4.268348300377669e-07   -1.3104896465438234e-07
6.470855197067009e-06   -4.268348300377669e-07   -1.3104896465438234e-07
6.470855197067009e-06   -4.268348300377669e-07   -1.3104896465438234e-07
3.3156240433971824e-06   -5.181674736955805e-07   5.182469210990081e-06
3.3156240433971824e-06   -5.181674736955805e-07   5.182469210990081e-06
3.3156240433971824e-06   -5.181674736955805e-07   5.182469210990081e-06
3.3156240433971824e-06   -5.181674736955805e-07   5.182469210990081e-06
6.470855197067002e-06   -7.898967713886561e-07   1.0649357145921011e-05
6.470855197067002e-06   -7.898967713886561e-07   1.0649357145921011e-05
6.470855197067002e-06   -7.898967713886561e-07   1.0649357145921011e-05
6.470855197067002e-06   -7.898967713886561e-07   1.0649357145921011e-05
2.6115307217769836e-09   -4.268348300377669e-07   8.678820015623791e-08
2.6115307217769836e-09   -4.268348300377669e-07   8.678820015623791e-08
2.6115307217769836e-09   -4.268348300377669e-07   8.678820015623791e-08
2.6115307217769836e-09   -4.268348300377669e-07   8.678820015623791e-08
-2.4232102651396777e-07   -8.728864569982611e-07   1.0693060747935749e-05
-2.4232102651396777e-07   -8.728864569982611e-07   1.0693060747935749e-05
-2.4232102651396777e-07   -8.728864569982611e-07   1.0693060747935749e-05
-2.4232102651396777e-07   -8.728864569982611e-07   1.0693060747935749e-05
6.1983220619432295e-06   -5.394333517900292e-07   -2.414162626178536e-07
6.1983220619432295e-06   -5.394333517900292e-07   -2.414162626178536e-07
6.1983220619432295e-06   -5.394333517900292e-07   -2.414162626178536e-07
6.1983220619432295e-06   -5.394333517900292e-07   -2.414162626178536e-07
3.0433846797806285e-06   -5.98076375026024e-07   5.0519985215948654e-06
3.0433846797806285e-06   -5.98076375026024e-07   5.0519985215948654e-06
3.0433846797806285e-06   -5.98076375026024e-07   5.0519985215948654e-06
3.0433846797806285e-06   -5.98076375026024e-07   5.0519985215948654e-06
6.198322061943216e-06   -8.728864569982611e-07   1.0492988884810783e-05
6.198322061943216e-06   -8.728864569982611e-07   1.0492988884810783e-05
6.198322061943216e-06   -8.728864569982611e-07   1.0492988884810783e-05
6.198322061943216e-06   -8.728864569982611e-07   1.0492988884810783e-05
-2.4232102651396777e-07   -5.394333517900292e-07   -4.134439949291446e-08
-2.4232102651396777e-07   -5.394333517900292e-07   -4.134439949291446e-08
-2.4232102651396777e-07   -5.394333517900292e-07   -4.134439949291446e-08
-2.4232102651396777e-07   -5.394333517900292e-07   -4.134439949291446e-08
-4.973346635003072e-07   -9.04935513275926e-07   1.0764326698449944e-05
-4.973346635003072e-07   -9.04935513275926e-07   1.0764326698449944e-05
-4.973346635003072e-07   -9.04935513275926e-07   1.0764326698449944e-05
-4.973346635003072e-07   -9.04935513275926e-07   1.0764326698449944e-05
5.935519179963511e-06   -6.258908596798365e-07   -1.2452316614750296e-07
5.935519179963511e-06   -6.258908596798365e-07   -1.2452316614750296e-07
5.935519179963511e-06   -6.258908596798365e-07   -1.2452316614750296e-07
5.935519179963511e-06   -6.258908596798365e-07   -1.2452316614750296e-07
2.8417878110610317e-06   -6.386131177696787e-07   5.0393291368774245e-06
2.8417878110610317e-06   -6.386131177696787e-07   5.0393291368774245e-06
2.8417878110610317e-06   -6.386131177696787e-07   5.0393291368774245e-06
2.8417878110610317e-06   -6.386131177696787e-07   5.0393291368774245e-06
2.3819642648246749e-07   6.073551117748545e-07   1.109141739886381e-05
2.3819642648246749e-07   6.073551117748545e-07   1.109141739886381e-05
2.3819642648246749e-07   6.073551117748545e-07   1.109141739886381e-05
2.3819642648246749e-07   6.073551117748545e-07   1.109141739886381e-05
-6.055217962101041e-06   8.657424815067911e-07   7.574258397304956e-07
-6.055217962101041e-06   8.657424815067911e-07   7.574258397304956e-07
-6.055217962101041e-06   8.657424815067911e-07   7.574258397304956e-07
-6.055217962101041e-06   8.657424815067911e-07   7.574258397304956e-07
-6.301819106068535e-06   5.108611674128861e-07   1.1238535169300317e-05
-6.301819106068535e-06   5.108611674128861e-07   1.1238535169300317e-05
-6.301819106068535e-06   5.108611674128861e-07   1.1238535169300317e-05
-6.301819106068535e-06   5.108611674128861e-07   1.1238535169300317e-05
2.6115307217769836e-09   7.396782635908346e-07   5.938605169429796e-07
2.6115307217769836e-09   7.396782635908346e-07   5.938605169429796e-07
2.6115307217769836e-09   7.396782635908346e-07   5.938605169429796e-07
2.6115307217769836e-09   7.396782635908346e-07   5.938605169429796e-07
-3.0335739257078377e-06   6.866023536098755e-07   5.686015156980976e-06
-3.0335739257078377e-06   6.866023536098755e-07   5.686015156980976e-06
-3.0335739257078377e-06   6.866023536098755e-07   5.686015156980976e-06
-3.0335739257078377e-06   6.866023536098755e-07   5.686015156980976e-06
2.6115307217769836e-09   5.108611674128861e-07   1.1101244911593583e-05
2.6115307217769836e-09   5.108611674128861e-07   1.1101244911593583e-05
2.6115307217769836e-09   5.108611674128861e-07   1.1101244911593583e-05
2.6115307217769836e-09   5.108611674128861e-07   1.1101244911593583e-05
-6.301819106068535e-06   7.396782635908346e-07   7.311507746497812e-07
-6.301819106068535e-06   7.396782635908346e-07   7.311507746497812e-07
-6.301819106068535e-06   7.396782635908346e-07   7.311507746497812e-07
-6.301819106068535e-06   7.396782635908346e-07   7.311507746497812e-07
-6.561621490651999e-06   4.2106226382540406e-07   1.1338648458205486e-05
-6.561621490651999e-06   4.2106226382540406e-07   1.1338648458205486e-05
-6.561621490651999e-06   4.2106226382540406e-07   1.1338648458205486e-05
-6.561621490651999e-06   4.2106226382540406e-07   1.1338648458205486e-05
-2.4232102651396777e-07   6.173727114272163e-07   6.886947494141849e-07
-2.4232102651396777e-07   6.173727114272163e-07   6.886947494141849e-07
-2.4232102651396777e-07   6.173727114272163e-07   6.886947494141849e-07
-2.4232102651396777e-07   6.173727114272163e-07   6.886947494141849e-07
-3.2622621332070105e-06   6.159012079120412e-07   5.722812829345088e-06
-3.2622621332070105e-06   6.159012079120412e-07   5.722812829345088e-06
-3.2622621332070105e-06   6.159012079120412e-07   5.722812829345088e-06
-3.2622621332070105e-06   6.159012079120412e-07   5.722812829345088e-06
-2.4232102651396777e-07   4.2106226382540406e-07   1.1220862189644337e-05
-2.4232102651396777e-07   4.2106226382540406e-07   1.1220862189644337e-05
-2.4232102651396777e-07   4.2106226382540406e-07   1.1220862189644337e-05
-2.4232102651396777e-07   4.2106226382540406e-07   1.1220862189644337e-05
-6.561621490651999e-06   6.173727114272163e-07   8.064810179754024e-07
-6.561621490651999e-06   6.173727114272163e-07   8.064810179754024e-07
-6.561621490651999e-06   6.173727114272163e-07   8.064810179754024e-07
-6.561621490651999e-06   6.173727114272163e-07   8.064810179754024e-07
-6.829372486594376e-06   3.5717037817476795e-07   1.1498864965582588e-05
-6.829372486594376e-06   3.5717037817476795e-07   1.1498864965582588e-05
-6.829372486594376e-06   3.5717037817476795e-07   1.1498864965582588e-05
-6.829372486594376e-06   3.5717037817476795e-07   1.1498864965582588e-05
-4.973346635003072e-07   5.086488885820565e-07   8.545814875148797e-07
-4.973346635003072e-07   5.086488885820565e-07   8.545814875148797e-07
-4.973346635003072e-07   5.086488885820565e-07   8.545814875148797e-07
-4.973346635003072e-07   5.086488885820565e-07   8.545814875148797e-07
-3.5097977289606574e-06   5.48426890966975e-07   5.8514864618513195e-06
-3.5097977289606574e-06   5.48426890966975e-07   5.8514864618513195e-06
-3.5097977289606574e-06   5.48426890966975e-07   5.8514864618513195e-06
-3.5097977289606574e-06   5.48426890966975e-07   5.8514864618513195e-06
-6.055217962101061e-06   1.951069863384211e-06   9.712760833260344e-06
-6.055217962101061e-06   1.951069863384211e-06   9.712760833260344e-06
-6.055217962101061e-06   1.951069863384211e-06   9.712760833260344e-06
-6.055217962101061e-06   1.951069863384211e-06   9.712760833260344e-06
-1.2173603786350853e-05   1.9763069280924212e-06   -4.6940663499776695e-07
-1.2173603786350853e-05   1.9763069280924212e-06   -4.6940663499776695e-07
-1.2173603786350853e-05   1.9763069280924212e-06   -4.6940663499776695e-07
-1.2173603786350853e-05   1.9763069280924212e-06   -4.6940663499776695e-07
-1.2459594941317908e-05   1.8561017764928906e-06   9.882046225406923e-06
-1.2459594941317908e-05   1.8561017764928906e-06   9.882046225406923e-06
-1.2459594941317908e-05   1.8561017764928906e-06   9.882046225406923e-06
-1.2459594941317908e-05   1.8561017764928906e-06   9.882046225406923e-06
-6.301819106068542e-06   1.85794632667866e-06   -3.8202023012020225e-07
-6.301819106068542e-06   1.85794632667866e-06   -3.8202023012020225e-07
-6.301819106068542e-06   1.85794632667866e-06   -3.8202023012020225e-07
-6.301819106068542e-06   1.85794632667866e-06   -3.8202023012020225e-07
-9.20634104359295e-06   1.9028086241814723e-06   4.431932287252144e-06
-9.20634104359295e-06   1.9028086241814723e-06   4.431932287252144e-06
-9.20634104359295e-06   1.9028086241814723e-06   4.431932287252144e-06
-9.20634104359295e-06   1.9028086241814723e-06   4.431932287252144e-06
-6.301819106068542e-06   1.8561017764928906e-06   9.88093949529541e-06
-6.301819106068542e-06   1.8561017764928906e-06   9.88093949529541e-06
-6.301819106068542e-06   1.8561017764928906e-06   9.88093949529541e-06
-6.301819106068542e-06   1.8561017764928906e-06   9.88093949529541e-06
-1.2459594941317908e-05   1.85794632667866e-06   -3.809135000086756e-07
-1.2459594941317908e-05   1.85794632667866e-06   -3.809135000086756e-07
-1.2459594941317908e-05   1.85794632667866e-06   -3.809135000086756e-07
-1.2459594941317908e-05   1.85794632667866e-06   -3.809135000086756e-07
-1.2775442437151368e-05   1.7666456226686587e-06   1.034211610498949e-05
-1.2775442437151368e-05   1.7666456226686587e-06   1.034211610498949e-05
-1.2775442437151368e-05   1.7666456226686587e-06   1.034211610498949e-05
-1.2775442437151368e-05   1.7666456226686587e-06   1.034211610498949e-05
-6.561621490652013e-06   1.7470925043758722e-06   -2.5202682004061075e-09
-6.561621490652013e-06   1.7470925043758722e-06   -2.5202682004061075e-09
-6.561621490652013e-06   1.7470925043758722e-06   -2.5202682004061075e-09
-6.561621490652013e-06   1.7470925043758722e-06   -2.5202682004061075e-09
-9.40954936732243e-06   1.8371280846383032e-06   4.690004844759506e-06
-9.40954936732243e-06   1.8371280846383032e-06   4.690004844759506e-06
-9.40954936732243e-06   1.8371280846383032e-06   4.690004844759506e-06
-9.40954936732243e-06   1.8371280846383032e-06   4.690004844759506e-06
-6.561621490652013e-06   1.7666456226686587e-06   1.0353847975965203e-05
-6.561621490652013e-06   1.7666456226686587e-06   1.0353847975965203e-05
-6.561621490652013e-06   1.7666456226686587e-06   1.0353847975965203e-05
-6.561621490652013e-06   1.7666456226686587e-06   1.0353847975965203e-05
-1.2775442437151368e-05   1.7470925043758722e-06   -1.4252139176077969e-08
-1.2775442437151368e-05   1.7470925043758722e-06   -1.4252139176077969e-08
-1.2775442437151368e-05   1.7470925043758722e-06   -1.4252139176077969e-08
-1.2775442437151368e-05   1.7470925043758722e-06   -1.4252139176077969e-08
-1.3075789055149676e-05   1.6445347567337672e-06   1.0666370945283058e-05
-1.3075789055149676e-05   1.6445347567337672e-06   1.0666370945283058e-05
-1.3075789055149676e-05   1.6445347567337672e-06   1.0666370945283058e-05
-1.3075789055149676e-05   1.6445347567337672e-06   1.0666370945283058e-05
-6.829372486594376e-06   1.6101364407124404e-06   2.763156539703645e-07
-6.829372486594376e-06   1.6101364407124404e-06   2.763156539703645e-07
-6.829372486594376e-06   1.6101364407124404e-06   2.763156539703645e-07
-6.829372486594376e-06   1.6101364407124404e-06   2.763156539703645e-07
-9.740772609841276e-06   1.7495463778565866e-06   5.045003230428989e-06
-9.740772609841276e-06   1.7495463778565866e-06   5.045003230428989e-06
-9.740772609841276e-06   1.7495463778565866e-06   5.045003230428989e-06
-9.740772609841276e-06   1.7495463778565866e-06   5.045003230428989e-06
-1.2173603786350832e-05   3.173148069048645e-06   4.69482695008765e-06
-1.2173603786350832e-05   3.173148069048645e-06   4.69482695008765e-06
-1.2173603786350832e-05   3.173148069048645e-06   4.69482695008765e-06
-1.2173603786350832e-05   3.173148069048645e-06   4.69482695008765e-06
-1.802830394178107e-05   2.8652131526431127e-06   -5.247767592139399e-06
-1.802830394178107e-05   2.8652131526431127e-06   -5.247767592139399e-06
-1.802830394178107e-05   2.8652131526431127e-06   -5.247767592139399e-06
-1.802830394178107e-05   2.8652131526431127e-06   -5.247767592139399e-06
-1.847915923748192e-05   3.242230722188947e-06   6.5663751165052995e-06
-1.847915923748192e-05   3.242230722188947e-06   6.5663751165052995e-06
-1.847915923748192e-05   3.242230722188947e-06   6.5663751165052995e-06
-1.847915923748192e-05   3.242230722188947e-06   6.5663751165052995e-06
-1.2459594941317908e-05   2.9019779826163633e-06   -3.2620804000245526e-06
-1.2459594941317908e-05   2.9019779826163633e-06   -3.2620804000245526e-06
-1.2459594941317908e-05   2.9019779826163633e-06   -3.2620804000245526e-06
-1.2459594941317908e-05   2.9019779826163633e-06   -3.2620804000245526e-06
-1.4698849106748021e-05   3.0241672977213206e-06   3.966962866292661e-07
-1.4698849106748021e-05   3.0241672977213206e-06   3.966962866292661e-07
-1.4698849106748021e-05   3.0241672977213206e-06   3.966962866292661e-07
-1.4698849106748021e-05   3.0241672977213206e-06   3.966962866292661e-07
-1.245959494131788e-05   3.2422307221888387e-06   6.770526760248801e-06
-1.245959494131788e-05   3.2422307221888387e-06   6.770526760248801e-06
-1.245959494131788e-05   3.2422307221888387e-06   6.770526760248801e-06
-1.245959494131788e-05   3.2422307221888387e-06   6.770526760248801e-06
-1.847915923748195e-05   2.9019779826163633e-06   -3.466232043768054e-06
-1.847915923748195e-05   2.9019779826163633e-06   -3.466232043768054e-06
-1.847915923748195e-05   2.9019779826163633e-06   -3.466232043768054e-06
-1.847915923748195e-05   2.9019779826163633e-06   -3.466232043768054e-06
-1.8917727621574492e-05   3.221567890138101e-06   8.00455588289363e-06
-1.8917727621574492e-05   3.221567890138101e-06   8.00455588289363e-06
-1.8917727621574492e-05   3.221567890138101e-06   8.00455588289363e-06
-1.8917727621574492e-05   3.221567890138101e-06   8.00455588289363e-06
-1.2775442437151368e-05   2.8718253448841184e-06   -2.0227405639925778e-06
-1.2775442437151368e-05   2.8718253448841184e-06   -2.0227405639925778e-06
-1.2775442437151368e-05   2.8718253448841184e-06   -2.0227405639925778e-06
-1.2775442437151368e-05   2.8718253448841184e-06   -2.0227405639925778e-06
-1.5264438446094245e-05   3.0818601435011225e-06   1.999565238408954e-06
-1.5264438446094245e-05   3.0818601435011225e-06   1.999565238408954e-06
-1.5264438446094245e-05   3.0818601435011225e-06   1.999565238408954e-06
-1.5264438446094245e-05   3.0818601435011225e-06   1.999565238408954e-06
-1.2775442437151368e-05   3.2215678901382095e-06   8.214401410046125e-06
-1.2775442437151368e-05   3.2215678901382095e-06   8.214401410046125e-06
-1.2775442437151368e-05   3.2215678901382095e-06   8.214401410046125e-06
-1.2775442437151368e-05   3.2215678901382095e-06   8.214401410046125e-06
-1.891772762157452e-05   2.8718253448841184e-06   -2.232586091144951e-06
-1.891772762157452e-05   2.8718253448841184e-06   -2.232586091144951e-06
-1.891772762157452e-05   2.8718253448841184e-06   -2.232586091144951e-06
-1.891772762157452e-05   2.8718253448841184e-06   -2.232586091144951e-06
-1.942824347474105e-05   2.973876825933448e-06   1.0457891469033696e-05
-1.942824347474105e-05   2.973876825933448e-06   1.0457891469033696e-05
-1.942824347474105e-05   2.973876825933448e-06   1.0457891469033696e-05
-1.942824347474105e-05   2.973876825933448e-06   1.0457891469033696e-05
-1.3075789055149669e-05   2.6549261999216003e-06   6.183781198839007e-08
-1.3075789055149669e-05   2.6549261999216003e-06   6.183781198839007e-08
-1.3075789055149669e-05   2.6549261999216003e-06   6.183781198839007e-08
-1.3075789055149669e-05   2.6549261999216003e-06   6.183781198839007e-08
-1.5390728614596296e-05   2.991979792331509e-06   3.71783825562025e-06
-1.5390728614596296e-05   2.991979792331509e-06   3.71783825562025e-06
-1.5390728614596296e-05   2.991979792331509e-06   3.71783825562025e-06
-1.5390728614596296e-05   2.991979792331509e-06   3.71783825562025e-06
1.0489611970062779e-05   -1.4124566641268753e-06   8.770806900871622e-06
1.0489611970062779e-05   -1.4124566641268753e-06   8.770806900871622e-06
1.0489611970062779e-05   -1.4124566641268753e-06   8.770806900871622e-06
1.0489611970062779e-05   -1.4124566641268753e-06   8.770806900871622e-06
4.924448684919238e-06   -9.524632317110468e-07   -2.2846918158470888e-07
4.924448684919238e-06   -9.524632317110468e-07   -2.2846918158470888e-07
4.924448684919238e-06   -9.524632317110468e-07   -2.2846918158470888e-07
4.924448684919238e-06   -9.524632317110468e-07   -2.2846918158470888e-07
4.704678695078939e-06   -1.6321514025932626e-06   7.690197578849145e-06
4.704678695078939e-06   -1.6321514025932626e-06   7.690197578849145e-06
4.704678695078939e-06   -1.6321514025932626e-06   7.690197578849145e-06
4.704678695078939e-06   -1.6321514025932626e-06   7.690197578849145e-06
1.0063336117138513e-05   -1.1490870743696181e-06   -1.5307367215175254e-06
1.0063336117138513e-05   -1.1490870743696181e-06   -1.5307367215175254e-06
1.0063336117138513e-05   -1.1490870743696181e-06   -1.5307367215175254e-06
1.0063336117138513e-05   -1.1490870743696181e-06   -1.5307367215175254e-06
7.191132303392208e-06   -1.2949978317714113e-06   3.343816089167352e-06
7.191132303392208e-06   -1.2949978317714113e-06   3.343816089167352e-06
7.191132303392208e-06   -1.2949978317714113e-06   3.343816089167352e-06
7.191132303392208e-06   -1.2949978317714113e-06   3.343816089167352e-06
1.0063336117138496e-05   -1.6321514025932626e-06   7.400358981915066e-06
1.0063336117138496e-05   -1.6321514025932626e-06   7.400358981915066e-06
1.0063336117138496e-05   -1.6321514025932626e-06   7.400358981915066e-06
1.0063336117138496e-05   -1.6321514025932626e-06   7.400358981915066e-06
4.704678695078947e-06   -1.1490870743696181e-06   -1.2408981245833387e-06
4.704678695078947e-06   -1.1490870743696181e-06   -1.2408981245833387e-06
4.704678695078947e-06   -1.1490870743696181e-06   -1.2408981245833387e-06
4.704678695078947e-06   -1.1490870743696181e-06   -1.2408981245833387e-06
4.461070769758365e-06   -1.6750691386857976e-06   6.932318706378096e-06
4.461070769758365e-06   -1.6750691386857976e-06   6.932318706378096e-06
4.461070769758365e-06   -1.6750691386857976e-06   6.932318706378096e-06
4.461070769758365e-06   -1.6750691386857976e-06   6.932318706378096e-06
9.688435929958433e-06   -1.2005800654637903e-06   -2.0646500045553066e-06
9.688435929958433e-06   -1.2005800654637903e-06   -2.0646500045553066e-06
9.688435929958433e-06   -1.2005800654637903e-06   -2.0646500045553066e-06
9.688435929958433e-06   -1.2005800654637903e-06   -2.0646500045553066e-06
7.0216180396196534e-06   -1.375351045173473e-06   2.484909067168681e-06
7.0216180396196534e-06   -1.375351045173473e-06   2.484909067168681e-06
7.0216180396196534e-06   -1.375351045173473e-06   2.484909067168681e-06
7.0216180396196534e-06   -1.375351045173473e-06   2.484909067168681e-06
9.688435929958416e-06   -1.6750691386857976e-06   6.647625262444819e-06
9.688435929958416e-06   -1.6750691386857976e-06   6.647625262444819e-06
9.688435929958416e-06   -1.6750691386857976e-06   6.647625262444819e-06
9.688435929958416e-06   -1.6750691386857976e-06   6.647625262444819e-06
4.46107076975837e-06   -1.2005800654637903e-06   -1.7799565606220371e-06
4.46107076975837e-06   -1.2005800654637903e-06   -1.7799565606220371e-06
4.46107076975837e-06   -1.2005800654637903e-06   -1.7799565606220371e-06
4.46107076975837e-06   -1.2005800654637903e-06   -1.7799565606220371e-06
4.235547719972795e-06   -1.686210547907326e-06   5.896199334454839e-06
4.235547719972795e-06   -1.686210547907326e-06   5.896199334454839e-06
4.235547719972795e-06   -1.686210547907326e-06   5.896199334454839e-06
4.235547719972795e-06   -1.686210547907326e-06   5.896199334454839e-06
9.267640819255412e-06   -1.2439023092780232e-06   -2.756007440860345e-06
9.267640819255412e-06   -1.2439023092780232e-06   -2.756007440860345e-06
9.267640819255412e-06   -1.2439023092780232e-06   -2.756007440860345e-06
9.267640819255412e-06   -1.2439023092780232e-06   -2.756007440860345e-06
6.62294805946249e-06   -1.3650398791128409e-06   1.7244963673620475e-06
6.62294805946249e-06   -1.3650398791128409e-06   1.7244963673620475e-06
6.62294805946249e-06   -1.3650398791128409e-06   1.7244963673620475e-06
6.62294805946249e-06   -1.3650398791128409e-06   1.7244963673620475e-06
4.9244486849192194e-06   -2.726095078564583e-07   9.850996176953789e-06
4.9244486849192194e-06   -2.726095078564583e-07   9.850996176953789e-06
4.9244486849192194e-06   -2.726095078564583e-07   9.850996176953789e-06
4.9244486849192194e-06   -2.726095078564583e-07   9.850996176953789e-06
-3.352469390010629e-07   -1.4878553274404877e-08   1.2394753765025321e-06
-3.352469390010629e-07   -1.4878553274404877e-08   1.2394753765025321e-06
-3.352469390010629e-07   -1.4878553274404877e-08   1.2394753765025321e-06
-3.352469390010629e-07   -1.4878553274404877e-08   1.2394753765025321e-06
-5.424403889667988e-07   -4.268348300377669e-07   9.863740222601676e-06
-5.424403889667988e-07   -4.268348300377669e-07   9.863740222601676e-06
-5.424403889667988e-07   -4.268348300377669e-07   9.863740222601676e-06
-5.424403889667988e-07   -4.268348300377669e-07   9.863740222601676e-06
4.704678695078947e-06   -1.8409278928859223e-07   9.728965247426447e-07
4.704678695078947e-06   -1.8409278928859223e-07   9.728965247426447e-07
4.704678695078947e-06   -1.8409278928859223e-07   9.728965247426447e-07
4.704678695078947e-06   -1.8409278928859223e-07   9.728965247426447e-07
2.1521023795986638e-06   -2.3104166319178185e-07   5.255359708218306e-06
2.1521023795986638e-06   -2.3104166319178185e-07   5.255359708218306e-06
2.1521023795986638e-06   -2.3104166319178185e-07   5.255359708218306e-06
2.1521023795986638e-06   -2.3104166319178185e-07   5.255359708218306e-06
4.704678695078925e-06   -4.268348300377669e-07   9.71809499815211e-06
4.704678695078925e-06   -4.268348300377669e-07   9.71809499815211e-06
4.704678695078925e-06   -4.268348300377669e-07   9.71809499815211e-06
4.704678695078925e-06   -4.268348300377669e-07   9.71809499815211e-06
-5.424403889667988e-07   -1.8409278928859223e-07   1.1185417491920953e-06
-5.424403889667988e-07   -1.8409278928859223e-07   1.1185417491920953e-06
-5.424403889667988e-07   -1.8409278928859223e-07   1.1185417491920953e-06
-5.424403889667988e-07   -1.8409278928859223e-07   1.1185417491920953e-06
-7.542788701605927e-07   -5.394333517900292e-07   9.706107703240916e-06
-7.542788701605927e-07   -5.394333517900292e-07   9.706107703240916e-06
-7.542788701605927e-07   -5.394333517900292e-07   9.706107703240916e-06
-7.542788701605927e-07   -5.394333517900292e-07   9.706107703240916e-06
4.46107076975837e-06   -3.1574342961721014e-07   8.796443500724469e-07
4.46107076975837e-06   -3.1574342961721014e-07   8.796443500724469e-07
4.46107076975837e-06   -3.1574342961721014e-07   8.796443500724469e-07
4.46107076975837e-06   -3.1574342961721014e-07   8.796443500724469e-07
1.9181177959073067e-06   -3.345620684732536e-07   5.129190489804822e-06
1.9181177959073067e-06   -3.345620684732536e-07   5.129190489804822e-06
1.9181177959073067e-06   -3.345620684732536e-07   5.129190489804822e-06
1.9181177959073067e-06   -3.345620684732536e-07   5.129190489804822e-06
4.461070769758365e-06   -5.394333517900292e-07   9.571893749937347e-06
4.461070769758365e-06   -5.394333517900292e-07   9.571893749937347e-06
4.461070769758365e-06   -5.394333517900292e-07   9.571893749937347e-06
4.461070769758365e-06   -5.394333517900292e-07   9.571893749937347e-06
-7.542788701605927e-07   -3.1574342961721014e-07   1.0138583033759757e-06
-7.542788701605927e-07   -3.1574342961721014e-07   1.0138583033759757e-06
-7.542788701605927e-07   -3.1574342961721014e-07   1.0138583033759757e-06
-7.542788701605927e-07   -3.1574342961721014e-07   1.0138583033759757e-06
-9.674115733990455e-07   -6.258908596798365e-07   9.764101988981113e-06
-9.674115733990455e-07   -6.258908596798365e-07   9.764101988981113e-06
-9.674115733990455e-07   -6.258908596798365e-07   9.764101988981113e-06
-9.674115733990455e-07   -6.258908596798365e-07   9.764101988981113e-06
4.2355477199728e-06   -4.3552539606478077e-07   9.782838885256462e-07
4.2355477199728e-06   -4.3552539606478077e-07   9.782838885256462e-07
4.2355477199728e-06   -4.3552539606478077e-07   9.782838885256462e-07
4.2355477199728e-06   -4.3552539606478077e-07   9.782838885256462e-07
1.7420183325159197e-06   -4.091239463546877e-07   5.118325331127761e-06
1.7420183325159197e-06   -4.091239463546877e-07   5.118325331127761e-06
1.7420183325159197e-06   -4.091239463546877e-07   5.118325331127761e-06
1.7420183325159197e-06   -4.091239463546877e-07   5.118325331127761e-06
-3.3524693900105615e-07   8.657424815067911e-07   1.0407270205292003e-05
-3.3524693900105615e-07   8.657424815067911e-07   1.0407270205292003e-05
-3.3524693900105615e-07   8.657424815067911e-07   1.0407270205292003e-05
-3.3524693900105615e-07   8.657424815067911e-07   1.0407270205292003e-05
-5.484357616599281e-06   8.949909594736403e-07   1.8429681627416547e-06
-5.484357616599281e-06   8.949909594736403e-07   1.8429681627416547e-06
-5.484357616599281e-06   8.949909594736403e-07   1.8429681627416547e-06
-5.484357616599281e-06   8.949909594736403e-07   1.8429681627416547e-06
-5.693249984146977e-06   7.396782635908346e-07   1.0375952477772944e-05
-5.693249984146977e-06   7.396782635908346e-07   1.0375952477772944e-05
-5.693249984146977e-06   7.396782635908346e-07   1.0375952477772944e-05
-5.693249984146977e-06   7.396782635908346e-07   1.0375952477772944e-05
-5.424403889668056e-07   7.482448275649735e-07   1.7861298807548458e-06
-5.424403889668056e-07   7.482448275649735e-07   1.7861298807548458e-06
-5.424403889668056e-07   7.482448275649735e-07   1.7861298807548458e-06
-5.424403889668056e-07   7.482448275649735e-07   1.7861298807548458e-06
-3.0215191715922225e-06   7.968086830001863e-07   5.888789538536067e-06
-3.0215191715922225e-06   7.968086830001863e-07   5.888789538536067e-06
-3.0215191715922225e-06   7.968086830001863e-07   5.888789538536067e-06
-3.0215191715922225e-06   7.968086830001863e-07   5.888789538536067e-06
-5.424403889668056e-07   7.396782635908346e-07   1.0370812539388499e-05
-5.424403889668056e-07   7.396782635908346e-07   1.0370812539388499e-05
-5.424403889668056e-07   7.396782635908346e-07   1.0370812539388499e-05
-5.424403889668056e-07   7.396782635908346e-07   1.0370812539388499e-05
-5.693249984146977e-06   7.482448275649735e-07   1.7912698191393183e-06
-5.693249984146977e-06   7.482448275649735e-07   1.7912698191393183e-06
-5.693249984146977e-06   7.482448275649735e-07   1.7912698191393183e-06
-5.693249984146977e-06   7.482448275649735e-07   1.7912698191393183e-06
-5.9070414421600025e-06   6.173727114272163e-07   1.0428074220140222e-05
-5.9070414421600025e-06   6.173727114272163e-07   1.0428074220140222e-05
-5.9070414421600025e-06   6.173727114272163e-07   1.0428074220140222e-05
-5.9070414421600025e-06   6.173727114272163e-07   1.0428074220140222e-05
-7.542788701605927e-07   6.039183247474704e-07   1.8482092321491167e-06
-7.542788701605927e-07   6.039183247474704e-07   1.8482092321491167e-06
-7.542788701605927e-07   6.039183247474704e-07   1.8482092321491167e-06
-7.542788701605927e-07   6.039183247474704e-07   1.8482092321491167e-06
-3.21493298247917e-06   6.989992962352096e-07   5.8922508364542725e-06
-3.21493298247917e-06   6.989992962352096e-07   5.8922508364542725e-06
-3.21493298247917e-06   6.989992962352096e-07   5.8922508364542725e-06
-3.21493298247917e-06   6.989992962352096e-07   5.8922508364542725e-06
-7.542788701605927e-07   6.173727114272163e-07   1.043614685214811e-05
-7.542788701605927e-07   6.173727114272163e-07   1.043614685214811e-05
-7.542788701605927e-07   6.173727114272163e-07   1.043614685214811e-05
-7.542788701605927e-07   6.173727114272163e-07   1.043614685214811e-05
-5.907041442160016e-06   6.039183247474704e-07   1.8401366001412692e-06
-5.907041442160016e-06   6.039183247474704e-07   1.8401366001412692e-06
-5.907041442160016e-06   6.039183247474704e-07   1.8401366001412692e-06
-5.907041442160016e-06   6.039183247474704e-07   1.8401366001412692e-06
-6.120457674158841e-06   5.086488885820565e-07   1.0550859115038887e-05
-6.120457674158841e-06   5.086488885820565e-07   1.0550859115038887e-05
-6.120457674158841e-06   5.086488885820565e-07   1.0550859115038887e-05
-6.120457674158841e-06   5.086488885820565e-07   1.0550859115038887e-05
-9.674115733990455e-07   4.671143295038524e-07   1.9873696825528056e-06
-9.674115733990455e-07   4.671143295038524e-07   1.9873696825528056e-06
-9.674115733990455e-07   4.671143295038524e-07   1.9873696825528056e-06
-9.674115733990455e-07   4.671143295038524e-07   1.9873696825528056e-06
-3.417687924044211e-06   6.0393671875937e-07   5.989070166741449e-06
-3.417687924044211e-06   6.0393671875937e-07   5.989070166741449e-06
-3.417687924044211e-06   6.0393671875937e-07   5.989070166741449e-06
-3.417687924044211e-06   6.0393671875937e-07   5.989070166741449e-06
-5.484357616599267e-06   1.9763069280924212e-06   9.182844578518851e-06
-5.484357616599267e-06   1.9763069280924212e-06   9.182844578518851e-06
-5.484357616599267e-06   1.9763069280924212e-06   9.182844578518851e-06
-5.484357616599267e-06   1.9763069280924212e-06   9.182844578518851e-06
-1.0536261466533261e-05   1.7733461819020987e-06   6.412283809146939e-07
-1.0536261466533261e-05   1.7733461819020987e-06   6.412283809146939e-07
-1.0536261466533261e-05   1.7733461819020987e-06   6.412283809146939e-07
-1.0536261466533261e-05   1.7733461819020987e-06   6.412283809146939e-07
-1.076152816742142e-05   1.85794632667866e-06   9.128704972464531e-06
-1.076152816742142e-05   1.85794632667866e-06   9.128704972464531e-06
-1.076152816742142e-05   1.85794632667866e-06   9.128704972464531e-06
-1.076152816742142e-05   1.85794632667866e-06   9.128704972464531e-06
-5.693249984146984e-06   1.634485492448142e-06   8.156511675454876e-07
-5.693249984146984e-06   1.634485492448142e-06   8.156511675454876e-07
-5.693249984146984e-06   1.634485492448142e-06   8.156511675454876e-07
-5.693249984146984e-06   1.634485492448142e-06   8.156511675454876e-07
-8.09157248939362e-06   1.7848702817382304e-06   4.722624469382468e-06
-8.09157248939362e-06   1.7848702817382304e-06   4.722624469382468e-06
-8.09157248939362e-06   1.7848702817382304e-06   4.722624469382468e-06
-8.09157248939362e-06   1.7848702817382304e-06   4.722624469382468e-06
-5.693249984146977e-06   1.8579463266787683e-06   9.262781473002907e-06
-5.693249984146977e-06   1.8579463266787683e-06   9.262781473002907e-06
-5.693249984146977e-06   1.8579463266787683e-06   9.262781473002907e-06
-5.693249984146977e-06   1.8579463266787683e-06   9.262781473002907e-06
-1.0761528167421407e-05   1.634485492448142e-06   6.815746670071389e-07
-1.0761528167421407e-05   1.634485492448142e-06   6.815746670071389e-07
-1.0761528167421407e-05   1.634485492448142e-06   6.815746670071389e-07
-1.0761528167421407e-05   1.634485492448142e-06   6.815746670071389e-07
-1.1008720136566712e-05   1.7470925043758722e-06   9.472938010542022e-06
-1.1008720136566712e-05   1.7470925043758722e-06   9.472938010542022e-06
-1.1008720136566712e-05   1.7470925043758722e-06   9.472938010542022e-06
-1.1008720136566712e-05   1.7470925043758722e-06   9.472938010542022e-06
-5.907041442160016e-06   1.5035342986717418e-06   1.1162751099533263e-06
-5.907041442160016e-06   1.5035342986717418e-06   1.1162751099533263e-06
-5.907041442160016e-06   1.5035342986717418e-06   1.1162751099533263e-06
-5.907041442160016e-06   1.5035342986717418e-06   1.1162751099533263e-06
-8.249926211694318e-06   1.6969308394143155e-06   4.905045134731911e-06
-8.249926211694318e-06   1.6969308394143155e-06   4.905045134731911e-06
-8.249926211694318e-06   1.6969308394143155e-06   4.905045134731911e-06
-8.249926211694318e-06   1.6969308394143155e-06   4.905045134731911e-06
-5.907041442160016e-06   1.7470925043758722e-06   9.619072933964509e-06
-5.907041442160016e-06   1.7470925043758722e-06   9.619072933964509e-06
-5.907041442160016e-06   1.7470925043758722e-06   9.619072933964509e-06
-5.907041442160016e-06   1.7470925043758722e-06   9.619072933964509e-06
-1.1008720136566685e-05   1.5035342986717418e-06   9.701401865308535e-07
-1.1008720136566685e-05   1.5035342986717418e-06   9.701401865308535e-07
-1.1008720136566685e-05   1.5035342986717418e-06   9.701401865308535e-07
-1.1008720136566685e-05   1.5035342986717418e-06   9.701401865308535e-07
-1.1233803759127931e-05   1.6101364407124404e-06   9.725384544968492e-06
-1.1233803759127931e-05   1.6101364407124404e-06   9.725384544968492e-06
-1.1233803759127931e-05   1.6101364407124404e-06   9.725384544968492e-06
-1.1233803759127931e-05   1.6101364407124404e-06   9.725384544968492e-06
-6.120457674158841e-06   1.349600390243154e-06   1.3594627003016692e-06
-6.120457674158841e-06   1.349600390243154e-06   1.3594627003016692e-06
-6.120457674158841e-06   1.349600390243154e-06   1.3594627003016692e-06
-6.120457674158841e-06   1.349600390243154e-06   1.3594627003016692e-06
-8.50878774861236e-06   1.5959995594041197e-06   5.192173322894164e-06
-8.50878774861236e-06   1.5959995594041197e-06   5.192173322894164e-06
-8.50878774861236e-06   1.5959995594041197e-06   5.192173322894164e-06
-8.50878774861236e-06   1.5959995594041197e-06   5.192173322894164e-06
-1.0536261466533261e-05   2.8652131526431127e-06   4.467468123506372e-06
-1.0536261466533261e-05   2.8652131526431127e-06   4.467468123506372e-06
-1.0536261466533261e-05   2.8652131526431127e-06   4.467468123506372e-06
-1.0536261466533261e-05   2.8652131526431127e-06   4.467468123506372e-06
-1.537155966179061e-05   2.4645194964188462e-06   -3.831778395657105e-06
-1.537155966179061e-05   2.4645194964188462e-06   -3.831778395657105e-06
-1.537155966179061e-05   2.4645194964188462e-06   -3.831778395657105e-06
-1.537155966179061e-05   2.4645194964188462e-06   -3.831778395657105e-06
-1.577827442473574e-05   2.9019779826163633e-06   5.981296962584252e-06
-1.577827442473574e-05   2.9019779826163633e-06   5.981296962584252e-06
-1.577827442473574e-05   2.9019779826163633e-06   5.981296962584252e-06
-1.577827442473574e-05   2.9019779826163633e-06   5.981296962584252e-06
-1.076152816742142e-05   2.458242799509118e-06   -2.1137056897419784e-06
-1.076152816742142e-05   2.458242799509118e-06   -2.1137056897419784e-06
-1.076152816742142e-05   2.458242799509118e-06   -2.1137056897419784e-06
-1.076152816742142e-05   2.458242799509118e-06   -2.1137056897419784e-06
-1.261216761083307e-05   2.6309520035239665e-06   8.670678602018772e-07
-1.261216761083307e-05   2.6309520035239665e-06   8.670678602018772e-07
-1.261216761083307e-05   2.6309520035239665e-06   8.670678602018772e-07
-1.261216761083307e-05   2.6309520035239665e-06   8.670678602018772e-07
-1.0761528167421366e-05   2.9019779826163633e-06   6.2475380724486e-06
-1.0761528167421366e-05   2.9019779826163633e-06   6.2475380724486e-06
-1.0761528167421366e-05   2.9019779826163633e-06   6.2475380724486e-06
-1.0761528167421366e-05   2.9019779826163633e-06   6.2475380724486e-06
-1.5778274424735767e-05   2.458242799509118e-06   -2.3799467996063256e-06
-1.5778274424735767e-05   2.458242799509118e-06   -2.3799467996063256e-06
-1.5778274424735767e-05   2.458242799509118e-06   -2.3799467996063256e-06
-1.5778274424735767e-05   2.458242799509118e-06   -2.3799467996063256e-06
-1.614068873705146e-05   2.8718253448841184e-06   7.187449611465271e-06
-1.614068873705146e-05   2.8718253448841184e-06   7.187449611465271e-06
-1.614068873705146e-05   2.8718253448841184e-06   7.187449611465271e-06
-1.614068873705146e-05   2.8718253448841184e-06   7.187449611465271e-06
-1.1008720136566712e-05   2.410158721117086e-06   -1.0888314150824517e-06
-1.1008720136566712e-05   2.410158721117086e-06   -1.0888314150824517e-06
-1.1008720136566712e-05   2.410158721117086e-06   -1.0888314150824517e-06
-1.1008720136566712e-05   2.410158721117086e-06   -1.0888314150824517e-06
-1.308824606101406e-05   2.662210192869033e-06   2.225814242612408e-06
-1.308824606101406e-05   2.662210192869033e-06   2.225814242612408e-06
-1.308824606101406e-05   2.662210192869033e-06   2.225814242612408e-06
-1.308824606101406e-05   2.662210192869033e-06   2.225814242612408e-06
-1.1008720136566712e-05   2.8718253448841184e-06   7.464449585725577e-06
-1.1008720136566712e-05   2.8718253448841184e-06   7.464449585725577e-06
-1.1008720136566712e-05   2.8718253448841184e-06   7.464449585725577e-06
-1.1008720136566712e-05   2.8718253448841184e-06   7.464449585725577e-06
-1.61406887370515e-05   2.410158721117086e-06   -1.3658313893427036e-06
-1.61406887370515e-05   2.410158721117086e-06   -1.3658313893427036e-06
-1.61406887370515e-05   2.410158721117086e-06   -1.3658313893427036e-06
-1.61406887370515e-05   2.410158721117086e-06   -1.3658313893427036e-06
-1.6555454940187444e-05   2.6549261999216003e-06   9.254523339155476e-06
-1.6555454940187444e-05   2.6549261999216003e-06   9.254523339155476e-06
-1.6555454940187444e-05   2.6549261999216003e-06   9.254523339155476e-06
-1.6555454940187444e-05   2.6549261999216003e-06   9.254523339155476e-06
-1.1233803759127918e-05   2.193222277515239e-06   6.621270575000071e-07
-1.1233803759127918e-05   2.193222277515239e-06   6.621270575000071e-07
-1.1233803759127918e-05   2.193222277515239e-06   6.621270575000071e-07
-1.1233803759127918e-05   2.193222277515239e-06   6.621270575000071e-07
-1.3176057814611331e-05   2.5716880009117073e-06   3.672137715934293e-06
-1.3176057814611331e-05   2.5716880009117073e-06   3.672137715934293e-06
-1.3176057814611331e-05   2.5716880009117073e-06   3.672137715934293e-06
-1.3176057814611331e-05   2.5716880009117073e-06   3.672137715934293e-06
7.37319065783463e-06   -9.524632317111552e-07   7.239889716197563e-06
7.37319065783463e-06   -9.524632317111552e-07   7.239889716197563e-06
7.37319065783463e-06   -9.524632317111552e-07   7.239889716197563e-06
7.37319065783463e-06   -9.524632317111552e-07   7.239889716197563e-06
3.0685989929131992e-06   -4.891698246656164e-07   3.4354631888914135e-07
3.0685989929131992e-06   -4.891698246656164e-07   3.4354631888914135e-07
3.0685989929131992e-06   -4.891698246656164e-07   3.4354631888914135e-07
3.0685989929131992e-06   -4.891698246656164e-07   3.4354631888914135e-07
2.889987004631182e-06   -1.1490870743696181e-06   6.4923671815029e-06
2.889987004631182e-06   -1.1490870743696181e-06   6.4923671815029e-06
2.889987004631182e-06   -1.1490870743696181e-06   6.4923671815029e-06
2.889987004631182e-06   -1.1490870743696181e-06   6.4923671815029e-06
6.990608713061565e-06   -6.673425371716266e-07   -6.310490548666289e-07
6.990608713061565e-06   -6.673425371716266e-07   -6.310490548666289e-07
6.990608713061565e-06   -6.673425371716266e-07   -6.310490548666289e-07
6.990608713061565e-06   -6.673425371716266e-07   -6.310490548666289e-07
4.828828733596243e-06   -8.327103274060612e-07   3.0711382517164697e-06
4.828828733596243e-06   -8.327103274060612e-07   3.0711382517164697e-06
4.828828733596243e-06   -8.327103274060612e-07   3.0711382517164697e-06
4.828828733596243e-06   -8.327103274060612e-07   3.0711382517164697e-06
6.990608713061579e-06   -1.1490870743696181e-06   6.203320459184099e-06
6.990608713061579e-06   -1.1490870743696181e-06   6.203320459184099e-06
6.990608713061579e-06   -1.1490870743696181e-06   6.203320459184099e-06
6.990608713061579e-06   -1.1490870743696181e-06   6.203320459184099e-06
2.889987004631172e-06   -6.673425371716266e-07   -3.4200233254774726e-07
2.889987004631172e-06   -6.673425371716266e-07   -3.4200233254774726e-07
2.889987004631172e-06   -6.673425371716266e-07   -3.4200233254774726e-07
2.889987004631172e-06   -6.673425371716266e-07   -3.4200233254774726e-07
2.6882038704528312e-06   -1.2005800654637903e-06   5.939522989787706e-06
2.6882038704528312e-06   -1.2005800654637903e-06   5.939522989787706e-06
2.6882038704528312e-06   -1.2005800654637903e-06   5.939522989787706e-06
2.6882038704528312e-06   -1.2005800654637903e-06   5.939522989787706e-06
6.660982254949372e-06   -7.274473789465057e-07   -9.656539296168517e-07
6.660982254949372e-06   -7.274473789465057e-07   -9.656539296168517e-07
6.660982254949372e-06   -7.274473789465057e-07   -9.656539296168517e-07
6.660982254949372e-06   -7.274473789465057e-07   -9.656539296168517e-07
4.664467018858181e-06   -9.087223696939678e-07   2.470636458317061e-06
4.664467018858181e-06   -9.087223696939678e-07   2.470636458317061e-06
4.664467018858181e-06   -9.087223696939678e-07   2.470636458317061e-06
4.664467018858181e-06   -9.087223696939678e-07   2.470636458317061e-06
6.6609822549493855e-06   -1.2005800654637903e-06   5.655643377877361e-06
6.6609822549493855e-06   -1.2005800654637903e-06   5.655643377877361e-06
6.6609822549493855e-06   -1.2005800654637903e-06   5.655643377877361e-06
6.6609822549493855e-06   -1.2005800654637903e-06   5.655643377877361e-06
2.688203870452828e-06   -7.274473789465057e-07   -6.817743177065677e-07
2.688203870452828e-06   -7.274473789465057e-07   -6.817743177065677e-07
2.688203870452828e-06   -7.274473789465057e-07   -6.817743177065677e-07
2.688203870452828e-06   -7.274473789465057e-07   -6.817743177065677e-07
2.506828868298908e-06   -1.2439023092780232e-06   5.212548533513252e-06
2.506828868298908e-06   -1.2439023092780232e-06   5.212548533513252e-06
2.506828868298908e-06   -1.2439023092780232e-06   5.212548533513252e-06
2.506828868298908e-06   -1.2439023092780232e-06   5.212548533513252e-06
6.285066200427017e-06   -8.029456062113856e-07   -1.3490877085403446e-06
6.285066200427017e-06   -8.029456062113856e-07   -1.3490877085403446e-06
6.285066200427017e-06   -8.029456062113856e-07   -1.3490877085403446e-06
6.285066200427017e-06   -8.029456062113856e-07   -1.3490877085403446e-06
4.342497826579754e-06   -9.209098492179513e-07   1.959304793675568e-06
4.342497826579754e-06   -9.209098492179513e-07   1.959304793675568e-06
4.342497826579754e-06   -9.209098492179513e-07   1.959304793675568e-06
4.342497826579754e-06   -9.209098492179513e-07   1.959304793675568e-06
3.068598992913211e-06   -1.4878553274404877e-08   8.8311717457629e-06
3.068598992913211e-06   -1.4878553274404877e-08   8.8311717457629e-06
3.068598992913211e-06   -1.4878553274404877e-08   8.8311717457629e-06
3.068598992913211e-06   -1.4878553274404877e-08   8.8311717457629e-06
-9.598659706843094e-07   2.2370718000432185e-07   2.260214913067562e-06
-9.598659706843094e-07   2.2370718000432185e-07   2.260214913067562e-06
-9.598659706843094e-07   2.2370718000432185e-07   2.260214913067562e-06
-9.598659706843094e-07   2.2370718000432185e-07   2.260214913067562e-06
-1.1244992117281195e-06   -1.8409278928859223e-07   8.843924696101506e-06
-1.1244992117281195e-06   -1.8409278928859223e-07   8.843924696101506e-06
-1.1244992117281195e-06   -1.8409278928859223e-07   8.843924696101506e-06
-1.1244992117281195e-06   -1.8409278928859223e-07   8.843924696101506e-06
2.889987004631172e-06   4.551198616581506e-08   2.0153514702300496e-06
2.889987004631172e-06   4.551198616581506e-08   2.0153514702300496e-06
2.889987004631172e-06   4.551198616581506e-08   2.0153514702300496e-06
2.889987004631172e-06   4.551198616581506e-08   2.0153514702300496e-06
9.394363921522683e-07   1.7348385572611529e-09   5.292535446260223e-06
9.394363921522683e-07   1.7348385572611529e-09   5.292535446260223e-06
9.394363921522683e-07   1.7348385572611529e-09   5.292535446260223e-06
9.394363921522683e-07   1.7348385572611529e-09   5.292535446260223e-06
2.8899870046311803e-06   -1.8409278928859223e-07   8.706161830828856e-06
2.8899870046311803e-06   -1.8409278928859223e-07   8.706161830828856e-06
2.8899870046311803e-06   -1.8409278928859223e-07   8.706161830828856e-06
2.8899870046311803e-06   -1.8409278928859223e-07   8.706161830828856e-06
-1.1244992117281195e-06   4.551198616576085e-08   2.1531143355027265e-06
-1.1244992117281195e-06   4.551198616576085e-08   2.1531143355027265e-06
-1.1244992117281195e-06   4.551198616576085e-08   2.1531143355027265e-06
-1.1244992117281195e-06   4.551198616576085e-08   2.1531143355027265e-06
-1.2930891040286964e-06   -3.1574342961721014e-07   8.729372026819796e-06
-1.2930891040286964e-06   -3.1574342961721014e-07   8.729372026819796e-06
-1.2930891040286964e-06   -3.1574342961721014e-07   8.729372026819796e-06
-1.2930891040286964e-06   -3.1574342961721014e-07   8.729372026819796e-06
2.688203870452828e-06   -9.866321905440756e-08   1.963635609679589e-06
2.688203870452828e-06   -9.866321905440756e-08   1.963635609679589e-06
2.688203870452828e-06   -9.866321905440756e-08   1.963635609679589e-06
2.688203870452828e-06   -9.866321905440756e-08   1.963635609679589e-06
7.572515558127604e-07   -1.1613907254775916e-07   5.192374979509358e-06
7.572515558127604e-07   -1.1613907254775916e-07   5.192374979509358e-06
7.572515558127604e-07   -1.1613907254775916e-07   5.192374979509358e-06
7.572515558127604e-07   -1.1613907254775916e-07   5.192374979509358e-06
2.6882038704528363e-06   -3.1574342961721014e-07   8.599123900482122e-06
2.6882038704528363e-06   -3.1574342961721014e-07   8.599123900482122e-06
2.6882038704528363e-06   -3.1574342961721014e-07   8.599123900482122e-06
2.6882038704528363e-06   -3.1574342961721014e-07   8.599123900482122e-06
-1.2930891040287032e-06   -9.866321905440756e-08   2.093883736017303e-06
-1.2930891040287032e-06   -9.866321905440756e-08   2.093883736017303e-06
-1.2930891040287032e-06   -9.866321905440756e-08   2.093883736017303e-06
-1.2930891040287032e-06   -9.866321905440756e-08   2.093883736017303e-06
-1.4604636169854694e-06   -4.3552539606478077e-07   8.799570795450058e-06
-1.4604636169854694e-06   -4.3552539606478077e-07   8.799570795450058e-06
-1.4604636169854694e-06   -4.3552539606478077e-07   8.799570795450058e-06
-1.4604636169854694e-06   -4.3552539606478077e-07   8.799570795450058e-06
2.5068288682988963e-06   -2.38665603184121e-07   2.0693007775810608e-06
2.5068288682988963e-06   -2.38665603184121e-07   2.0693007775810608e-06
2.5068288682988963e-06   -2.38665603184121e-07   2.0693007775810608e-06
2.5068288682988963e-06   -2.38665603184121e-07   2.0693007775810608e-06
6.152540343435013e-07   -2.1243952150635246e-07   5.206189851833233e-06
6.152540343435013e-07   -2.1243952150635246e-07   5.206189851833233e-06
6.152540343435013e-07   -2.1243952150635246e-07   5.206189851833233e-06
6.152540343435013e-07   -2.1243952150635246e-07   5.206189851833233e-06
-9.598659706843026e-07   8.949909594736403e-07   9.560266885189197e-06
-9.598659706843026e-07   8.949909594736403e-07   9.560266885189197e-06
-9.598659706843026e-07   8.949909594736403e-07   9.560266885189197e-06
-9.598659706843026e-07   8.949909594736403e-07   9.560266885189197e-06
-4.9178466375072874e-06   8.863237472612226e-07   2.9584321131567064e-06
-4.9178466375072874e-06   8.863237472612226e-07   2.9584321131567064e-06
-4.9178466375072874e-06   8.863237472612226e-07   2.9584321131567064e-06
-4.9178466375072874e-06   8.863237472612226e-07   2.9584321131567064e-06
-5.080847282558667e-06   7.482448275649735e-07   9.498298697153094e-06
-5.080847282558667e-06   7.482448275649735e-07   9.498298697153094e-06
-5.080847282558667e-06   7.482448275649735e-07   9.498298697153094e-06
-5.080847282558667e-06   7.482448275649735e-07   9.498298697153094e-06
-1.1244992117281127e-06   7.262212767131454e-07   2.9175993762800665e-06
-1.1244992117281127e-06   7.262212767131454e-07   2.9175993762800665e-06
-1.1244992117281127e-06   7.262212767131454e-07   2.9175993762800665e-06
-1.1244992117281127e-06   7.262212767131454e-07   2.9175993762800665e-06
-3.028476795430678e-06   7.925337612927892e-07   6.051107858369995e-06
-3.028476795430678e-06   7.925337612927892e-07   6.051107858369995e-06
-3.028476795430678e-06   7.925337612927892e-07   6.051107858369995e-06
-3.028476795430678e-06   7.925337612927892e-07   6.051107858369995e-06
-1.1244992117281195e-06   7.482448275649735e-07   9.511512827664256e-06
-1.1244992117281195e-06   7.482448275649735e-07   9.511512827664256e-06
-1.1244992117281195e-06   7.482448275649735e-07   9.511512827664256e-06
-1.1244992117281195e-06   7.482448275649735e-07   9.511512827664256e-06
-5.080847282558674e-06   7.262212767131454e-07   2.9043852457688775e-06
-5.080847282558674e-06   7.262212767131454e-07   2.9043852457688775e-06
-5.080847282558674e-06   7.262212767131454e-07   2.9043852457688775e-06
-5.080847282558674e-06   7.262212767131454e-07   2.9043852457688775e-06
-5.247535190457306e-06   6.039183247474704e-07   9.542179748935596e-06
-5.247535190457306e-06   6.039183247474704e-07   9.542179748935596e-06
-5.247535190457306e-06   6.039183247474704e-07   9.542179748935596e-06
-5.247535190457306e-06   6.039183247474704e-07   9.542179748935596e-06
-1.2930891040286964e-06   5.680129803186957e-07   2.972979478211874e-06
-1.2930891040286964e-06   5.680129803186957e-07   2.972979478211874e-06
-1.2930891040286964e-06   5.680129803186957e-07   2.972979478211874e-06
-1.2930891040286964e-06   5.680129803186957e-07   2.972979478211874e-06
-3.177185756418094e-06   6.77105553119773e-07   6.047685021847059e-06
-3.177185756418094e-06   6.77105553119773e-07   6.047685021847059e-06
-3.177185756418094e-06   6.77105553119773e-07   6.047685021847059e-06
-3.177185756418094e-06   6.77105553119773e-07   6.047685021847059e-06
-1.2930891040287032e-06   6.039183247474704e-07   9.563722955592869e-06
-1.2930891040287032e-06   6.039183247474704e-07   9.563722955592869e-06
-1.2930891040287032e-06   6.039183247474704e-07   9.563722955592869e-06
-1.2930891040287032e-06   6.039183247474704e-07   9.563722955592869e-06
-5.247535190457312e-06   5.680129803187499e-07   2.9514362715546687e-06
-5.247535190457312e-06   5.680129803187499e-07   2.9514362715546687e-06
-5.247535190457312e-06   5.680129803187499e-07   2.9514362715546687e-06
-5.247535190457312e-06   5.680129803187499e-07   2.9514362715546687e-06
-5.412049990026816e-06   4.671143295039608e-07   9.663746798831954e-06
-5.412049990026816e-06   4.671143295039608e-07   9.663746798831954e-06
-5.412049990026816e-06   4.671143295039608e-07   9.663746798831954e-06
-5.412049990026816e-06   4.671143295039608e-07   9.663746798831954e-06
-1.4604636169854762e-06   4.159634753769293e-07   3.1084600229058746e-06
-1.4604636169854762e-06   4.159634753769293e-07   3.1084600229058746e-06
-1.4604636169854762e-06   4.159634753769293e-07   3.1084600229058746e-06
-1.4604636169854762e-06   4.159634753769293e-07   3.1084600229058746e-06
-3.333030963292433e-06   5.645956861154416e-07   6.140226273640875e-06
-3.333030963292433e-06   5.645956861154416e-07   6.140226273640875e-06
-3.333030963292433e-06   5.645956861154416e-07   6.140226273640875e-06
-3.333030963292433e-06   5.645956861154416e-07   6.140226273640875e-06
-4.9178466375072874e-06   1.7733461819020987e-06   8.47510322374886e-06
-4.9178466375072874e-06   1.7733461819020987e-06   8.47510322374886e-06
-4.9178466375072874e-06   1.7733461819020987e-06   8.47510322374886e-06
-4.9178466375072874e-06   1.7733461819020987e-06   8.47510322374886e-06
-8.82141243484149e-06   1.5323418923153466e-06   1.8245576544399474e-06
-8.82141243484149e-06   1.5323418923153466e-06   1.8245576544399474e-06
-8.82141243484149e-06   1.5323418923153466e-06   1.8245576544399474e-06
-8.82141243484149e-06   1.5323418923153466e-06   1.8245576544399474e-06
-8.996944150486153e-06   1.634485492448142e-06   8.36831592007848e-06
-8.996944150486153e-06   1.634485492448142e-06   8.36831592007848e-06
-8.996944150486153e-06   1.634485492448142e-06   8.36831592007848e-06
-8.996944150486153e-06   1.634485492448142e-06   8.36831592007848e-06
-5.0808472825586605e-06   1.3772119499801333e-06   1.9958519323469035e-06
-5.0808472825586605e-06   1.3772119499801333e-06   1.9958519323469035e-06
-5.0808472825586605e-06   1.3772119499801333e-06   1.9958519323469035e-06
-5.0808472825586605e-06   1.3772119499801333e-06   1.9958519323469035e-06
-6.9342121580502e-06   1.5505285398208614e-06   4.9808034375952315e-06
-6.9342121580502e-06   1.5505285398208614e-06   4.9808034375952315e-06
-6.9342121580502e-06   1.5505285398208614e-06   4.9808034375952315e-06
-6.9342121580502e-06   1.5505285398208614e-06   4.9808034375952315e-06
-5.080847282558674e-06   1.634485492448142e-06   8.522680045559318e-06
-5.080847282558674e-06   1.634485492448142e-06   8.522680045559318e-06
-5.080847282558674e-06   1.634485492448142e-06   8.522680045559318e-06
-5.080847282558674e-06   1.634485492448142e-06   8.522680045559318e-06
-8.996944150486125e-06   1.3772119499801875e-06   1.84148780686612e-06
-8.996944150486125e-06   1.3772119499801875e-06   1.84148780686612e-06
-8.996944150486125e-06   1.3772119499801875e-06   1.84148780686612e-06
-8.996944150486125e-06   1.3772119499801875e-06   1.84148780686612e-06
-9.193861533801146e-06   1.5035342986717418e-06   8.655589370675301e-06
-9.193861533801146e-06   1.5035342986717418e-06   8.655589370675301e-06
-9.193861533801146e-06   1.5035342986717418e-06   8.655589370675301e-06
-9.193861533801146e-06   1.5035342986717418e-06   8.655589370675301e-06
-5.247535190457299e-06   1.232319485217786e-06   2.241107686508034e-06
-5.247535190457299e-06   1.232319485217786e-06   2.241107686508034e-06
-5.247535190457299e-06   1.232319485217786e-06   2.241107686508034e-06
-5.247535190457299e-06   1.232319485217786e-06   2.241107686508034e-06
-7.05299581508351e-06   1.4454382412224561e-06   5.122337473949105e-06
-7.05299581508351e-06   1.4454382412224561e-06   5.122337473949105e-06
-7.05299581508351e-06   1.4454382412224561e-06   5.122337473949105e-06
-7.05299581508351e-06   1.4454382412224561e-06   5.122337473949105e-06
-5.247535190457312e-06   1.5035342986717418e-06   8.818318258747761e-06
-5.247535190457312e-06   1.5035342986717418e-06   8.818318258747761e-06
-5.247535190457312e-06   1.5035342986717418e-06   8.818318258747761e-06
-5.247535190457312e-06   1.5035342986717418e-06   8.818318258747761e-06
-9.193861533801133e-06   1.232319485217786e-06   2.078378798435628e-06
-9.193861533801133e-06   1.232319485217786e-06   2.078378798435628e-06
-9.193861533801133e-06   1.232319485217786e-06   2.078378798435628e-06
-9.193861533801133e-06   1.232319485217786e-06   2.078378798435628e-06
-9.367932475391465e-06   1.3496003902430456e-06   8.892409816974229e-06
-9.367932475391465e-06   1.3496003902430456e-06   8.892409816974229e-06
-9.367932475391465e-06   1.3496003902430456e-06   8.892409816974229e-06
-9.367932475391465e-06   1.3496003902430456e-06   8.892409816974229e-06
-5.412049990026795e-06   1.0690158318206358e-06   2.467623076419915e-06
-5.412049990026795e-06   1.0690158318206358e-06   2.467623076419915e-06
-5.412049990026795e-06   1.0690158318206358e-06   2.467623076419915e-06
-5.412049990026795e-06   1.0690158318206358e-06   2.467623076419915e-06
-7.251932676173979e-06   1.3333070964503021e-06   5.3755194612204935e-06
-7.251932676173979e-06   1.3333070964503021e-06   5.3755194612204935e-06
-7.251932676173979e-06   1.3333070964503021e-06   5.3755194612204935e-06
-7.251932676173979e-06   1.3333070964503021e-06   5.3755194612204935e-06
-8.82141243484149e-06   2.4645194964188462e-06   4.097910067159678e-06
-8.82141243484149e-06   2.4645194964188462e-06   4.097910067159678e-06
-8.82141243484149e-06   2.4645194964188462e-06   4.097910067159678e-06
-8.82141243484149e-06   2.4645194964188462e-06   4.097910067159678e-06
-1.2517503953953562e-05   2.0297154303483902e-06   -2.323124904336126e-06
-1.2517503953953562e-05   2.0297154303483902e-06   -2.323124904336126e-06
-1.2517503953953562e-05   2.0297154303483902e-06   -2.323124904336126e-06
-1.2517503953953562e-05   2.0297154303483902e-06   -2.323124904336126e-06
-1.2887111525992787e-05   2.458242799509118e-06   5.288127175018991e-06
-1.2887111525992787e-05   2.458242799509118e-06   5.288127175018991e-06
-1.2887111525992787e-05   2.458242799509118e-06   5.288127175018991e-06
-1.2887111525992787e-05   2.458242799509118e-06   5.288127175018991e-06
-8.996944150486112e-06   1.9833954856584885e-06   -9.105767291816809e-07
-8.996944150486112e-06   1.9833954856584885e-06   -9.105767291816809e-07
-8.996944150486112e-06   1.9833954856584885e-06   -9.105767291816809e-07
-8.996944150486112e-06   1.9833954856584885e-06   -9.105767291816809e-07
-1.0399885676644187e-05   2.1910723384777574e-06   1.303053036057111e-06
-1.0399885676644187e-05   2.1910723384777574e-06   1.303053036057111e-06
-1.0399885676644187e-05   2.1910723384777574e-06   1.303053036057111e-06
-1.0399885676644187e-05   2.1910723384777574e-06   1.303053036057111e-06
-8.996944150486139e-06   2.458242799509118e-06   5.573035563329417e-06
-8.996944150486139e-06   2.458242799509118e-06   5.573035563329417e-06
-8.996944150486139e-06   2.458242799509118e-06   5.573035563329417e-06
-8.996944150486139e-06   2.458242799509118e-06   5.573035563329417e-06
-1.288711152599276e-05   1.9833954856584343e-06   -1.1954851174920532e-06
-1.288711152599276e-05   1.9833954856584343e-06   -1.1954851174920532e-06
-1.288711152599276e-05   1.9833954856584343e-06   -1.1954851174920532e-06
-1.288711152599276e-05   1.9833954856584343e-06   -1.1954851174920532e-06
-1.3207860462143253e-05   2.410158721117086e-06   6.30352445094728e-06
-1.3207860462143253e-05   2.410158721117086e-06   6.30352445094728e-06
-1.3207860462143253e-05   2.410158721117086e-06   6.30352445094728e-06
-1.3207860462143253e-05   2.410158721117086e-06   6.30352445094728e-06
-9.193861533801105e-06   1.9216698575925148e-06   -9.338044484148364e-08
-9.193861533801105e-06   1.9216698575925148e-06   -9.338044484148364e-08
-9.193861533801105e-06   1.9216698575925148e-06   -9.338044484148364e-08
-9.193861533801105e-06   1.9216698575925148e-06   -9.338044484148364e-08
-1.079715108667751e-05   2.195021445447308e-06   2.414757857240011e-06
-1.079715108667751e-05   2.195021445447308e-06   2.414757857240011e-06
-1.079715108667751e-05   2.195021445447308e-06   2.414757857240011e-06
-1.079715108667751e-05   2.195021445447308e-06   2.414757857240011e-06
-9.193861533801133e-06   2.410158721117086e-06   6.596617769061969e-06
-9.193861533801133e-06   2.410158721117086e-06   6.596617769061969e-06
-9.193861533801133e-06   2.410158721117086e-06   6.596617769061969e-06
-9.193861533801133e-06   2.410158721117086e-06   6.596617769061969e-06
-1.3207860462143226e-05   1.9216698575925148e-06   -3.864737629561722e-07
-1.3207860462143226e-05   1.9216698575925148e-06   -3.864737629561722e-07
-1.3207860462143226e-05   1.9216698575925148e-06   -3.864737629561722e-07
-1.3207860462143226e-05   1.9216698575925148e-06   -3.864737629561722e-07
-1.3578421980886158e-05   2.193222277515239e-06   8.061793701623755e-06
-1.3578421980886158e-05   2.193222277515239e-06   8.061793701623755e-06
-1.3578421980886158e-05   2.193222277515239e-06   8.061793701623755e-06
-1.3578421980886158e-05   2.193222277515239e-06   8.061793701623755e-06
-9.367932475391424e-06   1.7105521061311943e-06   1.3339132952963325e-06
-9.367932475391424e-06   1.7105521061311943e-06   1.3339132952963325e-06
-9.367932475391424e-06   1.7105521061311943e-06   1.3339132952963325e-06
-9.367932475391424e-06   1.7105521061311943e-06   1.3339132952963325e-06
-1.0874953323865261e-05   2.1027025723440536e-06   3.6103244296913106e-06
-1.0874953323865261e-05   2.1027025723440536e-06   3.6103244296913106e-06
-1.0874953323865261e-05   2.1027025723440536e-06   3.6103244296913106e-06
-1.0874953323865261e-05   2.1027025723440536e-06   3.6103244296913106e-06
4.251374482136859e-06   -4.891698246656164e-07   5.785393360745347e-06
4.251374482136859e-06   -4.891698246656164e-07   5.785393360745347e-06
4.251374482136859e-06   -4.891698246656164e-07   5.785393360745347e-06
4.251374482136859e-06   -4.891698246656164e-07   5.785393360745347e-06
1.172506910577203e-06   -2.3739001017968747e-08   9.332059023344614e-07
1.172506910577203e-06   -2.3739001017968747e-08   9.332059023344614e-07
1.172506910577203e-06   -2.3739001017968747e-08   9.332059023344614e-07
1.172506910577203e-06   -2.3739001017968747e-08   9.332059023344614e-07
1.0363987692243918e-06   -6.673425371716266e-07   5.373170542841789e-06
1.0363987692243918e-06   -6.673425371716266e-07   5.373170542841789e-06
1.0363987692243918e-06   -6.673425371716266e-07   5.373170542841789e-06
1.0363987692243918e-06   -6.673425371716266e-07   5.373170542841789e-06
3.913144565236916e-06   -1.8490691941529594e-07   2.891328455006015e-07
3.913144565236916e-06   -1.8490691941529594e-07   2.891328455006015e-07
3.913144565236916e-06   -1.8490691941529594e-07   2.891328455006015e-07
3.913144565236916e-06   -1.8490691941529594e-07   2.891328455006015e-07
2.443111506289479e-06   -3.640665308624015e-07   2.8466837106147145e-06
2.443111506289479e-06   -3.640665308624015e-07   2.8466837106147145e-06
2.443111506289479e-06   -3.640665308624015e-07   2.8466837106147145e-06
2.443111506289479e-06   -3.640665308624015e-07   2.8466837106147145e-06
3.913144565236922e-06   -6.673425371716266e-07   5.08370917218803e-06
3.913144565236922e-06   -6.673425371716266e-07   5.08370917218803e-06
3.913144565236922e-06   -6.673425371716266e-07   5.08370917218803e-06
3.913144565236922e-06   -6.673425371716266e-07   5.08370917218803e-06
1.036398769224391e-06   -1.8490691941529594e-07   5.785942161544108e-07
1.036398769224391e-06   -1.8490691941529594e-07   5.785942161544108e-07
1.036398769224391e-06   -1.8490691941529594e-07   5.785942161544108e-07
1.036398769224391e-06   -1.8490691941529594e-07   5.785942161544108e-07
8.766736771662807e-07   -7.274473789465599e-07   5.0290177216651e-06
8.766736771662807e-07   -7.274473789465599e-07   5.0290177216651e-06
8.766736771662807e-07   -7.274473789465599e-07   5.0290177216651e-06
8.766736771662807e-07   -7.274473789465599e-07   5.0290177216651e-06
3.625499719337928e-06   -2.5264908300155027e-07   1.6276200714537403e-07
3.625499719337928e-06   -2.5264908300155027e-07   1.6276200714537403e-07
3.625499719337928e-06   -2.5264908300155027e-07   1.6276200714537403e-07
3.625499719337928e-06   -2.5264908300155027e-07   1.6276200714537403e-07
2.2838915102695e-06   -4.3458891423907363e-07   2.5079395876686096e-06
2.2838915102695e-06   -4.3458891423907363e-07   2.5079395876686096e-06
2.2838915102695e-06   -4.3458891423907363e-07   2.5079395876686096e-06
2.2838915102695e-06   -4.3458891423907363e-07   2.5079395876686096e-06
3.625499719337931e-06   -7.274473789465057e-07   4.744138744098088e-06
3.625499719337931e-06   -7.274473789465057e-07   4.744138744098088e-06
3.625499719337931e-06   -7.274473789465057e-07   4.744138744098088e-06
3.625499719337931e-06   -7.274473789465057e-07   4.744138744098088e-06
8.766736771662765e-07   -2.5264908300155027e-07   4.4764098471234727e-07
8.766736771662765e-07   -2.5264908300155027e-07   4.4764098471234727e-07
8.766736771662765e-07   -2.5264908300155027e-07   4.4764098471234727e-07
8.766736771662765e-07   -2.5264908300155027e-07   4.4764098471234727e-07
7.377113339583247e-07   -8.029456062114398e-07   4.620584128166375e-06
7.377113339583247e-07   -8.029456062114398e-07   4.620584128166375e-06
7.377113339583247e-07   -8.029456062114398e-07   4.620584128166375e-06
7.377113339583247e-07   -8.029456062114398e-07   4.620584128166375e-06
3.286846432066695e-06   -3.621837310907334e-07   1.0756850624664025e-07
3.286846432066695e-06   -3.621837310907334e-07   1.0756850624664025e-07
3.286846432066695e-06   -3.621837310907334e-07   1.0756850624664025e-07
3.286846432066695e-06   -3.621837310907334e-07   1.0756850624664025e-07
2.0374683177879513e-06   -4.677775367993846e-07   2.253221646803105e-06
2.0374683177879513e-06   -4.677775367993846e-07   2.253221646803105e-06
2.0374683177879513e-06   -4.677775367993846e-07   2.253221646803105e-06
2.0374683177879513e-06   -4.677775367993846e-07   2.253221646803105e-06
1.1725069105772047e-06   2.2370718000432185e-07   7.838169009145141e-06
1.1725069105772047e-06   2.2370718000432185e-07   7.838169009145141e-06
1.1725069105772047e-06   2.2370718000432185e-07   7.838169009145141e-06
1.1725069105772047e-06   2.2370718000432185e-07   7.838169009145141e-06
-1.6222227419106897e-06   4.380329273474381e-07   3.308881703404504e-06
-1.6222227419106897e-06   4.380329273474381e-07   3.308881703404504e-06
-1.6222227419106897e-06   4.380329273474381e-07   3.308881703404504e-06
-1.6222227419106897e-06   4.380329273474381e-07   3.308881703404504e-06
-1.7423925025783835e-06   4.551198616581506e-08   7.858159516230484e-06
-1.7423925025783835e-06   4.551198616581506e-08   7.858159516230484e-06
-1.7423925025783835e-06   4.551198616581506e-08   7.858159516230484e-06
-1.7423925025783835e-06   4.551198616581506e-08   7.858159516230484e-06
1.036398769224391e-06   2.5823727051708673e-07   3.099205559281787e-06
1.036398769224391e-06   2.5823727051708673e-07   3.099205559281787e-06
1.036398769224391e-06   2.5823727051708673e-07   3.099205559281787e-06
1.036398769224391e-06   2.5823727051708673e-07   3.099205559281787e-06
-3.1056692082175865e-07   2.2244646349312762e-07   5.365622860239961e-06
-3.1056692082175865e-07   2.2244646349312762e-07   5.365622860239961e-06
-3.1056692082175865e-07   2.2244646349312762e-07   5.365622860239961e-06
-3.1056692082175865e-07   2.2244646349312762e-07   5.365622860239961e-06
1.036398769224391e-06   4.551198616581506e-08   7.730524345619647e-06
1.036398769224391e-06   4.551198616581506e-08   7.730524345619647e-06
1.036398769224391e-06   4.551198616581506e-08   7.730524345619647e-06
1.036398769224391e-06   4.551198616581506e-08   7.730524345619647e-06
-1.7423925025783835e-06   2.5823727051714094e-07   3.226840729892577e-06
-1.7423925025783835e-06   2.5823727051714094e-07   3.226840729892577e-06
-1.7423925025783835e-06   2.5823727051714094e-07   3.226840729892577e-06
-1.7423925025783835e-06   2.5823727051714094e-07   3.226840729892577e-06
-1.8663242065829587e-06   -9.866321905435335e-08   7.798175878324432e-06
-1.8663242065829587e-06   -9.866321905435335e-08   7.798175878324432e-06
-1.8663242065829587e-06   -9.866321905435335e-08   7.798175878324432e-06
-1.8663242065829587e-06   -9.866321905435335e-08   7.798175878324432e-06
8.766736771662765e-07   1.0758382973434467e-07   3.1027645094692385e-06
8.766736771662765e-07   1.0758382973434467e-07   3.1027645094692385e-06
8.766736771662765e-07   1.0758382973434467e-07   3.1027645094692385e-06
8.766736771662765e-07   1.0758382973434467e-07   3.1027645094692385e-06
-4.3956349222887096e-07   9.813614289190704e-08   5.302161737233318e-06
-4.3956349222887096e-07   9.813614289190704e-08   5.302161737233318e-06
-4.3956349222887096e-07   9.813614289190704e-08   5.302161737233318e-06
-4.3956349222887096e-07   9.813614289190704e-08   5.302161737233318e-06
8.766736771662807e-07   -9.866321905435335e-08   7.67442764905123e-06
8.766736771662807e-07   -9.866321905435335e-08   7.67442764905123e-06
8.766736771662807e-07   -9.866321905435335e-08   7.67442764905123e-06
8.766736771662807e-07   -9.866321905435335e-08   7.67442764905123e-06
-1.8663242065829587e-06   1.0758382973434467e-07   3.226512738742441e-06
-1.8663242065829587e-06   1.0758382973434467e-07   3.226512738742441e-06
-1.8663242065829587e-06   1.0758382973434467e-07   3.226512738742441e-06
-1.8663242065829587e-06   1.0758382973434467e-07   3.226512738742441e-06
-1.988695724904738e-06   -2.38665603184121e-07   7.891039492162954e-06
-1.988695724904738e-06   -2.38665603184121e-07   7.891039492162954e-06
-1.988695724904738e-06   -2.38665603184121e-07   7.891039492162954e-06
-1.988695724904738e-06   -2.38665603184121e-07   7.891039492162954e-06
7.377113339583221e-07   -4.426410365874394e-08   3.2303868276759647e-06
7.377113339583221e-07   -4.426410365874394e-08   3.2303868276759647e-06
7.377113339583221e-07   -4.426410365874394e-08   3.2303868276759647e-06
7.377113339583221e-07   -4.426410365874394e-08   3.2303868276759647e-06
-5.476268716608359e-07   -1.1443853549492457e-08   5.3529250203089796e-06
-5.476268716608359e-07   -1.1443853549492457e-08   5.3529250203089796e-06
-5.476268716608359e-07   -1.1443853549492457e-08   5.3529250203089796e-06
-5.476268716608359e-07   -1.1443853549492457e-08   5.3529250203089796e-06
-1.6222227419106897e-06   8.863237472612226e-07   8.67018198496762e-06
-1.6222227419106897e-06   8.863237472612226e-07   8.67018198496762e-06
-1.6222227419106897e-06   8.863237472612226e-07   8.67018198496762e-06
-1.6222227419106897e-06   8.863237472612226e-07   8.67018198496762e-06
-4.362844166425954e-06   8.409975612159223e-07   4.075283899148389e-06
-4.362844166425954e-06   8.409975612159223e-07   4.075283899148389e-06
-4.362844166425954e-06   8.409975612159223e-07   4.075283899148389e-06
-4.362844166425954e-06   8.409975612159223e-07   4.075283899148389e-06
-4.478683001802149e-06   7.262212767130912e-07   8.593110930215579e-06
-4.478683001802149e-06   7.262212767130912e-07   8.593110930215579e-06
-4.478683001802149e-06   7.262212767130912e-07   8.593110930215579e-06
-4.478683001802149e-06   7.262212767130912e-07   8.593110930215579e-06
-1.7423925025783835e-06   6.769985653929354e-07   4.0621603916348044e-06
-1.7423925025783835e-06   6.769985653929354e-07   4.0621603916348044e-06
-1.7423925025783835e-06   6.769985653929354e-07   4.0621603916348044e-06
-1.7423925025783835e-06   6.769985653929354e-07   4.0621603916348044e-06
-3.0577567426693904e-06   7.623351630636072e-07   6.203232166517763e-06
-3.0577567426693904e-06   7.623351630636072e-07   6.203232166517763e-06
-3.0577567426693904e-06   7.623351630636072e-07   6.203232166517763e-06
-3.0577567426693904e-06   7.623351630636072e-07   6.203232166517763e-06
-1.7423925025783835e-06   7.262212767130912e-07   8.622644557007756e-06
-1.7423925025783835e-06   7.262212767130912e-07   8.622644557007756e-06
-1.7423925025783835e-06   7.262212767130912e-07   8.622644557007756e-06
-1.7423925025783835e-06   7.262212767130912e-07   8.622644557007756e-06
-4.478683001802149e-06   6.769985653929354e-07   4.032626764842722e-06
-4.478683001802149e-06   6.769985653929354e-07   4.032626764842722e-06
-4.478683001802149e-06   6.769985653929354e-07   4.032626764842722e-06
-4.478683001802149e-06   6.769985653929354e-07   4.032626764842722e-06
-4.598112255616226e-06   5.680129803186957e-07   8.644798525639472e-06
-4.598112255616226e-06   5.680129803186957e-07   8.644798525639472e-06
-4.598112255616226e-06   5.680129803186957e-07   8.644798525639472e-06
-4.598112255616226e-06   5.680129803186957e-07   8.644798525639472e-06
-1.866324206582952e-06   5.138911555193325e-07   4.124291538797054e-06
-1.866324206582952e-06   5.138911555193325e-07   4.124291538797054e-06
-1.866324206582952e-06   5.138911555193325e-07   4.124291538797054e-06
-1.866324206582952e-06   5.138911555193325e-07   4.124291538797054e-06
-3.1604699422217237e-06   6.384053332768335e-07   6.206492591540435e-06
-3.1604699422217237e-06   6.384053332768335e-07   6.206492591540435e-06
-3.1604699422217237e-06   6.384053332768335e-07   6.206492591540435e-06
-3.1604699422217237e-06   6.384053332768335e-07   6.206492591540435e-06
-1.8663242065829587e-06   5.680129803186957e-07   8.677271620519071e-06
-1.8663242065829587e-06   5.680129803186957e-07   8.677271620519071e-06
-1.8663242065829587e-06   5.680129803186957e-07   8.677271620519071e-06
-1.8663242065829587e-06   5.680129803186957e-07   8.677271620519071e-06
-4.598112255616226e-06   5.138911555193867e-07   4.091818443917414e-06
-4.598112255616226e-06   5.138911555193867e-07   4.091818443917414e-06
-4.598112255616226e-06   5.138911555193867e-07   4.091818443917414e-06
-4.598112255616226e-06   5.138911555193867e-07   4.091818443917414e-06
-4.715534713194768e-06   4.159634753769293e-07   8.77740711564324e-06
-4.715534713194768e-06   4.159634753769293e-07   8.77740711564324e-06
-4.715534713194768e-06   4.159634753769293e-07   8.77740711564324e-06
-4.715534713194768e-06   4.159634753769293e-07   8.77740711564324e-06
-1.9886957249047314e-06   3.581705651832328e-07   4.267351214609443e-06
-1.9886957249047314e-06   3.581705651832328e-07   4.267351214609443e-06
-1.9886957249047314e-06   3.581705651832328e-07   4.267351214609443e-06
-1.9886957249047314e-06   3.581705651832328e-07   4.267351214609443e-06
-3.2699610194598916e-06   5.171888059263871e-07   6.30738242775543e-06
-3.2699610194598916e-06   5.171888059263871e-07   6.30738242775543e-06
-3.2699610194598916e-06   5.171888059263871e-07   6.30738242775543e-06
-3.2699610194598916e-06   5.171888059263871e-07   6.30738242775543e-06
-4.362844166425954e-06   1.5323418923153466e-06   7.653714388375675e-06
-4.362844166425954e-06   1.5323418923153466e-06   7.653714388375675e-06
-4.362844166425954e-06   1.5323418923153466e-06   7.653714388375675e-06
-4.362844166425954e-06   1.5323418923153466e-06   7.653714388375675e-06
-7.063128785742172e-06   1.2613709573936144e-06   2.9906574618955643e-06
-7.063128785742172e-06   1.2613709573936144e-06   2.9906574618955643e-06
-7.063128785742172e-06   1.2613709573936144e-06   2.9906574618955643e-06
-7.063128785742172e-06   1.2613709573936144e-06   2.9906574618955643e-06
-7.189982750686996e-06   1.3772119499801875e-06   7.516321351465078e-06
-7.189982750686996e-06   1.3772119499801875e-06   7.516321351465078e-06
-7.189982750686996e-06   1.3772119499801875e-06   7.516321351465078e-06
-7.189982750686996e-06   1.3772119499801875e-06   7.516321351465078e-06
-4.478683001802142e-06   1.0967848410991924e-06   3.1657447019856934e-06
-4.478683001802142e-06   1.0967848410991924e-06   3.1657447019856934e-06
-4.478683001802142e-06   1.0967848410991924e-06   3.1657447019856934e-06
-4.478683001802142e-06   1.0967848410991924e-06   3.1657447019856934e-06
-5.759495757906593e-06   1.2932891108063428e-06   5.182530067002368e-06
-5.759495757906593e-06   1.2932891108063428e-06   5.182530067002368e-06
-5.759495757906593e-06   1.2932891108063428e-06   5.182530067002368e-06
-5.759495757906593e-06   1.2932891108063428e-06   5.182530067002368e-06
-4.478683001802163e-06   1.3772119499801875e-06   7.684577616793686e-06
-4.478683001802163e-06   1.3772119499801875e-06   7.684577616793686e-06
-4.478683001802163e-06   1.3772119499801875e-06   7.684577616793686e-06
-4.478683001802163e-06   1.3772119499801875e-06   7.684577616793686e-06
-7.189982750686983e-06   1.0967848410991924e-06   2.9974884366570584e-06
-7.189982750686983e-06   1.0967848410991924e-06   2.9974884366570584e-06
-7.189982750686983e-06   1.0967848410991924e-06   2.9974884366570584e-06
-7.189982750686983e-06   1.0967848410991924e-06   2.9974884366570584e-06
-7.33950405037302e-06   1.232319485217786e-06   7.762680731010702e-06
-7.33950405037302e-06   1.232319485217786e-06   7.762680731010702e-06
-7.33950405037302e-06   1.232319485217786e-06   7.762680731010702e-06
-7.33950405037302e-06   1.232319485217786e-06   7.762680731010702e-06
-4.598112255616219e-06   9.460041359142545e-07   3.3654836159982874e-06
-4.598112255616219e-06   9.460041359142545e-07   3.3654836159982874e-06
-4.598112255616219e-06   9.460041359142545e-07   3.3654836159982874e-06
-4.598112255616219e-06   9.460041359142545e-07   3.3654836159982874e-06
-5.839849670699368e-06   1.1775076033681848e-06   5.296143893997776e-06
-5.839849670699368e-06   1.1775076033681848e-06   5.296143893997776e-06
-5.839849670699368e-06   1.1775076033681848e-06   5.296143893997776e-06
-5.839849670699368e-06   1.1775076033681848e-06   5.296143893997776e-06
-4.598112255616226e-06   1.2323194852177318e-06   7.934469940592892e-06
-4.598112255616226e-06   1.2323194852177318e-06   7.934469940592892e-06
-4.598112255616226e-06   1.2323194852177318e-06   7.934469940592892e-06
-4.598112255616226e-06   1.2323194852177318e-06   7.934469940592892e-06
-7.339504050373006e-06   9.460041359142003e-07   3.193694406416125e-06
-7.339504050373006e-06   9.460041359142003e-07   3.193694406416125e-06
-7.339504050373006e-06   9.460041359142003e-07   3.193694406416125e-06
-7.339504050373006e-06   9.460041359142003e-07   3.193694406416125e-06
-7.466916585401409e-06   1.06901583182069e-06   7.996047801557332e-06
-7.466916585401409e-06   1.06901583182069e-06   7.996047801557332e-06
-7.466916585401409e-06   1.06901583182069e-06   7.996047801557332e-06
-7.466916585401409e-06   1.06901583182069e-06   7.996047801557332e-06
-4.7155347131947405e-06   7.836610316938153e-07   3.5816242279556806e-06
-4.7155347131947405e-06   7.836610316938153e-07   3.5816242279556806e-06
-4.7155347131947405e-06   7.836610316938153e-07   3.5816242279556806e-06
-4.7155347131947405e-06   7.836610316938153e-07   3.5816242279556806e-06
-5.981491334768819e-06   1.0602517489340297e-06   5.5255975002349906e-06
-5.981491334768819e-06   1.0602517489340297e-06   5.5255975002349906e-06
-5.981491334768819e-06   1.0602517489340297e-06   5.5255975002349906e-06
-5.981491334768819e-06   1.0602517489340297e-06   5.5255975002349906e-06
-7.063128785742185e-06   2.0297154303483902e-06   3.6043317082889168e-06
-7.063128785742185e-06   2.0297154303483902e-06   3.6043317082889168e-06
-7.063128785742185e-06   2.0297154303483902e-06   3.6043317082889168e-06
-7.063128785742185e-06   2.0297154303483902e-06   3.6043317082889168e-06
-9.53496923198282e-06   1.5706544709982837e-06   -7.908389443888914e-07
-9.53496923198282e-06   1.5706544709982837e-06   -7.908389443888914e-07
-9.53496923198282e-06   1.5706544709982837e-06   -7.908389443888914e-07
-9.53496923198282e-06   1.5706544709982837e-06   -7.908389443888914e-07
-9.861758729789289e-06   1.9833954856584343e-06   4.4671239246788104e-06
-9.861758729789289e-06   1.9833954856584343e-06   4.4671239246788104e-06
-9.861758729789289e-06   1.9833954856584343e-06   4.4671239246788104e-06
-9.861758729789289e-06   1.9833954856584343e-06   4.4671239246788104e-06
-7.189982750686969e-06   1.488174001094359e-06   3.112968502469297e-07
-7.189982750686969e-06   1.488174001094359e-06   3.112968502469297e-07
-7.189982750686969e-06   1.488174001094359e-06   3.112968502469297e-07
-7.189982750686969e-06   1.488174001094359e-06   3.112968502469297e-07
-8.105105382190067e-06   1.7329423728407894e-06   1.689640213037786e-06
-8.105105382190067e-06   1.7329423728407894e-06   1.689640213037786e-06
-8.105105382190067e-06   1.7329423728407894e-06   1.689640213037786e-06
-8.105105382190067e-06   1.7329423728407894e-06   1.689640213037786e-06
-7.189982750686983e-06   1.9833954856584885e-06   4.764256815417277e-06
-7.189982750686983e-06   1.9833954856584885e-06   4.764256815417277e-06
-7.189982750686983e-06   1.9833954856584885e-06   4.764256815417277e-06
-7.189982750686983e-06   1.9833954856584885e-06   4.764256815417277e-06
-9.861758729789316e-06   1.488174001094359e-06   1.4163959508408687e-08
-9.861758729789316e-06   1.488174001094359e-06   1.4163959508408687e-08
-9.861758729789316e-06   1.488174001094359e-06   1.4163959508408687e-08
-9.861758729789316e-06   1.488174001094359e-06   1.4163959508408687e-08
-1.0141497960706344e-05   1.9216698575925148e-06   5.288071890607502e-06
-1.0141497960706344e-05   1.9216698575925148e-06   5.288071890607502e-06
-1.0141497960706344e-05   1.9216698575925148e-06   5.288071890607502e-06
-1.0141497960706344e-05   1.9216698575925148e-06   5.288071890607502e-06
-7.339504050373006e-06   1.4169205290489977e-06   9.209316371780051e-07
-7.339504050373006e-06   1.4169205290489977e-06   9.209316371780051e-07
-7.339504050373006e-06   1.4169205290489977e-06   9.209316371780051e-07
-7.339504050373006e-06   1.4169205290489977e-06   9.209316371780051e-07
-8.42240491247724e-06   1.7131134475634386e-06   2.548050656243289e-06
-8.42240491247724e-06   1.7131134475634386e-06   2.548050656243289e-06
-8.42240491247724e-06   1.7131134475634386e-06   2.548050656243289e-06
-8.42240491247724e-06   1.7131134475634386e-06   2.548050656243289e-06
-7.339504050373006e-06   1.921669857592569e-06   5.5909214877335905e-06
-7.339504050373006e-06   1.921669857592569e-06   5.5909214877335905e-06
-7.339504050373006e-06   1.921669857592569e-06   5.5909214877335905e-06
-7.339504050373006e-06   1.921669857592569e-06   5.5909214877335905e-06
-1.0141497960706357e-05   1.4169205290490519e-06   6.180820400519436e-07
-1.0141497960706357e-05   1.4169205290490519e-06   6.180820400519436e-07
-1.0141497960706357e-05   1.4169205290490519e-06   6.180820400519436e-07
-1.0141497960706357e-05   1.4169205290490519e-06   6.180820400519436e-07
-1.0474499869723449e-05   1.7105521061311943e-06   6.73594337916928e-06
-1.0474499869723449e-05   1.7105521061311943e-06   6.73594337916928e-06
-1.0474499869723449e-05   1.7105521061311943e-06   6.73594337916928e-06
-1.0474499869723449e-05   1.7105521061311943e-06   6.73594337916928e-06
-7.466916585401368e-06   1.2193098122679114e-06   2.018049948283797e-06
-7.466916585401368e-06   1.2193098122679114e-06   2.018049948283797e-06
-7.466916585401368e-06   1.2193098122679114e-06   2.018049948283797e-06
-7.466916585401368e-06   1.2193098122679114e-06   2.018049948283797e-06
-8.49405881514617e-06   1.6232315999968247e-06   3.4876005918875317e-06
-8.49405881514617e-06   1.6232315999968247e-06   3.4876005918875317e-06
-8.49405881514617e-06   1.6232315999968247e-06   3.4876005918875317e-06
-8.49405881514617e-06   1.6232315999968247e-06   3.4876005918875317e-06
1.083011678329842e-06   -2.3739001018022957e-08   4.399294765357652e-06
1.083011678329842e-06   -2.3739001018022957e-08   4.399294765357652e-06
1.083011678329842e-06   -2.3739001018022957e-08   4.399294765357652e-06
1.083011678329842e-06   -2.3739001018022957e-08   4.399294765357652e-06
-7.479553759203639e-07   4.288878707269894e-07   1.6192591313210145e-06
-7.479553759203639e-07   4.288878707269894e-07   1.6192591313210145e-06
-7.479553759203639e-07   4.288878707269894e-07   1.6192591313210145e-06
-7.479553759203639e-07   4.288878707269894e-07   1.6192591313210145e-06
-8.478849666108326e-07   -1.8490691941535015e-07   4.309695275103091e-06
-8.478849666108326e-07   -1.8490691941535015e-07   4.309695275103091e-06
-8.478849666108326e-07   -1.8490691941535015e-07   4.309695275103091e-06
-8.478849666108326e-07   -1.8490691941535015e-07   4.309695275103091e-06
7.817860614973007e-07   2.7829745087023594e-07   1.3156542727515606e-06
7.817860614973007e-07   2.7829745087023594e-07   1.3156542727515606e-06
7.817860614973007e-07   2.7829745087023594e-07   1.3156542727515606e-06
7.817860614973007e-07   2.7829745087023594e-07   1.3156542727515606e-06
1.784912424191935e-08   9.799477462000064e-08   2.697064107260629e-06
1.784912424191935e-08   9.799477462000064e-08   2.697064107260629e-06
1.784912424191935e-08   9.799477462000064e-08   2.697064107260629e-06
1.784912424191935e-08   9.799477462000064e-08   2.697064107260629e-06
7.817860614973007e-07   -1.8490691941535015e-07   4.031772652931777e-06
7.817860614973007e-07   -1.8490691941535015e-07   4.031772652931777e-06
7.817860614973007e-07   -1.8490691941535015e-07   4.031772652931777e-06
7.817860614973007e-07   -1.8490691941535015e-07   4.031772652931777e-06
-8.478849666108326e-07   2.7829745087023594e-07   1.5935768949228743e-06
-8.478849666108326e-07   2.7829745087023594e-07   1.5935768949228743e-06
-8.478849666108326e-07   2.7829745087023594e-07   1.5935768949228743e-06
-8.478849666108326e-07   2.7829745087023594e-07   1.5935768949228743e-06
-9.719227761977233e-07   -2.5264908300155027e-07   4.178266903756827e-06
-9.719227761977233e-07   -2.5264908300155027e-07   4.178266903756827e-06
-9.719227761977233e-07   -2.5264908300155027e-07   4.178266903756827e-06
-9.719227761977233e-07   -2.5264908300155027e-07   4.178266903756827e-06
5.188495500216573e-07   1.9788144153988626e-07   1.4233280453329936e-06
5.188495500216573e-07   1.9788144153988626e-07   1.4233280453329936e-06
5.188495500216573e-07   1.9788144153988626e-07   1.4233280453329936e-06
5.188495500216573e-07   1.9788144153988626e-07   1.4233280453329936e-06
-1.4212609136187087e-07   3.4016468955939396e-08   2.6232730978558854e-06
-1.4212609136187087e-07   3.4016468955939396e-08   2.6232730978558854e-06
-1.4212609136187087e-07   3.4016468955939396e-08   2.6232730978558854e-06
-1.4212609136187087e-07   3.4016468955939396e-08   2.6232730978558854e-06
5.188495500216573e-07   -2.5264908300149606e-07   3.907948589031914e-06
5.188495500216573e-07   -2.5264908300149606e-07   3.907948589031914e-06
5.188495500216573e-07   -2.5264908300149606e-07   3.907948589031914e-06
5.188495500216573e-07   -2.5264908300149606e-07   3.907948589031914e-06
-9.719227761977216e-07   1.9788144153988626e-07   1.6936463600578284e-06
-9.719227761977216e-07   1.9788144153988626e-07   1.6936463600578284e-06
-9.719227761977216e-07   1.9788144153988626e-07   1.6936463600578284e-06
-9.719227761977216e-07   1.9788144153988626e-07   1.6936463600578284e-06
-1.0765915285520467e-06   -3.621837310907334e-07   4.1040142731030445e-06
-1.0765915285520467e-06   -3.621837310907334e-07   4.1040142731030445e-06
-1.0765915285520467e-06   -3.621837310907334e-07   4.1040142731030445e-06
-1.0765915285520467e-06   -3.621837310907334e-07   4.1040142731030445e-06
1.8775627497770103e-07   2.9722004829589675e-08   1.7616244923346878e-06
1.8775627497770103e-07   2.9722004829589675e-08   1.7616244923346878e-06
1.8775627497770103e-07   2.9722004829589675e-08   1.7616244923346878e-06
1.8775627497770103e-07   2.9722004829589675e-08   1.7616244923346878e-06
-3.2316272609373376e-07   -2.099573468531432e-08   2.643586804496021e-06
-3.2316272609373376e-07   -2.099573468531432e-08   2.643586804496021e-06
-3.2316272609373376e-07   -2.099573468531432e-08   2.643586804496021e-06
-3.2316272609373376e-07   -2.099573468531432e-08   2.643586804496021e-06
-7.479553759203639e-07   4.380329273474381e-07   6.917951241068873e-06
-7.479553759203639e-07   4.380329273474381e-07   6.917951241068873e-06
-7.479553759203639e-07   4.380329273474381e-07   6.917951241068873e-06
-7.479553759203639e-07   4.380329273474381e-07   6.917951241068873e-06
-2.2755927989589287e-06   5.32061253235639e-07   4.4283058648708715e-06
-2.2755927989589287e-06   5.32061253235639e-07   4.4283058648708715e-06
-2.2755927989589287e-06   5.32061253235639e-07   4.4283058648708715e-06
-2.2755927989589287e-06   5.32061253235639e-07   4.4283058648708715e-06
-2.3521996041415586e-06   2.5823727051708673e-07   6.894500926268854e-06
-2.3521996041415586e-06   2.5823727051708673e-07   6.894500926268854e-06
-2.3521996041415586e-06   2.5823727051708673e-07   6.894500926268854e-06
-2.3521996041415586e-06   2.5823727051708673e-07   6.894500926268854e-06
-8.478849666108326e-07   3.652277839142899e-07   4.323115555679289e-06
-8.478849666108326e-07   3.652277839142899e-07   4.323115555679289e-06
-8.478849666108326e-07   3.652277839142899e-07   4.323115555679289e-06
-8.478849666108326e-07   3.652277839142899e-07   4.323115555679289e-06
-1.5677324245095718e-06   3.77634654595045e-07   5.515417196435429e-06
-1.5677324245095718e-06   3.77634654595045e-07   5.515417196435429e-06
-1.5677324245095718e-06   3.77634654595045e-07   5.515417196435429e-06
-1.5677324245095718e-06   3.77634654595045e-07   5.515417196435429e-06
-8.478849666108309e-07   2.5823727051708673e-07   6.8303066182304266e-06
-8.478849666108309e-07   2.5823727051708673e-07   6.8303066182304266e-06
-8.478849666108309e-07   2.5823727051708673e-07   6.8303066182304266e-06
-8.478849666108309e-07   2.5823727051708673e-07   6.8303066182304266e-06
-2.3521996041415586e-06   3.652277839142899e-07   4.387309863717622e-06
-2.3521996041415586e-06   3.652277839142899e-07   4.387309863717622e-06
-2.3521996041415586e-06   3.652277839142899e-07   4.387309863717622e-06
-2.3521996041415586e-06   3.652277839142899e-07   4.387309863717622e-06
-2.4313936637755863e-06   1.0758382973429046e-07   6.89691233150827e-06
-2.4313936637755863e-06   1.0758382973429046e-07   6.89691233150827e-06
-2.4313936637755863e-06   1.0758382973429046e-07   6.89691233150827e-06
-2.4313936637755863e-06   1.0758382973429046e-07   6.89691233150827e-06
-9.719227761977216e-07   2.1345366805867886e-07   4.400938949217177e-06
-9.719227761977216e-07   2.1345366805867886e-07   4.400938949217177e-06
-9.719227761977216e-07   2.1345366805867886e-07   4.400938949217177e-06
-9.719227761977216e-07   2.1345366805867886e-07   4.400938949217177e-06
-1.6463433947160311e-06   2.5703775430945225e-07   5.4988228616639735e-06
-1.6463433947160311e-06   2.5703775430945225e-07   5.4988228616639735e-06
-1.6463433947160311e-06   2.5703775430945225e-07   5.4988228616639735e-06
-1.6463433947160311e-06   2.5703775430945225e-07   5.4988228616639735e-06
-9.719227761977216e-07   1.0758382973434467e-07   6.8333904285135824e-06
-9.719227761977216e-07   1.0758382973434467e-07   6.8333904285135824e-06
-9.719227761977216e-07   1.0758382973434467e-07   6.8333904285135824e-06
-9.719227761977216e-07   1.0758382973434467e-07   6.8333904285135824e-06
-2.4313936637755863e-06   2.1345366805867886e-07   4.46446085221181e-06
-2.4313936637755863e-06   2.1345366805867886e-07   4.46446085221181e-06
-2.4313936637755863e-06   2.1345366805867886e-07   4.46446085221181e-06
-2.4313936637755863e-06   2.1345366805867886e-07   4.46446085221181e-06
-2.5095495785377748e-06   -4.426410365874394e-08   7.019768532764699e-06
-2.5095495785377748e-06   -4.426410365874394e-08   7.019768532764699e-06
-2.5095495785377748e-06   -4.426410365874394e-08   7.019768532764699e-06
-2.5095495785377748e-06   -4.426410365874394e-08   7.019768532764699e-06
-1.0765915285520467e-06   5.1391001849160605e-08   4.574112052817112e-06
-1.0765915285520467e-06   5.1391001849160605e-08   4.574112052817112e-06
-1.0765915285520467e-06   5.1391001849160605e-08   4.574112052817112e-06
-1.0765915285520467e-06   5.1391001849160605e-08   4.574112052817112e-06
-1.724056612716267e-06   1.4064282588178057e-07   5.599669432004511e-06
-1.724056612716267e-06   1.4064282588178057e-07   5.599669432004511e-06
-1.724056612716267e-06   1.4064282588178057e-07   5.599669432004511e-06
-1.724056612716267e-06   1.4064282588178057e-07   5.599669432004511e-06
-2.2755927989589287e-06   8.409975612159223e-07   7.76796614397283e-06
-2.2755927989589287e-06   8.409975612159223e-07   7.76796614397283e-06
-2.2755927989589287e-06   8.409975612159223e-07   7.76796614397283e-06
-2.2755927989589287e-06   8.409975612159223e-07   7.76796614397283e-06
-3.7855453801583845e-06   6.527789462805987e-07   5.138447339679192e-06
-3.7855453801583845e-06   6.527789462805987e-07   5.138447339679192e-06
-3.7855453801583845e-06   6.527789462805987e-07   5.138447339679192e-06
-3.7855453801583845e-06   6.527789462805987e-07   5.138447339679192e-06
-3.8512029138234265e-06   6.769985653929896e-07   7.62358622288182e-06
-3.8512029138234265e-06   6.769985653929896e-07   7.62358622288182e-06
-3.8512029138234265e-06   6.769985653929896e-07   7.62358622288182e-06
-3.8512029138234265e-06   6.769985653929896e-07   7.62358622288182e-06
-2.3521996041415586e-06   4.999412901775268e-07   5.231481738541356e-06
-2.3521996041415586e-06   4.999412901775268e-07   5.231481738541356e-06
-2.3521996041415586e-06   4.999412901775268e-07   5.231481738541356e-06
-2.3521996041415586e-06   4.999412901775268e-07   5.231481738541356e-06
-3.0685362645583995e-06   6.529548184153796e-07   6.333568055626709e-06
-3.0685362645583995e-06   6.529548184153796e-07   6.333568055626709e-06
-3.0685362645583995e-06   6.529548184153796e-07   6.333568055626709e-06
-3.0685362645583995e-06   6.529548184153796e-07   6.333568055626709e-06
-2.3521996041415586e-06   6.769985653929896e-07   7.729820588011122e-06
-2.3521996041415586e-06   6.769985653929896e-07   7.729820588011122e-06
-2.3521996041415586e-06   6.769985653929896e-07   7.729820588011122e-06
-2.3521996041415586e-06   6.769985653929896e-07   7.729820588011122e-06
-3.8512029138234265e-06   4.999412901775268e-07   5.125247373412054e-06
-3.8512029138234265e-06   4.999412901775268e-07   5.125247373412054e-06
-3.8512029138234265e-06   4.999412901775268e-07   5.125247373412054e-06
-3.8512029138234265e-06   4.999412901775268e-07   5.125247373412054e-06
-3.921240957062034e-06   5.138911555193867e-07   7.693230093194575e-06
-3.921240957062034e-06   5.138911555193867e-07   7.693230093194575e-06
-3.921240957062034e-06   5.138911555193867e-07   7.693230093194575e-06
-3.921240957062034e-06   5.138911555193867e-07   7.693230093194575e-06
-2.4313936637755863e-06   3.4478942490570293e-07   5.311612309418721e-06
-2.4313936637755863e-06   3.4478942490570293e-07   5.311612309418721e-06
-2.4313936637755863e-06   3.4478942490570293e-07   5.311612309418721e-06
-2.4313936637755863e-06   3.4478942490570293e-07   5.311612309418721e-06
-3.1246866186309628e-06   5.315259426345083e-07   6.3550586568736995e-06
-3.1246866186309628e-06   5.315259426345083e-07   6.3550586568736995e-06
-3.1246866186309628e-06   5.315259426345083e-07   6.3550586568736995e-06
-3.1246866186309628e-06   5.315259426345083e-07   6.3550586568736995e-06
-2.4313936637755863e-06   5.138911555193325e-07   7.79469113156276e-06
-2.4313936637755863e-06   5.138911555193325e-07   7.79469113156276e-06
-2.4313936637755863e-06   5.138911555193325e-07   7.79469113156276e-06
-2.4313936637755863e-06   5.138911555193325e-07   7.79469113156276e-06
-3.921240957062034e-06   3.4478942490570293e-07   5.210151271050481e-06
-3.921240957062034e-06   3.4478942490570293e-07   5.210151271050481e-06
-3.921240957062034e-06   3.4478942490570293e-07   5.210151271050481e-06
-3.921240957062034e-06   3.4478942490570293e-07   5.210151271050481e-06
-3.989852577508137e-06   3.581705651832328e-07   7.844341717256015e-06
-3.989852577508137e-06   3.581705651832328e-07   7.844341717256015e-06
-3.989852577508137e-06   3.581705651832328e-07   7.844341717256015e-06
-3.989852577508137e-06   3.581705651832328e-07   7.844341717256015e-06
-2.5095495785377748e-06   1.9858672730506052e-07   5.472920355032357e-06
-2.5095495785377748e-06   1.9858672730506052e-07   5.472920355032357e-06
-2.5095495785377748e-06   1.9858672730506052e-07   5.472920355032357e-06
-2.5095495785377748e-06   1.9858672730506052e-07   5.472920355032357e-06
-3.1871801498412744e-06   4.122869850940638e-07   6.474084485864755e-06
-3.1871801498412744e-06   4.122869850940638e-07   6.474084485864755e-06
-3.1871801498412744e-06   4.122869850940638e-07   6.474084485864755e-06
-3.1871801498412744e-06   4.122869850940638e-07   6.474084485864755e-06
-3.7855453801583845e-06   1.2613709573936144e-06   6.732991098711878e-06
-3.7855453801583845e-06   1.2613709573936144e-06   6.732991098711878e-06
-3.7855453801583845e-06   1.2613709573936144e-06   6.732991098711878e-06
-3.7855453801583845e-06   1.2613709573936144e-06   6.732991098711878e-06
-5.276525709393181e-06   8.920463625148515e-07   4.026429126393252e-06
-5.276525709393181e-06   8.920463625148515e-07   4.026429126393252e-06
-5.276525709393181e-06   8.920463625148515e-07   4.026429126393252e-06
-5.276525709393181e-06   8.920463625148515e-07   4.026429126393252e-06
-5.348949390268485e-06   1.0967848410991924e-06   6.537511188741871e-06
-5.348949390268485e-06   1.0967848410991924e-06   6.537511188741871e-06
-5.348949390268485e-06   1.0967848410991924e-06   6.537511188741871e-06
-5.348949390268485e-06   1.0967848410991924e-06   6.537511188741871e-06
-3.8512029138234265e-06   7.31463222294307e-07   4.260460032616347e-06
-3.8512029138234265e-06   7.31463222294307e-07   4.260460032616347e-06
-3.8512029138234265e-06   7.31463222294307e-07   4.260460032616347e-06
-3.8512029138234265e-06   7.31463222294307e-07   4.260460032616347e-06
-4.555837249347854e-06   9.844831524225732e-07   5.283038633746745e-06
-4.555837249347854e-06   9.844831524225732e-07   5.283038633746745e-06
-4.555837249347854e-06   9.844831524225732e-07   5.283038633746745e-06
-4.555837249347854e-06   9.844831524225732e-07   5.283038633746745e-06
-3.8512029138234265e-06   1.0967848410991924e-06   6.7567041600247375e-06
-3.8512029138234265e-06   1.0967848410991924e-06   6.7567041600247375e-06
-3.8512029138234265e-06   1.0967848410991924e-06   6.7567041600247375e-06
-3.8512029138234265e-06   1.0967848410991924e-06   6.7567041600247375e-06
-5.348949390268485e-06   7.314632222943612e-07   4.041267061333393e-06
-5.348949390268485e-06   7.314632222943612e-07   4.041267061333393e-06
-5.348949390268485e-06   7.314632222943612e-07   4.041267061333393e-06
-5.348949390268485e-06   7.314632222943612e-07   4.041267061333393e-06
-5.447349504476999e-06   9.460041359142003e-07   6.751923360375075e-06
-5.447349504476999e-06   9.460041359142003e-07   6.751923360375075e-06
-5.447349504476999e-06   9.460041359142003e-07   6.751923360375075e-06
-5.447349504476999e-06   9.460041359142003e-07   6.751923360375075e-06
-3.921240957062034e-06   5.877176277468586e-07   4.423381019583812e-06
-3.921240957062034e-06   5.877176277468586e-07   4.423381019583812e-06
-3.921240957062034e-06   5.877176277468586e-07   4.423381019583812e-06
-3.921240957062034e-06   5.877176277468586e-07   4.423381019583812e-06
-4.595078376697987e-06   8.668609542090771e-07   5.378957389766405e-06
-4.595078376697987e-06   8.668609542090771e-07   5.378957389766405e-06
-4.595078376697987e-06   8.668609542090771e-07   5.378957389766405e-06
-4.595078376697987e-06   8.668609542090771e-07   5.378957389766405e-06
-3.921240957062034e-06   9.460041359142545e-07   6.966895265275421e-06
-3.921240957062034e-06   9.460041359142545e-07   6.966895265275421e-06
-3.921240957062034e-06   9.460041359142545e-07   6.966895265275421e-06
-3.921240957062034e-06   9.460041359142545e-07   6.966895265275421e-06
-5.447349504476986e-06   5.877176277468044e-07   4.208409114683433e-06
-5.447349504476986e-06   5.877176277468044e-07   4.208409114683433e-06
-5.447349504476986e-06   5.877176277468044e-07   4.208409114683433e-06
-5.447349504476986e-06   5.877176277468044e-07   4.208409114683433e-06
-5.52584200996094e-06   7.836610316938153e-07   6.987296225983324e-06
-5.52584200996094e-06   7.836610316938153e-07   6.987296225983324e-06
-5.52584200996094e-06   7.836610316938153e-07   6.987296225983324e-06
-5.52584200996094e-06   7.836610316938153e-07   6.987296225983324e-06
-3.989852577508137e-06   4.403372804685714e-07   4.633308089297219e-06
-3.989852577508137e-06   4.403372804685714e-07   4.633308089297219e-06
-3.989852577508137e-06   4.403372804685714e-07   4.633308089297219e-06
-3.989852577508137e-06   4.403372804685714e-07   4.633308089297219e-06
-4.677513436496413e-06   7.53977698241036e-07   5.591225270280878e-06
-4.677513436496413e-06   7.53977698241036e-07   5.591225270280878e-06
-4.677513436496413e-06   7.53977698241036e-07   5.591225270280878e-06
-4.677513436496413e-06   7.53977698241036e-07   5.591225270280878e-06
-5.276525709393181e-06   1.5706544709982837e-06   3.0053365111101446e-06
-5.276525709393181e-06   1.5706544709982837e-06   3.0053365111101446e-06
-5.276525709393181e-06   1.5706544709982837e-06   3.0053365111101446e-06
-5.276525709393181e-06   1.5706544709982837e-06   3.0053365111101446e-06
-6.490795632563807e-06   1.070506877771406e-06   6.814647498896549e-07
-6.490795632563807e-06   1.070506877771406e-06   6.814647498896549e-07
-6.490795632563807e-06   1.070506877771406e-06   6.814647498896549e-07
-6.490795632563807e-06   1.070506877771406e-06   6.814647498896549e-07
-6.7599894972360545e-06   1.4881740010943049e-06   3.5367552506908187e-06
-6.7599894972360545e-06   1.4881740010943049e-06   3.5367552506908187e-06
-6.7599894972360545e-06   1.4881740010943049e-06   3.5367552506908187e-06
-6.7599894972360545e-06   1.4881740010943049e-06   3.5367552506908187e-06
-5.348949390268485e-06   9.639000816929729e-07   1.4995860907190007e-06
-5.348949390268485e-06   9.639000816929729e-07   1.4995860907190007e-06
-5.348949390268485e-06   9.639000816929729e-07   1.4995860907190007e-06
-5.348949390268485e-06   9.639000816929729e-07   1.4995860907190007e-06
-5.76088699416979e-06   1.2573448269611795e-06   2.010081916726909e-06
-5.76088699416979e-06   1.2573448269611795e-06   2.010081916726909e-06
-5.76088699416979e-06   1.2573448269611795e-06   2.010081916726909e-06
-5.76088699416979e-06   1.2573448269611795e-06   2.010081916726909e-06
-5.348949390268485e-06   1.4881740010943049e-06   3.85131960233158e-06
-5.348949390268485e-06   1.4881740010943049e-06   3.85131960233158e-06
-5.348949390268485e-06   1.4881740010943049e-06   3.85131960233158e-06
-5.348949390268485e-06   1.4881740010943049e-06   3.85131960233158e-06
-6.7599894972360545e-06   9.639000816929729e-07   1.1850217390781683e-06
-6.7599894972360545e-06   9.639000816929729e-07   1.1850217390781683e-06
-6.7599894972360545e-06   9.639000816929729e-07   1.1850217390781683e-06
-6.7599894972360545e-06   9.639000816929729e-07   1.1850217390781683e-06
-6.989829986060942e-06   1.4169205290489977e-06   4.162934456232274e-06
-6.989829986060942e-06   1.4169205290489977e-06   4.162934456232274e-06
-6.989829986060942e-06   1.4169205290489977e-06   4.162934456232274e-06
-6.989829986060942e-06   1.4169205290489977e-06   4.162934456232274e-06
-5.447349504476999e-06   8.898769708744572e-07   1.908359788497046e-06
-5.447349504476999e-06   8.898769708744572e-07   1.908359788497046e-06
-5.447349504476999e-06   8.898769708744572e-07   1.908359788497046e-06
-5.447349504476999e-06   8.898769708744572e-07   1.908359788497046e-06
-5.991163210560793e-06   1.2171527610892045e-06   2.6183504911747e-06
-5.991163210560793e-06   1.2171527610892045e-06   2.6183504911747e-06
-5.991163210560793e-06   1.2171527610892045e-06   2.6183504911747e-06
-5.991163210560793e-06   1.2171527610892045e-06   2.6183504911747e-06
-5.447349504476999e-06   1.4169205290489977e-06   4.479160591136928e-06
-5.447349504476999e-06   1.4169205290489977e-06   4.479160591136928e-06
-5.447349504476999e-06   1.4169205290489977e-06   4.479160591136928e-06
-5.447349504476999e-06   1.4169205290489977e-06   4.479160591136928e-06
-6.9898299860609556e-06   8.898769708745114e-07   1.5921336535923593e-06
-6.9898299860609556e-06   8.898769708745114e-07   1.5921336535923593e-06
-6.9898299860609556e-06   8.898769708745114e-07   1.5921336535923593e-06
-6.9898299860609556e-06   8.898769708745114e-07   1.5921336535923593e-06
-7.279679511294545e-06   1.2193098122679114e-06   5.2928964563989165e-06
-7.279679511294545e-06   1.2193098122679114e-06   5.2928964563989165e-06
-7.279679511294545e-06   1.2193098122679114e-06   5.2928964563989165e-06
-7.279679511294545e-06   1.2193098122679114e-06   5.2928964563989165e-06
-5.525842009960927e-06   7.159125289534244e-07   2.6718723241648764e-06
-5.525842009960927e-06   7.159125289534244e-07   2.6718723241648764e-06
-5.525842009960927e-06   7.159125289534244e-07   2.6718723241648764e-06
-5.525842009960927e-06   7.159125289534244e-07   2.6718723241648764e-06
-6.053366049978067e-06   1.134704897521883e-06   3.2998036363855366e-06
-6.053366049978067e-06   1.134704897521883e-06   3.2998036363855366e-06
-6.053366049978067e-06   1.134704897521883e-06   3.2998036363855366e-06
-6.053366049978067e-06   1.134704897521883e-06   3.2998036363855366e-06
-2.2638103259870614e-06   4.288878707269894e-07   3.216496966497225e-06
-2.2638103259870614e-06   4.288878707269894e-07   3.216496966497225e-06
-2.2638103259870614e-06   4.288878707269894e-07   3.216496966497225e-06
-2.2638103259870614e-06   4.288878707269894e-07   3.216496966497225e-06
-2.6473750579335903e-06   8.413274390006785e-07   2.824686154217224e-06
-2.6473750579335903e-06   8.413274390006785e-07   2.824686154217224e-06
-2.6473750579335903e-06   8.413274390006785e-07   2.824686154217224e-06
-2.6473750579335903e-06   8.413274390006785e-07   2.824686154217224e-06
-2.7240950546836724e-06   2.7829745087023594e-07   3.4082177758232995e-06
-2.7240950546836724e-06   2.7829745087023594e-07   3.4082177758232995e-06
-2.7240950546836724e-06   2.7829745087023594e-07   3.4082177758232995e-06
-2.7240950546836724e-06   2.7829745087023594e-07   3.4082177758232995e-06
-2.5696922349761264e-06   6.510697231957815e-07   2.9272163795820386e-06
-2.5696922349761264e-06   6.510697231957815e-07   2.9272163795820386e-06
-2.5696922349761264e-06   6.510697231957815e-07   2.9272163795820386e-06
-2.5696922349761264e-06   6.510697231957815e-07   2.9272163795820386e-06
-2.4930189088819147e-06   5.107661645329742e-07   2.883609637956036e-06
-2.4930189088819147e-06   5.107661645329742e-07   2.883609637956036e-06
-2.4930189088819147e-06   5.107661645329742e-07   2.883609637956036e-06
-2.4930189088819147e-06   5.107661645329742e-07   2.883609637956036e-06
-2.56969223497613e-06   2.7829745087023594e-07   3.1845544124279797e-06
-2.56969223497613e-06   2.7829745087023594e-07   3.1845544124279797e-06
-2.56969223497613e-06   2.7829745087023594e-07   3.1845544124279797e-06
-2.56969223497613e-06   2.7829745087023594e-07   3.1845544124279797e-06
-2.7240950546836724e-06   6.510697231957815e-07   3.150879742977382e-06
-2.7240950546836724e-06   6.510697231957815e-07   3.150879742977382e-06
-2.7240950546836724e-06   6.510697231957815e-07   3.150879742977382e-06
-2.7240950546836724e-06   6.510697231957815e-07   3.150879742977382e-06
-2.8233381744541023e-06   1.9788144153988626e-07   3.4888122480179003e-06
-2.8233381744541023e-06   1.9788144153988626e-07   3.4888122480179003e-06
-2.8233381744541023e-06   1.9788144153988626e-07   3.4888122480179003e-06
-2.8233381744541023e-06   1.9788144153988626e-07   3.4888122480179003e-06
-2.8691846105268903e-06   5.220060481978103e-07   3.3707482108111145e-06
-2.8691846105268903e-06   5.220060481978103e-07   3.3707482108111145e-06
-2.8691846105268903e-06   5.220060481978103e-07   3.3707482108111145e-06
-2.8691846105268903e-06   5.220060481978103e-07   3.3707482108111145e-06
-2.6741235877824023e-06   4.2943870660577094e-07   3.101186911192195e-06
-2.6741235877824023e-06   4.2943870660577094e-07   3.101186911192195e-06
-2.6741235877824023e-06   4.2943870660577094e-07   3.101186911192195e-06
-2.6741235877824023e-06   4.2943870660577094e-07   3.101186911192195e-06
-2.869184610526897e-06   1.9788144153988626e-07   3.2943374840230943e-06
-2.869184610526897e-06   1.9788144153988626e-07   3.2943374840230943e-06
-2.869184610526897e-06   1.9788144153988626e-07   3.2943374840230943e-06
-2.869184610526897e-06   1.9788144153988626e-07   3.2943374840230943e-06
-2.8233381744541023e-06   5.220060481978103e-07   3.5652229748058797e-06
-2.8233381744541023e-06   5.220060481978103e-07   3.5652229748058797e-06
-2.8233381744541023e-06   5.220060481978103e-07   3.5652229748058797e-06
-2.8233381744541023e-06   5.220060481978103e-07   3.5652229748058797e-06
-2.889635499497424e-06   2.9722004829589675e-08   3.7867803325638454e-06
-2.889635499497424e-06   2.9722004829589675e-08   3.7867803325638454e-06
-2.889635499497424e-06   2.9722004829589675e-08   3.7867803325638454e-06
-2.889635499497424e-06   2.9722004829589675e-08   3.7867803325638454e-06
-3.1893219840512745e-06   2.0592364623518169e-07   4.180536821976849e-06
-3.1893219840512745e-06   2.0592364623518169e-07   4.180536821976849e-06
-3.1893219840512745e-06   2.0592364623518169e-07   4.180536821976849e-06
-3.1893219840512745e-06   2.0592364623518169e-07   4.180536821976849e-06
-2.810489530495878e-06   3.327248622010204e-07   3.473068669804935e-06
-2.810489530495878e-06   3.327248622010204e-07   3.473068669804935e-06
-2.810489530495878e-06   3.327248622010204e-07   3.473068669804935e-06
-2.810489530495878e-06   3.327248622010204e-07   3.473068669804935e-06
-2.6473750579335903e-06   5.320612532356932e-07   6.2165904454783406e-06
-2.6473750579335903e-06   5.320612532356932e-07   6.2165904454783406e-06
-2.6473750579335903e-06   5.320612532356932e-07   6.2165904454783406e-06
-2.6473750579335903e-06   5.320612532356932e-07   6.2165904454783406e-06
-2.7885235452490114e-06   2.1936036114541656e-07   5.7937224313651405e-06
-2.7885235452490114e-06   2.1936036114541656e-07   5.7937224313651405e-06
-2.7885235452490114e-06   2.1936036114541656e-07   5.7937224313651405e-06
-2.7885235452490114e-06   2.1936036114541656e-07   5.7937224313651405e-06
-2.8168785928909943e-06   3.652277839142899e-07   5.97885641938085e-06
-2.8168785928909943e-06   3.652277839142899e-07   5.97885641938085e-06
-2.8168785928909943e-06   3.652277839142899e-07   5.97885641938085e-06
-2.8168785928909943e-06   3.652277839142899e-07   5.97885641938085e-06
-2.7240950546836724e-06   1.0039442191624561e-07   5.983117206234207e-06
-2.7240950546836724e-06   1.0039442191624561e-07   5.983117206234207e-06
-2.7240950546836724e-06   1.0039442191624561e-07   5.983117206234207e-06
-2.7240950546836724e-06   1.0039442191624561e-07   5.983117206234207e-06
-2.738120367136983e-06   2.6718155717347285e-07   5.906420445835388e-06
-2.738120367136983e-06   2.6718155717347285e-07   5.906420445835388e-06
-2.738120367136983e-06   2.6718155717347285e-07   5.906420445835388e-06
-2.738120367136983e-06   2.6718155717347285e-07   5.906420445835388e-06
-2.724095054683674e-06   3.652277839143441e-07   6.137756436579687e-06
-2.724095054683674e-06   3.652277839143441e-07   6.137756436579687e-06
-2.724095054683674e-06   3.652277839143441e-07   6.137756436579687e-06
-2.724095054683674e-06   3.652277839143441e-07   6.137756436579687e-06
-2.8168785928909943e-06   1.0039442191624561e-07   5.8242171890353285e-06
-2.8168785928909943e-06   1.0039442191624561e-07   5.8242171890353285e-06
-2.8168785928909943e-06   1.0039442191624561e-07   5.8242171890353285e-06
-2.8168785928909943e-06   1.0039442191624561e-07   5.8242171890353285e-06
-2.8511071048117583e-06   2.1345366805867886e-07   6.048104261832004e-06
-2.8511071048117583e-06   2.1345366805867886e-07   6.048104261832004e-06
-2.8511071048117583e-06   2.1345366805867886e-07   6.048104261832004e-06
-2.8511071048117583e-06   2.1345366805867886e-07   6.048104261832004e-06
-2.8233381744541023e-06   -3.3213957516774455e-08   6.149823286581159e-06
-2.8233381744541023e-06   -3.3213957516774455e-08   6.149823286581159e-06
-2.8233381744541023e-06   -3.3213957516774455e-08   6.149823286581159e-06
-2.8233381744541023e-06   -3.3213957516774455e-08   6.149823286581159e-06
-2.771883284294103e-06   1.709700374367219e-07   5.941554739342464e-06
-2.771883284294103e-06   1.709700374367219e-07   5.941554739342464e-06
-2.771883284294103e-06   1.709700374367219e-07   5.941554739342464e-06
-2.771883284294103e-06   1.709700374367219e-07   5.941554739342464e-06
-2.8233381744541023e-06   2.1345366805867886e-07   6.196104837177208e-06
-2.8233381744541023e-06   2.1345366805867886e-07   6.196104837177208e-06
-2.8233381744541023e-06   2.1345366805867886e-07   6.196104837177208e-06
-2.8233381744541023e-06   2.1345366805867886e-07   6.196104837177208e-06
-2.8511071048117515e-06   -3.3213957516774455e-08   6.0018227112358874e-06
-2.8511071048117515e-06   -3.3213957516774455e-08   6.0018227112358874e-06
-2.8511071048117515e-06   -3.3213957516774455e-08   6.0018227112358874e-06
-2.8511071048117515e-06   -3.3213957516774455e-08   6.0018227112358874e-06
-2.87864098514896e-06   5.1391001849106395e-08   6.209620482256552e-06
-2.87864098514896e-06   5.1391001849106395e-08   6.209620482256552e-06
-2.87864098514896e-06   5.1391001849106395e-08   6.209620482256552e-06
-2.87864098514896e-06   5.1391001849106395e-08   6.209620482256552e-06
-2.8896354994974154e-06   -2.061156135468032e-07   6.382448642074806e-06
-2.8896354994974154e-06   -2.061156135468032e-07   6.382448642074806e-06
-2.8896354994974154e-06   -2.061156135468032e-07   6.382448642074806e-06
-2.8896354994974154e-06   -2.061156135468032e-07   6.382448642074806e-06
-2.821053596353984e-06   6.052986294325822e-08   6.108158184274927e-06
-2.821053596353984e-06   6.052986294325822e-08   6.108158184274927e-06
-2.821053596353984e-06   6.052986294325822e-08   6.108158184274927e-06
-2.821053596353984e-06   6.052986294325822e-08   6.108158184274927e-06
-2.788523545249018e-06   6.527789462805445e-07   6.852042553993689e-06
-2.788523545249018e-06   6.527789462805445e-07   6.852042553993689e-06
-2.788523545249018e-06   6.527789462805445e-07   6.852042553993689e-06
-2.788523545249018e-06   6.527789462805445e-07   6.852042553993689e-06
-3.0877609012940727e-06   6.329867675920384e-08   5.999625465539111e-06
-3.0877609012940727e-06   6.329867675920384e-08   5.999625465539111e-06
-3.0877609012940727e-06   6.329867675920384e-08   5.999625465539111e-06
-3.0877609012940727e-06   6.329867675920384e-08   5.999625465539111e-06
-3.1018769232405075e-06   4.999412901775268e-07   6.50236070002852e-06
-3.1018769232405075e-06   4.999412901775268e-07   6.50236070002852e-06
-3.1018769232405075e-06   4.999412901775268e-07   6.50236070002852e-06
-3.1018769232405075e-06   4.999412901775268e-07   6.50236070002852e-06
-2.8168785928909943e-06   -3.4504700116002804e-08   6.348031076955395e-06
-2.8168785928909943e-06   -3.4504700116002804e-08   6.348031076955395e-06
-2.8168785928909943e-06   -3.4504700116002804e-08   6.348031076955395e-06
-2.8168785928909943e-06   -3.4504700116002804e-08   6.348031076955395e-06
-2.9448640066531874e-06   2.84024607725904e-07   6.370222515187274e-06
-2.9448640066531874e-06   2.84024607725904e-07   6.370222515187274e-06
-2.9448640066531874e-06   2.84024607725904e-07   6.370222515187274e-06
-2.9448640066531874e-06   2.84024607725904e-07   6.370222515187274e-06
-2.8168785928909943e-06   4.999412901775268e-07   6.8230282942045975e-06
-2.8168785928909943e-06   4.999412901775268e-07   6.8230282942045975e-06
-2.8168785928909943e-06   4.999412901775268e-07   6.8230282942045975e-06
-2.8168785928909943e-06   4.999412901775268e-07   6.8230282942045975e-06
-3.101876923240494e-06   -3.45047001159757e-08   6.027363482779305e-06
-3.101876923240494e-06   -3.45047001159757e-08   6.027363482779305e-06
-3.101876923240494e-06   -3.45047001159757e-08   6.027363482779305e-06
-3.101876923240494e-06   -3.45047001159757e-08   6.027363482779305e-06
-3.122245140654617e-06   3.4478942490570293e-07   6.597531154379165e-06
-3.122245140654617e-06   3.4478942490570293e-07   6.597531154379165e-06
-3.122245140654617e-06   3.4478942490570293e-07   6.597531154379165e-06
-3.122245140654617e-06   3.4478942490570293e-07   6.597531154379165e-06
-2.8511071048117515e-06   -1.5141818286051097e-07   6.4433589926340875e-06
-2.8511071048117515e-06   -1.5141818286051097e-07   6.4433589926340875e-06
-2.8511071048117515e-06   -1.5141818286051097e-07   6.4433589926340875e-06
-2.8511071048117515e-06   -1.5141818286051097e-07   6.4433589926340875e-06
-2.952950196604255e-06   1.8830754610775404e-07   6.409262041573996e-06
-2.952950196604255e-06   1.8830754610775404e-07   6.409262041573996e-06
-2.952950196604255e-06   1.8830754610775404e-07   6.409262041573996e-06
-2.952950196604255e-06   1.8830754610775404e-07   6.409262041573996e-06
-2.8511071048117515e-06   3.4478942490570293e-07   6.89525571903882e-06
-2.8511071048117515e-06   3.4478942490570293e-07   6.89525571903882e-06
-2.8511071048117515e-06   3.4478942490570293e-07   6.89525571903882e-06
-2.8511071048117515e-06   3.4478942490570293e-07   6.89525571903882e-06
-3.122245140654617e-06   -1.5141818286051097e-07   6.145634427974392e-06
-3.122245140654617e-06   -1.5141818286051097e-07   6.145634427974392e-06
-3.122245140654617e-06   -1.5141818286051097e-07   6.145634427974392e-06
-3.122245140654617e-06   -1.5141818286051097e-07   6.145634427974392e-06
-3.137923778602977e-06   1.9858672730511473e-07   6.771604821730114e-06
-3.137923778602977e-06   1.9858672730511473e-07   6.771604821730114e-06
-3.137923778602977e-06   1.9858672730511473e-07   6.771604821730114e-06
-3.137923778602977e-06   1.9858672730511473e-07   6.771604821730114e-06
-2.87864098514896e-06   -2.6713143842316354e-07   6.6188977320770005e-06
-2.87864098514896e-06   -2.6713143842316354e-07   6.6188977320770005e-06
-2.87864098514896e-06   -2.6713143842316354e-07   6.6188977320770005e-06
-2.87864098514896e-06   -2.6713143842316354e-07   6.6188977320770005e-06
-2.9663003237487376e-06   9.027033401833484e-08   6.5505555662781796e-06
-2.9663003237487376e-06   9.027033401833484e-08   6.5505555662781796e-06
-2.9663003237487376e-06   9.027033401833484e-08   6.5505555662781796e-06
-2.9663003237487376e-06   9.027033401833484e-08   6.5505555662781796e-06
-3.0877609012940727e-06   8.920463625148515e-07   5.607930935922211e-06
-3.0877609012940727e-06   8.920463625148515e-07   5.607930935922211e-06
-3.0877609012940727e-06   8.920463625148515e-07   5.607930935922211e-06
-3.0877609012940727e-06   8.920463625148515e-07   5.607930935922211e-06
-3.4829512049652897e-06   2.975394369728339e-07   4.592576274478312e-06
-3.4829512049652897e-06   2.975394369728339e-07   4.592576274478312e-06
-3.4829512049652897e-06   2.975394369728339e-07   4.592576274478312e-06
-3.4829512049652897e-06   2.975394369728339e-07   4.592576274478312e-06
-3.495556354614254e-06   7.31463222294307e-07   5.29935626696087e-06
-3.495556354614254e-06   7.31463222294307e-07   5.29935626696087e-06
-3.495556354614254e-06   7.31463222294307e-07   5.29935626696087e-06
-3.495556354614254e-06   7.31463222294307e-07   5.29935626696087e-06
-3.1018769232405075e-06   1.677680685077752e-07   4.98144097360988e-06
-3.1018769232405075e-06   1.677680685077752e-07   4.98144097360988e-06
-3.1018769232405075e-06   1.677680685077752e-07   4.98144097360988e-06
-3.1018769232405075e-06   1.677680685077752e-07   4.98144097360988e-06
-3.2836315656937067e-06   5.32311839768852e-07   5.065639114941906e-06
-3.2836315656937067e-06   5.32311839768852e-07   5.065639114941906e-06
-3.2836315656937067e-06   5.32311839768852e-07   5.065639114941906e-06
-3.2836315656937067e-06   5.32311839768852e-07   5.065639114941906e-06
-3.1018769232405075e-06   7.31463222294307e-07   5.637573359232746e-06
-3.1018769232405075e-06   7.31463222294307e-07   5.637573359232746e-06
-3.1018769232405075e-06   7.31463222294307e-07   5.637573359232746e-06
-3.1018769232405075e-06   7.31463222294307e-07   5.637573359232746e-06
-3.4955563546142402e-06   1.677680685077752e-07   4.6432238813379445e-06
-3.4955563546142402e-06   1.677680685077752e-07   4.6432238813379445e-06
-3.4955563546142402e-06   1.677680685077752e-07   4.6432238813379445e-06
-3.4955563546142402e-06   1.677680685077752e-07   4.6432238813379445e-06
-3.539045549351584e-06   5.877176277468586e-07   5.491810950646525e-06
-3.539045549351584e-06   5.877176277468586e-07   5.491810950646525e-06
-3.539045549351584e-06   5.877176277468586e-07   5.491810950646525e-06
-3.539045549351584e-06   5.877176277468586e-07   5.491810950646525e-06
-3.122245140654617e-06   5.6134373970163e-08   5.116093555084249e-06
-3.122245140654617e-06   5.6134373970163e-08   5.116093555084249e-06
-3.122245140654617e-06   5.6134373970163e-08   5.116093555084249e-06
-3.122245140654617e-06   5.6134373970163e-08   5.116093555084249e-06
-3.2804444393287597e-06   4.2696398184515253e-07   5.157261288149532e-06
-3.2804444393287597e-06   4.2696398184515253e-07   5.157261288149532e-06
-3.2804444393287597e-06   4.2696398184515253e-07   5.157261288149532e-06
-3.2804444393287597e-06   4.2696398184515253e-07   5.157261288149532e-06
-3.122245140654617e-06   5.877176277468586e-07   5.8107609029124825e-06
-3.122245140654617e-06   5.877176277468586e-07   5.8107609029124825e-06
-3.122245140654617e-06   5.877176277468586e-07   5.8107609029124825e-06
-3.122245140654617e-06   5.877176277468586e-07   5.8107609029124825e-06
-3.539045549351584e-06   5.613437397013589e-08   4.797143602818239e-06
-3.539045549351584e-06   5.613437397013589e-08   4.797143602818239e-06
-3.539045549351584e-06   5.613437397013589e-08   4.797143602818239e-06
-3.539045549351584e-06   5.613437397013589e-08   4.797143602818239e-06
-3.5668549743678868e-06   4.403372804685714e-07   5.729499093390421e-06
-3.5668549743678868e-06   4.403372804685714e-07   5.729499093390421e-06
-3.5668549743678868e-06   4.403372804685714e-07   5.729499093390421e-06
-3.5668549743678868e-06   4.403372804685714e-07   5.729499093390421e-06
-3.137923778602977e-06   -5.6735661750498614e-08   5.312857532446954e-06
-3.137923778602977e-06   -5.6735661750498614e-08   5.312857532446954e-06
-3.137923778602977e-06   -5.6735661750498614e-08   5.312857532446954e-06
-3.137923778602977e-06   -5.6735661750498614e-08   5.312857532446954e-06
-3.30346245301511e-06   3.3217704479421295e-07   5.355407699206781e-06
-3.30346245301511e-06   3.3217704479421295e-07   5.355407699206781e-06
-3.30346245301511e-06   3.3217704479421295e-07   5.355407699206781e-06
-3.30346245301511e-06   3.3217704479421295e-07   5.355407699206781e-06
-3.4829512049652897e-06   1.070506877771406e-06   2.206350960029551e-06
-3.4829512049652897e-06   1.070506877771406e-06   2.206350960029551e-06
-3.4829512049652897e-06   1.070506877771406e-06   2.206350960029551e-06
-3.4829512049652897e-06   1.070506877771406e-06   2.206350960029551e-06
-3.5371817588342104e-06   5.019379865731793e-07   1.7748253688624219e-06
-3.5371817588342104e-06   5.019379865731793e-07   1.7748253688624219e-06
-3.5371817588342104e-06   5.019379865731793e-07   1.7748253688624219e-06
-3.5371817588342104e-06   5.019379865731793e-07   1.7748253688624219e-06
-3.719552691983281e-06   9.639000816929729e-07   2.424517908101878e-06
-3.719552691983281e-06   9.639000816929729e-07   2.424517908101878e-06
-3.719552691983281e-06   9.639000816929729e-07   2.424517908101878e-06
-3.719552691983281e-06   9.639000816929729e-07   2.424517908101878e-06
-3.4955563546142402e-06   4.0863776795202955e-07   2.3843480673980337e-06
-3.4955563546142402e-06   4.0863776795202955e-07   2.3843480673980337e-06
-3.4955563546142402e-06   4.0863776795202955e-07   2.3843480673980337e-06
-3.4955563546142402e-06   4.0863776795202955e-07   2.3843480673980337e-06
-3.4422664312279357e-06   7.573828329969994e-07   2.0862844893938345e-06
-3.4422664312279357e-06   7.573828329969994e-07   2.0862844893938345e-06
-3.4422664312279357e-06   7.573828329969994e-07   2.0862844893938345e-06
-3.4422664312279357e-06   7.573828329969994e-07   2.0862844893938345e-06
-3.4955563546142267e-06   9.639000816929729e-07   2.75767529634639e-06
-3.4955563546142267e-06   9.639000816929729e-07   2.75767529634639e-06
-3.4955563546142267e-06   9.639000816929729e-07   2.75767529634639e-06
-3.4955563546142267e-06   9.639000816929729e-07   2.75767529634639e-06
-3.719552691983281e-06   4.0863776795202955e-07   2.0511906791534406e-06
-3.719552691983281e-06   4.0863776795202955e-07   2.0511906791534406e-06
-3.719552691983281e-06   4.0863776795202955e-07   2.0511906791534406e-06
-3.719552691983281e-06   4.0863776795202955e-07   2.0511906791534406e-06
-3.8789497383166294e-06   8.898769708745114e-07   2.8666346940733087e-06
-3.8789497383166294e-06   8.898769708745114e-07   2.8666346940733087e-06
-3.8789497383166294e-06   8.898769708745114e-07   2.8666346940733087e-06
-3.8789497383166294e-06   8.898769708745114e-07   2.8666346940733087e-06
-3.5390455493515706e-06   3.4799875356318535e-07   2.6252546428516684e-06
-3.5390455493515706e-06   3.4799875356318535e-07   2.6252546428516684e-06
-3.5390455493515706e-06   3.4799875356318535e-07   2.6252546428516684e-06
-3.5390455493515706e-06   3.4799875356318535e-07   2.6252546428516684e-06
-3.574746756169694e-06   7.051705513459148e-07   2.470453575545702e-06
-3.574746756169694e-06   7.051705513459148e-07   2.470453575545702e-06
-3.574746756169694e-06   7.051705513459148e-07   2.470453575545702e-06
-3.574746756169694e-06   7.051705513459148e-07   2.470453575545702e-06
-3.5390455493515706e-06   8.898769708744572e-07   3.191761624460077e-06
-3.5390455493515706e-06   8.898769708744572e-07   3.191761624460077e-06
-3.5390455493515706e-06   8.898769708744572e-07   3.191761624460077e-06
-3.5390455493515706e-06   8.898769708744572e-07   3.191761624460077e-06
-3.8789497383166294e-06   3.4799875356318535e-07   2.3001277124649135e-06
-3.8789497383166294e-06   3.4799875356318535e-07   2.3001277124649135e-06
-3.8789497383166294e-06   3.4799875356318535e-07   2.3001277124649135e-06
-3.8789497383166294e-06   3.4799875356318535e-07   2.3001277124649135e-06
-4.1101157923203796e-06   7.159125289534244e-07   3.677574078533245e-06
-4.1101157923203796e-06   7.159125289534244e-07   3.677574078533245e-06
-4.1101157923203796e-06   7.159125289534244e-07   3.677574078533245e-06
-4.1101157923203796e-06   7.159125289534244e-07   3.677574078533245e-06
-3.5668549743678868e-06   2.2177336152004305e-07   3.068622882405653e-06
-3.5668549743678868e-06   2.2177336152004305e-07   3.068622882405653e-06
-3.5668549743678868e-06   2.2177336152004305e-07   3.068622882405653e-06
-3.5668549743678868e-06   2.2177336152004305e-07   3.068622882405653e-06
-3.620110722803128e-06   6.39766383772123e-07   2.9065866497793995e-06
-3.620110722803128e-06   6.39766383772123e-07   2.9065866497793995e-06
-3.620110722803128e-06   6.39766383772123e-07   2.9065866497793995e-06
-3.620110722803128e-06   6.39766383772123e-07   2.9065866497793995e-06
-6.338000519403906e-06   8.413274390006785e-07   2.7532008050910734e-06
-6.338000519403906e-06   8.413274390006785e-07   2.7532008050910734e-06
-6.338000519403906e-06   8.413274390006785e-07   2.7532008050910734e-06
-6.338000519403906e-06   8.413274390006785e-07   2.7532008050910734e-06
-4.358000833514784e-06   1.1552625693664483e-06   6.241561359792387e-06
-4.358000833514784e-06   1.1552625693664483e-06   6.241561359792387e-06
-4.358000833514784e-06   1.1552625693664483e-06   6.241561359792387e-06
-4.358000833514784e-06   1.1552625693664483e-06   6.241561359792387e-06
-4.361412611413191e-06   6.510697231957544e-07   3.053388883498875e-06
-4.361412611413191e-06   6.510697231957544e-07   3.053388883498875e-06
-4.361412611413191e-06   6.510697231957544e-07   3.053388883498875e-06
-4.361412611413191e-06   6.510697231957544e-07   3.053388883498875e-06
-7.025507485217423e-06   4.287681608200987e-07   7.626927943931369e-06
-7.025507485217423e-06   4.287681608200987e-07   7.626927943931369e-06
-7.025507485217423e-06   4.287681608200987e-07   7.626927943931369e-06
-7.025507485217423e-06   4.287681608200987e-07   7.626927943931369e-06
-5.23419182783561e-06   6.754810420687708e-07   4.493374119545774e-06
-5.23419182783561e-06   6.754810420687708e-07   4.493374119545774e-06
-5.23419182783561e-06   6.754810420687708e-07   4.493374119545774e-06
-5.23419182783561e-06   6.754810420687708e-07   4.493374119545774e-06
-7.025507485217437e-06   6.510697231957815e-07   3.1867698209242408e-06
-7.025507485217437e-06   6.510697231957815e-07   3.1867698209242408e-06
-7.025507485217437e-06   6.510697231957815e-07   3.1867698209242408e-06
-7.025507485217437e-06   6.510697231957815e-07   3.1867698209242408e-06
-4.361412611413182e-06   4.287681608200987e-07   7.4935470065059454e-06
-4.361412611413182e-06   4.287681608200987e-07   7.4935470065059454e-06
-4.361412611413182e-06   4.287681608200987e-07   7.4935470065059454e-06
-4.361412611413182e-06   4.287681608200987e-07   7.4935470065059454e-06
-4.4348550372010525e-06   5.220060481978103e-07   3.3803900203978663e-06
-4.4348550372010525e-06   5.220060481978103e-07   3.3803900203978663e-06
-4.4348550372010525e-06   5.220060481978103e-07   3.3803900203978663e-06
-4.4348550372010525e-06   5.220060481978103e-07   3.3803900203978663e-06
-7.062880163318899e-06   2.9374686424094953e-07   7.897387407635088e-06
-7.062880163318899e-06   2.9374686424094953e-07   7.897387407635088e-06
-7.062880163318899e-06   2.9374686424094953e-07   7.897387407635088e-06
-7.062880163318899e-06   2.9374686424094953e-07   7.897387407635088e-06
-5.607665016386361e-06   4.0756514963895827e-07   5.403737858175332e-06
-5.607665016386361e-06   4.0756514963895827e-07   5.403737858175332e-06
-5.607665016386361e-06   4.0756514963895827e-07   5.403737858175332e-06
-5.607665016386361e-06   4.0756514963895827e-07   5.403737858175332e-06
-7.062880163318911e-06   5.220060481978103e-07   3.5173455307720315e-06
-7.062880163318911e-06   5.220060481978103e-07   3.5173455307720315e-06
-7.062880163318911e-06   5.220060481978103e-07   3.5173455307720315e-06
-7.062880163318911e-06   5.220060481978103e-07   3.5173455307720315e-06
-4.434855037201044e-06   2.9374686424094953e-07   7.760431897260963e-06
-4.434855037201044e-06   2.9374686424094953e-07   7.760431897260963e-06
-4.434855037201044e-06   2.9374686424094953e-07   7.760431897260963e-06
-4.434855037201044e-06   2.9374686424094953e-07   7.760431897260963e-06
-4.401254847097492e-06   2.0592364623518169e-07   3.949639479947835e-06
-4.401254847097492e-06   2.0592364623518169e-07   3.949639479947835e-06
-4.401254847097492e-06   2.0592364623518169e-07   3.949639479947835e-06
-4.401254847097492e-06   2.0592364623518169e-07   3.949639479947835e-06
-7.161132750411612e-06   -2.886790137243109e-07   8.846197581447029e-06
-7.161132750411612e-06   -2.886790137243109e-07   8.846197581447029e-06
-7.161132750411612e-06   -2.886790137243109e-07   8.846197581447029e-06
-7.161132750411612e-06   -2.886790137243109e-07   8.846197581447029e-06
-5.536226956451391e-06   1.80208280538502e-07   5.856688881622298e-06
-5.536226956451391e-06   1.80208280538502e-07   5.856688881622298e-06
-5.536226956451391e-06   1.80208280538502e-07   5.856688881622298e-06
-5.536226956451391e-06   1.80208280538502e-07   5.856688881622298e-06
-4.358000833514791e-06   2.1936036114541656e-07   6.0982186957126165e-06
-4.358000833514791e-06   2.1936036114541656e-07   6.0982186957126165e-06
-4.358000833514791e-06   2.1936036114541656e-07   6.0982186957126165e-06
-4.358000833514791e-06   2.1936036114541656e-07   6.0982186957126165e-06
-2.7120554052379643e-06   -1.4307228310089744e-06   7.851411160881366e-06
-2.7120554052379643e-06   -1.4307228310089744e-06   7.851411160881366e-06
-2.7120554052379643e-06   -1.4307228310089744e-06   7.851411160881366e-06
-2.7120554052379643e-06   -1.4307228310089744e-06   7.851411160881366e-06
-2.7264851791973966e-06   1.0039442191624561e-07   5.114908430910647e-06
-2.7264851791973966e-06   1.0039442191624561e-07   5.114908430910647e-06
-2.7264851791973966e-06   1.0039442191624561e-07   5.114908430910647e-06
-2.7264851791973966e-06   1.0039442191624561e-07   5.114908430910647e-06
-4.361412611413182e-06   -1.1841354378254996e-06   8.610505400448679e-06
-4.361412611413182e-06   -1.1841354378254996e-06   8.610505400448679e-06
-4.361412611413182e-06   -1.1841354378254996e-06   8.610505400448679e-06
-4.361412611413182e-06   -1.1841354378254996e-06   8.610505400448679e-06
-3.5240540735267287e-06   -7.100726425523788e-07   6.930470160140705e-06
-3.5240540735267287e-06   -7.100726425523788e-07   6.930470160140705e-06
-3.5240540735267287e-06   -7.100726425523788e-07   6.930470160140705e-06
-3.5240540735267287e-06   -7.100726425523788e-07   6.930470160140705e-06
-4.361412611413187e-06   1.003944219162185e-07   5.885626346755605e-06
-4.361412611413187e-06   1.003944219162185e-07   5.885626346755605e-06
-4.361412611413187e-06   1.003944219162185e-07   5.885626346755605e-06
-4.361412611413187e-06   1.003944219162185e-07   5.885626346755605e-06
-2.72648517919739e-06   -1.1841354378254996e-06   7.839787484603633e-06
-2.72648517919739e-06   -1.1841354378254996e-06   7.839787484603633e-06
-2.72648517919739e-06   -1.1841354378254996e-06   7.839787484603633e-06
-2.72648517919739e-06   -1.1841354378254996e-06   7.839787484603633e-06
-2.74992867633311e-06   -3.3213957516774455e-08   5.260865435863964e-06
-2.74992867633311e-06   -3.3213957516774455e-08   5.260865435863964e-06
-2.74992867633311e-06   -3.3213957516774455e-08   5.260865435863964e-06
-2.74992867633311e-06   -3.3213957516774455e-08   5.260865435863964e-06
-4.434855037201044e-06   -1.2067554513654874e-06   8.773200933619738e-06
-4.434855037201044e-06   -1.2067554513654874e-06   8.773200933619738e-06
-4.434855037201044e-06   -1.2067554513654874e-06   8.773200933619738e-06
-4.434855037201044e-06   -1.2067554513654874e-06   8.773200933619738e-06
-3.5074455444947025e-06   -6.210024695946172e-07   6.876066656713318e-06
-3.5074455444947025e-06   -6.210024695946172e-07   6.876066656713318e-06
-3.5074455444947025e-06   -6.210024695946172e-07   6.876066656713318e-06
-3.5074455444947025e-06   -6.210024695946172e-07   6.876066656713318e-06
-4.4348550372010525e-06   -3.3213957516774455e-08   5.964990332173214e-06
-4.4348550372010525e-06   -3.3213957516774455e-08   5.964990332173214e-06
-4.4348550372010525e-06   -3.3213957516774455e-08   5.964990332173214e-06
-4.4348550372010525e-06   -3.3213957516774455e-08   5.964990332173214e-06
-2.7499286763330965e-06   -1.2067554513654874e-06   8.069076037310519e-06
-2.7499286763330965e-06   -1.2067554513654874e-06   8.069076037310519e-06
-2.7499286763330965e-06   -1.2067554513654874e-06   8.069076037310519e-06
-2.7499286763330965e-06   -1.2067554513654874e-06   8.069076037310519e-06
-2.7383628627664184e-06   -2.061156135468032e-07   5.445976246789652e-06
-2.7383628627664184e-06   -2.061156135468032e-07   5.445976246789652e-06
-2.7383628627664184e-06   -2.061156135468032e-07   5.445976246789652e-06
-2.7383628627664184e-06   -2.061156135468032e-07   5.445976246789652e-06
-4.4012548470974765e-06   -1.2058723942347596e-06   8.817316955754158e-06
-4.4012548470974765e-06   -1.2058723942347596e-06   8.817316955754158e-06
-4.4012548470974765e-06   -1.2058723942347596e-06   8.817316955754158e-06
-4.4012548470974765e-06   -1.2058723942347596e-06   8.817316955754158e-06
-3.537291244183132e-06   -6.891701505753239e-07   7.067356271367939e-06
-3.537291244183132e-06   -6.891701505753239e-07   7.067356271367939e-06
-3.537291244183132e-06   -6.891701505753239e-07   7.067356271367939e-06
-3.537291244183132e-06   -6.891701505753239e-07   7.067356271367939e-06
-2.7120554052379643e-06   6.329867675920384e-08   5.667759976306792e-06
-2.7120554052379643e-06   6.329867675920384e-08   5.667759976306792e-06
-2.7120554052379643e-06   6.329867675920384e-08   5.667759976306792e-06
-2.7120554052379643e-06   6.329867675920384e-08   5.667759976306792e-06
-2.0410161155898904e-06   -1.1190603240201125e-06   6.0767433919193545e-06
-2.0410161155898904e-06   -1.1190603240201125e-06   6.0767433919193545e-06
-2.0410161155898904e-06   -1.1190603240201125e-06   6.0767433919193545e-06
-2.0410161155898904e-06   -1.1190603240201125e-06   6.0767433919193545e-06
-2.033009863398969e-06   -3.4504700116002804e-08   4.999961287738508e-06
-2.033009863398969e-06   -3.4504700116002804e-08   4.999961287738508e-06
-2.033009863398969e-06   -3.4504700116002804e-08   4.999961287738508e-06
-2.033009863398969e-06   -3.4504700116002804e-08   4.999961287738508e-06
-2.72648517919739e-06   -1.0991064186029854e-06   6.794514511828097e-06
-2.72648517919739e-06   -1.0991064186029854e-06   6.794514511828097e-06
-2.72648517919739e-06   -1.0991064186029854e-06   6.794514511828097e-06
-2.72648517919739e-06   -1.0991064186029854e-06   6.794514511828097e-06
-2.365076893879131e-06   -5.628123089279052e-07   5.8703909038259345e-06
-2.365076893879131e-06   -5.628123089279052e-07   5.8703909038259345e-06
-2.365076893879131e-06   -5.628123089279052e-07   5.8703909038259345e-06
-2.365076893879131e-06   -5.628123089279052e-07   5.8703909038259345e-06
-2.72648517919739e-06   -3.4504700116002804e-08   5.6387223188306596e-06
-2.72648517919739e-06   -3.4504700116002804e-08   5.6387223188306596e-06
-2.72648517919739e-06   -3.4504700116002804e-08   5.6387223188306596e-06
-2.72648517919739e-06   -3.4504700116002804e-08   5.6387223188306596e-06
-2.033009863398969e-06   -1.0991064186029854e-06   6.155753480735898e-06
-2.033009863398969e-06   -1.0991064186029854e-06   6.155753480735898e-06
-2.033009863398969e-06   -1.0991064186029854e-06   6.155753480735898e-06
-2.033009863398969e-06   -1.0991064186029854e-06   6.155753480735898e-06
-2.0295897565478276e-06   -1.5141818286051097e-07   5.11511927100977e-06
-2.0295897565478276e-06   -1.5141818286051097e-07   5.11511927100977e-06
-2.0295897565478276e-06   -1.5141818286051097e-07   5.11511927100977e-06
-2.0295897565478276e-06   -1.5141818286051097e-07   5.11511927100977e-06
-2.7499286763330965e-06   -1.1302222599478436e-06   6.9029665835709504e-06
-2.7499286763330965e-06   -1.1302222599478436e-06   6.9029665835709504e-06
-2.7499286763330965e-06   -1.1302222599478436e-06   6.9029665835709504e-06
-2.7499286763330965e-06   -1.1302222599478436e-06   6.9029665835709504e-06
-2.354495650450748e-06   -5.946912519554033e-07   5.92259293563814e-06
-2.354495650450748e-06   -5.946912519554033e-07   5.92259293563814e-06
-2.354495650450748e-06   -5.946912519554033e-07   5.92259293563814e-06
-2.354495650450748e-06   -5.946912519554033e-07   5.92259293563814e-06
-2.7499286763330965e-06   -1.5141818286048387e-07   5.7024017172621914e-06
-2.7499286763330965e-06   -1.5141818286048387e-07   5.7024017172621914e-06
-2.7499286763330965e-06   -1.5141818286048387e-07   5.7024017172621914e-06
-2.7499286763330965e-06   -1.5141818286048387e-07   5.7024017172621914e-06
-2.0295897565478276e-06   -1.1302222599478436e-06   6.315684137318553e-06
-2.0295897565478276e-06   -1.1302222599478436e-06   6.315684137318553e-06
-2.0295897565478276e-06   -1.1302222599478436e-06   6.315684137318553e-06
-2.0295897565478276e-06   -1.1302222599478436e-06   6.315684137318553e-06
-2.0041562922514693e-06   -2.6713143842319064e-07   5.295024531460355e-06
-2.0041562922514693e-06   -2.6713143842319064e-07   5.295024531460355e-06
-2.0041562922514693e-06   -2.6713143842319064e-07   5.295024531460355e-06
-2.0041562922514693e-06   -2.6713143842319064e-07   5.295024531460355e-06
-2.738362862766425e-06   -1.1703060627048201e-06   7.0606069235542505e-06
-2.738362862766425e-06   -1.1703060627048201e-06   7.0606069235542505e-06
-2.738362862766425e-06   -1.1703060627048201e-06   7.0606069235542505e-06
-2.738362862766425e-06   -1.1703060627048201e-06   7.0606069235542505e-06
-2.342899745139232e-06   -6.435967409018374e-07   6.085476134427174e-06
-2.342899745139232e-06   -6.435967409018374e-07   6.085476134427174e-06
-2.342899745139232e-06   -6.435967409018374e-07   6.085476134427174e-06
-2.342899745139232e-06   -6.435967409018374e-07   6.085476134427174e-06
-2.0410161155898904e-06   2.975394369728339e-07   3.907999540103614e-06
-2.0410161155898904e-06   2.975394369728339e-07   3.907999540103614e-06
-2.0410161155898904e-06   2.975394369728339e-07   3.907999540103614e-06
-2.0410161155898904e-06   2.975394369728339e-07   3.907999540103614e-06
-1.7555095792388579e-06   -4.6380691837306085e-07   3.927035954147779e-06
-1.7555095792388579e-06   -4.6380691837306085e-07   3.927035954147779e-06
-1.7555095792388579e-06   -4.6380691837306085e-07   3.927035954147779e-06
-1.7555095792388579e-06   -4.6380691837306085e-07   3.927035954147779e-06
-1.7295793707892016e-06   1.677680685077752e-07   3.5302137729873915e-06
-1.7295793707892016e-06   1.677680685077752e-07   3.5302137729873915e-06
-1.7295793707892016e-06   1.677680685077752e-07   3.5302137729873915e-06
-1.7295793707892016e-06   1.677680685077752e-07   3.5302137729873915e-06
-2.033009863398969e-06   -5.386069407949866e-07   4.459756266252021e-06
-2.033009863398969e-06   -5.386069407949866e-07   4.459756266252021e-06
-2.033009863398969e-06   -5.386069407949866e-07   4.459756266252021e-06
-2.033009863398969e-06   -5.386069407949866e-07   4.459756266252021e-06
-1.8765152447803608e-06   -1.0656354877092394e-07   3.939705866673228e-06
-1.8765152447803608e-06   -1.0656354877092394e-07   3.939705866673228e-06
-1.8765152447803608e-06   -1.0656354877092394e-07   3.939705866673228e-06
-1.8765152447803608e-06   -1.0656354877092394e-07   3.939705866673228e-06
-2.033009863398969e-06   1.677680685077752e-07   3.9540387785690025e-06
-2.033009863398969e-06   1.677680685077752e-07   3.9540387785690025e-06
-2.033009863398969e-06   1.677680685077752e-07   3.9540387785690025e-06
-2.033009863398969e-06   1.677680685077752e-07   3.9540387785690025e-06
-1.7295793707892016e-06   -5.386069407949866e-07   4.0359312606703555e-06
-1.7295793707892016e-06   -5.386069407949866e-07   4.0359312606703555e-06
-1.7295793707892016e-06   -5.386069407949866e-07   4.0359312606703555e-06
-1.7295793707892016e-06   -5.386069407949866e-07   4.0359312606703555e-06
-1.7247334168984875e-06   5.6134373970163e-08   3.693857399597372e-06
-1.7247334168984875e-06   5.6134373970163e-08   3.693857399597372e-06
-1.7247334168984875e-06   5.6134373970163e-08   3.693857399597372e-06
-1.7247334168984875e-06   5.6134373970163e-08   3.693857399597372e-06
-2.0295897565478276e-06   -5.967339569002263e-07   4.593672297535176e-06
-2.0295897565478276e-06   -5.967339569002263e-07   4.593672297535176e-06
-2.0295897565478276e-06   -5.967339569002263e-07   4.593672297535176e-06
-2.0295897565478276e-06   -5.967339569002263e-07   4.593672297535176e-06
-1.8504153318430594e-06   -1.839118954198807e-07   4.047355019472262e-06
-1.8504153318430594e-06   -1.839118954198807e-07   4.047355019472262e-06
-1.8504153318430594e-06   -1.839118954198807e-07   4.047355019472262e-06
-1.8504153318430594e-06   -1.839118954198807e-07   4.047355019472262e-06
-2.0295897565478276e-06   5.6134373970163e-08   4.0855783981196545e-06
-2.0295897565478276e-06   5.6134373970163e-08   4.0855783981196545e-06
-2.0295897565478276e-06   5.6134373970163e-08   4.0855783981196545e-06
-2.0295897565478276e-06   5.6134373970163e-08   4.0855783981196545e-06
-1.7247334168984875e-06   -5.967339569002263e-07   4.201951299012941e-06
-1.7247334168984875e-06   -5.967339569002263e-07   4.201951299012941e-06
-1.7247334168984875e-06   -5.967339569002263e-07   4.201951299012941e-06
-1.7247334168984875e-06   -5.967339569002263e-07   4.201951299012941e-06
-1.7092536641071958e-06   -5.673566175047151e-08   3.89932650475151e-06
-1.7092536641071958e-06   -5.673566175047151e-08   3.89932650475151e-06
-1.7092536641071958e-06   -5.673566175047151e-08   3.89932650475151e-06
-1.7092536641071958e-06   -5.673566175047151e-08   3.89932650475151e-06
-2.0041562922514693e-06   -6.718835392767968e-07   4.759919611507698e-06
-2.0041562922514693e-06   -6.718835392767968e-07   4.759919611507698e-06
-2.0041562922514693e-06   -6.718835392767968e-07   4.759919611507698e-06
-2.0041562922514693e-06   -6.718835392767968e-07   4.759919611507698e-06
-1.834399499365348e-06   -2.527944743696507e-07   4.225538184419902e-06
-1.834399499365348e-06   -2.527944743696507e-07   4.225538184419902e-06
-1.834399499365348e-06   -2.527944743696507e-07   4.225538184419902e-06
-1.834399499365348e-06   -2.527944743696507e-07   4.225538184419902e-06
-1.7555095792388579e-06   5.019379865732064e-07   9.745821559991013e-07
-1.7555095792388579e-06   5.019379865732064e-07   9.745821559991013e-07
-1.7555095792388579e-06   5.019379865732064e-07   9.745821559991013e-07
-1.7555095792388579e-06   5.019379865732064e-07   9.745821559991013e-07
-1.098575806840192e-06   -4.442126731451785e-08   1.74165622433092e-06
-1.098575806840192e-06   -4.442126731451785e-08   1.74165622433092e-06
-1.098575806840192e-06   -4.442126731451785e-08   1.74165622433092e-06
-1.098575806840192e-06   -4.442126731451785e-08   1.74165622433092e-06
-1.1702201677522654e-06   4.0863776795202955e-07   9.871157275735025e-07
-1.1702201677522654e-06   4.0863776795202955e-07   9.871157275735025e-07
-1.1702201677522654e-06   4.0863776795202955e-07   9.871157275735025e-07
-1.1702201677522654e-06   4.0863776795202955e-07   9.871157275735025e-07
-1.7295793707892016e-06   -6.506595117128898e-08   2.2036032974423095e-06
-1.7295793707892016e-06   -6.506595117128898e-08   2.2036032974423095e-06
-1.7295793707892016e-06   -6.506595117128898e-08   2.2036032974423095e-06
-1.7295793707892016e-06   -6.506595117128898e-08   2.2036032974423095e-06
-1.3887622479992788e-06   2.5989189386267083e-07   1.4406000524387673e-06
-1.3887622479992788e-06   2.5989189386267083e-07   1.4406000524387673e-06
-1.3887622479992788e-06   2.5989189386267083e-07   1.4406000524387673e-06
-1.3887622479992788e-06   2.5989189386267083e-07   1.4406000524387673e-06
-1.729579370789188e-06   4.0863776795202955e-07   1.2713379590473934e-06
-1.729579370789188e-06   4.0863776795202955e-07   1.2713379590473934e-06
-1.729579370789188e-06   4.0863776795202955e-07   1.2713379590473934e-06
-1.729579370789188e-06   4.0863776795202955e-07   1.2713379590473934e-06
-1.1702201677522926e-06   -6.506595117130253e-08   1.919381065968351e-06
-1.1702201677522926e-06   -6.506595117130253e-08   1.919381065968351e-06
-1.1702201677522926e-06   -6.506595117130253e-08   1.919381065968351e-06
-1.1702201677522926e-06   -6.506595117130253e-08   1.919381065968351e-06
-1.2305462163295046e-06   3.4799875356318535e-07   1.2579852903383637e-06
-1.2305462163295046e-06   3.4799875356318535e-07   1.2579852903383637e-06
-1.2305462163295046e-06   3.4799875356318535e-07   1.2579852903383637e-06
-1.2305462163295046e-06   3.4799875356318535e-07   1.2579852903383637e-06
-1.7247334168984875e-06   -9.197316192427777e-08   2.3456137739124645e-06
-1.7247334168984875e-06   -9.197316192427777e-08   2.3456137739124645e-06
-1.7247334168984875e-06   -9.197316192427777e-08   2.3456137739124645e-06
-1.7247334168984875e-06   -9.197316192427777e-08   2.3456137739124645e-06
-1.4255104290616282e-06   2.1565669100640698e-07   1.6623308824259425e-06
-1.4255104290616282e-06   2.1565669100640698e-07   1.6623308824259425e-06
-1.4255104290616282e-06   2.1565669100640698e-07   1.6623308824259425e-06
-1.4255104290616282e-06   2.1565669100640698e-07   1.6623308824259425e-06
-1.7247334168984875e-06   3.4799875356321245e-07   1.521968439630885e-06
-1.7247334168984875e-06   3.4799875356321245e-07   1.521968439630885e-06
-1.7247334168984875e-06   3.4799875356321245e-07   1.521968439630885e-06
-1.7247334168984875e-06   3.4799875356321245e-07   1.521968439630885e-06
-1.2305462163295046e-06   -9.197316192427777e-08   2.0816306246199703e-06
-1.2305462163295046e-06   -9.197316192427777e-08   2.0816306246199703e-06
-1.2305462163295046e-06   -9.197316192427777e-08   2.0816306246199703e-06
-1.2305462163295046e-06   -9.197316192427777e-08   2.0816306246199703e-06
-1.3588076641784532e-06   2.2177336152004305e-07   1.7433791962347014e-06
-1.3588076641784532e-06   2.2177336152004305e-07   1.7433791962347014e-06
-1.3588076641784532e-06   2.2177336152004305e-07   1.7433791962347014e-06
-1.3588076641784532e-06   2.2177336152004305e-07   1.7433791962347014e-06
-1.7092536641071958e-06   -1.2815401149158493e-07   2.5374122865895455e-06
-1.7092536641071958e-06   -1.2815401149158493e-07   2.5374122865895455e-06
-1.7092536641071958e-06   -1.2815401149158493e-07   2.5374122865895455e-06
-1.7092536641071958e-06   -1.2815401149158493e-07   2.5374122865895455e-06
-1.4389789069993198e-06   1.838627059915052e-07   1.8997443275864604e-06
-1.4389789069993198e-06   1.838627059915052e-07   1.8997443275864604e-06
-1.4389789069993198e-06   1.838627059915052e-07   1.8997443275864604e-06
-1.4389789069993198e-06   1.838627059915052e-07   1.8997443275864604e-06
-1.5287167692558307e-05   1.1552625693664619e-06   7.066401870526429e-06
-1.5287167692558307e-05   1.1552625693664619e-06   7.066401870526429e-06
-1.5287167692558307e-05   1.1552625693664619e-06   7.066401870526429e-06
-1.5287167692558307e-05   1.1552625693664619e-06   7.066401870526429e-06
-3.53447580385705e-06   -8.102002599843316e-06   2.1099862583502668e-05
-3.53447580385705e-06   -8.102002599843316e-06   2.1099862583502668e-05
-3.53447580385705e-06   -8.102002599843316e-06   2.1099862583502668e-05
-3.53447580385705e-06   -8.102002599843316e-06   2.1099862583502668e-05
-4.189193386282685e-06   4.287681608200987e-07   3.827143135231406e-06
-4.189193386282685e-06   4.287681608200987e-07   3.827143135231406e-06
-4.189193386282685e-06   4.287681608200987e-07   3.827143135231406e-06
-4.189193386282685e-06   4.287681608200987e-07   3.827143135231406e-06
-1.394275533551761e-05   -6.392715954259067e-06   2.4175970186337082e-05
-1.394275533551761e-05   -6.392715954259067e-06   2.4175970186337082e-05
-1.394275533551761e-05   -6.392715954259067e-06   2.4175970186337082e-05
-1.394275533551761e-05   -6.392715954259067e-06   2.4175970186337082e-05
-9.28061820788998e-06   -3.178373390792883e-06   1.4477136102211318e-05
-9.28061820788998e-06   -3.178373390792883e-06   1.4477136102211318e-05
-9.28061820788998e-06   -3.178373390792883e-06   1.4477136102211318e-05
-9.28061820788998e-06   -3.178373390792883e-06   1.4477136102211318e-05
-1.3942755335517587e-05   4.287681608200987e-07   7.920033604278897e-06
-1.3942755335517587e-05   4.287681608200987e-07   7.920033604278897e-06
-1.3942755335517587e-05   4.287681608200987e-07   7.920033604278897e-06
-1.3942755335517587e-05   4.287681608200987e-07   7.920033604278897e-06
-4.189193386282694e-06   -6.392715954259067e-06   2.0083079717289587e-05
-4.189193386282694e-06   -6.392715954259067e-06   2.0083079717289587e-05
-4.189193386282694e-06   -6.392715954259067e-06   2.0083079717289587e-05
-4.189193386282694e-06   -6.392715954259067e-06   2.0083079717289587e-05
-4.304223807377678e-06   2.9374686424094953e-07   4.209234367612672e-06
-4.304223807377678e-06   2.9374686424094953e-07   4.209234367612672e-06
-4.304223807377678e-06   2.9374686424094953e-07   4.209234367612672e-06
-4.304223807377678e-06   2.9374686424094953e-07   4.209234367612672e-06
-1.3159851789770469e-05   -5.581818500662016e-06   2.2493953557209067e-05
-1.3159851789770469e-05   -5.581818500662016e-06   2.2493953557209067e-05
-1.3159851789770469e-05   -5.581818500662016e-06   2.2493953557209067e-05
-1.3159851789770469e-05   -5.581818500662016e-06   2.2493953557209067e-05
-9.019008200467943e-06   -3.0213012151904757e-06   1.4056237203755274e-05
-9.019008200467943e-06   -3.0213012151904757e-06   1.4056237203755274e-05
-9.019008200467943e-06   -3.0213012151904757e-06   1.4056237203755274e-05
-9.019008200467943e-06   -3.0213012151904757e-06   1.4056237203755274e-05
-1.3159851789770445e-05   2.9374686424094953e-07   7.734573586554434e-06
-1.3159851789770445e-05   2.9374686424094953e-07   7.734573586554434e-06
-1.3159851789770445e-05   2.9374686424094953e-07   7.734573586554434e-06
-1.3159851789770445e-05   2.9374686424094953e-07   7.734573586554434e-06
-4.304223807377685e-06   -5.581818500662016e-06   1.896861433826729e-05
-4.304223807377685e-06   -5.581818500662016e-06   1.896861433826729e-05
-4.304223807377685e-06   -5.581818500662016e-06   1.896861433826729e-05
-4.304223807377685e-06   -5.581818500662016e-06   1.896861433826729e-05
-4.756231743590968e-06   -2.886790137243109e-07   5.251964431850073e-06
-4.756231743590968e-06   -2.886790137243109e-07   5.251964431850073e-06
-4.756231743590968e-06   -2.886790137243109e-07   5.251964431850073e-06
-4.756231743590968e-06   -2.886790137243109e-07   5.251964431850073e-06
-1.2149500076969927e-05   -4.4967870582394614e-06   2.0098943147524065e-05
-1.2149500076969927e-05   -4.4967870582394614e-06   2.0098943147524065e-05
-1.2149500076969927e-05   -4.4967870582394614e-06   2.0098943147524065e-05
-1.2149500076969927e-05   -4.4967870582394614e-06   2.0098943147524065e-05
-8.696274829325756e-06   -2.793437418536849e-06   1.3321557950962225e-05
-8.696274829325756e-06   -2.793437418536849e-06   1.3321557950962225e-05
-8.696274829325756e-06   -2.793437418536849e-06   1.3321557950962225e-05
-8.696274829325756e-06   -2.793437418536849e-06   1.3321557950962225e-05
-3.534475803857045e-06   -1.4307228310089744e-06   4.111942485382139e-06
-3.534475803857045e-06   -1.4307228310089744e-06   4.111942485382139e-06
-3.534475803857045e-06   -1.4307228310089744e-06   4.111942485382139e-06
-3.534475803857045e-06   -1.4307228310089744e-06   4.111942485382139e-06
-1.2138346301313212e-06   -2.6861574659783425e-06   7.226416993943398e-06
-1.2138346301313212e-06   -2.6861574659783425e-06   7.226416993943398e-06
-1.2138346301313212e-06   -2.6861574659783425e-06   7.226416993943398e-06
-1.2138346301313212e-06   -2.6861574659783425e-06   7.226416993943398e-06
-1.3798593398134008e-06   -1.1841354378254996e-06   3.561519900471485e-06
-1.3798593398134008e-06   -1.1841354378254996e-06   3.561519900471485e-06
-1.3798593398134008e-06   -1.1841354378254996e-06   3.561519900471485e-06
-1.3798593398134008e-06   -1.1841354378254996e-06   3.561519900471485e-06
-4.189193386282694e-06   -3.4884381523299285e-06   9.626324939956255e-06
-4.189193386282694e-06   -3.4884381523299285e-06   9.626324939956255e-06
-4.189193386282694e-06   -3.4884381523299285e-06   9.626324939956255e-06
-4.189193386282694e-06   -3.4884381523299285e-06   9.626324939956255e-06
-2.4444876370363775e-06   -1.8013366629507303e-06   5.7062211309181955e-06
-2.4444876370363775e-06   -1.8013366629507303e-06   5.7062211309181955e-06
-2.4444876370363775e-06   -1.8013366629507303e-06   5.7062211309181955e-06
-2.4444876370363775e-06   -1.8013366629507303e-06   5.7062211309181955e-06
-4.189193386282682e-06   -1.1841354378254996e-06   4.944101529174105e-06
-4.189193386282682e-06   -1.1841354378254996e-06   4.944101529174105e-06
-4.189193386282682e-06   -1.1841354378254996e-06   4.944101529174105e-06
-4.189193386282682e-06   -1.1841354378254996e-06   4.944101529174105e-06
-1.3798593398134008e-06   -3.4884381523299285e-06   8.243743311253608e-06
-1.3798593398134008e-06   -3.4884381523299285e-06   8.243743311253608e-06
-1.3798593398134008e-06   -3.4884381523299285e-06   8.243743311253608e-06
-1.3798593398134008e-06   -3.4884381523299285e-06   8.243743311253608e-06
-1.5239350479901117e-06   -1.2067554513654874e-06   4.0075367519053505e-06
-1.5239350479901117e-06   -1.2067554513654874e-06   4.0075367519053505e-06
-1.5239350479901117e-06   -1.2067554513654874e-06   4.0075367519053505e-06
-1.5239350479901117e-06   -1.2067554513654874e-06   4.0075367519053505e-06
-4.304223807377685e-06   -3.2308665381423407e-06   9.855818002950701e-06
-4.304223807377685e-06   -3.2308665381423407e-06   9.855818002950701e-06
-4.304223807377685e-06   -3.2308665381423407e-06   9.855818002950701e-06
-4.304223807377685e-06   -3.2308665381423407e-06   9.855818002950701e-06
-2.7833396534318757e-06   -2.1793176581653365e-06   6.690081751721536e-06
-2.7833396534318757e-06   -2.1793176581653365e-06   6.690081751721536e-06
-2.7833396534318757e-06   -2.1793176581653365e-06   6.690081751721536e-06
-2.7833396534318757e-06   -2.1793176581653365e-06   6.690081751721536e-06
-4.304223807377678e-06   -1.2067554513654874e-06   5.222003403971439e-06
-4.304223807377678e-06   -1.2067554513654874e-06   5.222003403971439e-06
-4.304223807377678e-06   -1.2067554513654874e-06   5.222003403971439e-06
-4.304223807377678e-06   -1.2067554513654874e-06   5.222003403971439e-06
-1.5239350479901117e-06   -3.2308665381423407e-06   8.641351350884599e-06
-1.5239350479901117e-06   -3.2308665381423407e-06   8.641351350884599e-06
-1.5239350479901117e-06   -3.2308665381423407e-06   8.641351350884599e-06
-1.5239350479901117e-06   -3.2308665381423407e-06   8.641351350884599e-06
-1.7622938194526084e-06   -1.2058723942347732e-06   4.404899247146426e-06
-1.7622938194526084e-06   -1.2058723942347732e-06   4.404899247146426e-06
-1.7622938194526084e-06   -1.2058723942347732e-06   4.404899247146426e-06
-1.7622938194526084e-06   -1.2058723942347732e-06   4.404899247146426e-06
-4.756231743590965e-06   -3.0641159858789024e-06   1.050974194236348e-05
-4.756231743590965e-06   -3.0641159858789024e-06   1.050974194236348e-05
-4.756231743590965e-06   -3.0641159858789024e-06   1.050974194236348e-05
-4.756231743590965e-06   -3.0641159858789024e-06   1.050974194236348e-05
-2.9949582958829735e-06   -1.9936243799658813e-06   6.931991232635696e-06
-2.9949582958829735e-06   -1.9936243799658813e-06   6.931991232635696e-06
-2.9949582958829735e-06   -1.9936243799658813e-06   6.931991232635696e-06
-2.9949582958829735e-06   -1.9936243799658813e-06   6.931991232635696e-06
-1.2138346301313212e-06   -1.1190603240201125e-06   2.293429335906101e-06
-1.2138346301313212e-06   -1.1190603240201125e-06   2.293429335906101e-06
-1.2138346301313212e-06   -1.1190603240201125e-06   2.293429335906101e-06
-1.2138346301313212e-06   -1.1190603240201125e-06   2.293429335906101e-06
-6.879752008909354e-07   -8.491736153764189e-07   3.3317937431596453e-06
-6.879752008909354e-07   -8.491736153764189e-07   3.3317937431596453e-06
-6.879752008909354e-07   -8.491736153764189e-07   3.3317937431596453e-06
-6.879752008909354e-07   -8.491736153764189e-07   3.3317937431596453e-06
-6.736907637115827e-07   -1.0991064186029854e-06   2.5282412028798944e-06
-6.736907637115827e-07   -1.0991064186029854e-06   2.5282412028798944e-06
-6.736907637115827e-07   -1.0991064186029854e-06   2.5282412028798944e-06
-6.736907637115827e-07   -1.0991064186029854e-06   2.5282412028798944e-06
-1.3798593398134008e-06   -1.079115959963109e-06   3.6931945545322814e-06
-1.3798593398134008e-06   -1.079115959963109e-06   3.6931945545322814e-06
-1.3798593398134008e-06   -1.079115959963109e-06   3.6931945545322814e-06
-1.3798593398134008e-06   -1.079115959963109e-06   3.6931945545322814e-06
-9.250889434069426e-07   -9.652783530404209e-07   2.866941329701188e-06
-9.250889434069426e-07   -9.652783530404209e-07   2.866941329701188e-06
-9.250889434069426e-07   -9.652783530404209e-07   2.866941329701188e-06
-9.250889434069426e-07   -9.652783530404209e-07   2.866941329701188e-06
-1.3798593398134008e-06   -1.0991064186029854e-06   2.516246927695943e-06
-1.3798593398134008e-06   -1.0991064186029854e-06   2.516246927695943e-06
-1.3798593398134008e-06   -1.0991064186029854e-06   2.516246927695943e-06
-1.3798593398134008e-06   -1.0991064186029854e-06   2.516246927695943e-06
-6.736907637115827e-07   -1.0791159599631073e-06   3.7051888297161923e-06
-6.736907637115827e-07   -1.0791159599631073e-06   3.7051888297161923e-06
-6.736907637115827e-07   -1.0791159599631073e-06   3.7051888297161923e-06
-6.736907637115827e-07   -1.0791159599631073e-06   3.7051888297161923e-06
-6.876296156108162e-07   -1.1302222599478436e-06   2.7115348802262058e-06
-6.876296156108162e-07   -1.1302222599478436e-06   2.7115348802262058e-06
-6.876296156108162e-07   -1.1302222599478436e-06   2.7115348802262058e-06
-6.876296156108162e-07   -1.1302222599478436e-06   2.7115348802262058e-06
-1.5239350479901117e-06   -1.3467096231804926e-06   4.235269685464589e-06
-1.5239350479901117e-06   -1.3467096231804926e-06   4.235269685464589e-06
-1.5239350479901117e-06   -1.3467096231804926e-06   4.235269685464589e-06
-1.5239350479901117e-06   -1.3467096231804926e-06   4.235269685464589e-06
-9.967708582967998e-07   -1.0546288772093684e-06   3.181414255059755e-06
-9.967708582967998e-07   -1.0546288772093684e-06   3.181414255059755e-06
-9.967708582967998e-07   -1.0546288772093684e-06   3.181414255059755e-06
-9.967708582967998e-07   -1.0546288772093684e-06   3.181414255059755e-06
-1.5239350479901117e-06   -1.1302222599478436e-06   2.841427298165772e-06
-1.5239350479901117e-06   -1.1302222599478436e-06   2.841427298165772e-06
-1.5239350479901117e-06   -1.1302222599478436e-06   2.841427298165772e-06
-1.5239350479901117e-06   -1.1302222599478436e-06   2.841427298165772e-06
-6.876296156108162e-07   -1.3467096231804926e-06   4.105377267525002e-06
-6.876296156108162e-07   -1.3467096231804926e-06   4.105377267525002e-06
-6.876296156108162e-07   -1.3467096231804926e-06   4.105377267525002e-06
-6.876296156108162e-07   -1.3467096231804926e-06   4.105377267525002e-06
-7.211971447889601e-07   -1.1703060627048201e-06   2.990771628295734e-06
-7.211971447889601e-07   -1.1703060627048201e-06   2.990771628295734e-06
-7.211971447889601e-07   -1.1703060627048201e-06   2.990771628295734e-06
-7.211971447889601e-07   -1.1703060627048201e-06   2.990771628295734e-06
-1.7622938194526016e-06   -1.5990921544773842e-06   4.9832044077986195e-06
-1.7622938194526016e-06   -1.5990921544773842e-06   4.9832044077986195e-06
-1.7622938194526016e-06   -1.5990921544773842e-06   4.9832044077986195e-06
-1.7622938194526016e-06   -1.5990921544773842e-06   4.9832044077986195e-06
-1.0814895318716553e-06   -1.1399121209899475e-06   3.5730225750712623e-06
-1.0814895318716553e-06   -1.1399121209899475e-06   3.5730225750712623e-06
-1.0814895318716553e-06   -1.1399121209899475e-06   3.5730225750712623e-06
-1.0814895318716553e-06   -1.1399121209899475e-06   3.5730225750712623e-06
-6.879752008909354e-07   -4.6380691837306085e-07   7.624617365282885e-07
-6.879752008909354e-07   -4.6380691837306085e-07   7.624617365282885e-07
-6.879752008909354e-07   -4.6380691837306085e-07   7.624617365282885e-07
-6.879752008909354e-07   -4.6380691837306085e-07   7.624617365282885e-07
-5.352094061627464e-07   3.3409048864031383e-08   1.315400974750863e-06
-5.352094061627464e-07   3.3409048864031383e-08   1.315400974750863e-06
-5.352094061627464e-07   3.3409048864031383e-08   1.315400974750863e-06
-5.352094061627464e-07   3.3409048864031383e-08   1.315400974750863e-06
-4.43746203732169e-07   -5.386069407949866e-07   1.1207304875445476e-06
-4.43746203732169e-07   -5.386069407949866e-07   1.1207304875445476e-06
-4.43746203732169e-07   -5.386069407949866e-07   1.1207304875445476e-06
-4.43746203732169e-07   -5.386069407949866e-07   1.1207304875445476e-06
-6.736907637115827e-07   -5.779610888073254e-08   1.2154849216949561e-06
-6.736907637115827e-07   -5.779610888073254e-08   1.2154849216949561e-06
-6.736907637115827e-07   -5.779610888073254e-08   1.2154849216949561e-06
-6.736907637115827e-07   -5.779610888073254e-08   1.2154849216949561e-06
-5.481162257729927e-07   -2.51939849677618e-07   1.1226802696087242e-06
-5.481162257729927e-07   -2.51939849677618e-07   1.1226802696087242e-06
-5.481162257729927e-07   -2.51939849677618e-07   1.1226802696087242e-06
-5.481162257729927e-07   -2.51939849677618e-07   1.1226802696087242e-06
-6.736907637115827e-07   -5.386069407949866e-07   8.32243988395983e-07
-6.736907637115827e-07   -5.386069407949866e-07   8.32243988395983e-07
-6.736907637115827e-07   -5.386069407949866e-07   8.32243988395983e-07
-6.736907637115827e-07   -5.386069407949866e-07   8.32243988395983e-07
-4.43746203732169e-07   -5.779610888073254e-08   1.5039714208435207e-06
-4.43746203732169e-07   -5.779610888073254e-08   1.5039714208435207e-06
-4.43746203732169e-07   -5.779610888073254e-08   1.5039714208435207e-06
-4.43746203732169e-07   -5.779610888073254e-08   1.5039714208435207e-06
-3.9814681223904755e-07   -5.967339569002263e-07   1.2323140013562116e-06
-3.9814681223904755e-07   -5.967339569002263e-07   1.2323140013562116e-06
-3.9814681223904755e-07   -5.967339569002263e-07   1.2323140013562116e-06
-3.9814681223904755e-07   -5.967339569002263e-07   1.2323140013562116e-06
-6.876296156108162e-07   -1.9208235537793327e-07   1.4719943793957123e-06
-6.876296156108162e-07   -1.9208235537793327e-07   1.4719943793957123e-06
-6.876296156108162e-07   -1.9208235537793327e-07   1.4719943793957123e-06
-6.876296156108162e-07   -1.9208235537793327e-07   1.4719943793957123e-06
-5.067495561498667e-07   -3.153044153403537e-07   1.2444608496049478e-06
-5.067495561498667e-07   -3.153044153403537e-07   1.2444608496049478e-06
-5.067495561498667e-07   -3.153044153403537e-07   1.2444608496049478e-06
-5.067495561498667e-07   -3.153044153403537e-07   1.2444608496049478e-06
-6.876296156108162e-07   -5.967339569002263e-07   9.895230404428391e-07
-6.876296156108162e-07   -5.967339569002263e-07   9.895230404428391e-07
-6.876296156108162e-07   -5.967339569002263e-07   9.895230404428391e-07
-6.876296156108162e-07   -5.967339569002263e-07   9.895230404428391e-07
-3.98146812239034e-07   -1.9208235537793327e-07   1.7147853403090915e-06
-3.98146812239034e-07   -1.9208235537793327e-07   1.7147853403090915e-06
-3.98146812239034e-07   -1.9208235537793327e-07   1.7147853403090915e-06
-3.98146812239034e-07   -1.9208235537793327e-07   1.7147853403090915e-06
-3.2886477603286113e-07   -6.718835392767968e-07   1.3621216980018599e-06
-3.2886477603286113e-07   -6.718835392767968e-07   1.3621216980018599e-06
-3.2886477603286113e-07   -6.718835392767968e-07   1.3621216980018599e-06
-3.2886477603286113e-07   -6.718835392767968e-07   1.3621216980018599e-06
-7.211971447889601e-07   -4.5499586063734115e-07   1.8858763720783474e-06
-7.211971447889601e-07   -4.5499586063734115e-07   1.8858763720783474e-06
-7.211971447889601e-07   -4.5499586063734115e-07   1.8858763720783474e-06
-7.211971447889601e-07   -4.5499586063734115e-07   1.8858763720783474e-06
-4.782018406121946e-07   -4.072691868160715e-07   1.4522481941576281e-06
-4.782018406121946e-07   -4.072691868160715e-07   1.4522481941576281e-06
-4.782018406121946e-07   -4.072691868160715e-07   1.4522481941576281e-06
-4.782018406121946e-07   -4.072691868160715e-07   1.4522481941576281e-06
-5.352094061627464e-07   -4.442126731451785e-08   -7.967728606136796e-07
-5.352094061627464e-07   -4.442126731451785e-08   -7.967728606136796e-07
-5.352094061627464e-07   -4.442126731451785e-08   -7.967728606136796e-07
-5.352094061627464e-07   -4.442126731451785e-08   -7.967728606136796e-07
-1.2526077273680844e-07   6.629836674482138e-08   -4.7093357801559436e-08
-1.2526077273680844e-07   6.629836674482138e-08   -4.7093357801559436e-08
-1.2526077273680844e-07   6.629836674482138e-08   -4.7093357801559436e-08
-1.2526077273680844e-07   6.629836674482138e-08   -4.7093357801559436e-08
-3.639292070150668e-08   -6.506595117130253e-08   -6.061896575318404e-07
-3.639292070150668e-08   -6.506595117130253e-08   -6.061896575318404e-07
-3.639292070150668e-08   -6.506595117130253e-08   -6.061896575318404e-07
-3.639292070150668e-08   -6.506595117130253e-08   -6.061896575318404e-07
-4.43746203732169e-07   1.1061374574812283e-07   -3.267533729908598e-08
-4.43746203732169e-07   1.1061374574812283e-07   -3.267533729908598e-08
-4.43746203732169e-07   1.1061374574812283e-07   -3.267533729908598e-08
-4.43746203732169e-07   1.1061374574812283e-07   -3.267533729908598e-08
-2.604858226167017e-07   3.3755335504664636e-08   -2.919942596788617e-07
-2.604858226167017e-07   3.3755335504664636e-08   -2.919942596788617e-07
-2.604858226167017e-07   3.3755335504664636e-08   -2.919942596788617e-07
-2.604858226167017e-07   3.3755335504664636e-08   -2.919942596788617e-07
-4.4374620373218256e-07   -6.506595117130253e-08   -7.115974756835119e-07
-4.4374620373218256e-07   -6.506595117130253e-08   -7.115974756835119e-07
-4.4374620373218256e-07   -6.506595117130253e-08   -7.115974756835119e-07
-4.4374620373218256e-07   -6.506595117130253e-08   -7.115974756835119e-07
-3.639292070150668e-08   1.1061374574812283e-07   7.273248085257872e-08
-3.639292070150668e-08   1.1061374574812283e-07   7.273248085257872e-08
-3.639292070150668e-08   1.1061374574812283e-07   7.273248085257872e-08
-3.639292070150668e-08   1.1061374574812283e-07   7.273248085257872e-08
5.3524339258990365e-09   -9.197316192427777e-08   -5.188058183814204e-07
5.3524339258990365e-09   -9.197316192427777e-08   -5.188058183814204e-07
5.3524339258990365e-09   -9.197316192427777e-08   -5.188058183814204e-07
5.3524339258990365e-09   -9.197316192427777e-08   -5.188058183814204e-07
-3.98146812239034e-07   8.338968034715112e-08   4.8475219863870734e-08
-3.98146812239034e-07   8.338968034715112e-08   4.8475219863870734e-08
-3.98146812239034e-07   8.338968034715112e-08   4.8475219863870734e-08
-3.98146812239034e-07   8.338968034715112e-08   4.8475219863870734e-08
-1.9723052163937314e-07   2.112248213805083e-08   -2.4902494554331555e-07
-1.9723052163937314e-07   2.112248213805083e-08   -2.4902494554331555e-07
-1.9723052163937314e-07   2.112248213805083e-08   -2.4902494554331555e-07
-1.9723052163937314e-07   2.112248213805083e-08   -2.4902494554331555e-07
-3.98146812239034e-07   -9.197316192427777e-08   -6.24023523744299e-07
-3.98146812239034e-07   -9.197316192427777e-08   -6.24023523744299e-07
-3.98146812239034e-07   -9.197316192427777e-08   -6.24023523744299e-07
-3.98146812239034e-07   -9.197316192427777e-08   -6.24023523744299e-07
5.3524339258990365e-09   8.338968034715112e-08   1.5369292522674264e-07
5.3524339258990365e-09   8.338968034715112e-08   1.5369292522674264e-07
5.3524339258990365e-09   8.338968034715112e-08   1.5369292522674264e-07
5.3524339258990365e-09   8.338968034715112e-08   1.5369292522674264e-07
5.413126128044651e-08   -1.2815401149158493e-07   -3.844918077963125e-07
5.413126128044651e-08   -1.2815401149158493e-07   -3.844918077963125e-07
5.413126128044651e-08   -1.2815401149158493e-07   -3.844918077963125e-07
5.413126128044651e-08   -1.2815401149158493e-07   -3.844918077963125e-07
-3.2886477603286113e-07   4.985447618203815e-08   1.4702982845496323e-07
-3.2886477603286113e-07   4.985447618203815e-08   1.4702982845496323e-07
-3.2886477603286113e-07   4.985447618203815e-08   1.4702982845496323e-07
-3.2886477603286113e-07   4.985447618203815e-08   1.4702982845496323e-07
-1.4108674226029046e-07   3.6544176401677995e-09   -1.3821352604095568e-07
-1.4108674226029046e-07   3.6544176401677995e-09   -1.3821352604095568e-07
-1.4108674226029046e-07   3.6544176401677995e-09   -1.3821352604095568e-07
-1.4108674226029046e-07   3.6544176401677995e-09   -1.3821352604095568e-07
              </DataArray>   
             <DataArray type="Float64" NumberOfComponents="3" Name="Stress" format="ascii">   
-0.8027376327462101   -0.20068440818655253   -0.20068440818655253
-0.8027376327462101   -0.20068440818655253   -0.20068440818655253
-0.8027376327462101   -0.20068440818655253   -0.20068440818655253
-0.8027376327462101   -0.20068440818655253   -0.20068440818655253
-0.46418926130063043   -0.015439539082821238   -0.009594233512562708
-0.46418926130063043   -0.015439539082821238   -0.009594233512562708
-0.46418926130063043   -0.015439539082821238   -0.009594233512562708
-0.46418926130063043   -0.015439539082821238   -0.009594233512562708
-0.49970264116331753   -0.12492566029082938   -0.12492566029082938
-0.49970264116331753   -0.12492566029082938   -0.12492566029082938
-0.49970264116331753   -0.12492566029082938   -0.12492566029082938
-0.49970264116331753   -0.12492566029082938   -0.12492566029082938
-0.773392464182275   -0.06408951856250793   -0.024691094031185218
-0.773392464182275   -0.06408951856250793   -0.024691094031185218
-0.773392464182275   -0.06408951856250793   -0.024691094031185218
-0.773392464182275   -0.06408951856250793   -0.024691094031185218
-0.6063923473967091   -0.09975667534750826   -0.001714445339604992
-0.6063923473967091   -0.09975667534750826   -0.001714445339604992
-0.6063923473967091   -0.09975667534750826   -0.001714445339604992
-0.6063923473967091   -0.09975667534750826   -0.001714445339604992
-0.8395959351817087   -0.20989898379542718   -0.20989898379542718
-0.8395959351817087   -0.20989898379542718   -0.20989898379542718
-0.8395959351817087   -0.20989898379542718   -0.20989898379542718
-0.8395959351817087   -0.20989898379542718   -0.20989898379542718
-0.44925878218932447   0.005124192916650557   -0.0027562186283439233
-0.44925878218932447   0.005124192916650557   -0.0027562186283439233
-0.44925878218932447   0.005124192916650557   -0.0027562186283439233
-0.44925878218932447   0.005124192916650557   -0.0027562186283439233
-0.5006685636250389   -0.12516714090625972   -0.12516714090625972
-0.5006685636250389   -0.12516714090625972   -0.12516714090625972
-0.5006685636250389   -0.12516714090625972   -0.12516714090625972
-0.5006685636250389   -0.12516714090625972   -0.12516714090625972
-0.798886814263548   -0.06456500849606259   -0.03611969619325073
-0.798886814263548   -0.06456500849606259   -0.03611969619325073
-0.798886814263548   -0.06456500849606259   -0.03611969619325073
-0.798886814263548   -0.06456500849606259   -0.03611969619325073
-0.6285337517150583   -0.09376245290045924   -0.033311183359655314
-0.6285337517150583   -0.09376245290045924   -0.033311183359655314
-0.6285337517150583   -0.09376245290045924   -0.033311183359655314
-0.6285337517150583   -0.09376245290045924   -0.033311183359655314
-0.8652776370285409   -0.21631940925713522   -0.21631940925713522
-0.8652776370285409   -0.21631940925713522   -0.21631940925713522
-0.8652776370285409   -0.21631940925713522   -0.21631940925713522
-0.8652776370285409   -0.21631940925713522   -0.21631940925713522
-0.4475395728799917   0.013325427834867905   0.001985244077845283
-0.4475395728799917   0.013325427834867905   0.001985244077845283
-0.4475395728799917   0.013325427834867905   0.001985244077845283
-0.4475395728799917   0.013325427834867905   0.001985244077845283
-0.49990564735726867   -0.12497641183931717   -0.12497641183931717
-0.49990564735726867   -0.12497641183931717   -0.12497641183931717
-0.49990564735726867   -0.12497641183931717   -0.12497641183931717
-0.49990564735726867   -0.12497641183931717   -0.12497641183931717
-0.8445818922512102   -0.056310192299191174   -0.021905535184477437
-0.8445818922512102   -0.056310192299191174   -0.021905535184477437
-0.8445818922512102   -0.056310192299191174   -0.021905535184477437
-0.8445818922512102   -0.056310192299191174   -0.021905535184477437
-0.6447890100187103   -0.0921680151244083   -0.06011464510107613
-0.6447890100187103   -0.0921680151244083   -0.06011464510107613
-0.6447890100187103   -0.0921680151244083   -0.06011464510107613
-0.6447890100187103   -0.0921680151244083   -0.06011464510107613
-0.5102027853128381   -0.12755069632820953   -0.12755069632820953
-0.5102027853128381   -0.12755069632820953   -0.12755069632820953
-0.5102027853128381   -0.12755069632820953   -0.12755069632820953
-0.5102027853128381   -0.12755069632820953   -0.12755069632820953
-0.21345836595178846   -0.01468545723872133   -0.004728347994672685
-0.21345836595178846   -0.01468545723872133   -0.004728347994672685
-0.21345836595178846   -0.01468545723872133   -0.004728347994672685
-0.21345836595178846   -0.01468545723872133   -0.004728347994672685
-0.223531084861458   -0.0558827712153645   -0.0558827712153645
-0.223531084861458   -0.0558827712153645   -0.0558827712153645
-0.223531084861458   -0.0558827712153645   -0.0558827712153645
-0.223531084861458   -0.0558827712153645   -0.0558827712153645
-0.46420637289509015   -0.05488352602135989   -0.017486453219162187
-0.46420637289509015   -0.05488352602135989   -0.017486453219162187
-0.46420637289509015   -0.05488352602135989   -0.017486453219162187
-0.46420637289509015   -0.05488352602135989   -0.017486453219162187
-0.3426757385504204   -0.06508085151790027   0.0026033666579631104
-0.3426757385504204   -0.06508085151790027   0.0026033666579631104
-0.3426757385504204   -0.06508085151790027   0.0026033666579631104
-0.3426757385504204   -0.06508085151790027   0.0026033666579631104
-0.4997026411633171   -0.12492566029082927   -0.12492566029082927
-0.4997026411633171   -0.12492566029082927   -0.12492566029082927
-0.4997026411633171   -0.12492566029082927   -0.12492566029082927
-0.4997026411633171   -0.12492566029082927   -0.12492566029082927
-0.20098860457692283   0.0012055750704127559   -0.0002587160784658371
-0.20098860457692283   0.0012055750704127559   -0.0002587160784658371
-0.20098860457692283   0.0012055750704127559   -0.0002587160784658371
-0.20098860457692283   0.0012055750704127559   -0.0002587160784658371
-0.21810945627397582   -0.054527364068493955   -0.054527364068493955
-0.21810945627397582   -0.054527364068493955   -0.054527364068493955
-0.21810945627397582   -0.054527364068493955   -0.054527364068493955
-0.21810945627397582   -0.054527364068493955   -0.054527364068493955
-0.4626092262387474   -0.044655374049586305   -0.015382220831475904
-0.4626092262387474   -0.044655374049586305   -0.015382220831475904
-0.4626092262387474   -0.044655374049586305   -0.015382220831475904
-0.4626092262387474   -0.044655374049586305   -0.015382220831475904
-0.33747486495264556   -0.054699999033143765   -0.017597106496176337
-0.33747486495264556   -0.054699999033143765   -0.017597106496176337
-0.33747486495264556   -0.054699999033143765   -0.017597106496176337
-0.33747486495264556   -0.054699999033143765   -0.017597106496176337
-0.5006685636250389   -0.12516714090625972   -0.12516714090625972
-0.5006685636250389   -0.12516714090625972   -0.12516714090625972
-0.5006685636250389   -0.12516714090625972   -0.12516714090625972
-0.5006685636250389   -0.12516714090625972   -0.12516714090625972
-0.19259747959226506   0.01343704208359905   0.005068113187968522
-0.19259747959226506   0.01343704208359905   0.005068113187968522
-0.19259747959226506   0.01343704208359905   0.005068113187968522
-0.19259747959226506   0.01343704208359905   0.005068113187968522
-0.21309940358338045   -0.05327485089584511   -0.05327485089584511
-0.21309940358338045   -0.05327485089584511   -0.05327485089584511
-0.21309940358338045   -0.05327485089584511   -0.05327485089584511
-0.21309940358338045   -0.05327485089584511   -0.05327485089584511
-0.45873877465341667   -0.034332315262972236   -0.00978614489640775
-0.45873877465341667   -0.034332315262972236   -0.00978614489640775
-0.45873877465341667   -0.034332315262972236   -0.00978614489640775
-0.45873877465341667   -0.034332315262972236   -0.00978614489640775
-0.33868022792139457   -0.048283154030406686   -0.039140059357623144
-0.33868022792139457   -0.048283154030406686   -0.039140059357623144
-0.33868022792139457   -0.048283154030406686   -0.039140059357623144
-0.33868022792139457   -0.048283154030406686   -0.039140059357623144
-0.23286178322790002   -0.058215445806975005   -0.058215445806975005
-0.23286178322790002   -0.058215445806975005   -0.058215445806975005
-0.23286178322790002   -0.058215445806975005   -0.058215445806975005
-0.23286178322790002   -0.058215445806975005   -0.058215445806975005
0.026259066145711715   0.0014853498081762824   0.00023481494053860085
0.026259066145711715   0.0014853498081762824   0.00023481494053860085
0.026259066145711715   0.0014853498081762824   0.00023481494053860085
0.026259066145711715   0.0014853498081762824   0.00023481494053860085
0.03495575775755504   0.00873893943938876   0.00873893943938876
0.03495575775755504   0.00873893943938876   0.00873893943938876
0.03495575775755504   0.00873893943938876   0.00873893943938876
0.03495575775755504   0.00873893943938876   0.00873893943938876
-0.21011564869574786   -0.036304707088715124   -0.008383654513463228
-0.21011564869574786   -0.036304707088715124   -0.008383654513463228
-0.21011564869574786   -0.036304707088715124   -0.008383654513463228
-0.21011564869574786   -0.036304707088715124   -0.008383654513463228
-0.09064256805500434   -0.02296509445206743   0.015040811485320882
-0.09064256805500434   -0.02296509445206743   0.015040811485320882
-0.09064256805500434   -0.02296509445206743   0.015040811485320882
-0.09064256805500434   -0.02296509445206743   0.015040811485320882
-0.22353108486145837   -0.05588277121536459   -0.05588277121536459
-0.22353108486145837   -0.05588277121536459   -0.05588277121536459
-0.22353108486145837   -0.05588277121536459   -0.05588277121536459
-0.22353108486145837   -0.05588277121536459   -0.05588277121536459
0.035644388064629454   0.015590197707402378   0.005330832706746951
0.035644388064629454   0.015590197707402378   0.005330832706746951
0.035644388064629454   0.015590197707402378   0.005330832706746951
0.035644388064629454   0.015590197707402378   0.005330832706746951
0.03987722418139361   0.009969306045348403   0.009969306045348403
0.03987722418139361   0.009969306045348403   0.009969306045348403
0.03987722418139361   0.009969306045348403   0.009969306045348403
0.03987722418139361   0.009969306045348403   0.009969306045348403
-0.20228129125072716   -0.024296278827864202   -0.005617624192882101
-0.20228129125072716   -0.024296278827864202   -0.005617624192882101
-0.20228129125072716   -0.024296278827864202   -0.005617624192882101
-0.20228129125072716   -0.024296278827864202   -0.005617624192882101
-0.08652617444350583   -0.014132120199894889   -0.005277565487489297
-0.08652617444350583   -0.014132120199894889   -0.005277565487489297
-0.08652617444350583   -0.014132120199894889   -0.005277565487489297
-0.08652617444350583   -0.014132120199894889   -0.005277565487489297
-0.21810945627397618   -0.054527364068494046   -0.054527364068494046
-0.21810945627397618   -0.054527364068494046   -0.054527364068494046
-0.21810945627397618   -0.054527364068494046   -0.054527364068494046
-0.21810945627397618   -0.054527364068494046   -0.054527364068494046
0.043235756597993974   0.027730758679330177   0.009000515494368158
0.043235756597993974   0.027730758679330177   0.009000515494368158
0.043235756597993974   0.027730758679330177   0.009000515494368158
0.043235756597993974   0.027730758679330177   0.009000515494368158
0.04635191552721965   0.011587978881804913   0.011587978881804913
0.04635191552721965   0.011587978881804913   0.011587978881804913
0.04635191552721965   0.011587978881804913   0.011587978881804913
0.04635191552721965   0.011587978881804913   0.011587978881804913
-0.19376240013177692   -0.0100103376641832   0.00014565313050969586
-0.19376240013177692   -0.0100103376641832   0.00014565313050969586
-0.19376240013177692   -0.0100103376641832   0.00014565313050969586
-0.19376240013177692   -0.0100103376641832   0.00014565313050969586
-0.08349690749548168   -0.005616203372779198   -0.025413867424427826
-0.08349690749548168   -0.005616203372779198   -0.025413867424427826
-0.08349690749548168   -0.005616203372779198   -0.025413867424427826
-0.08349690749548168   -0.005616203372779198   -0.025413867424427826
0.0287944813288542   0.00719862033221355   0.00719862033221355
0.0287944813288542   0.00719862033221355   0.00719862033221355
0.0287944813288542   0.00719862033221355   0.00719862033221355
0.0287944813288542   0.00719862033221355   0.00719862033221355
0.28902439427757864   0.026574984327348547   0.009166924658558374
0.28902439427757864   0.026574984327348547   0.009166924658558374
0.28902439427757864   0.026574984327348547   0.009166924658558374
0.28902439427757864   0.026574984327348547   0.009166924658558374
0.3143046012729265   0.07857615031823162   0.07857615031823162
0.3143046012729265   0.07857615031823162   0.07857615031823162
0.3143046012729265   0.07857615031823162   0.07857615031823162
0.3143046012729265   0.07857615031823162   0.07857615031823162
0.026587163144987807   -0.02030704880234789   -0.004058045381711014
0.026587163144987807   -0.02030704880234789   -0.004058045381711014
0.026587163144987807   -0.02030704880234789   -0.004058045381711014
0.026587163144987807   -0.02030704880234789   -0.004058045381711014
0.1644491403958042   0.020499929327556832   0.02977283679745755
0.1644491403958042   0.020499929327556832   0.02977283679745755
0.1644491403958042   0.020499929327556832   0.02977283679745755
0.1644491403958042   0.020499929327556832   0.02977283679745755
0.034955757757555155   0.008738939439388789   0.008738939439388789
0.034955757757555155   0.008738939439388789   0.008738939439388789
0.034955757757555155   0.008738939439388789   0.008738939439388789
0.034955757757555155   0.008738939439388789   0.008738939439388789
0.29298819390157615   0.036582349317712315   0.013987914462001642
0.29298819390157615   0.036582349317712315   0.013987914462001642
0.29298819390157615   0.036582349317712315   0.013987914462001642
0.29298819390157615   0.036582349317712315   0.013987914462001642
0.31343428456441447   0.07835857114110362   0.07835857114110362
0.31343428456441447   0.07835857114110362   0.07835857114110362
0.31343428456441447   0.07835857114110362   0.07835857114110362
0.31343428456441447   0.07835857114110362   0.07835857114110362
0.0342240791321959   -0.008546537111726519   0.00021942395643446012
0.0342240791321959   -0.008546537111726519   0.00021942395643446012
0.0342240791321959   -0.008546537111726519   0.00021942395643446012
0.0342240791321959   -0.008546537111726519   0.00021942395643446012
0.16372013005876007   0.027085057642200018   0.007637997427168815
0.16372013005876007   0.027085057642200018   0.007637997427168815
0.16372013005876007   0.027085057642200018   0.007637997427168815
0.16372013005876007   0.027085057642200018   0.007637997427168815
0.03987722418139368   0.00996930604534842   0.00996930604534842
0.03987722418139368   0.00996930604534842   0.00996930604534842
0.03987722418139368   0.00996930604534842   0.00996930604534842
0.03987722418139368   0.00996930604534842   0.00996930604534842
0.2949604589309689   0.04702204739978128   0.0173259667152005
0.2949604589309689   0.04702204739978128   0.0173259667152005
0.2949604589309689   0.04702204739978128   0.0173259667152005
0.2949604589309689   0.04702204739978128   0.0173259667152005
0.31996174828739166   0.07999043707184791   0.07999043707184791
0.31996174828739166   0.07999043707184791   0.07999043707184791
0.31996174828739166   0.07999043707184791   0.07999043707184791
0.31996174828739166   0.07999043707184791   0.07999043707184791
0.04411506177990111   0.006967886860111032   0.005023802166905756
0.04411506177990111   0.006967886860111032   0.005023802166905756
0.04411506177990111   0.006967886860111032   0.005023802166905756
0.04411506177990111   0.006967886860111032   0.005023802166905756
0.16672337272091498   0.03686230514191109   -0.012883129592103096
0.16672337272091498   0.03686230514191109   -0.012883129592103096
0.16672337272091498   0.03686230514191109   -0.012883129592103096
0.16672337272091498   0.03686230514191109   -0.012883129592103096
0.31319556942266474   0.07829889235566619   0.07829889235566619
0.31319556942266474   0.07829889235566619   0.07829889235566619
0.31319556942266474   0.07829889235566619   0.07829889235566619
0.31319556942266474   0.07829889235566619   0.07829889235566619
0.6525179389449319   0.04989107974864787   0.01768520145644295
0.6525179389449319   0.04989107974864787   0.01768520145644295
0.6525179389449319   0.04989107974864787   0.01768520145644295
0.6525179389449319   0.04989107974864787   0.01768520145644295
0.6675245386540154   0.16688113466350385   0.16688113466350385
0.6675245386540154   0.16688113466350385   0.16688113466350385
0.6675245386540154   0.16688113466350385   0.16688113466350385
0.6675245386540154   0.16688113466350385   0.16688113466350385
0.27950227527644633   -0.015672361115664547   -0.0011869682302707574
0.27950227527644633   -0.015672361115664547   -0.0011869682302707574
0.27950227527644633   -0.015672361115664547   -0.0011869682302707574
0.27950227527644633   -0.015672361115664547   -0.0011869682302707574
0.46497961512839864   0.06597579322997194   0.05230203923949084
0.46497961512839864   0.06597579322997194   0.05230203923949084
0.46497961512839864   0.06597579322997194   0.05230203923949084
0.46497961512839864   0.06597579322997194   0.05230203923949084
0.3143046012729262   0.07857615031823155   0.07857615031823155
0.3143046012729262   0.07857615031823155   0.07857615031823155
0.3143046012729262   0.07857615031823155   0.07857615031823155
0.3143046012729262   0.07857615031823155   0.07857615031823155
0.6188276642099053   0.058738074781977304   0.031539822324479924
0.6188276642099053   0.058738074781977304   0.031539822324479924
0.6188276642099053   0.058738074781977304   0.031539822324479924
0.6188276642099053   0.058738074781977304   0.031539822324479924
0.6481509465084359   0.16203773662710896   0.16203773662710896
0.6481509465084359   0.16203773662710896   0.16203773662710896
0.6481509465084359   0.16203773662710896   0.16203773662710896
0.6481509465084359   0.16203773662710896   0.16203773662710896
0.28092939407660944   -0.008389162325234265   0.0025818521684190868
0.28092939407660944   -0.008389162325234265   0.0025818521684190868
0.28092939407660944   -0.008389162325234265   0.0025818521684190868
0.28092939407660944   -0.008389162325234265   0.0025818521684190868
0.451720810806647   0.06802844916813287   0.025050622357037963
0.451720810806647   0.06802844916813287   0.025050622357037963
0.451720810806647   0.06802844916813287   0.025050622357037963
0.451720810806647   0.06802844916813287   0.025050622357037963
0.31343428456441447   0.07835857114110362   0.07835857114110362
0.31343428456441447   0.07835857114110362   0.07835857114110362
0.31343428456441447   0.07835857114110362   0.07835857114110362
0.31343428456441447   0.07835857114110362   0.07835857114110362
0.599425454276031   0.05906940141617163   0.02137861067602706
0.599425454276031   0.05906940141617163   0.02137861067602706
0.599425454276031   0.05906940141617163   0.02137861067602706
0.599425454276031   0.05906940141617163   0.02137861067602706
0.6189765568651368   0.1547441392162842   0.1547441392162842
0.6189765568651368   0.1547441392162842   0.1547441392162842
0.6189765568651368   0.1547441392162842   0.1547441392162842
0.6189765568651368   0.1547441392162842   0.1547441392162842
0.2918082311695331   0.00993514739287474   0.009278141161532034
0.2918082311695331   0.00993514739287474   0.009278141161532034
0.2918082311695331   0.00993514739287474   0.009278141161532034
0.2918082311695331   0.00993514739287474   0.009278141161532034
0.43303167045533286   0.07393661478942333   -0.0067026557292454575
0.43303167045533286   0.07393661478942333   -0.0067026557292454575
0.43303167045533286   0.07393661478942333   -0.0067026557292454575
0.43303167045533286   0.07393661478942333   -0.0067026557292454575
-0.6303374249849223   -0.045211210013551904   0.00769557551807637
-0.6303374249849223   -0.045211210013551904   0.00769557551807637
-0.6303374249849223   -0.045211210013551904   0.00769557551807637
-0.6303374249849223   -0.045211210013551904   0.00769557551807637
-0.40180975963953797   -0.009837664784531724   -0.002808729939315177
-0.40180975963953797   -0.009837664784531724   -0.002808729939315177
-0.40180975963953797   -0.009837664784531724   -0.002808729939315177
-0.40180975963953797   -0.009837664784531724   -0.002808729939315177
-0.40405302884830335   0.016479970280642343   0.00881691485059534
-0.40405302884830335   0.016479970280642343   0.00881691485059534
-0.40405302884830335   0.016479970280642343   0.00881691485059534
-0.40405302884830335   0.016479970280642343   0.00881691485059534
-0.6394801883647627   -0.0439233915893714   -0.007837191605470722
-0.6394801883647627   -0.0439233915893714   -0.007837191605470722
-0.6394801883647627   -0.0439233915893714   -0.007837191605470722
-0.6394801883647627   -0.0439233915893714   -0.007837191605470722
-0.4985601861351186   -0.017206425360644106   -0.0022842502302921203
-0.4985601861351186   -0.017206425360644106   -0.0022842502302921203
-0.4985601861351186   -0.017206425360644106   -0.0022842502302921203
-0.4985601861351186   -0.017206425360644106   -0.0022842502302921203
-0.6345595626289785   -0.030680175290663178   0.0035227207747428047
-0.6345595626289785   -0.030680175290663178   0.0035227207747428047
-0.6345595626289785   -0.030680175290663178   0.0035227207747428047
-0.6345595626289785   -0.030680175290663178   0.0035227207747428047
-0.40961581836246297   0.002594590203560409   -0.005111652643113446
-0.40961581836246297   0.002594590203560409   -0.005111652643113446
-0.40961581836246297   0.002594590203560409   -0.005111652643113446
-0.40961581836246297   0.002594590203560409   -0.005111652643113446
-0.404243509339963   0.02357499083223342   0.009936995524644734
-0.404243509339963   0.02357499083223342   0.009936995524644734
-0.404243509339963   0.02357499083223342   0.009936995524644734
-0.404243509339963   0.02357499083223342   0.009936995524644734
-0.6429480162017941   -0.038580803364894375   -0.010316658023283187
-0.6429480162017941   -0.038580803364894375   -0.010316658023283187
-0.6429480162017941   -0.038580803364894375   -0.010316658023283187
-0.6429480162017941   -0.038580803364894375   -0.010316658023283187
-0.512196283700118   -0.011400747335013992   -0.005006228939238883
-0.512196283700118   -0.011400747335013992   -0.005006228939238883
-0.512196283700118   -0.011400747335013992   -0.005006228939238883
-0.512196283700118   -0.011400747335013992   -0.005006228939238883
-0.6311013667710363   -0.018097352171490756   0.028433137937097147
-0.6311013667710363   -0.018097352171490756   0.028433137937097147
-0.6311013667710363   -0.018097352171490756   0.028433137937097147
-0.6311013667710363   -0.018097352171490756   0.028433137937097147
-0.4112284613319742   0.007953237077576124   -0.009366010680750589
-0.4112284613319742   0.007953237077576124   -0.009366010680750589
-0.4112284613319742   0.007953237077576124   -0.009366010680750589
-0.4112284613319742   0.007953237077576124   -0.009366010680750589
-0.39656320231551884   0.04122681171832882   0.017760794967431978
-0.39656320231551884   0.04122681171832882   0.017760794967431978
-0.39656320231551884   0.04122681171832882   0.017760794967431978
-0.39656320231551884   0.04122681171832882   0.017760794967431978
-0.6245681153427938   -0.03087623272847386   -0.016736336909416866
-0.6245681153427938   -0.03087623272847386   -0.016736336909416866
-0.6245681153427938   -0.03087623272847386   -0.016736336909416866
-0.6245681153427938   -0.03087623272847386   -0.016736336909416866
-0.49215320665355433   0.004862290977519643   0.011006049522323855
-0.49215320665355433   0.004862290977519643   0.011006049522323855
-0.49215320665355433   0.004862290977519643   0.011006049522323855
-0.49215320665355433   0.004862290977519643   0.011006049522323855
-0.41162180851788216   -0.05476150331343273   -0.0069451358021354465
-0.41162180851788216   -0.05476150331343273   -0.0069451358021354465
-0.41162180851788216   -0.05476150331343273   -0.0069451358021354465
-0.41162180851788216   -0.05476150331343273   -0.0069451358021354465
-0.19037904033176598   -0.004604403895422913   0.0019318351772624545
-0.19037904033176598   -0.004604403895422913   0.0019318351772624545
-0.19037904033176598   -0.004604403895422913   0.0019318351772624545
-0.19037904033176598   -0.004604403895422913   0.0019318351772624545
-0.19284811667413806   0.0034912234670659657   0.0030290380020149485
-0.19284811667413806   0.0034912234670659657   0.0030290380020149485
-0.19284811667413806   0.0034912234670659657   0.0030290380020149485
-0.19284811667413806   0.0034912234670659657   0.0030290380020149485
-0.419599328896337   -0.040029586895968194   -0.012405028212962285
-0.419599328896337   -0.040029586895968194   -0.012405028212962285
-0.419599328896337   -0.040029586895968194   -0.012405028212962285
-0.419599328896337   -0.040029586895968194   -0.012405028212962285
-0.3036313931558868   -0.024831385423632828   -0.007112703187065181
-0.3036313931558868   -0.024831385423632828   -0.007112703187065181
-0.3036313931558868   -0.024831385423632828   -0.007112703187065181
-0.3036313931558868   -0.024831385423632828   -0.007112703187065181
-0.41914552363070023   -0.04367265273399941   -0.006492936046749276
-0.41914552363070023   -0.04367265273399941   -0.006492936046749276
-0.41914552363070023   -0.04367265273399941   -0.006492936046749276
-0.41914552363070023   -0.04367265273399941   -0.006492936046749276
-0.19256044254148394   0.007875768703387373   8.286342896249993e-05
-0.19256044254148394   0.007875768703387373   8.286342896249993e-05
-0.19256044254148394   0.007875768703387373   8.286342896249993e-05
-0.19256044254148394   0.007875768703387373   8.286342896249993e-05
-0.19186055468630364   0.013370791879492432   0.003999937261474025
-0.19186055468630364   0.013370791879492432   0.003999937261474025
-0.19186055468630364   0.013370791879492432   0.003999937261474025
-0.19186055468630364   0.013370791879492432   0.003999937261474025
-0.4194709361133477   -0.029186294396702006   -0.013438853113343169
-0.4194709361133477   -0.029186294396702006   -0.013438853113343169
-0.4194709361133477   -0.029186294396702006   -0.013438853113343169
-0.4194709361133477   -0.029186294396702006   -0.013438853113343169
-0.3027792188682874   -0.0137574915846898   -0.003392826644834493
-0.3027792188682874   -0.0137574915846898   -0.003392826644834493
-0.3027792188682874   -0.0137574915846898   -0.003392826644834493
-0.3027792188682874   -0.0137574915846898   -0.003392826644834493
-0.417781288331674   -0.03287393668517656   -0.0013029719165001258
-0.417781288331674   -0.03287393668517656   -0.0013029719165001258
-0.417781288331674   -0.03287393668517656   -0.0013029719165001258
-0.417781288331674   -0.03287393668517656   -0.0013029719165001258
-0.19216974174543336   0.018438894890511506   -0.002614101045191858
-0.19216974174543336   0.018438894890511506   -0.002614101045191858
-0.19216974174543336   0.018438894890511506   -0.002614101045191858
-0.19216974174543336   0.018438894890511506   -0.002614101045191858
-0.1883989573466885   0.023267665647633162   0.00787394234989066
-0.1883989573466885   0.023267665647633162   0.00787394234989066
-0.1883989573466885   0.023267665647633162   0.00787394234989066
-0.1883989573466885   0.023267665647633162   0.00787394234989066
-0.4146871344754381   -0.016653051157395685   -0.01497900295643774
-0.4146871344754381   -0.016653051157395685   -0.01497900295643774
-0.4146871344754381   -0.016653051157395685   -0.01497900295643774
-0.4146871344754381   -0.016653051157395685   -0.01497900295643774
-0.30123017358088533   -0.0032727258267638976   0.0014987648648107366
-0.30123017358088533   -0.0032727258267638976   0.0014987648648107366
-0.30123017358088533   -0.0032727258267638976   0.0014987648648107366
-0.30123017358088533   -0.0032727258267638976   0.0014987648648107366
-0.20063642114393854   -0.0456105043280553   -0.008348968450969538
-0.20063642114393854   -0.0456105043280553   -0.008348968450969538
-0.20063642114393854   -0.0456105043280553   -0.008348968450969538
-0.20063642114393854   -0.0456105043280553   -0.008348968450969538
0.019349961488512375   0.00438335877737505   0.007814144994689753
0.019349961488512375   0.00438335877737505   0.007814144994689753
0.019349961488512375   0.00438335877737505   0.007814144994689753
0.019349961488512375   0.00438335877737505   0.007814144994689753
0.018667490914304655   0.0112630601276171   0.000672041958145353
0.018667490914304655   0.0112630601276171   0.000672041958145353
0.018667490914304655   0.0112630601276171   0.000672041958145353
0.018667490914304655   0.0112630601276171   0.000672041958145353
-0.20124331187134478   -0.03011298013782129   -0.005342734379132977
-0.20124331187134478   -0.03011298013782129   -0.005342734379132977
-0.20124331187134478   -0.03011298013782129   -0.005342734379132977
-0.20124331187134478   -0.03011298013782129   -0.005342734379132977
-0.09185004064138012   -0.015224153186756979   -0.002984710432773558
-0.09185004064138012   -0.015224153186756979   -0.002984710432773558
-0.09185004064138012   -0.015224153186756979   -0.002984710432773558
-0.09185004064138012   -0.015224153186756979   -0.002984710432773558
-0.2026432312488479   -0.03468712914794704   -0.007768182256522815
-0.2026432312488479   -0.03468712914794704   -0.007768182256522815
-0.2026432312488479   -0.03468712914794704   -0.007768182256522815
-0.2026432312488479   -0.03468712914794704   -0.007768182256522815
0.02082350243128003   0.016593301277215082   0.006121858393424089
0.02082350243128003   0.016593301277215082   0.006121858393424089
0.02082350243128003   0.016593301277215082   0.006121858393424089
0.02082350243128003   0.016593301277215082   0.006121858393424089
0.020505205742885786   0.02210576744751912   0.0036061101904215657
0.020505205742885786   0.02210576744751912   0.0036061101904215657
0.020505205742885786   0.02210576744751912   0.0036061101904215657
0.020505205742885786   0.02210576744751912   0.0036061101904215657
-0.2003150115869306   -0.01821529270113808   -0.006686262661031929
-0.2003150115869306   -0.01821529270113808   -0.006686262661031929
-0.2003150115869306   -0.01821529270113808   -0.006686262661031929
-0.2003150115869306   -0.01821529270113808   -0.006686262661031929
-0.0901605554978936   -0.0037192073532952242   0.0010151416136660978
-0.0901605554978936   -0.0037192073532952242   0.0010151416136660978
-0.0901605554978936   -0.0037192073532952242   0.0010151416136660978
-0.0901605554978936   -0.0037192073532952242   0.0010151416136660978
-0.2008764158631742   -0.023694578550379   -0.004013998193009016
-0.2008764158631742   -0.023694578550379   -0.004013998193009016
-0.2008764158631742   -0.023694578550379   -0.004013998193009016
-0.2008764158631742   -0.023694578550379   -0.004013998193009016
0.02188283344335087   0.028401276720981198   0.004198739419284905
0.02188283344335087   0.028401276720981198   0.004198739419284905
0.02188283344335087   0.028401276720981198   0.004198739419284905
0.02188283344335087   0.028401276720981198   0.004198739419284905
0.0212613091079564   0.03414288376016703   0.005888051012528015
0.0212613091079564   0.03414288376016703   0.005888051012528015
0.0212613091079564   0.03414288376016703   0.005888051012528015
0.0212613091079564   0.03414288376016703   0.005888051012528015
-0.19742187462215696   -0.005517226484316977   -0.008455751895502371
-0.19742187462215696   -0.005517226484316977   -0.008455751895502371
-0.19742187462215696   -0.005517226484316977   -0.008455751895502371
-0.19742187462215696   -0.005517226484316977   -0.008455751895502371
-0.08763950538515777   0.008311322276807805   0.0053946597258328205
-0.08763950538515777   0.008311322276807805   0.0053946597258328205
-0.08763950538515777   0.008311322276807805   0.0053946597258328205
-0.08763950538515777   0.008311322276807805   0.0053946597258328205
0.00812902645174439   -0.033515757043237504   -0.010391414368537622
0.00812902645174439   -0.033515757043237504   -0.010391414368537622
0.00812902645174439   -0.033515757043237504   -0.010391414368537622
0.00812902645174439   -0.033515757043237504   -0.010391414368537622
0.23607617184536123   0.016129051798075757   0.01443315834680068
0.23607617184536123   0.016129051798075757   0.01443315834680068
0.23607617184536123   0.016129051798075757   0.01443315834680068
0.23607617184536123   0.016129051798075757   0.01443315834680068
0.23602660644601803   0.021919711437037148   -0.002363687485816064
0.23602660644601803   0.021919711437037148   -0.002363687485816064
0.23602660644601803   0.021919711437037148   -0.002363687485816064
0.23602660644601803   0.021919711437037148   -0.002363687485816064
0.012609692968825139   -0.019952755980760552   0.0015988683391252815
0.012609692968825139   -0.019952755980760552   0.0015988683391252815
0.012609692968825139   -0.019952755980760552   0.0015988683391252815
0.012609692968825139   -0.019952755980760552   0.0015988683391252815
0.12167493403053611   -0.002990352198306215   0.0001679166777918198
0.12167493403053611   -0.002990352198306215   0.0001679166777918198
0.12167493403053611   -0.002990352198306215   0.0001679166777918198
0.12167493403053611   -0.002990352198306215   0.0001679166777918198
0.00983136810720722   -0.024413084269588957   -0.007832427680135763
0.00983136810720722   -0.024413084269588957   -0.007832427680135763
0.00983136810720722   -0.024413084269588957   -0.007832427680135763
0.00983136810720722   -0.024413084269588957   -0.007832427680135763
0.24018054999089988   0.02775565840912947   0.012570083266500644
0.24018054999089988   0.02775565840912947   0.012570083266500644
0.24018054999089988   0.02775565840912947   0.012570083266500644
0.24018054999089988   0.02775565840912947   0.012570083266500644
0.23823067329456077   0.03266133856757373   0.0022522081905708424
0.23823067329456077   0.03266133856757373   0.0022522081905708424
0.23823067329456077   0.03266133856757373   0.0022522081905708424
0.23823067329456077   0.03266133856757373   0.0022522081905708424
0.013393659484040327   -0.009302569337349867   -0.0005432843189367435
0.013393659484040327   -0.009302569337349867   -0.0005432843189367435
0.013393659484040327   -0.009302569337349867   -0.0005432843189367435
0.013393659484040327   -0.009302569337349867   -0.0005432843189367435
0.12362833987707088   0.007266119513581823   0.005086005819351435
0.12362833987707088   0.007266119513581823   0.005086005819351435
0.12362833987707088   0.007266119513581823   0.005086005819351435
0.12362833987707088   0.007266119513581823   0.005086005819351435
0.01133980432517815   -0.01432525229544705   -0.005789877155150453
0.01133980432517815   -0.01432525229544705   -0.005789877155150453
0.01133980432517815   -0.01432525229544705   -0.005789877155150453
0.01133980432517815   -0.01432525229544705   -0.005789877155150453
0.24128273121996985   0.03868222429221779   0.011491612092972107
0.24128273121996985   0.03868222429221779   0.011491612092972107
0.24128273121996985   0.03868222429221779   0.011491612092972107
0.24128273121996985   0.03868222429221779   0.011491612092972107
0.23467678621264318   0.04505045401207716   0.004874913493994389
0.23467678621264318   0.04505045401207716   0.004874913493994389
0.23467678621264318   0.04505045401207716   0.004874913493994389
0.23467678621264318   0.04505045401207716   0.004874913493994389
0.013545514500505325   0.003834117874100081   -0.0023821561386604276
0.013545514500505325   0.003834117874100081   -0.0023821561386604276
0.013545514500505325   0.003834117874100081   -0.0023821561386604276
0.013545514500505325   0.003834117874100081   -0.0023821561386604276
0.12577843437663333   0.01898125910119021   0.009655817616570094
0.12577843437663333   0.01898125910119021   0.009655817616570094
0.12577843437663333   0.01898125910119021   0.009655817616570094
0.12577843437663333   0.01898125910119021   0.009655817616570094
0.21715344996430272   -0.04460761515904144   -0.01944378410137481
0.21715344996430272   -0.04460761515904144   -0.01944378410137481
0.21715344996430272   -0.04460761515904144   -0.01944378410137481
0.21715344996430272   -0.04460761515904144   -0.01944378410137481
0.44854511613206705   0.02964385530715483   0.014334404457788982
0.44854511613206705   0.02964385530715483   0.014334404457788982
0.44854511613206705   0.02964385530715483   0.014334404457788982
0.44854511613206705   0.02964385530715483   0.014334404457788982
0.45397579438621966   0.013603591324310833   -0.02928072514016719
0.45397579438621966   0.013603591324310833   -0.02928072514016719
0.45397579438621966   0.013603591324310833   -0.02928072514016719
0.45397579438621966   0.013603591324310833   -0.02928072514016719
0.23210347389263042   -0.008727039343632337   0.008667400527912698
0.23210347389263042   -0.008727039343632337   0.008667400527912698
0.23210347389263042   -0.008727039343632337   0.008667400527912698
0.23210347389263042   -0.008727039343632337   0.008667400527912698
0.3210869441464588   -0.005916866282371317   -0.008263973948436198
0.3210869441464588   -0.005916866282371317   -0.008263973948436198
0.3210869441464588   -0.005916866282371317   -0.008263973948436198
0.3210869441464588   -0.005916866282371317   -0.008263973948436198
0.22366666386564985   -0.029209022951577904   -0.013034665999041573
0.22366666386564985   -0.029209022951577904   -0.013034665999041573
0.22366666386564985   -0.029209022951577904   -0.013034665999041573
0.22366666386564985   -0.029209022951577904   -0.013034665999041573
0.4665962301885083   0.0382692007075658   0.009155844488025519
0.4665962301885083   0.0382692007075658   0.009155844488025519
0.4665962301885083   0.0382692007075658   0.009155844488025519
0.4665962301885083   0.0382692007075658   0.009155844488025519
0.4594879567482024   0.025407325990155504   -0.006994268926224997
0.4594879567482024   0.025407325990155504   -0.006994268926224997
0.4594879567482024   0.025407325990155504   -0.006994268926224997
0.4594879567482024   0.025407325990155504   -0.006994268926224997
0.2314924826014551   -0.003382287345141158   0.004604880637757568
0.2314924826014551   -0.003382287345141158   0.004604880637757568
0.2314924826014551   -0.003382287345141158   0.004604880637757568
0.2314924826014551   -0.003382287345141158   0.004604880637757568
0.33845490199200534   0.008484579118957697   0.005620433096496222
0.33845490199200534   0.008484579118957697   0.005620433096496222
0.33845490199200534   0.008484579118957697   0.005620433096496222
0.33845490199200534   0.008484579118957697   0.005620433096496222
0.22467497490181557   -0.02227450469582712   -0.010590440509751754
0.22467497490181557   -0.02227450469582712   -0.010590440509751754
0.22467497490181557   -0.02227450469582712   -0.010590440509751754
0.22467497490181557   -0.02227450469582712   -0.010590440509751754
0.4657851863364852   0.043779265229485935   0.006119939775862948
0.4657851863364852   0.043779265229485935   0.006119939775862948
0.4657851863364852   0.043779265229485935   0.006119939775862948
0.4657851863364852   0.043779265229485935   0.006119939775862948
0.45929855643977435   0.039464014978880024   -0.010567846178682783
0.45929855643977435   0.039464014978880024   -0.010567846178682783
0.45929855643977435   0.039464014978880024   -0.010567846178682783
0.45929855643977435   0.039464014978880024   -0.010567846178682783
0.22698824474241192   0.008821991846582857   0.0026606683083335303
0.22698824474241192   0.008821991846582857   0.0026606683083335303
0.22698824474241192   0.008821991846582857   0.0026606683083335303
0.22698824474241192   0.008821991846582857   0.0026606683083335303
0.330202318373155   0.015071704528944636   0.004350840854284013
0.330202318373155   0.015071704528944636   0.004350840854284013
0.330202318373155   0.015071704528944636   0.004350840854284013
0.330202318373155   0.015071704528944636   0.004350840854284013
-0.49207385573184814   -0.02212811184097193   0.026003130870792188
-0.49207385573184814   -0.02212811184097193   0.026003130870792188
-0.49207385573184814   -0.02212811184097193   0.026003130870792188
-0.49207385573184814   -0.02212811184097193   0.026003130870792188
-0.3278341716497135   -0.012888967104036163   -0.0067657449595355384
-0.3278341716497135   -0.012888967104036163   -0.0067657449595355384
-0.3278341716497135   -0.012888967104036163   -0.0067657449595355384
-0.3278341716497135   -0.012888967104036163   -0.0067657449595355384
-0.31564061254272213   0.026760925399501815   0.021744817516854684
-0.31564061254272213   0.026760925399501815   0.021744817516854684
-0.31564061254272213   0.026760925399501815   0.021744817516854684
-0.31564061254272213   0.026760925399501815   0.021744817516854684
-0.49420748760708205   -0.03543660141968418   -0.01055990417660023
-0.49420748760708205   -0.03543660141968418   -0.01055990417660023
-0.49420748760708205   -0.03543660141968418   -0.01055990417660023
-0.49420748760708205   -0.03543660141968418   -0.01055990417660023
-0.3909650430785557   -0.006036243103529196   -0.0010235465964864021
-0.3909650430785557   -0.006036243103529196   -0.0010235465964864021
-0.3909650430785557   -0.006036243103529196   -0.0010235465964864021
-0.3909650430785557   -0.006036243103529196   -0.0010235465964864021
-0.48013987657126966   -0.004682984160852638   0.029024533743629954
-0.48013987657126966   -0.004682984160852638   0.029024533743629954
-0.48013987657126966   -0.004682984160852638   0.029024533743629954
-0.48013987657126966   -0.004682984160852638   0.029024533743629954
-0.3274992872023596   -0.0017837554831548856   -0.009003874898676129
-0.3274992872023596   -0.0017837554831548856   -0.009003874898676129
-0.3274992872023596   -0.0017837554831548856   -0.009003874898676129
-0.3274992872023596   -0.0017837554831548856   -0.009003874898676129
-0.31420610264916016   0.033251234835475   0.02010161942592975
-0.31420610264916016   0.033251234835475   0.02010161942592975
-0.31420610264916016   0.033251234835475   0.02010161942592975
-0.31420610264916016   0.033251234835475   0.02010161942592975
-0.4862265877987626   -0.029537108942755394   -0.014410333274029657
-0.4862265877987626   -0.029537108942755394   -0.014410333274029657
-0.4862265877987626   -0.029537108942755394   -0.014410333274029657
-0.4862265877987626   -0.029537108942755394   -0.014410333274029657
-0.3915269696497847   0.0015850143889303663   0.004364405064874205
-0.3915269696497847   0.0015850143889303663   0.004364405064874205
-0.3915269696497847   0.0015850143889303663   0.004364405064874205
-0.3915269696497847   0.0015850143889303663   0.004364405064874205
-0.47314548145462904   0.001445544241643136   0.020012545262239362
-0.47314548145462904   0.001445544241643136   0.020012545262239362
-0.47314548145462904   0.001445544241643136   0.020012545262239362
-0.47314548145462904   0.001445544241643136   0.020012545262239362
-0.32656106859172085   0.002994722052649822   -0.01141669750404533
-0.32656106859172085   0.002994722052649822   -0.01141669750404533
-0.32656106859172085   0.002994722052649822   -0.01141669750404533
-0.32656106859172085   0.002994722052649822   -0.01141669750404533
-0.3143770703391282   0.03769996632771176   0.015953613367845648
-0.3143770703391282   0.03769996632771176   0.015953613367845648
-0.3143770703391282   0.03769996632771176   0.015953613367845648
-0.3143770703391282   0.03769996632771176   0.015953613367845648
-0.4759557570823823   -0.023185205092701642   -0.018334071788645795
-0.4759557570823823   -0.023185205092701642   -0.018334071788645795
-0.4759557570823823   -0.023185205092701642   -0.018334071788645795
-0.4759557570823823   -0.023185205092701642   -0.018334071788645795
-0.3800455016611138   0.008449634143430605   0.009340675336340781
-0.3800455016611138   0.008449634143430605   0.009340675336340781
-0.3800455016611138   0.008449634143430605   0.009340675336340781
-0.3800455016611138   0.008449634143430605   0.009340675336340781
-0.32861309024083907   -0.03112286826377522   0.007573563244575893
-0.32861309024083907   -0.03112286826377522   0.007573563244575893
-0.32861309024083907   -0.03112286826377522   0.007573563244575893
-0.32861309024083907   -0.03112286826377522   0.007573563244575893
-0.16692142592483677   -0.006280051361190291   0.00027307784189483514
-0.16692142592483677   -0.006280051361190291   0.00027307784189483514
-0.16692142592483677   -0.006280051361190291   0.00027307784189483514
-0.16692142592483677   -0.006280051361190291   0.00027307784189483514
-0.16200353191550532   0.016329314240323366   0.01179368048766384
-0.16200353191550532   0.016329314240323366   0.01179368048766384
-0.16200353191550532   0.016329314240323366   0.01179368048766384
-0.16200353191550532   0.016329314240323366   0.01179368048766384
-0.3337831278858337   -0.030690909177707476   -0.011515924621493825
-0.3337831278858337   -0.030690909177707476   -0.011515924621493825
-0.3337831278858337   -0.030690909177707476   -0.011515924621493825
-0.3337831278858337   -0.030690909177707476   -0.011515924621493825
-0.24698428006628254   -0.012123710898525902   -0.005148743175609219
-0.24698428006628254   -0.012123710898525902   -0.005148743175609219
-0.24698428006628254   -0.012123710898525902   -0.005148743175609219
-0.24698428006628254   -0.012123710898525902   -0.005148743175609219
-0.3274175463859484   -0.017656675009377704   0.007277748709601559
-0.3274175463859484   -0.017656675009377704   0.007277748709601559
-0.3274175463859484   -0.017656675009377704   0.007277748709601559
-0.3274175463859484   -0.017656675009377704   0.007277748709601559
-0.16709051393130914   0.004573679556075107   -0.0018855949071054645
-0.16709051393130914   0.004573679556075107   -0.0018855949071054645
-0.16709051393130914   0.004573679556075107   -0.0018855949071054645
-0.16709051393130914   0.004573679556075107   -0.0018855949071054645
-0.16136169298498082   0.027159184137039077   0.010179296426993462
-0.16136169298498082   0.027159184137039077   0.010179296426993462
-0.16136169298498082   0.027159184137039077   0.010179296426993462
-0.16136169298498082   0.027159184137039077   0.010179296426993462
-0.33172072459316226   -0.02060737014866668   -0.01361288530993901
-0.33172072459316226   -0.02060737014866668   -0.01361288530993901
-0.33172072459316226   -0.02060737014866668   -0.01361288530993901
-0.33172072459316226   -0.02060737014866668   -0.01361288530993901
-0.24414724855932124   -0.0012105537085925697   -9.722636488355973e-05
-0.24414724855932124   -0.0012105537085925697   -9.722636488355973e-05
-0.24414724855932124   -0.0012105537085925697   -9.722636488355973e-05
-0.24414724855932124   -0.0012105537085925697   -9.722636488355973e-05
-0.3252283323297219   -0.006668051537990549   0.004909757396586431
-0.3252283323297219   -0.006668051537990549   0.004909757396586431
-0.3252283323297219   -0.006668051537990549   0.004909757396586431
-0.3252283323297219   -0.006668051537990549   0.004909757396586431
-0.1668138654063612   0.01426008536842385   -0.004182466911291257
-0.1668138654063612   0.01426008536842385   -0.004182466911291257
-0.1668138654063612   0.01426008536842385   -0.004182466911291257
-0.1668138654063612   0.01426008536842385   -0.004182466911291257
-0.16118842491956906   0.038563925014001445   0.007607168344678894
-0.16118842491956906   0.038563925014001445   0.007607168344678894
-0.16118842491956906   0.038563925014001445   0.007607168344678894
-0.16118842491956906   0.038563925014001445   0.007607168344678894
-0.32997369369568635   -0.00969280845988854   -0.014636728627346114
-0.32997369369568635   -0.00969280845988854   -0.014636728627346114
-0.32997369369568635   -0.00969280845988854   -0.014636728627346114
-0.32997369369568635   -0.00969280845988854   -0.014636728627346114
-0.24415193860070816   0.008842170140508893   0.0037847761123676257
-0.24415193860070816   0.008842170140508893   0.0037847761123676257
-0.24415193860070816   0.008842170140508893   0.0037847761123676257
-0.24415193860070816   0.008842170140508893   0.0037847761123676257
-0.17305585093902082   -0.03583037702092742   -0.000848721569289411
-0.17305585093902082   -0.03583037702092742   -0.000848721569289411
-0.17305585093902082   -0.03583037702092742   -0.000848721569289411
-0.17305585093902082   -0.03583037702092742   -0.000848721569289411
-0.007427938128464238   0.0014516527994957713   0.007379572173136392
-0.007427938128464238   0.0014516527994957713   0.007379572173136392
-0.007427938128464238   0.0014516527994957713   0.007379572173136392
-0.007427938128464238   0.0014516527994957713   0.007379572173136392
-0.007937800888208547   0.010325680299381957   0.0035450568237470463
-0.007937800888208547   0.010325680299381957   0.0035450568237470463
-0.007937800888208547   0.010325680299381957   0.0035450568237470463
-0.007937800888208547   0.010325680299381957   0.0035450568237470463
-0.17304563142068138   -0.02282645817738205   -0.004261044620512536
-0.17304563142068138   -0.02282645817738205   -0.004261044620512536
-0.17304563142068138   -0.02282645817738205   -0.004261044620512536
-0.17304563142068138   -0.02282645817738205   -0.004261044620512536
-0.09065144962526472   -0.011327655306551474   -0.0029125749825089156
-0.09065144962526472   -0.011327655306551474   -0.0029125749825089156
-0.09065144962526472   -0.011327655306551474   -0.0029125749825089156
-0.09065144962526472   -0.011327655306551474   -0.0029125749825089156
-0.17285791559320973   -0.02383094894872887   -0.0023179747118059063
-0.17285791559320973   -0.02383094894872887   -0.0023179747118059063
-0.17285791559320973   -0.02383094894872887   -0.0023179747118059063
-0.17285791559320973   -0.02383094894872887   -0.0023179747118059063
-0.007174803525190685   0.012280884261218549   0.005404839676999758
-0.007174803525190685   0.012280884261218549   0.005404839676999758
-0.007174803525190685   0.012280884261218549   0.005404839676999758
-0.007174803525190685   0.012280884261218549   0.005404839676999758
-0.007018186669997797   0.022112809247916233   0.0016574221673087554
-0.007018186669997797   0.022112809247916233   0.0016574221673087554
-0.007018186669997797   0.022112809247916233   0.0016574221673087554
-0.007018186669997797   0.022112809247916233   0.0016574221673087554
-0.172478177950249   -0.011971733866833218   -0.006272210395475111
-0.172478177950249   -0.011971733866833218   -0.006272210395475111
-0.172478177950249   -0.011971733866833218   -0.006272210395475111
-0.172478177950249   -0.011971733866833218   -0.006272210395475111
-0.08964704497205367   -0.0004469161422933649   0.001175737523866658
-0.08964704497205367   -0.0004469161422933649   0.001175737523866658
-0.08964704497205367   -0.0004469161422933649   0.001175737523866658
-0.08964704497205367   -0.0004469161422933649   0.001175737523866658
-0.1722223683102508   -0.012210408938382987   -0.004754487123934344
-0.1722223683102508   -0.012210408938382987   -0.004754487123934344
-0.1722223683102508   -0.012210408938382987   -0.004754487123934344
-0.1722223683102508   -0.012210408938382987   -0.004754487123934344
-0.006490034586591805   0.02313544604287019   0.0032755457893847554
-0.006490034586591805   0.02313544604287019   0.0032755457893847554
-0.006490034586591805   0.02313544604287019   0.0032755457893847554
-0.006490034586591805   0.02313544604287019   0.0032755457893847554
-0.006719740625059861   0.03424369223592108   -0.00035329229140916834
-0.006719740625059861   0.03424369223592108   -0.00035329229140916834
-0.006719740625059861   0.03424369223592108   -0.00035329229140916834
-0.006719740625059861   0.03424369223592108   -0.00035329229140916834
-0.17227358278897892   -0.0009402237723902902   -0.008314472215977631
-0.17227358278897892   -0.0009402237723902902   -0.008314472215977631
-0.17227358278897892   -0.0009402237723902902   -0.008314472215977631
-0.17227358278897892   -0.0009402237723902902   -0.008314472215977631
-0.08883768194704166   0.010444897654917625   0.0049271039904388025
-0.08883768194704166   0.010444897654917625   0.0049271039904388025
-0.08883768194704166   0.010444897654917625   0.0049271039904388025
-0.08883768194704166   0.010444897654917625   0.0049271039904388025
-0.01880057383077972   -0.03944943309525134   -0.008582520443693849
-0.01880057383077972   -0.03944943309525134   -0.008582520443693849
-0.01880057383077972   -0.03944943309525134   -0.008582520443693849
-0.01880057383077972   -0.03944943309525134   -0.008582520443693849
0.15123806617748717   0.010462797367057478   0.01404813520097031
0.15123806617748717   0.010462797367057478   0.01404813520097031
0.15123806617748717   0.010462797367057478   0.01404813520097031
0.15123806617748717   0.010462797367057478   0.01404813520097031
0.14625236036011274   0.005317209341353192   -0.005693972441593628
0.14625236036011274   0.005317209341353192   -0.005693972441593628
0.14625236036011274   0.005317209341353192   -0.005693972441593628
0.14625236036011274   0.005317209341353192   -0.005693972441593628
-0.012939127280412487   -0.014269082183948581   0.0031331873460578724
-0.012939127280412487   -0.014269082183948581   0.0031331873460578724
-0.012939127280412487   -0.014269082183948581   0.0031331873460578724
-0.012939127280412487   -0.014269082183948581   0.0031331873460578724
0.0654835483693787   -0.00932650834861032   -0.0016761793367718377
0.0654835483693787   -0.00932650834861032   -0.0016761793367718377
0.0654835483693787   -0.00932650834861032   -0.0016761793367718377
0.0654835483693787   -0.00932650834861032   -0.0016761793367718377
-0.018612156622767485   -0.028680923230697725   -0.010820118318967975
-0.018612156622767485   -0.028680923230697725   -0.010820118318967975
-0.018612156622767485   -0.028680923230697725   -0.010820118318967975
-0.018612156622767485   -0.028680923230697725   -0.010820118318967975
0.15300768010569404   0.02081134079132839   0.012588494836336186
0.15300768010569404   0.02081134079132839   0.012588494836336186
0.15300768010569404   0.02081134079132839   0.012588494836336186
0.15300768010569404   0.02081134079132839   0.012588494836336186
0.1488363486305598   0.01629650793569036   -0.007990587100255082
0.1488363486305598   0.01629650793569036   -0.007990587100255082
0.1488363486305598   0.01629650793569036   -0.007990587100255082
0.1488363486305598   0.01629650793569036   -0.007990587100255082
-0.012484293419893504   -0.004539222650057418   0.0009789203158040013
-0.012484293419893504   -0.004539222650057418   0.0009789203158040013
-0.012484293419893504   -0.004539222650057418   0.0009789203158040013
-0.012484293419893504   -0.004539222650057418   0.0009789203158040013
0.06623980022440139   0.0005487257840901438   0.0023982405865795395
0.06623980022440139   0.0005487257840901438   0.0023982405865795395
0.06623980022440139   0.0005487257840901438   0.0023982405865795395
0.06623980022440139   0.0005487257840901438   0.0023982405865795395
-0.01800546077670088   -0.018089136957807374   -0.013077002160483063
-0.01800546077670088   -0.018089136957807374   -0.013077002160483063
-0.01800546077670088   -0.018089136957807374   -0.013077002160483063
-0.01800546077670088   -0.018089136957807374   -0.013077002160483063
0.15553800390762693   0.031026910163700436   0.010787287057069023
0.15553800390762693   0.031026910163700436   0.010787287057069023
0.15553800390762693   0.031026910163700436   0.010787287057069023
0.15553800390762693   0.031026910163700436   0.010787287057069023
0.1504882112310774   0.03001910530760062   -0.008399915701729814
0.1504882112310774   0.03001910530760062   -0.008399915701729814
0.1504882112310774   0.03001910530760062   -0.008399915701729814
0.1504882112310774   0.03001910530760062   -0.008399915701729814
-0.012374744378559243   0.006786555462164908   -0.0011711742851497893
-0.012374744378559243   0.006786555462164908   -0.0011711742851497893
-0.012374744378559243   0.006786555462164908   -0.0011711742851497893
-0.012374744378559243   0.006786555462164908   -0.0011711742851497893
0.06874106601178835   0.011511643665460194   0.0072159555767975295
0.06874106601178835   0.011511643665460194   0.0072159555767975295
0.06874106601178835   0.011511643665460194   0.0072159555767975295
0.06874106601178835   0.011511643665460194   0.0072159555767975295
0.13511210651745065   -0.03927783387813081   -0.016841031854022845
0.13511210651745065   -0.03927783387813081   -0.016841031854022845
0.13511210651745065   -0.03927783387813081   -0.016841031854022845
0.13511210651745065   -0.03927783387813081   -0.016841031854022845
0.29874835786055304   0.022221188278636596   0.015829908028385666
0.29874835786055304   0.022221188278636596   0.015829908028385666
0.29874835786055304   0.022221188278636596   0.015829908028385666
0.29874835786055304   0.022221188278636596   0.015829908028385666
0.29646610148568087   -0.0020729456637377623   -0.022424758665666775
0.29646610148568087   -0.0020729456637377623   -0.022424758665666775
0.29646610148568087   -0.0020729456637377623   -0.022424758665666775
0.29646610148568087   -0.0020729456637377623   -0.022424758665666775
0.1478673071190286   -0.0029862110179403123   0.010684181712279042
0.1478673071190286   -0.0029862110179403123   0.010684181712279042
0.1478673071190286   -0.0029862110179403123   0.010684181712279042
0.1478673071190286   -0.0029862110179403123   0.010684181712279042
0.20888037426272557   -0.007827330453994006   -0.006977999646953212
0.20888037426272557   -0.007827330453994006   -0.006977999646953212
0.20888037426272557   -0.007827330453994006   -0.006977999646953212
0.20888037426272557   -0.007827330453994006   -0.006977999646953212
0.13539235535538804   -0.03394841731786338   -0.020728370806000186
0.13539235535538804   -0.03394841731786338   -0.020728370806000186
0.13539235535538804   -0.03394841731786338   -0.020728370806000186
0.13539235535538804   -0.03394841731786338   -0.020728370806000186
0.30983265160609375   0.029780858992957467   0.012554187279702762
0.30983265160609375   0.029780858992957467   0.012554187279702762
0.30983265160609375   0.029780858992957467   0.012554187279702762
0.30983265160609375   0.029780858992957467   0.012554187279702762
0.3041126446864095   0.004189402493246529   -0.03015683225525838
0.3041126446864095   0.004189402493246529   -0.03015683225525838
0.3041126446864095   0.004189402493246529   -0.03015683225525838
0.3041126446864095   0.004189402493246529   -0.03015683225525838
0.14913672369316827   0.0017964672940943473   0.008011328854384221
0.14913672369316827   0.0017964672940943473   0.008011328854384221
0.14913672369316827   0.0017964672940943473   0.008011328854384221
0.14913672369316827   0.0017964672940943473   0.008011328854384221
0.2186542755740245   -0.0010265749494754034   -0.0020581912415991443
0.2186542755740245   -0.0010265749494754034   -0.0020581912415991443
0.2186542755740245   -0.0010265749494754034   -0.0020581912415991443
0.2186542755740245   -0.0010265749494754034   -0.0020581912415991443
0.13711042190317832   -0.0277036818105354   -0.022620030990936835
0.13711042190317832   -0.0277036818105354   -0.022620030990936835
0.13711042190317832   -0.0277036818105354   -0.022620030990936835
0.13711042190317832   -0.0277036818105354   -0.022620030990936835
0.31811388167556764   0.0356644867970453   0.008374268386735731
0.31811388167556764   0.0356644867970453   0.008374268386735731
0.31811388167556764   0.0356644867970453   0.008374268386735731
0.31811388167556764   0.0356644867970453   0.008374268386735731
0.3162337089932398   0.02044761384098442   -0.028456685970486603
0.3162337089932398   0.02044761384098442   -0.028456685970486603
0.3162337089932398   0.02044761384098442   -0.028456685970486603
0.3162337089932398   0.02044761384098442   -0.028456685970486603
0.149791546818757   0.012252711614762792   0.005883155929507507
0.149791546818757   0.012252711614762792   0.005883155929507507
0.149791546818757   0.012252711614762792   0.005883155929507507
0.149791546818757   0.012252711614762792   0.005883155929507507
0.22060173462420213   0.006703377610174166   0.0034321744388690414
0.22060173462420213   0.006703377610174166   0.0034321744388690414
0.22060173462420213   0.006703377610174166   0.0034321744388690414
0.22060173462420213   0.006703377610174166   0.0034321744388690414
-0.3488924037340782   -0.011072268700640125   0.023375979141809333
-0.3488924037340782   -0.011072268700640125   0.023375979141809333
-0.3488924037340782   -0.011072268700640125   0.023375979141809333
-0.3488924037340782   -0.011072268700640125   0.023375979141809333
-0.2454283150665467   -0.01673343711642824   -0.00874832790811602
-0.2454283150665467   -0.01673343711642824   -0.00874832790811602
-0.2454283150665467   -0.01673343711642824   -0.00874832790811602
-0.2454283150665467   -0.01673343711642824   -0.00874832790811602
-0.23079067896036165   0.023336344317508695   0.019888015862643812
-0.23079067896036165   0.023336344317508695   0.019888015862643812
-0.23079067896036165   0.023336344317508695   0.019888015862643812
-0.23079067896036165   0.023336344317508695   0.019888015862643812
-0.3489043314716057   -0.028795548789181776   -0.012813808893186188
-0.3489043314716057   -0.028795548789181776   -0.012813808893186188
-0.3489043314716057   -0.028795548789181776   -0.012813808893186188
-0.3489043314716057   -0.028795548789181776   -0.012813808893186188
-0.2815523675614475   -0.004410474685375164   -0.000892734694402833
-0.2815523675614475   -0.004410474685375164   -0.000892734694402833
-0.2815523675614475   -0.004410474685375164   -0.000892734694402833
-0.2815523675614475   -0.004410474685375164   -0.000892734694402833
-0.3355751546470006   0.002840959413153016   0.022195567027504415
-0.3355751546470006   0.002840959413153016   0.022195567027504415
-0.3355751546470006   0.002840959413153016   0.022195567027504415
-0.3355751546470006   0.002840959413153016   0.022195567027504415
-0.24302908868072826   -0.007209396780587313   -0.010758291641091322
-0.24302908868072826   -0.007209396780587313   -0.010758291641091322
-0.24302908868072826   -0.007209396780587313   -0.010758291641091322
-0.24302908868072826   -0.007209396780587313   -0.010758291641091322
-0.22860487961185857   0.028224636346502453   0.016776684985355547
-0.22860487961185857   0.028224636346502453   0.016776684985355547
-0.22860487961185857   0.028224636346502453   0.016776684985355547
-0.22860487961185857   0.028224636346502453   0.016776684985355547
-0.34047652649130467   -0.02333949020346018   -0.016156917215553068
-0.34047652649130467   -0.02333949020346018   -0.016156917215553068
-0.34047652649130467   -0.02333949020346018   -0.016156917215553068
-0.34047652649130467   -0.02333949020346018   -0.016156917215553068
-0.2794623368714037   0.002019745422755851   0.002774696252862134
-0.2794623368714037   0.002019745422755851   0.002774696252862134
-0.2794623368714037   0.002019745422755851   0.002774696252862134
-0.2794623368714037   0.002019745422755851   0.002774696252862134
-0.3272846066977317   0.008688326868355894   0.01777486468049584
-0.3272846066977317   0.008688326868355894   0.01777486468049584
-0.3272846066977317   0.008688326868355894   0.01777486468049584
-0.3272846066977317   0.008688326868355894   0.01777486468049584
-0.24081652861642064   -0.0028229099363023796   -0.01323401375464811
-0.24081652861642064   -0.0028229099363023796   -0.01323401375464811
-0.24081652861642064   -0.0028229099363023796   -0.01323401375464811
-0.24081652861642064   -0.0028229099363023796   -0.01323401375464811
-0.22740026511524283   0.03307917855687445   0.0144323544920952
-0.22740026511524283   0.03307917855687445   0.0144323544920952
-0.22740026511524283   0.03307917855687445   0.0144323544920952
-0.22740026511524283   0.03307917855687445   0.0144323544920952
-0.329237266398473   -0.016083685798972527   -0.019318927778738497
-0.329237266398473   -0.016083685798972527   -0.019318927778738497
-0.329237266398473   -0.016083685798972527   -0.019318927778738497
-0.329237266398473   -0.016083685798972527   -0.019318927778738497
-0.26888868153317536   0.00808545689645803   0.007867057035468653
-0.26888868153317536   0.00808545689645803   0.007867057035468653
-0.26888868153317536   0.00808545689645803   0.007867057035468653
-0.26888868153317536   0.00808545689645803   0.007867057035468653
-0.24247204088887153   -0.019654057291341856   0.00895366315517173
-0.24247204088887153   -0.019654057291341856   0.00895366315517173
-0.24247204088887153   -0.019654057291341856   0.00895366315517173
-0.24247204088887153   -0.019654057291341856   0.00895366315517173
-0.14181070362312434   -0.010834684143766635   -0.0014170340116652774
-0.14181070362312434   -0.010834684143766635   -0.0014170340116652774
-0.14181070362312434   -0.010834684143766635   -0.0014170340116652774
-0.14181070362312434   -0.010834684143766635   -0.0014170340116652774
-0.13457563663674058   0.013597315823708628   0.010717709136493576
-0.13457563663674058   0.013597315823708628   0.010717709136493576
-0.13457563663674058   0.013597315823708628   0.010717709136493576
-0.13457563663674058   0.013597315823708628   0.010717709136493576
-0.24618019005292355   -0.02347598316712578   -0.010247212115531076
-0.24618019005292355   -0.02347598316712578   -0.010247212115531076
-0.24618019005292355   -0.02347598316712578   -0.010247212115531076
-0.24618019005292355   -0.02347598316712578   -0.010247212115531076
-0.1905271203103132   -0.00920802510849857   -0.004006601827170796
-0.1905271203103132   -0.00920802510849857   -0.004006601827170796
-0.1905271203103132   -0.00920802510849857   -0.004006601827170796
-0.1905271203103132   -0.00920802510849857   -0.004006601827170796
-0.23958904695093974   -0.00808533668414808   0.00731785691140921
-0.23958904695093974   -0.00808533668414808   0.00731785691140921
-0.23958904695093974   -0.00808533668414808   0.00731785691140921
-0.23958904695093974   -0.00808533668414808   0.00731785691140921
-0.14031935510414784   -0.0009459060246927078   -0.0034576613521414314
-0.14031935510414784   -0.0009459060246927078   -0.0034576613521414314
-0.14031935510414784   -0.0009459060246927078   -0.0034576613521414314
-0.14031935510414784   -0.0009459060246927078   -0.0034576613521414314
-0.13286870470676035   0.023640017808249328   0.008772034588239129
-0.13286870470676035   0.023640017808249328   0.008772034588239129
-0.13286870470676035   0.023640017808249328   0.008772034588239129
-0.13286870470676035   0.023640017808249328   0.008772034588239129
-0.24282936549219303   -0.014037200352122952   -0.012083907717691404
-0.24282936549219303   -0.014037200352122952   -0.012083907717691404
-0.24282936549219303   -0.014037200352122952   -0.012083907717691404
-0.24282936549219303   -0.014037200352122952   -0.012083907717691404
-0.18685984115111318   0.000616740123936357   0.00021717139339341024
-0.18685984115111318   0.000616740123936357   0.00021717139339341024
-0.18685984115111318   0.000616740123936357   0.00021717139339341024
-0.18685984115111318   0.000616740123936357   0.00021717139339341024
-0.23574018107699954   0.0026468986814869398   0.006677915324666356
-0.23574018107699954   0.0026468986814869398   0.006677915324666356
-0.23574018107699954   0.0026468986814869398   0.006677915324666356
-0.23574018107699954   0.0026468986814869398   0.006677915324666356
-0.13890567759531638   0.00800813030127693   -0.005780942347568659
-0.13890567759531638   0.00800813030127693   -0.005780942347568659
-0.13890567759531638   0.00800813030127693   -0.005780942347568659
-0.13890567759531638   0.00800813030127693   -0.005780942347568659
-0.13121806952073556   0.03437770535312651   0.006960216262774401
-0.13121806952073556   0.03437770535312651   0.006960216262774401
-0.13121806952073556   0.03437770535312651   0.006960216262774401
-0.13121806952073556   0.03437770535312651   0.006960216262774401
-0.24033574626473722   -0.0038271645012101976   -0.013338708197292999
-0.24033574626473722   -0.0038271645012101976   -0.013338708197292999
-0.24033574626473722   -0.0038271645012101976   -0.013338708197292999
-0.24033574626473722   -0.0038271645012101976   -0.013338708197292999
-0.18542040068131363   0.00991083292052789   0.00425785879461911
-0.18542040068131363   0.00991083292052789   0.00425785879461911
-0.18542040068131363   0.00991083292052789   0.00425785879461911
-0.18542040068131363   0.00991083292052789   0.00425785879461911
-0.1447407612995809   -0.027389356314081313   0.00048734977636761406
-0.1447407612995809   -0.027389356314081313   0.00048734977636761406
-0.1447407612995809   -0.027389356314081313   0.00048734977636761406
-0.1447407612995809   -0.027389356314081313   0.00048734977636761406
-0.039146463687980686   -0.0034758307859910865   0.005874164752497874
-0.039146463687980686   -0.0034758307859910865   0.005874164752497874
-0.039146463687980686   -0.0034758307859910865   0.005874164752497874
-0.039146463687980686   -0.0034758307859910865   0.005874164752497874
-0.03824089418490752   0.00538752945235932   0.0020041562924204455
-0.03824089418490752   0.00538752945235932   0.0020041562924204455
-0.03824089418490752   0.00538752945235932   0.0020041562924204455
-0.03824089418490752   0.00538752945235932   0.0020041562924204455
-0.14315872525645243   -0.015900597190649655   -0.0026998209477075014
-0.14315872525645243   -0.015900597190649655   -0.0026998209477075014
-0.14315872525645243   -0.015900597190649655   -0.0026998209477075014
-0.14315872525645243   -0.015900597190649655   -0.0026998209477075014
-0.09148334150317915   -0.009894092982969314   -0.0028624033411425477
-0.09148334150317915   -0.009894092982969314   -0.0028624033411425477
-0.09148334150317915   -0.009894092982969314   -0.0028624033411425477
-0.09148334150317915   -0.009894092982969314   -0.0028624033411425477
-0.14291719931009075   -0.016189267093725812   -0.0012035213128219757
-0.14291719931009075   -0.016189267093725812   -0.0012035213128219757
-0.14291719931009075   -0.016189267093725812   -0.0012035213128219757
-0.14291719931009075   -0.016189267093725812   -0.0012035213128219757
-0.03763261745534507   0.006526002031359775   0.003907067361232291
-0.03763261745534507   0.006526002031359775   0.003907067361232291
-0.03763261745534507   0.006526002031359775   0.003907067361232291
-0.03763261745534507   0.006526002031359775   0.003907067361232291
-0.036176466105259694   0.016638246503133454   0.00047597960936893776
-0.036176466105259694   0.016638246503133454   0.00047597960936893776
-0.036176466105259694   0.016638246503133454   0.00047597960936893776
-0.036176466105259694   0.016638246503133454   0.00047597960936893776
-0.14144794085729895   -0.005824942548642834   -0.0046591858075616804
-0.14144794085729895   -0.005824942548642834   -0.0046591858075616804
-0.14144794085729895   -0.005824942548642834   -0.0046591858075616804
-0.14144794085729895   -0.005824942548642834   -0.0046591858075616804
-0.08927644729965217   0.00019659141296626652   0.0011267571954137051
-0.08927644729965217   0.00019659141296626652   0.0011267571954137051
-0.08927644729965217   0.00019659141296626652   0.0011267571954137051
-0.08927644729965217   0.00019659141296626652   0.0011267571954137051
-0.1409160632904512   -0.0049748474668098374   -0.0028498930551560005
-0.1409160632904512   -0.0049748474668098374   -0.0028498930551560005
-0.1409160632904512   -0.0049748474668098374   -0.0028498930551560005
-0.1409160632904512   -0.0049748474668098374   -0.0028498930551560005
-0.035923491680407836   0.016573003413000047   0.00180609482376162
-0.035923491680407836   0.016573003413000047   0.00180609482376162
-0.035923491680407836   0.016573003413000047   0.00180609482376162
-0.035923491680407836   0.016573003413000047   0.00180609482376162
-0.0343184937865049   0.028052334811943393   -0.0013067682967832232
-0.0343184937865049   0.028052334811943393   -0.0013067682967832232
-0.0343184937865049   0.028052334811943393   -0.0013067682967832232
-0.0343184937865049   0.028052334811943393   -0.0013067682967832232
-0.13995699589701072   0.004363434835573353   -0.0067201451010482395
-0.13995699589701072   0.004363434835573353   -0.0067201451010482395
-0.13995699589701072   0.004363434835573353   -0.0067201451010482395
-0.13995699589701072   0.004363434835573353   -0.0067201451010482395
-0.08726277195550171   0.010336048637052977   0.004970117294120498
-0.08726277195550171   0.010336048637052977   0.004970117294120498
-0.08726277195550171   0.010336048637052977   0.004970117294120498
-0.08726277195550171   0.010336048637052977   0.004970117294120498
-0.047923370998564405   -0.03373029802135777   -0.007755904565054346
-0.047923370998564405   -0.03373029802135777   -0.007755904565054346
-0.047923370998564405   -0.03373029802135777   -0.007755904565054346
-0.047923370998564405   -0.03373029802135777   -0.007755904565054346
0.061895245987002905   0.004751901344758197   0.012722868244768861
0.061895245987002905   0.004751901344758197   0.012722868244768861
0.061895245987002905   0.004751901344758197   0.012722868244768861
0.061895245987002905   0.004751901344758197   0.012722868244768861
0.0572683174092134   -0.002314484917139756   -0.007301271009523887
0.0572683174092134   -0.002314484917139756   -0.007301271009523887
0.0572683174092134   -0.002314484917139756   -0.007301271009523887
0.0572683174092134   -0.002314484917139756   -0.007301271009523887
-0.040306639425851706   -0.007728613518386191   0.0047915730584446505
-0.040306639425851706   -0.007728613518386191   0.0047915730584446505
-0.040306639425851706   -0.007728613518386191   0.0047915730584446505
-0.040306639425851706   -0.007728613518386191   0.0047915730584446505
0.00734881042674542   -0.009481612818603801   -0.0020482814854870445
0.00734881042674542   -0.009481612818603801   -0.0020482814854870445
0.00734881042674542   -0.009481612818603801   -0.0020482814854870445
0.00734881042674542   -0.009481612818603801   -0.0020482814854870445
-0.046333665556315934   -0.02349088460899442   -0.009581286503267885
-0.046333665556315934   -0.02349088460899442   -0.009581286503267885
-0.046333665556315934   -0.02349088460899442   -0.009581286503267885
-0.046333665556315934   -0.02349088460899442   -0.009581286503267885
0.064305430954152   0.014457873587943489   0.011111938210085496
0.064305430954152   0.014457873587943489   0.011111938210085496
0.064305430954152   0.014457873587943489   0.011111938210085496
0.064305430954152   0.014457873587943489   0.011111938210085496
0.06113031441570463   0.008331318293663226   -0.008282982801194737
0.06113031441570463   0.008331318293663226   -0.008282982801194737
0.06113031441570463   0.008331318293663226   -0.008282982801194737
0.06113031441570463   0.008331318293663226   -0.008282982801194737
-0.03881882696463097   0.0012814973021187128   0.0026209245135268965
-0.03881882696463097   0.0012814973021187128   0.0026209245135268965
-0.03881882696463097   0.0012814973021187128   0.0026209245135268965
-0.03881882696463097   0.0012814973021187128   0.0026209245135268965
0.009416202599351347   -0.0003046154199684975   0.0020187537748145887
0.009416202599351347   -0.0003046154199684975   0.0020187537748145887
0.009416202599351347   -0.0003046154199684975   0.0020187537748145887
0.009416202599351347   -0.0003046154199684975   0.0020187537748145887
-0.04463581384504176   -0.013501511096273915   -0.011681001490134058
-0.04463581384504176   -0.013501511096273915   -0.011681001490134058
-0.04463581384504176   -0.013501511096273915   -0.011681001490134058
-0.04463581384504176   -0.013501511096273915   -0.011681001490134058
0.06782415493915371   0.023991180335094776   0.009526357774618676
0.06782415493915371   0.023991180335094776   0.009526357774618676
0.06782415493915371   0.023991180335094776   0.009526357774618676
0.06782415493915371   0.023991180335094776   0.009526357774618676
0.06424860377662067   0.020427359322767066   -0.009590503137318906
0.06424860377662067   0.020427359322767066   -0.009590503137318906
0.06424860377662067   0.020427359322767066   -0.009590503137318906
0.06424860377662067   0.020427359322767066   -0.009590503137318906
-0.037230892291398525   0.011627966643106996   0.0005556073475850645
-0.037230892291398525   0.011627966643106996   0.0005556073475850645
-0.037230892291398525   0.011627966643106996   0.0005556073475850645
-0.037230892291398525   0.011627966643106996   0.0005556073475850645
0.012565609621792706   0.00962581588821988   0.006213057998409043
0.012565609621792706   0.00962581588821988   0.006213057998409043
0.012565609621792706   0.00962581588821988   0.006213057998409043
0.012565609621792706   0.00962581588821988   0.006213057998409043
0.04850407385258331   -0.03407489028762381   -0.015406200794946617
0.04850407385258331   -0.03407489028762381   -0.015406200794946617
0.04850407385258331   -0.03407489028762381   -0.015406200794946617
0.04850407385258331   -0.03407489028762381   -0.015406200794946617
0.15083664866856714   0.015034609065143267   0.016647936684356043
0.15083664866856714   0.015034609065143267   0.016647936684356043
0.15083664866856714   0.015034609065143267   0.016647936684356043
0.15083664866856714   0.015034609065143267   0.016647936684356043
0.14922685856401086   -0.008911315592426758   -0.02030089260513545
0.14922685856401086   -0.008911315592426758   -0.02030089260513545
0.14922685856401086   -0.008911315592426758   -0.02030089260513545
0.14922685856401086   -0.008911315592426758   -0.02030089260513545
0.06228181934051025   0.003001625902751456   0.012450127827069174
0.06228181934051025   0.003001625902751456   0.012450127827069174
0.06228181934051025   0.003001625902751456   0.012450127827069174
0.06228181934051025   0.003001625902751456   0.012450127827069174
0.09733982854100094   -0.00721420112737162   -0.005303209315477259
0.09733982854100094   -0.00721420112737162   -0.005303209315477259
0.09733982854100094   -0.00721420112737162   -0.005303209315477259
0.09733982854100094   -0.00721420112737162   -0.005303209315477259
0.04997057118080943   -0.02826940996814712   -0.017835077100535845
0.04997057118080943   -0.02826940996814712   -0.017835077100535845
0.04997057118080943   -0.02826940996814712   -0.017835077100535845
0.04997057118080943   -0.02826940996814712   -0.017835077100535845
0.16256782829073219   0.023389441845492742   0.014103198590553666
0.16256782829073219   0.023389441845492742   0.014103198590553666
0.16256782829073219   0.023389441845492742   0.014103198590553666
0.16256782829073219   0.023389441845492742   0.014103198590553666
0.15777320969436917   -0.002959662350821946   -0.024405805371398137
0.15777320969436917   -0.002959662350821946   -0.024405805371398137
0.15777320969436917   -0.002959662350821946   -0.024405805371398137
0.15777320969436917   -0.002959662350821946   -0.024405805371398137
0.06454180203409124   0.007365113229930358   0.009740660354470718
0.06454180203409124   0.007365113229930358   0.009740660354470718
0.06454180203409124   0.007365113229930358   0.009740660354470718
0.06454180203409124   0.007365113229930358   0.009740660354470718
0.10587509242619961   -0.0011860641530702072   -0.0005370303229394364
0.10587509242619961   -0.0011860641530702072   -0.0005370303229394364
0.10587509242619961   -0.0011860641530702072   -0.0005370303229394364
0.10587509242619961   -0.0011860641530702072   -0.0005370303229394364
0.05231215286006419   -0.023316005917125036   -0.020726466368608622
0.05231215286006419   -0.023316005917125036   -0.020726466368608622
0.05231215286006419   -0.023316005917125036   -0.020726466368608622
0.05231215286006419   -0.023316005917125036   -0.020726466368608622
0.17108099349295258   0.028799591420790062   0.010373859849907893
0.17108099349295258   0.028799591420790062   0.010373859849907893
0.17108099349295258   0.028799591420790062   0.010373859849907893
0.17108099349295258   0.028799591420790062   0.010373859849907893
0.17095150119256328   0.010072760718507982   -0.026176552925572805
0.17095150119256328   0.010072760718507982   -0.026176552925572805
0.17095150119256328   0.010072760718507982   -0.026176552925572805
0.17095150119256328   0.010072760718507982   -0.026176552925572805
0.06685114900595307   0.01609671817595846   0.007752864156151283
0.06685114900595307   0.01609671817595846   0.007752864156151283
0.06685114900595307   0.01609671817595846   0.007752864156151283
0.06685114900595307   0.01609671817595846   0.007752864156151283
0.11028949145660331   0.005412186722425563   0.0036061419824426934
0.11028949145660331   0.005412186722425563   0.0036061419824426934
0.11028949145660331   0.005412186722425563   0.0036061419824426934
0.11028949145660331   0.005412186722425563   0.0036061419824426934
-0.2066458180807246   -0.0030706994052868038   0.020782863661769027
-0.2066458180807246   -0.0030706994052868038   0.020782863661769027
-0.2066458180807246   -0.0030706994052868038   0.020782863661769027
-0.2066458180807246   -0.0030706994052868038   0.020782863661769027
-0.16289104393418688   -0.020959742392163378   -0.010150424780275707
-0.16289104393418688   -0.020959742392163378   -0.010150424780275707
-0.16289104393418688   -0.020959742392163378   -0.010150424780275707
-0.16289104393418688   -0.020959742392163378   -0.010150424780275707
-0.14737588240510888   0.017619450012756496   0.01773273605000831
-0.14737588240510888   0.017619450012756496   0.01773273605000831
-0.14737588240510888   0.017619450012756496   0.01773273605000831
-0.14737588240510888   0.017619450012756496   0.01773273605000831
-0.20585739897715657   -0.022489085469204296   -0.013868803256801142
-0.20585739897715657   -0.022489085469204296   -0.013868803256801142
-0.20585739897715657   -0.022489085469204296   -0.013868803256801142
-0.20585739897715657   -0.022489085469204296   -0.013868803256801142
-0.17385675629716388   -0.004697927117162036   -0.002826854558913773
-0.17385675629716388   -0.004697927117162036   -0.002826854558913773
-0.17385675629716388   -0.004697927117162036   -0.002826854558913773
-0.17385675629716388   -0.004697927117162036   -0.002826854558913773
-0.19283025542240156   0.008947995007375184   0.019829834040394435
-0.19283025542240156   0.008947995007375184   0.019829834040394435
-0.19283025542240156   0.008947995007375184   0.019829834040394435
-0.19283025542240156   0.008947995007375184   0.019829834040394435
-0.15948246875127037   -0.012897073255229301   -0.012283672412812367
-0.15948246875127037   -0.012897073255229301   -0.012283672412812367
-0.15948246875127037   -0.012897073255229301   -0.012283672412812367
-0.15948246875127037   -0.012897073255229301   -0.012283672412812367
-0.14381088954816404   0.022219235558943316   0.014971074653327646
-0.14381088954816404   0.022219235558943316   0.014971074653327646
-0.14381088954816404   0.022219235558943316   0.014971074653327646
-0.14381088954816404   0.022219235558943316   0.014971074653327646
-0.19631518396185438   -0.01727265524366957   -0.017282595668243493
-0.19631518396185438   -0.01727265524366957   -0.017282595668243493
-0.19631518396185438   -0.01727265524366957   -0.017282595668243493
-0.19631518396185438   -0.01727265524366957   -0.017282595668243493
-0.16886591387339925   0.0013029969896658465   0.0010285017226733598
-0.16886591387339925   0.0013029969896658465   0.0010285017226733598
-0.16886591387339925   0.0013029969896658465   0.0010285017226733598
-0.16886591387339925   0.0013029969896658465   0.0010285017226733598
-0.18330113164422904   0.014524978620255952   0.01599003205595581
-0.18330113164422904   0.014524978620255952   0.01599003205595581
-0.18330113164422904   0.014524978620255952   0.01599003205595581
-0.18330113164422904   0.014524978620255952   0.01599003205595581
-0.15595941016458773   -0.00871286660378051   -0.014839426266064853
-0.15595941016458773   -0.00871286660378051   -0.014839426266064853
-0.15595941016458773   -0.00871286660378051   -0.014839426266064853
-0.15595941016458773   -0.00871286660378051   -0.014839426266064853
-0.1409511098117865   0.02801881403418703   0.0129074148003766
-0.1409511098117865   0.02801881403418703   0.0129074148003766
-0.1409511098117865   0.02801881403418703   0.0129074148003766
-0.1409511098117865   0.02801881403418703   0.0129074148003766
-0.18350845959571369   -0.008907253314686697   -0.019982922564058547
-0.18350845959571369   -0.008907253314686697   -0.019982922564058547
-0.18350845959571369   -0.008907253314686697   -0.019982922564058547
-0.18350845959571369   -0.008907253314686697   -0.019982922564058547
-0.15886061153834324   0.0072603737872499585   0.005778994611364538
-0.15886061153834324   0.0072603737872499585   0.005778994611364538
-0.15886061153834324   0.0072603737872499585   0.005778994611364538
-0.15886061153834324   0.0072603737872499585   0.005778994611364538
-0.15699476557975728   -0.01159487067734865   0.009966095277057593
-0.15699476557975728   -0.01159487067734865   0.009966095277057593
-0.15699476557975728   -0.01159487067734865   0.009966095277057593
-0.15699476557975728   -0.01159487067734865   0.009966095277057593
-0.11677682199511555   -0.015870692168819357   -0.0029956328463589775
-0.11677682199511555   -0.015870692168819357   -0.0029956328463589775
-0.11677682199511555   -0.015870692168819357   -0.0029956328463589775
-0.11677682199511555   -0.015870692168819357   -0.0029956328463589775
-0.10819340230716716   0.007984884813737133   0.009070340043027106
-0.10819340230716716   0.007984884813737133   0.009070340043027106
-0.10819340230716716   0.007984884813737133   0.009070340043027106
-0.10819340230716716   0.007984884813737133   0.009070340043027106
-0.1594733357045172   -0.016550121481972303   -0.008584958952303549
-0.1594733357045172   -0.016550121481972303   -0.008584958952303549
-0.1594733357045172   -0.016550121481972303   -0.008584958952303549
-0.1594733357045172   -0.016550121481972303   -0.008584958952303549
-0.13502313277258363   -0.008273425713277563   -0.003727396559270898
-0.13502313277258363   -0.008273425713277563   -0.003727396559270898
-0.13502313277258363   -0.008273425713277563   -0.003727396559270898
-0.13502313277258363   -0.008273425713277563   -0.003727396559270898
-0.15296843770914156   -0.0010885903056192456   0.008477999848219633
-0.15296843770914156   -0.0010885903056192456   0.008477999848219633
-0.15296843770914156   -0.0010885903056192456   0.008477999848219633
-0.15296843770914156   -0.0010885903056192456   0.008477999848219633
-0.11395634064426009   -0.006734686704333394   -0.005024780124366107
-0.11395634064426009   -0.006734686704333394   -0.005024780124366107
-0.11395634064426009   -0.006734686704333394   -0.005024780124366107
-0.11395634064426009   -0.006734686704333394   -0.005024780124366107
-0.10512928884204244   0.01736823244009276   0.0072431795932365525
-0.10512928884204244   0.01736823244009276   0.0072431795932365525
-0.10512928884204244   0.01736823244009276   0.0072431795932365525
-0.10512928884204244   0.01736823244009276   0.0072431795932365525
-0.15482098708822478   -0.007573513382393747   -0.010286664105635952
-0.15482098708822478   -0.007573513382393747   -0.010286664105635952
-0.15482098708822478   -0.007573513382393747   -0.010286664105635952
-0.15482098708822478   -0.007573513382393747   -0.010286664105635952
-0.13054713952519212   0.0007288903563006186   0.0003037926890315963
-0.13054713952519212   0.0007288903563006186   0.0003037926890315963
-0.13054713952519212   0.0007288903563006186   0.0003037926890315963
-0.13054713952519212   0.0007288903563006186   0.0003037926890315963
-0.14793235503242275   0.008896316534638066   0.007686666256339562
-0.14793235503242275   0.008896316534638066   0.007686666256339562
-0.14793235503242275   0.008896316534638066   0.007686666256339562
-0.14793235503242275   0.008896316534638066   0.007686666256339562
-0.1111616085542657   0.0017547148666398815   -0.0073049013944269
-0.1111616085542657   0.0017547148666398815   -0.0073049013944269
-0.1111616085542657   0.0017547148666398815   -0.0073049013944269
-0.1111616085542657   0.0017547148666398815   -0.0073049013944269
-0.10207322949267997   0.02759360909916799   0.005502643032536836
-0.10207322949267997   0.02759360909916799   0.005502643032536836
-0.10207322949267997   0.02759360909916799   0.005502643032536836
-0.10207322949267997   0.02759360909916799   0.005502643032536836
-0.15101271675996183   0.002271423631727049   -0.011653229538038164
-0.15101271675996183   0.002271423631727049   -0.011653229538038164
-0.15101271675996183   0.002271423631727049   -0.011653229538038164
-0.15101271675996183   0.002271423631727049   -0.011653229538038164
-0.12732464906927346   0.00960244695359488   0.004264364318114434
-0.12732464906927346   0.00960244695359488   0.004264364318114434
-0.12732464906927346   0.00960244695359488   0.004264364318114434
-0.12732464906927346   0.00960244695359488   0.004264364318114434
-0.11658987650708312   -0.019771388179429052   0.0018397906044104843
-0.11658987650708312   -0.019771388179429052   0.0018397906044104843
-0.11658987650708312   -0.019771388179429052   0.0018397906044104843
-0.11658987650708312   -0.019771388179429052   0.0018397906044104843
-0.07117077392586538   -0.008589438867648787   0.004236697911710625
-0.07117077392586538   -0.008589438867648787   0.004236697911710625
-0.07117077392586538   -0.008589438867648787   0.004236697911710625
-0.07117077392586538   -0.008589438867648787   0.004236697911710625
-0.06892523653388236   -0.000407520821344781   0.0005320721762468034
-0.06892523653388236   -0.000407520821344781   0.0005320721762468034
-0.06892523653388236   -0.000407520821344781   0.0005320721762468034
-0.06892523653388236   -0.000407520821344781   0.0005320721762468034
-0.11358312058054165   -0.008925510317023063   -0.0009678561930851343
-0.11358312058054165   -0.008925510317023063   -0.0009678561930851343
-0.11358312058054165   -0.008925510317023063   -0.0009678561930851343
-0.11358312058054165   -0.008925510317023063   -0.0009678561930851343
-0.09271768849909325   -0.008977524148032184   -0.0027283779384520424
-0.09271768849909325   -0.008977524148032184   -0.0027283779384520424
-0.09271768849909325   -0.008977524148032184   -0.0027283779384520424
-0.09271768849909325   -0.008977524148032184   -0.0027283779384520424
-0.11343091283063067   -0.009367946723378894   0.00023561896282457348
-0.11343091283063067   -0.009367946723378894   0.00023561896282457348
-0.11343091283063067   -0.009367946723378894   0.00023561896282457348
-0.11343091283063067   -0.009367946723378894   0.00023561896282457348
-0.06833840321242318   0.0007739566563796591   0.0022847613058176817
-0.06833840321242318   0.0007739566563796591   0.0022847613058176817
-0.06833840321242318   0.0007739566563796591   0.0022847613058176817
-0.06833840321242318   0.0007739566563796591   0.0022847613058176817
-0.0655839422531594   0.010085432013309272   -0.0009713116019406803
-0.0655839422531594   0.010085432013309272   -0.0009713116019406803
-0.0655839422531594   0.010085432013309272   -0.0009713116019406803
-0.0655839422531594   0.010085432013309272   -0.0009713116019406803
-0.11051176763375133   0.00057328854681752   -0.002874270472034174
-0.11051176763375133   0.00057328854681752   -0.002874270472034174
-0.11051176763375133   0.00057328854681752   -0.002874270472034174
-0.11051176763375133   0.00057328854681752   -0.002874270472034174
-0.08918622105304132   0.0004357943897348752   0.0011908531867779772
-0.08918622105304132   0.0004357943897348752   0.0011908531867779772
-0.08918622105304132   0.0004357943897348752   0.0011908531867779772
-0.08918622105304132   0.0004357943897348752   0.0011908531867779772
-0.11011423197201764   0.0010924797221793063   -0.001405783338728435
-0.11011423197201764   0.0010924797221793063   -0.001405783338728435
-0.11011423197201764   0.0010924797221793063   -0.001405783338728435
-0.11011423197201764   0.0010924797221793063   -0.001405783338728435
-0.06531236881350594   0.010235349939333746   0.00023663767030156387
-0.06531236881350594   0.010235349939333746   0.00023663767030156387
-0.06531236881350594   0.010235349939333746   0.00023663767030156387
-0.06531236881350594   0.010235349939333746   0.00023663767030156387
-0.06242604146645711   0.02067901206112849   -0.002673213403822352
-0.06242604146645711   0.02067901206112849   -0.002673213403822352
-0.06242604146645711   0.02067901206112849   -0.002673213403822352
-0.06242604146645711   0.02067901206112849   -0.002673213403822352
-0.10764861102844814   0.010143824429546911   -0.004924479976681984
-0.10764861102844814   0.010143824429546911   -0.004924479976681984
-0.10764861102844814   0.010143824429546911   -0.004924479976681984
-0.10764861102844814   0.010143824429546911   -0.004924479976681984
-0.08585394589650551   0.009883557242413077   0.004951257171117527
-0.08585394589650551   0.009883557242413077   0.004951257171117527
-0.08585394589650551   0.009883557242413077   0.004951257171117527
-0.08585394589650551   0.009883557242413077   0.004951257171117527
-0.07693722244250387   -0.026830135581602743   -0.006354847957529091
-0.07693722244250387   -0.026830135581602743   -0.006354847957529091
-0.07693722244250387   -0.026830135581602743   -0.006354847957529091
-0.07693722244250387   -0.026830135581602743   -0.006354847957529091
-0.027141761821098218   -0.0008652044818074711   0.011084716178041024
-0.027141761821098218   -0.0008652044818074711   0.011084716178041024
-0.027141761821098218   -0.0008652044818074711   0.011084716178041024
-0.027141761821098218   -0.0008652044818074711   0.011084716178041024
-0.030464315015107227   -0.00839411259671582   -0.00837824674394797
-0.030464315015107227   -0.00839411259671582   -0.00837824674394797
-0.030464315015107227   -0.00839411259671582   -0.00837824674394797
-0.030464315015107227   -0.00839411259671582   -0.00837824674394797
-0.06787020478911526   -0.0010124911948779054   0.006412201273614821
-0.06787020478911526   -0.0010124911948779054   0.006412201273614821
-0.06787020478911526   -0.0010124911948779054   0.006412201273614821
-0.06787020478911526   -0.0010124911948779054   0.006412201273614821
-0.05056048059114797   -0.008875551865324816   -0.0019729734860181574
-0.05056048059114797   -0.008875551865324816   -0.0019729734860181574
-0.05056048059114797   -0.008875551865324816   -0.0019729734860181574
-0.05056048059114797   -0.008875551865324816   -0.0019729734860181574
-0.07397161028286824   -0.017034488149570134   -0.008072829240458518
-0.07397161028286824   -0.017034488149570134   -0.008072829240458518
-0.07397161028286824   -0.017034488149570134   -0.008072829240458518
-0.07397161028286824   -0.017034488149570134   -0.008072829240458518
-0.023536803229140753   0.008453990650189792   0.0094112089389788
-0.023536803229140753   0.008453990650189792   0.0094112089389788
-0.023536803229140753   0.008453990650189792   0.0094112089389788
-0.023536803229140753   0.008453990650189792   0.0094112089389788
-0.025513969400374464   0.0015308131214405195   -0.009437353954120582
-0.025513969400374464   0.0015308131214405195   -0.009437353954120582
-0.025513969400374464   0.0015308131214405195   -0.009437353954120582
-0.025513969400374464   0.0015308131214405195   -0.009437353954120582
-0.06504599118941183   0.007512852792468191   0.004291022937637657
-0.06504599118941183   0.007512852792468191   0.004291022937637657
-0.06504599118941183   0.007512852792468191   0.004291022937637657
-0.06504599118941183   0.007512852792468191   0.004291022937637657
-0.04677549983757044   -8.590410815958495e-05   0.002028943542114324
-0.04677549983757044   -8.590410815958495e-05   0.002028943542114324
-0.04677549983757044   -8.590410815958495e-05   0.002028943542114324
-0.04677549983757044   -8.590410815958495e-05   0.002028943542114324
-0.07095272085337442   -0.007679517413563429   -0.010050255176144197
-0.07095272085337442   -0.007679517413563429   -0.010050255176144197
-0.07095272085337442   -0.007679517413563429   -0.010050255176144197
-0.07095272085337442   -0.007679517413563429   -0.010050255176144197
-0.018837543615822395   0.017492879448060966   0.007982708642019776
-0.018837543615822395   0.017492879448060966   0.007982708642019776
-0.018837543615822395   0.017492879448060966   0.007982708642019776
-0.018837543615822395   0.017492879448060966   0.007982708642019776
-0.02133214971124404   0.012579131088671784   -0.010587313004745476
-0.02133214971124404   0.012579131088671784   -0.010587313004745476
-0.02133214971124404   0.012579131088671784   -0.010587313004745476
-0.02133214971124404   0.012579131088671784   -0.010587313004745476
-0.062153969703827375   0.017120758305070215   0.0022453991653845727
-0.062153969703827375   0.017120758305070215   0.0022453991653845727
-0.062153969703827375   0.017120758305070215   0.0022453991653845727
-0.062153969703827375   0.017120758305070215   0.0022453991653845727
-0.04288928682433969   0.009026142833628277   0.0060140485501794655
-0.04288928682433969   0.009026142833628277   0.0060140485501794655
-0.04288928682433969   0.009026142833628277   0.0060140485501794655
-0.04288928682433969   0.009026142833628277   0.0060140485501794655
-0.037725423852334405   -0.028789293723248188   -0.013909504736699684
-0.037725423852334405   -0.028789293723248188   -0.013909504736699684
-0.037725423852334405   -0.028789293723248188   -0.013909504736699684
-0.037725423852334405   -0.028789293723248188   -0.013909504736699684
0.005021755646781938   0.008002130114667192   0.017070302711742254
0.005021755646781938   0.008002130114667192   0.017070302711742254
0.005021755646781938   0.008002130114667192   0.017070302711742254
0.005021755646781938   0.008002130114667192   0.017070302711742254
0.004955414451273225   -0.01464659066139177   -0.018464550104409935
0.004955414451273225   -0.01464659066139177   -0.018464550104409935
0.004955414451273225   -0.01464659066139177   -0.018464550104409935
0.004955414451273225   -0.01464659066139177   -0.018464550104409935
-0.022518702915007675   0.008977776920177795   0.013977924239656186
-0.022518702915007675   0.008977776920177795   0.013977924239656186
-0.022518702915007675   0.008977776920177795   0.013977924239656186
-0.022518702915007675   0.008977776920177795   0.013977924239656186
-0.012686763340571297   -0.006279135608026392   -0.003122160069871549
-0.012686763340571297   -0.006279135608026392   -0.003122160069871549
-0.012686763340571297   -0.006279135608026392   -0.003122160069871549
-0.012686763340571297   -0.006279135608026392   -0.003122160069871549
-0.03472912744916548   -0.022091561102323857   -0.01600486040863166
-0.03472912744916548   -0.022091561102323857   -0.01600486040863166
-0.03472912744916548   -0.022091561102323857   -0.01600486040863166
-0.03472912744916548   -0.022091561102323857   -0.01600486040863166
0.01804651729669592   0.017303425672374688   0.015040947788937067
0.01804651729669592   0.017303425672374688   0.015040947788937067
0.01804651729669592   0.017303425672374688   0.015040947788937067
0.01804651729669592   0.017303425672374688   0.015040947788937067
0.014536603882076012   -0.008979422295231309   -0.021976819119322383
0.014536603882076012   -0.008979422295231309   -0.021976819119322383
0.014536603882076012   -0.008979422295231309   -0.021976819119322383
0.014536603882076012   -0.008979422295231309   -0.021976819119322383
-0.01906785152719415   0.013091539486576107   0.011232509046645384
-0.01906785152719415   0.013091539486576107   0.011232509046645384
-0.01906785152719415   0.013091539486576107   0.011232509046645384
-0.01906785152719415   0.013091539486576107   0.011232509046645384
-0.004913487586972966   -0.0004247428731648167   0.0011885945880971381
-0.004913487586972966   -0.0004247428731648167   0.0011885945880971381
-0.004913487586972966   -0.0004247428731648167   0.0011885945880971381
-0.004913487586972966   -0.0004247428731648167   0.0011885945880971381
-0.031127425962046346   -0.01742635764033267   -0.01854746600070683
-0.031127425962046346   -0.01742635764033267   -0.01854746600070683
-0.031127425962046346   -0.01742635764033267   -0.01854746600070683
-0.031127425962046346   -0.01742635764033267   -0.01854746600070683
0.027481852992001902   0.022424149506752596   0.011345854628324116
0.027481852992001902   0.022424149506752596   0.011345854628324116
0.027481852992001902   0.022424149506752596   0.011345854628324116
0.027481852992001902   0.022424149506752596   0.011345854628324116
0.028060233844679726   0.0020728335830131218   -0.02357564364730206
0.028060233844679726   0.0020728335830131218   -0.02357564364730206
0.028060233844679726   0.0020728335830131218   -0.02357564364730206
0.028060233844679726   0.0020728335830131218   -0.02357564364730206
-0.01585210953597119   0.020258999493260627   0.009133019467029949
-0.01585210953597119   0.020258999493260627   0.009133019467029949
-0.01585210953597119   0.020258999493260627   0.009133019467029949
-0.01585210953597119   0.020258999493260627   0.009133019467029949
0.0022606750636756413   0.005683466265708904   0.0054392833611338655
0.0022606750636756413   0.005683466265708904   0.0054392833611338655
0.0022606750636756413   0.005683466265708904   0.0054392833611338655
0.0022606750636756413   0.005683466265708904   0.0054392833611338655
-0.06577591093256077   0.004398366097300793   0.019524984665419035
-0.06577591093256077   0.004398366097300793   0.019524984665419035
-0.06577591093256077   0.004398366097300793   0.019524984665419035
-0.06577591093256077   0.004398366097300793   0.019524984665419035
-0.08140542850801229   -0.025290934203579297   -0.011356666528612188
-0.08140542850801229   -0.025290934203579297   -0.011356666528612188
-0.08140542850801229   -0.025290934203579297   -0.011356666528612188
-0.08140542850801229   -0.025290934203579297   -0.011356666528612188
-0.0649955734354231   0.011647045677171428   0.01595002693334402
-0.0649955734354231   0.011647045677171428   0.01595002693334402
-0.0649955734354231   0.011647045677171428   0.01595002693334402
-0.0649955734354231   0.011647045677171428   0.01595002693334402
-0.06396410588047864   -0.016206532687906262   -0.014703856769121419
-0.06396410588047864   -0.016206532687906262   -0.014703856769121419
-0.06396410588047864   -0.016206532687906262   -0.014703856769121419
-0.06396410588047864   -0.016206532687906262   -0.014703856769121419
-0.06739284827067492   -0.005165882961450447   -0.005487515304739137
-0.06739284827067492   -0.005165882961450447   -0.005487515304739137
-0.06739284827067492   -0.005165882961450447   -0.005487515304739137
-0.06739284827067492   -0.005165882961450447   -0.005487515304739137
-0.05117694022384466   0.014854878915038318   0.018170559911100025
-0.05117694022384466   0.014854878915038318   0.018170559911100025
-0.05117694022384466   0.014854878915038318   0.018170559911100025
-0.05117694022384466   0.014854878915038318   0.018170559911100025
-0.0769591493644036   -0.01859077619812   -0.013630030836265137
-0.0769591493644036   -0.01859077619812   -0.013630030836265137
-0.0769591493644036   -0.01859077619812   -0.013630030836265137
-0.0769591493644036   -0.01859077619812   -0.013630030836265137
-0.06009144282900981   0.01610771000113038   0.013395489422911683
-0.06009144282900981   0.01610771000113038   0.013395489422911683
-0.06009144282900981   0.01610771000113038   0.013395489422911683
-0.06009144282900981   0.01610771000113038   0.013395489422911683
-0.05318715159686567   -0.011165399514319801   -0.01826175384651138
-0.05318715159686567   -0.011165399514319801   -0.01826175384651138
-0.05318715159686567   -0.011165399514319801   -0.01826175384651138
-0.05318715159686567   -0.011165399514319801   -0.01826175384651138
-0.059448098052048065   0.0005105402020307813   -0.0012808191185419426
-0.059448098052048065   0.0005105402020307813   -0.0012808191185419426
-0.059448098052048065   0.0005105402020307813   -0.0012808191185419426
-0.059448098052048065   0.0005105402020307813   -0.0012808191185419426
-0.04034993416622906   0.020273917172978474   0.014485016619371406
-0.04034993416622906   0.020273917172978474   0.014485016619371406
-0.04034993416622906   0.020273917172978474   0.014485016619371406
-0.04034993416622906   0.020273917172978474   0.014485016619371406
-0.07215895926343822   -0.014561905689959876   -0.016272477058139195
-0.07215895926343822   -0.014561905689959876   -0.016272477058139195
-0.07215895926343822   -0.014561905689959876   -0.016272477058139195
-0.07215895926343822   -0.014561905689959876   -0.016272477058139195
-0.05562762142547017   0.02297854145070486   0.011565213092655732
-0.05562762142547017   0.02297854145070486   0.011565213092655732
-0.05562762142547017   0.02297854145070486   0.011565213092655732
-0.05562762142547017   0.02297854145070486   0.011565213092655732
-0.03879058963167814   -0.0015885685484554293   -0.02055542577074823
-0.03879058963167814   -0.0015885685484554293   -0.02055542577074823
-0.03879058963167814   -0.0015885685484554293   -0.02055542577074823
-0.03879058963167814   -0.0015885685484554293   -0.02055542577074823
-0.04996255020959728   0.006480686633562226   0.003195781529428744
-0.04996255020959728   0.006480686633562226   0.003195781529428744
-0.04996255020959728   0.006480686633562226   0.003195781529428744
-0.04996255020959728   0.006480686633562226   0.003195781529428744
-0.07266669504495168   -0.004200272410745329   0.011246338993854948
-0.07266669504495168   -0.004200272410745329   0.011246338993854948
-0.07266669504495168   -0.004200272410745329   0.011246338993854948
-0.07266669504495168   -0.004200272410745329   0.011246338993854948
-0.09235400767361865   -0.020644032474836635   -0.004432407235936776
-0.09235400767361865   -0.020644032474836635   -0.004432407235936776
-0.09235400767361865   -0.020644032474836635   -0.004432407235936776
-0.09235400767361865   -0.020644032474836635   -0.004432407235936776
-0.08263338805771527   0.002016977409193486   0.007410587856723456
-0.08263338805771527   0.002016977409193486   0.007410587856723456
-0.08263338805771527   0.002016977409193486   0.007410587856723456
-0.08263338805771527   0.002016977409193486   0.007410587856723456
-0.07372890161342595   -0.009421994975431357   -0.006647573304065527
-0.07372890161342595   -0.009421994975431357   -0.006647573304065527
-0.07372890161342595   -0.009421994975431357   -0.006647573304065527
-0.07372890161342595   -0.009421994975431357   -0.006647573304065527
-0.08043788180514394   -0.007425086791664762   -0.0037871484868581377
-0.08043788180514394   -0.007425086791664762   -0.0037871484868581377
-0.08043788180514394   -0.007425086791664762   -0.0037871484868581377
-0.08043788180514394   -0.007425086791664762   -0.0037871484868581377
-0.06744616066450683   0.005534277174591378   0.009809859290504479
-0.06744616066450683   0.005534277174591378   0.009809859290504479
-0.06744616066450683   0.005534277174591378   0.009809859290504479
-0.06744616066450683   0.005534277174591378   0.009809859290504479
-0.08826850963552245   -0.012291675369717883   -0.006456367253401646
-0.08826850963552245   -0.012291675369717883   -0.006456367253401646
-0.08826850963552245   -0.012291675369717883   -0.006456367253401646
-0.08826850963552245   -0.012291675369717883   -0.006456367253401646
-0.07826749151072379   0.01092344162799501   0.005644615368806834
-0.07826749151072379   0.01092344162799501   0.005644615368806834
-0.07826749151072379   0.01092344162799501   0.005644615368806834
-0.07826749151072379   0.01092344162799501   0.005644615368806834
-0.06782101339207432   -0.0008836708242536833   -0.008260982567025826
-0.06782101339207432   -0.0008836708242536833   -0.008260982567025826
-0.06782101339207432   -0.0008836708242536833   -0.008260982567025826
-0.06782101339207432   -0.0008836708242536833   -0.008260982567025826
-0.07518957004195191   0.0008450119713323458   8.224848637981147e-05
-0.07518957004195191   0.0008450119713323458   8.224848637981147e-05
-0.07518957004195191   0.0008450119713323458   8.224848637981147e-05
-0.07518957004195191   0.0008450119713323458   8.224848637981147e-05
-0.06122924580869047   0.014970837166473383   0.008843347359165376
-0.06122924580869047   0.014970837166473383   0.008843347359165376
-0.06122924580869047   0.014970837166473383   0.008843347359165376
-0.06122924580869047   0.014970837166473383   0.008843347359165376
-0.08416807625570026   -0.004239883524324907   -0.008694983203755998
-0.08416807625570026   -0.004239883524324907   -0.008694983203755998
-0.08416807625570026   -0.004239883524324907   -0.008694983203755998
-0.08416807625570026   -0.004239883524324907   -0.008694983203755998
-0.07387665566283819   0.02082240729256827   0.003965627669044279
-0.07387665566283819   0.02082240729256827   0.003965627669044279
-0.07387665566283819   0.02082240729256827   0.003965627669044279
-0.07387665566283819   0.02082240729256827   0.003965627669044279
-0.06276002322874992   0.008635045200142983   -0.009753299673181153
-0.06276002322874992   0.008635045200142983   -0.009753299673181153
-0.06276002322874992   0.008635045200142983   -0.009753299673181153
-0.06276002322874992   0.008635045200142983   -0.009753299673181153
-0.07022344217381375   0.009431909440052129   0.004036982662884129
-0.07022344217381375   0.009431909440052129   0.004036982662884129
-0.07022344217381375   0.009431909440052129   0.004036982662884129
-0.07022344217381375   0.009431909440052129   0.004036982662884129
-0.08917323127895697   -0.012393151223418697   0.0032205934859526747
-0.08917323127895697   -0.012393151223418697   0.0032205934859526747
-0.08917323127895697   -0.012393151223418697   0.0032205934859526747
-0.08917323127895697   -0.012393151223418697   0.0032205934859526747
-0.10315809875899064   -0.013276082828479167   0.0026536264281466736
-0.10315809875899064   -0.013276082828479167   0.0026536264281466736
-0.10315809875899064   -0.013276082828479167   0.0026536264281466736
-0.10315809875899064   -0.013276082828479167   0.0026536264281466736
-0.09970287168661097   -0.006152350076044983   -0.0009823038821177334
-0.09970287168661097   -0.006152350076044983   -0.0009823038821177334
-0.09970287168661097   -0.006152350076044983   -0.0009823038821177334
-0.09970287168661097   -0.006152350076044983   -0.0009823038821177334
-0.08467550391880752   -0.0016792617079480331   0.0008962476684031689
-0.08467550391880752   -0.0016792617079480331   0.0008962476684031689
-0.08467550391880752   -0.0016792617079480331   0.0008962476684031689
-0.08467550391880752   -0.0016792617079480331   0.0008962476684031689
-0.09431929883800878   -0.007901790408359886   -0.0025371943395906434
-0.09431929883800878   -0.007901790408359886   -0.0025371943395906434
-0.09431929883800878   -0.007901790408359886   -0.0025371943395906434
-0.09431929883800878   -0.007901790408359886   -0.0025371943395906434
-0.08471597057237182   -0.002629648781871278   0.0016443014745039716
-0.08471597057237182   -0.002629648781871278   0.0016443014745039716
-0.08471597057237182   -0.002629648781871278   0.0016443014745039716
-0.08471597057237182   -0.002629648781871278   0.0016443014745039716
-0.09904877674599646   -0.004588334715070415   0.0007241554599802073
-0.09904877674599646   -0.004588334715070415   0.0007241554599802073
-0.09904877674599646   -0.004588334715070415   0.0007241554599802073
-0.09904877674599646   -0.004588334715070415   0.0007241554599802073
-0.09510334206415483   0.00373460853748202   -0.0024760960883081773
-0.09510334206415483   0.00373460853748202   -0.0024760960883081773
-0.09510334206415483   0.00373460853748202   -0.0024760960883081773
-0.09510334206415483   0.00373460853748202   -0.0024760960883081773
-0.08032392276710497   0.007245846267225093   -0.0009599455523295521
-0.08032392276710497   0.007245846267225093   -0.0009599455523295521
-0.08032392276710497   0.007245846267225093   -0.0009599455523295521
-0.08032392276710497   0.007245846267225093   -0.0009599455523295521
-0.08950545353750174   0.0009171587196938656   0.001293895462811022
-0.08950545353750174   0.0009171587196938656   0.001293895462811022
-0.08950545353750174   0.0009171587196938656   0.001293895462811022
-0.08950545353750174   0.0009171587196938656   0.001293895462811022
-0.0801381772581286   0.007221488640253549   -6.860380476751693e-06
-0.0801381772581286   0.007221488640253549   -6.860380476751693e-06
-0.0801381772581286   0.007221488640253549   -6.860380476751693e-06
-0.0801381772581286   0.007221488640253549   -6.860380476751693e-06
-0.0947518357520393   0.004296217985545227   -0.0012801739757945484
-0.0947518357520393   0.004296217985545227   -0.0012801739757945484
-0.0947518357520393   0.004296217985545227   -0.0012801739757945484
-0.0947518357520393   0.004296217985545227   -0.0012801739757945484
-0.09069773402022818   0.013688952869526429   -0.004149714785004343
-0.09069773402022818   0.013688952869526429   -0.004149714785004343
-0.09069773402022818   0.013688952869526429   -0.004149714785004343
-0.09069773402022818   0.013688952869526429   -0.004149714785004343
-0.07619492004911681   0.016207573573161483   -0.0030108605429420288
-0.07619492004911681   0.016207573573161483   -0.0030108605429420288
-0.07619492004911681   0.016207573573161483   -0.0030108605429420288
-0.07619492004911681   0.016207573573161483   -0.0030108605429420288
-0.08492493343207487   0.009754042874723708   0.004944429592866936
-0.08492493343207487   0.009754042874723708   0.004944429592866936
-0.08492493343207487   0.009754042874723708   0.004944429592866936
-0.08492493343207487   0.009754042874723708   0.004944429592866936
-0.10599985688846622   -0.019850013450359617   -0.004981233597351711
-0.10599985688846622   -0.019850013450359617   -0.004981233597351711
-0.10599985688846622   -0.019850013450359617   -0.004981233597351711
-0.10599985688846622   -0.019850013450359617   -0.004981233597351711
-0.11501610709866385   -0.006050750717425413   0.009399332040471779
-0.11501610709866385   -0.006050750717425413   0.009399332040471779
-0.11501610709866385   -0.006050750717425413   0.009399332040471779
-0.11501610709866385   -0.006050750717425413   0.009399332040471779
-0.11701970014448923   -0.014029579832011252   -0.009523746556677936
-0.11701970014448923   -0.014029579832011252   -0.009523746556677936
-0.11701970014448923   -0.014029579832011252   -0.009523746556677936
-0.11701970014448923   -0.014029579832011252   -0.009523746556677936
-0.09549644967413096   0.005880236077852414   0.008017220026384927
-0.09549644967413096   0.005880236077852414   0.008017220026384927
-0.09549644967413096   0.005880236077852414   0.008017220026384927
-0.09549644967413096   0.005880236077852414   0.008017220026384927
-0.10791047111369548   -0.00797705909062859   -0.0016043404222816464
-0.10791047111369548   -0.00797705909062859   -0.0016043404222816464
-0.10791047111369548   -0.00797705909062859   -0.0016043404222816464
-0.10791047111369548   -0.00797705909062859   -0.0016043404222816464
-0.10167416762629576   -0.010378292290295375   -0.006612841366292033
-0.10167416762629576   -0.010378292290295375   -0.006612841366292033
-0.10167416762629576   -0.010378292290295375   -0.006612841366292033
-0.10167416762629576   -0.010378292290295375   -0.006612841366292033
-0.11019914153705292   0.002871789191406659   0.007677677457085769
-0.11019914153705292   0.002871789191406659   0.007677677457085769
-0.11019914153705292   0.002871789191406659   0.007677677457085769
-0.11019914153705292   0.002871789191406659   0.007677677457085769
-0.11092250561273377   -0.004658333972165914   -0.010688396462210944
-0.11092250561273377   -0.004658333972165914   -0.010688396462210944
-0.11092250561273377   -0.004658333972165914   -0.010688396462210944
-0.11092250561273377   -0.004658333972165914   -0.010688396462210944
-0.09137814287462706   0.01392379934961975   0.00596070904719212
-0.09137814287462706   0.01392379934961975   0.00596070904719212
-0.09137814287462706   0.01392379934961975   0.00596070904719212
-0.09137814287462706   0.01392379934961975   0.00596070904719212
-0.10239222463471914   0.0005323407692965016   0.0023583020249879454
-0.10239222463471914   0.0005323407692965016   0.0023583020249879454
-0.10239222463471914   0.0005323407692965016   0.0023583020249879454
-0.10239222463471914   0.0005323407692965016   0.0023583020249879454
-0.09736230286888876   -0.0015132270382131378   -0.008523064536284377
-0.09736230286888876   -0.0015132270382131378   -0.008523064536284377
-0.09736230286888876   -0.0015132270382131378   -0.008523064536284377
-0.09736230286888876   -0.0015132270382131378   -0.008523064536284377
-0.10428884520870078   0.011428192825435635   0.006393378760352935
-0.10428884520870078   0.011428192825435635   0.006393378760352935
-0.10428884520870078   0.011428192825435635   0.006393378760352935
-0.10428884520870078   0.011428192825435635   0.006393378760352935
-0.10559716487962592   0.005634876184128089   -0.011740816263527503
-0.10559716487962592   0.005634876184128089   -0.011740816263527503
-0.10559716487962592   0.005634876184128089   -0.011740816263527503
-0.10559716487962592   0.005634876184128089   -0.011740816263527503
-0.08724924416731142   0.02285048883755328   0.003931198511552641
-0.08724924416731142   0.02285048883755328   0.003931198511552641
-0.08724924416731142   0.02285048883755328   0.003931198511552641
-0.08724924416731142   0.02285048883755328   0.003931198511552641
-0.09777045952033701   0.008930781447644177   0.006131443921123598
-0.09777045952033701   0.008930781447644177   0.006131443921123598
-0.09777045952033701   0.008930781447644177   0.006131443921123598
-0.09777045952033701   0.008930781447644177   0.006131443921123598
-0.12290929599208517   -0.02351801115355593   -0.012599351990506248
-0.12290929599208517   -0.02351801115355593   -0.012599351990506248
-0.12290929599208517   -0.02351801115355593   -0.012599351990506248
-0.12290929599208517   -0.02351801115355593   -0.012599351990506248
-0.138140010027777   0.0013020213665481846   0.0171169925018244
-0.138140010027777   0.0013020213665481846   0.0171169925018244
-0.138140010027777   0.0013020213665481846   0.0171169925018244
-0.138140010027777   0.0013020213665481846   0.0171169925018244
-0.13661242775985802   -0.020008275932528484   -0.01685861517902487
-0.13661242775985802   -0.020008275932528484   -0.01685861517902487
-0.13661242775985802   -0.020008275932528484   -0.01685861517902487
-0.13661242775985802   -0.020008275932528484   -0.01685861517902487
-0.10626359409387802   0.014889349232876192   0.015337854631489265
-0.10626359409387802   0.014889349232876192   0.015337854631489265
-0.10626359409387802   0.014889349232876192   0.015337854631489265
-0.10626359409387802   0.014889349232876192   0.015337854631489265
-0.12088609627501151   -0.005222089839868804   -0.000620123421865619
-0.12088609627501151   -0.005222089839868804   -0.000620123421865619
-0.12088609627501151   -0.005222089839868804   -0.000620123421865619
-0.12088609627501151   -0.005222089839868804   -0.000620123421865619
-0.11836734315471839   -0.015871536886385963   -0.01442000455345188
-0.11836734315471839   -0.015871536886385963   -0.01442000455345188
-0.11836734315471839   -0.015871536886385963   -0.01442000455345188
-0.11836734315471839   -0.015871536886385963   -0.01442000455345188
-0.1238302367289183   0.011431052156832773   0.015613011886312447
-0.1238302367289183   0.011431052156832773   0.015613011886312447
-0.1238302367289183   0.011431052156832773   0.015613011886312447
-0.1238302367289183   0.011431052156832773   0.015613011886312447
-0.1259397530813809   -0.01455493845606351   -0.020127979112365937
-0.1259397530813809   -0.01455493845606351   -0.020127979112365937
-0.1259397530813809   -0.01455493845606351   -0.020127979112365937
-0.1259397530813809   -0.01455493845606351   -0.020127979112365937
-0.10159264721252792   0.018731619235785982   0.01257094233086644
-0.10159264721252792   0.018731619235785982   0.01257094233086644
-0.10159264721252792   0.018731619235785982   0.01257094233086644
-0.10159264721252792   0.018731619235785982   0.01257094233086644
-0.11381294068967177   0.0004995245872396834   0.0031600261268021693
-0.11381294068967177   0.0004995245872396834   0.0031600261268021693
-0.11381294068967177   0.0004995245872396834   0.0031600261268021693
-0.11381294068967177   0.0004995245872396834   0.0031600261268021693
-0.11347288573477038   -0.011379746144315715   -0.016718884900245156
-0.11347288573477038   -0.011379746144315715   -0.016718884900245156
-0.11347288573477038   -0.011379746144315715   -0.016718884900245156
-0.11347288573477038   -0.011379746144315715   -0.016718884900245156
-0.1133465290951569   0.016269412388021195   0.01201378997467148
-0.1133465290951569   0.016269412388021195   0.01201378997467148
-0.1133465290951569   0.016269412388021195   0.01201378997467148
-0.1133465290951569   0.016269412388021195   0.01201378997467148
-0.11182504147305979   -0.005169022521636281   -0.022034158670365997
-0.11182504147305979   -0.005169022521636281   -0.022034158670365997
-0.11182504147305979   -0.005169022521636281   -0.022034158670365997
-0.11182504147305979   -0.005169022521636281   -0.022034158670365997
-0.09743049569838223   0.024373329774574036   0.010354076052244515
-0.09743049569838223   0.024373329774574036   0.010354076052244515
-0.09743049569838223   0.024373329774574036   0.010354076052244515
-0.09743049569838223   0.024373329774574036   0.010354076052244515
-0.10383108536457454   0.00617611697478303   0.007575089504496736
-0.10383108536457454   0.00617611697478303   0.007575089504496736
-0.10383108536457454   0.00617611697478303   0.007575089504496736
-0.10383108536457454   0.00617611697478303   0.007575089504496736
0.07478257560490853   0.011953497018579513   0.018677485469253362
0.07478257560490853   0.011953497018579513   0.018677485469253362
0.07478257560490853   0.011953497018579513   0.018677485469253362
0.07478257560490853   0.011953497018579513   0.018677485469253362
-0.0009002666754016606   -0.029874883178637276   -0.012214713646111541
-0.0009002666754016606   -0.029874883178637276   -0.012214713646111541
-0.0009002666754016606   -0.029874883178637276   -0.012214713646111541
-0.0009002666754016606   -0.029874883178637276   -0.012214713646111541
0.016379341388403103   0.00568189893538721   0.01439485407846419
0.016379341388403103   0.00568189893538721   0.01439485407846419
0.016379341388403103   0.00568189893538721   0.01439485407846419
0.016379341388403103   0.00568189893538721   0.01439485407846419
0.07761207024852768   -0.010006422188363295   -0.015351952008626022
0.07761207024852768   -0.010006422188363295   -0.015351952008626022
0.07761207024852768   -0.010006422188363295   -0.015351952008626022
0.07761207024852768   -0.010006422188363295   -0.015351952008626022
0.038253931379174405   -0.0056288499125847925   -0.008986415713412426
0.038253931379174405   -0.0056288499125847925   -0.008986415713412426
0.038253931379174405   -0.0056288499125847925   -0.008986415713412426
0.038253931379174405   -0.0056288499125847925   -0.008986415713412426
0.09024188793595594   0.02094465023102946   0.016846064009122606
0.09024188793595594   0.02094465023102946   0.016846064009122606
0.09024188793595594   0.02094465023102946   0.016846064009122606
0.09024188793595594   0.02094465023102946   0.016846064009122606
0.004549260662061508   -0.02446943652291887   -0.014604214094937713
0.004549260662061508   -0.02446943652291887   -0.014604214094937713
0.004549260662061508   -0.02446943652291887   -0.014604214094937713
0.004549260662061508   -0.02446943652291887   -0.014604214094937713
0.022506181064604263   0.01002276654698807   0.011985743798558048
0.022506181064604263   0.01002276654698807   0.011985743798558048
0.022506181064604263   0.01002276654698807   0.011985743798558048
0.022506181064604263   0.01002276654698807   0.011985743798558048
0.08959969538502431   -0.005108822831963376   -0.019137455455440048
0.08959969538502431   -0.005108822831963376   -0.019137455455440048
0.08959969538502431   -0.005108822831963376   -0.019137455455440048
0.08959969538502431   -0.005108822831963376   -0.019137455455440048
0.049099287551259016   -0.00024469612297356447   -0.004300987191117137
0.049099287551259016   -0.00024469612297356447   -0.004300987191117137
0.049099287551259016   -0.00024469612297356447   -0.004300987191117137
0.049099287551259016   -0.00024469612297356447   -0.004300987191117137
0.10234460878045945   0.026240800890334974   0.013237487799437371
0.10234460878045945   0.026240800890334974   0.013237487799437371
0.10234460878045945   0.026240800890334974   0.013237487799437371
0.10234460878045945   0.026240800890334974   0.013237487799437371
0.010533312207379592   -0.020554812637099636   -0.017301021303476643
0.010533312207379592   -0.020554812637099636   -0.017301021303476643
0.010533312207379592   -0.020554812637099636   -0.017301021303476643
0.010533312207379592   -0.020554812637099636   -0.017301021303476643
0.028441720536291293   0.0180426944242149   0.010368578924641662
0.028441720536291293   0.0180426944242149   0.010368578924641662
0.028441720536291293   0.0180426944242149   0.010368578924641662
0.028441720536291293   0.0180426944242149   0.010368578924641662
0.10554071005710879   0.005837509067671172   -0.021083141133966345
0.10554071005710879   0.005837509067671172   -0.021083141133966345
0.10554071005710879   0.005837509067671172   -0.021083141133966345
0.10554071005710879   0.005837509067671172   -0.021083141133966345
0.05806823963166298   0.005827723978543857   9.696741404648795e-05
0.05806823963166298   0.005827723978543857   9.696741404648795e-05
0.05806823963166298   0.005827723978543857   9.696741404648795e-05
0.05806823963166298   0.005827723978543857   9.696741404648795e-05
0.010768463133047627   0.0034314613143183073   0.012822590903179314
0.010768463133047627   0.0034314613143183073   0.012822590903179314
0.010768463133047627   0.0034314613143183073   0.012822590903179314
0.010768463133047627   0.0034314613143183073   0.012822590903179314
-0.06890183641928774   -0.02543030144459892   -0.0056162163504304315
-0.06890183641928774   -0.02543030144459892   -0.0056162163504304315
-0.06890183641928774   -0.02543030144459892   -0.0056162163504304315
-0.06890183641928774   -0.02543030144459892   -0.0056162163504304315
-0.05809927455092388   -0.0038094642972973675   0.005785453024110028
-0.05809927455092388   -0.0038094642972973675   0.005785453024110028
-0.05809927455092388   -0.0038094642972973675   0.005785453024110028
-0.05809927455092388   -0.0038094642972973675   0.005785453024110028
0.01097460812472669   -0.002568459378476884   -0.004378453926053792
0.01097460812472669   -0.002568459378476884   -0.004378453926053792
0.01097460812472669   -0.002568459378476884   -0.004378453926053792
0.01097460812472669   -0.002568459378476884   -0.004378453926053792
-0.026902302741292156   -0.006444109871986216   -0.004282450292908825
-0.026902302741292156   -0.006444109871986216   -0.004282450292908825
-0.026902302741292156   -0.006444109871986216   -0.004282450292908825
-0.026902302741292156   -0.006444109871986216   -0.004282450292908825
0.01710811595189918   0.012349206970594434   0.011371418860738305
0.01710811595189918   0.012349206970594434   0.011371418860738305
0.01710811595189918   0.012349206970594434   0.011371418860738305
0.01710811595189918   0.012349206970594434   0.011371418860738305
-0.06364355998122077   -0.018137908249490364   -0.007607530175181412
-0.06364355998122077   -0.018137908249490364   -0.007607530175181412
-0.06364355998122077   -0.018137908249490364   -0.007607530175181412
-0.06364355998122077   -0.018137908249490364   -0.007607530175181412
-0.052525710459675246   0.004643428965389133   0.0040792134487892
-0.052525710459675246   0.004643428965389133   0.0040792134487892
-0.052525710459675246   0.004643428965389133   0.0040792134487892
-0.052525710459675246   0.004643428965389133   0.0040792134487892
0.017999034455448943   0.005410957776204977   -0.005938180476435457
0.017999034455448943   0.005410957776204977   -0.005938180476435457
0.017999034455448943   0.005410957776204977   -0.005938180476435457
0.017999034455448943   0.005410957776204977   -0.005938180476435457
-0.02098735145109803   0.0009804599904020559   -0.0005539457480174086
-0.02098735145109803   0.0009804599904020559   -0.0005539457480174086
-0.02098735145109803   0.0009804599904020559   -0.0005539457480174086
-0.02098735145109803   0.0009804599904020559   -0.0005539457480174086
0.024395094522801926   0.021251968999528012   0.01020110863700641
0.024395094522801926   0.021251968999528012   0.01020110863700641
0.024395094522801926   0.021251968999528012   0.01020110863700641
0.024395094522801926   0.021251968999528012   0.01020110863700641
-0.05835187168597579   -0.010627683416881464   -0.009780480300442918
-0.05835187168597579   -0.010627683416881464   -0.009780480300442918
-0.05835187168597579   -0.010627683416881464   -0.009780480300442918
-0.05835187168597579   -0.010627683416881464   -0.009780480300442918
-0.046912950061267354   0.014245753662786291   0.002453169472552823
-0.046912950061267354   0.014245753662786291   0.002453169472552823
-0.046912950061267354   0.014245753662786291   0.002453169472552823
-0.046912950061267354   0.014245753662786291   0.002453169472552823
0.02414680060205911   0.014503362312347064   -0.007566688634651398
0.02414680060205911   0.014503362312347064   -0.007566688634651398
0.02414680060205911   0.014503362312347064   -0.007566688634651398
0.02414680060205911   0.014503362312347064   -0.007566688634651398
-0.014400599433686772   0.009222438628189056   0.003437618296916632
-0.014400599433686772   0.009222438628189056   0.003437618296916632
-0.014400599433686772   0.009222438628189056   0.003437618296916632
-0.014400599433686772   0.009222438628189056   0.003437618296916632
-0.06271614416935653   -0.004785023754380299   0.00466696720900691
-0.06271614416935653   -0.004785023754380299   0.00466696720900691
-0.06271614416935653   -0.004785023754380299   0.00466696720900691
-0.06271614416935653   -0.004785023754380299   0.00466696720900691
-0.13563770095685837   -0.018318545115934073   0.001106565995851988
-0.13563770095685837   -0.018318545115934073   0.001106565995851988
-0.13563770095685837   -0.018318545115934073   0.001106565995851988
-0.13563770095685837   -0.018318545115934073   0.001106565995851988
-0.13080562325258135   -0.011592361968081838   -0.0025391342984920073
-0.13080562325258135   -0.011592361968081838   -0.0025391342984920073
-0.13080562325258135   -0.011592361968081838   -0.0025391342984920073
-0.13080562325258135   -0.011592361968081838   -0.0025391342984920073
-0.05696460893222677   0.004826689486997398   0.002822627333300831
-0.05696460893222677   0.004826689486997398   0.002822627333300831
-0.05696460893222677   0.004826689486997398   0.002822627333300831
-0.05696460893222677   0.004826689486997398   0.002822627333300831
-0.09667024685453632   -0.006869696086481487   -0.0025256580697924184
-0.09667024685453632   -0.006869696086481487   -0.0025256580697924184
-0.09667024685453632   -0.006869696086481487   -0.0025256580697924184
-0.09667024685453632   -0.006869696086481487   -0.0025256580697924184
-0.05701267497093506   0.004296543227747652   0.0031124433990091325
-0.05701267497093506   0.004296543227747652   0.0031124433990091325
-0.05701267497093506   0.004296543227747652   0.0031124433990091325
-0.05701267497093506   0.004296543227747652   0.0031124433990091325
-0.13024580729741914   -0.010550465792379596   -0.0007819506983841248
-0.13024580729741914   -0.010550465792379596   -0.0007819506983841248
-0.13024580729741914   -0.010550465792379596   -0.0007819506983841248
-0.13024580729741914   -0.010550465792379596   -0.0007819506983841248
-0.12493347088996   -0.002282393262539743   -0.003991595078306365
-0.12493347088996   -0.002282393262539743   -0.003991595078306365
-0.12493347088996   -0.002282393262539743   -0.003991595078306365
-0.12493347088996   -0.002282393262539743   -0.003991595078306365
-0.05144843475840108   0.01304162033439112   0.0010674005861590168
-0.05144843475840108   0.01304162033439112   0.0010674005861590168
-0.05144843475840108   0.01304162033439112   0.0010674005861590168
-0.05144843475840108   0.01304162033439112   0.0010674005861590168
-0.09059888106749356   0.0012920555504603104   0.0012421152646218438
-0.09059888106749356   0.0012920555504603104   0.0012421152646218438
-0.09059888106749356   0.0012920555504603104   0.0012421152646218438
-0.09059888106749356   0.0012920555504603104   0.0012421152646218438
-0.05127547974630052   0.013535235981720014   0.0014385599993329348
-0.05127547974630052   0.013535235981720014   0.0014385599993329348
-0.05127547974630052   0.013535235981720014   0.0014385599993329348
-0.05127547974630052   0.013535235981720014   0.0014385599993329348
-0.12469267500413699   -0.0023622580119451947   -0.00270775089978666
-0.12469267500413699   -0.0023622580119451947   -0.00270775089978666
-0.12469267500413699   -0.0023622580119451947   -0.00270775089978666
-0.12469267500413699   -0.0023622580119451947   -0.00270775089978666
-0.11929561427489388   0.007062471021978718   -0.005635679073078766
-0.11929561427489388   0.007062471021978718   -0.005635679073078766
-0.11929561427489388   0.007062471021978718   -0.005635679073078766
-0.11929561427489388   0.007062471021978718   -0.005635679073078766
-0.04618992823483933   0.021280489328599606   -0.0009664570611194112
-0.04618992823483933   0.021280489328599606   -0.0009664570611194112
-0.04618992823483933   0.021280489328599606   -0.0009664570611194112
-0.04618992823483933   0.021280489328599606   -0.0009664570611194112
-0.08485558579989495   0.009435713999387883   0.0047642576241892845
-0.08485558579989495   0.009435713999387883   0.0047642576241892845
-0.08485558579989495   0.009435713999387883   0.0047642576241892845
-0.08485558579989495   0.009435713999387883   0.0047642576241892845
-0.1354911537476427   -0.01276789589176207   -0.003711347182240317
-0.1354911537476427   -0.01276789589176207   -0.003711347182240317
-0.1354911537476427   -0.01276789589176207   -0.003711347182240317
-0.1354911537476427   -0.01276789589176207   -0.003711347182240317
-0.2020381867461941   -0.011622287157114835   0.007678819285434256
-0.2020381867461941   -0.011622287157114835   0.007678819285434256
-0.2020381867461941   -0.011622287157114835   0.007678819285434256
-0.2020381867461941   -0.011622287157114835   0.007678819285434256
-0.20239484936041172   -0.01924598033162423   -0.010715462334717561
-0.20239484936041172   -0.01924598033162423   -0.010715462334717561
-0.20239484936041172   -0.01924598033162423   -0.010715462334717561
-0.20239484936041172   -0.01924598033162423   -0.010715462334717561
-0.12367296582274334   0.011973807363961276   0.009557983518653876
-0.12367296582274334   0.011973807363961276   0.009557983518653876
-0.12367296582274334   0.011973807363961276   0.009557983518653876
-0.12367296582274334   0.011973807363961276   0.009557983518653876
-0.1649574730522381   -0.00713722696001967   -0.001088927991269549
-0.1649574730522381   -0.00713722696001967   -0.001088927991269549
-0.1649574730522381   -0.00713722696001967   -0.001088927991269549
-0.1649574730522381   -0.00713722696001967   -0.001088927991269549
-0.12974712117707532   -0.003617616171518483   -0.005221369717525182
-0.12974712117707532   -0.003617616171518483   -0.005221369717525182
-0.12974712117707532   -0.003617616171518483   -0.005221369717525182
-0.12974712117707532   -0.003617616171518483   -0.005221369717525182
-0.19588934612249959   -0.003223208912562628   0.005789282435782896
-0.19588934612249959   -0.003223208912562628   0.005789282435782896
-0.19588934612249959   -0.003223208912562628   0.005789282435782896
-0.19588934612249959   -0.003223208912562628   0.005789282435782896
-0.1949759223882298   -0.010373235075861404   -0.011926683566603223
-0.1949759223882298   -0.010373235075861404   -0.011926683566603223
-0.1949759223882298   -0.010373235075861404   -0.011926683566603223
-0.1949759223882298   -0.010373235075861404   -0.011926683566603223
-0.11826823078480292   0.019440462018603596   0.007611750166335758
-0.11826823078480292   0.019440462018603596   0.007611750166335758
-0.11826823078480292   0.019440462018603596   0.007611750166335758
-0.11826823078480292   0.019440462018603596   0.007611750166335758
-0.15760524031451853   0.0010984436268516046   0.002805078864093126
-0.15760524031451853   0.0010984436268516046   0.002805078864093126
-0.15760524031451853   0.0010984436268516046   0.002805078864093126
-0.15760524031451853   0.0010984436268516046   0.002805078864093126
-0.1241379047762649   0.0047670613378150845   -0.007063219110185696
-0.1241379047762649   0.0047670613378150845   -0.007063219110185696
-0.1241379047762649   0.0047670613378150845   -0.007063219110185696
-0.1241379047762649   0.0047670613378150845   -0.007063219110185696
-0.18862306087567687   0.004783353126018066   0.004681035794282071
-0.18862306087567687   0.004783353126018066   0.004681035794282071
-0.18862306087567687   0.004783353126018066   0.004681035794282071
-0.18862306087567687   0.004783353126018066   0.004681035794282071
-0.1883479879786649   -0.0007253305195555311   -0.012849154462637933
-0.1883479879786649   -0.0007253305195555311   -0.012849154462637933
-0.1883479879786649   -0.0007253305195555311   -0.012849154462637933
-0.1883479879786649   -0.0007253305195555311   -0.012849154462637933
-0.11292205675659006   0.027646462656922565   0.005648116883496465
-0.11292205675659006   0.027646462656922565   0.005648116883496465
-0.11292205675659006   0.027646462656922565   0.005648116883496465
-0.11292205675659006   0.027646462656922565   0.005648116883496465
-0.15220458865032707   0.008740732759881473   0.006283404561501213
-0.15220458865032707   0.008740732759881473   0.006283404561501213
-0.15220458865032707   0.008740732759881473   0.006283404561501213
-0.15220458865032707   0.008740732759881473   0.006283404561501213
-0.20718851228111254   -0.018225080578116573   -0.011470014968156188
-0.20718851228111254   -0.018225080578116573   -0.011470014968156188
-0.20718851228111254   -0.018225080578116573   -0.011470014968156188
-0.20718851228111254   -0.018225080578116573   -0.011470014968156188
-0.27803991307793485   -0.005303186158705772   0.016919522393927827
-0.27803991307793485   -0.005303186158705772   0.016919522393927827
-0.27803991307793485   -0.005303186158705772   0.016919522393927827
-0.27803991307793485   -0.005303186158705772   0.016919522393927827
-0.2745919723345168   -0.024927768945954262   -0.015419358022024245
-0.2745919723345168   -0.024927768945954262   -0.015419358022024245
-0.2745919723345168   -0.024927768945954262   -0.015419358022024245
-0.2745919723345168   -0.024927768945954262   -0.015419358022024245
-0.18900042526606547   0.020333207327088862   0.016677470478300524
-0.18900042526606547   0.020333207327088862   0.016677470478300524
-0.18900042526606547   0.020333207327088862   0.016677470478300524
-0.18900042526606547   0.020333207327088862   0.016677470478300524
-0.2269476173170249   -0.004073716899854052   0.0020218795394946476
-0.2269476173170249   -0.004073716899854052   0.0020218795394946476
-0.2269476173170249   -0.004073716899854052   0.0020218795394946476
-0.2269476173170249   -0.004073716899854052   0.0020218795394946476
-0.2009423884047236   -0.009711506777642412   -0.012987631110258184
-0.2009423884047236   -0.009711506777642412   -0.012987631110258184
-0.2009423884047236   -0.009711506777642412   -0.012987631110258184
-0.2009423884047236   -0.009711506777642412   -0.012987631110258184
-0.2622527342279598   0.005514220126673883   0.015834843438127605
-0.2622527342279598   0.005514220126673883   0.015834843438127605
-0.2622527342279598   0.005514220126673883   0.015834843438127605
-0.2622527342279598   0.005514220126673883   0.015834843438127605
-0.26269931880794395   -0.019680527647544126   -0.01838312049036806
-0.26269931880794395   -0.019680527647544126   -0.01838312049036806
-0.26269931880794395   -0.019680527647544126   -0.01838312049036806
-0.26269931880794395   -0.019680527647544126   -0.01838312049036806
-0.18300505672787704   0.023786356301731496   0.013768053357566229
-0.18300505672787704   0.023786356301731496   0.013768053357566229
-0.18300505672787704   0.023786356301731496   0.013768053357566229
-0.18300505672787704   0.023786356301731496   0.013768053357566229
-0.22042263497096198   0.0014555977807855416   0.005147833887052054
-0.22042263497096198   0.0014555977807855416   0.005147833887052054
-0.22042263497096198   0.0014555977807855416   0.005147833887052054
-0.22042263497096198   0.0014555977807855416   0.005147833887052054
-0.19460063477495093   -0.005390719048404951   -0.015032761527665209
-0.19460063477495093   -0.005390719048404951   -0.015032761527665209
-0.19460063477495093   -0.005390719048404951   -0.015032761527665209
-0.19460063477495093   -0.005390719048404951   -0.015032761527665209
-0.2506235368309084   0.00997675163255508   0.01233851011470783
-0.2506235368309084   0.00997675163255508   0.01233851011470783
-0.2506235368309084   0.00997675163255508   0.01233851011470783
-0.2506235368309084   0.00997675163255508   0.01233851011470783
-0.24794418710727556   -0.011908488061171703   -0.020541321717590835
-0.24794418710727556   -0.011908488061171703   -0.020541321717590835
-0.24794418710727556   -0.011908488061171703   -0.020541321717590835
-0.24794418710727556   -0.011908488061171703   -0.020541321717590835
-0.17777032370385912   0.027849103156994223   0.011464733234840853
-0.17777032370385912   0.027849103156994223   0.011464733234840853
-0.17777032370385912   0.027849103156994223   0.011464733234840853
-0.17777032370385912   0.027849103156994223   0.011464733234840853
-0.20763794465242738   0.006597028350858899   0.009597425138703423
-0.20763794465242738   0.006597028350858899   0.009597425138703423
-0.20763794465242738   0.006597028350858899   0.009597425138703423
-0.20763794465242738   0.006597028350858899   0.009597425138703423
0.21668511210435826   0.019768670277687053   0.018417674855750167
0.21668511210435826   0.019768670277687053   0.018417674855750167
0.21668511210435826   0.019768670277687053   0.018417674855750167
0.21668511210435826   0.019768670277687053   0.018417674855750167
0.07890540865294603   -0.035253691992027575   -0.012103546858403702
0.07890540865294603   -0.035253691992027575   -0.012103546858403702
0.07890540865294603   -0.035253691992027575   -0.012103546858403702
0.07890540865294603   -0.035253691992027575   -0.012103546858403702
0.09681344307264336   -0.0004532877437187174   0.013212347390481176
0.09681344307264336   -0.0004532877437187174   0.013212347390481176
0.09681344307264336   -0.0004532877437187174   0.013212347390481176
0.09681344307264336   -0.0004532877437187174   0.013212347390481176
0.22025502365168176   -0.004318750863787992   -0.015479444948070256
0.22025502365168176   -0.004318750863787992   -0.015479444948070256
0.22025502365168176   -0.004318750863787992   -0.015479444948070256
0.22025502365168176   -0.004318750863787992   -0.015479444948070256
0.14375078879337871   -0.006202317857253741   -0.01369885180643867
0.14375078879337871   -0.006202317857253741   -0.01369885180643867
0.14375078879337871   -0.006202317857253741   -0.01369885180643867
0.14375078879337871   -0.006202317857253741   -0.01369885180643867
0.232879048737172   0.027318124861840796   0.016003804753750128
0.232879048737172   0.027318124861840796   0.016003804753750128
0.232879048737172   0.027318124861840796   0.016003804753750128
0.232879048737172   0.027318124861840796   0.016003804753750128
0.0851011082813049   -0.03117847317519335   -0.014624141134735553
0.0851011082813049   -0.03117847317519335   -0.014624141134735553
0.0851011082813049   -0.03117847317519335   -0.014624141134735553
0.0851011082813049   -0.03117847317519335   -0.014624141134735553
0.103717457465922   0.0037155033222789203   0.010866413234873749
0.103717457465922   0.0037155033222789203   0.010866413234873749
0.103717457465922   0.0037155033222789203   0.010866413234873749
0.103717457465922   0.0037155033222789203   0.010866413234873749
0.23307138364369828   0.0004060495339770105   -0.01941542623828911
0.23307138364369828   0.0004060495339770105   -0.01941542623828911
0.23307138364369828   0.0004060495339770105   -0.01941542623828911
0.23307138364369828   0.0004060495339770105   -0.01941542623828911
0.15721576044165747   -0.0011216294477130462   -0.008348677265403545
0.15721576044165747   -0.0011216294477130462   -0.008348677265403545
0.15721576044165747   -0.0011216294477130462   -0.008348677265403545
0.15721576044165747   -0.0011216294477130462   -0.008348677265403545
0.24581471671151167   0.03241927520947724   0.012288013425275635
0.24581471671151167   0.03241927520947724   0.012288013425275635
0.24581471671151167   0.03241927520947724   0.012288013425275635
0.24581471671151167   0.03241927520947724   0.012288013425275635
0.091927729208307   -0.027344117543023086   -0.01702260718789831
0.091927729208307   -0.027344117543023086   -0.01702260718789831
0.091927729208307   -0.027344117543023086   -0.01702260718789831
0.091927729208307   -0.027344117543023086   -0.01702260718789831
0.1106157419957382   0.012952530331784753   0.009416933247972149
0.1106157419957382   0.012952530331784753   0.009416933247972149
0.1106157419957382   0.012952530331784753   0.009416933247972149
0.1106157419957382   0.012952530331784753   0.009416933247972149
0.24994322604757369   0.012717496342486697   -0.020916448028941742
0.24994322604757369   0.012717496342486697   -0.020916448028941742
0.24994322604757369   0.012717496342486697   -0.020916448028941742
0.24994322604757369   0.012717496342486697   -0.020916448028941742
0.1653100875232143   0.00510078846277358   -0.0037688396086382678
0.1653100875232143   0.00510078846277358   -0.0037688396086382678
0.1653100875232143   0.00510078846277358   -0.0037688396086382678
0.1653100875232143   0.00510078846277358   -0.0037688396086382678
0.09358918086838124   0.011169558106976037   0.014892064119767701
0.09358918086838124   0.011169558106976037   0.014892064119767701
0.09358918086838124   0.011169558106976037   0.014892064119767701
0.09358918086838124   0.011169558106976037   0.014892064119767701
-0.04645338427393865   -0.03292516643556015   -0.006370716523121158
-0.04645338427393865   -0.03292516643556015   -0.006370716523121158
-0.04645338427393865   -0.03292516643556015   -0.006370716523121158
-0.04645338427393865   -0.03292516643556015   -0.006370716523121158
-0.034249360033170424   -0.009851556647607318   0.004430027886191158
-0.034249360033170424   -0.009851556647607318   0.004430027886191158
-0.034249360033170424   -0.009851556647607318   0.004430027886191158
-0.034249360033170424   -0.009851556647607318   0.004430027886191158
0.09406032487340811   0.0008460782220766462   -0.00185260957149044
0.09406032487340811   0.0008460782220766462   -0.00185260957149044
0.09406032487340811   0.0008460782220766462   -0.00185260957149044
0.09406032487340811   0.0008460782220766462   -0.00185260957149044
0.025499875076959777   -0.006792382777677323   -0.005774148837942875
0.025499875076959777   -0.006792382777677323   -0.005774148837942875
0.025499875076959777   -0.006792382777677323   -0.005774148837942875
0.025499875076959777   -0.006792382777677323   -0.005774148837942875
0.100705182064496   0.018914080929910718   0.01330367367611491
0.100705182064496   0.018914080929910718   0.01330367367611491
0.100705182064496   0.018914080929910718   0.01330367367611491
0.100705182064496   0.018914080929910718   0.01330367367611491
-0.04033034457173431   -0.027355686702914994   -0.008470764751321552
-0.04033034457173431   -0.027355686702914994   -0.008470764751321552
-0.04033034457173431   -0.027355686702914994   -0.008470764751321552
-0.04033034457173431   -0.027355686702914994   -0.008470764751321552
-0.027829021488483117   -0.0020108598777515687   0.00278078719771388
-0.027829021488483117   -0.0020108598777515687   0.00278078719771388
-0.027829021488483117   -0.0020108598777515687   0.00278078719771388
-0.027829021488483117   -0.0020108598777515687   0.00278078719771388
0.10167024533560098   0.007850395828655182   -0.0035045399231066303
0.10167024533560098   0.007850395828655182   -0.0035045399231066303
0.10167024533560098   0.007850395828655182   -0.0035045399231066303
0.10167024533560098   0.007850395828655182   -0.0035045399231066303
0.0316814572649607   -0.0006138340300595809   -0.002287151876277862
0.0316814572649607   -0.0006138340300595809   -0.002287151876277862
0.0316814572649607   -0.0006138340300595809   -0.002287151876277862
0.0316814572649607   -0.0006138340300595809   -0.002287151876277862
0.10858510066134325   0.02708319468293559   0.011836937851323323
0.10858510066134325   0.02708319468293559   0.011836937851323323
0.10858510066134325   0.02708319468293559   0.011836937851323323
0.10858510066134325   0.02708319468293559   0.011836937851323323
-0.0341811965932023   -0.020680978511011618   -0.010309969692621997
-0.0341811965932023   -0.020680978511011618   -0.010309969692621997
-0.0341811965932023   -0.020680978511011618   -0.010309969692621997
-0.0341811965932023   -0.020680978511011618   -0.010309969692621997
-0.021479495756283547   0.0071201532097741405   0.0011435622108266525
-0.021479495756283547   0.0071201532097741405   0.0011435622108266525
-0.021479495756283547   0.0071201532097741405   0.0011435622108266525
-0.021479495756283547   0.0071201532097741405   0.0011435622108266525
0.10838500534922685   0.016231757331924872   -0.005015976984724748
0.10838500534922685   0.016231757331924872   -0.005015976984724748
0.10838500534922685   0.016231757331924872   -0.005015976984724748
0.10838500534922685   0.016231757331924872   -0.005015976984724748
0.03941705636430911   0.007003129827035331   0.0017961851128534979
0.03941705636430911   0.007003129827035331   0.0017961851128534979
0.03941705636430911   0.007003129827035331   0.0017961851128534979
0.03941705636430911   0.007003129827035331   0.0017961851128534979
-0.03681637156394382   0.0025018697347797235   0.006387310856514079
-0.03681637156394382   0.0025018697347797235   0.006387310856514079
-0.03681637156394382   0.0025018697347797235   0.006387310856514079
-0.03681637156394382   0.0025018697347797235   0.006387310856514079
-0.16934349789057057   -0.029178922273696617   -0.0009100616485782295
-0.16934349789057057   -0.029178922273696617   -0.0009100616485782295
-0.16934349789057057   -0.029178922273696617   -0.0009100616485782295
-0.16934349789057057   -0.029178922273696617   -0.0009100616485782295
-0.16177758393101693   -0.01749163676518686   -0.003956028928830277
-0.16177758393101693   -0.01749163676518686   -0.003956028928830277
-0.16177758393101693   -0.01749163676518686   -0.003956028928830277
-0.16177758393101693   -0.01749163676518686   -0.003956028928830277
-0.031361476026231856   0.004820994049786243   0.0041968972234894784
-0.031361476026231856   0.004820994049786243   0.0041968972234894784
-0.031361476026231856   0.004820994049786243   0.0041968972234894784
-0.031361476026231856   0.004820994049786243   0.0041968972234894784
-0.09999433227462735   -0.00891541343219025   -0.0036191652113204895
-0.09999433227462735   -0.00891541343219025   -0.0036191652113204895
-0.09999433227462735   -0.00891541343219025   -0.0036191652113204895
-0.09999433227462735   -0.00891541343219025   -0.0036191652113204895
-0.030071213290501435   0.010612236782556711   0.004856968169372064
-0.030071213290501435   0.010612236782556711   0.004856968169372064
-0.030071213290501435   0.010612236782556711   0.004856968169372064
-0.030071213290501435   0.010612236782556711   0.004856968169372064
-0.16267731883380496   -0.022892351665014743   -0.003053988542942372
-0.16267731883380496   -0.022892351665014743   -0.003053988542942372
-0.16267731883380496   -0.022892351665014743   -0.003053988542942372
-0.16267731883380496   -0.022892351665014743   -0.003053988542942372
-0.15469234830974413   -0.008888412126649927   -0.005338848167703185
-0.15469234830974413   -0.008888412126649927   -0.005338848167703185
-0.15469234830974413   -0.008888412126649927   -0.005338848167703185
-0.15469234830974413   -0.008888412126649927   -0.005338848167703185
-0.025117653956613646   0.011903211889186586   0.002423553090123088
-0.025117653956613646   0.011903211889186586   0.002423553090123088
-0.025117653956613646   0.011903211889186586   0.002423553090123088
-0.025117653956613646   0.011903211889186586   0.002423553090123088
-0.09284102758802168   -0.0017234344369468782   -4.715837565403072e-05
-0.09284102758802168   -0.0017234344369468782   -4.715837565403072e-05
-0.09284102758802168   -0.0017234344369468782   -4.715837565403072e-05
-0.09284102758802168   -0.0017234344369468782   -4.715837565403072e-05
-0.023555213866926238   0.019028814567503025   0.003110150860243701
-0.023555213866926238   0.019028814567503025   0.003110150860243701
-0.023555213866926238   0.019028814567503025   0.003110150860243701
-0.023555213866926238   0.019028814567503025   0.003110150860243701
-0.15589495661939942   -0.015654183024934265   -0.004586118817695384
-0.15589495661939942   -0.015654183024934265   -0.004586118817695384
-0.15589495661939942   -0.015654183024934265   -0.004586118817695384
-0.15589495661939942   -0.015654183024934265   -0.004586118817695384
-0.14809137678883563   -0.00030158010504504566   -0.006975355675346361
-0.14809137678883563   -0.00030158010504504566   -0.006975355675346361
-0.14809137678883563   -0.00030158010504504566   -0.006975355675346361
-0.14809137678883563   -0.00030158010504504566   -0.006975355675346361
-0.019177128154138297   0.019123761444944928   0.0006517919863821129
-0.019177128154138297   0.019123761444944928   0.0006517919863821129
-0.019177128154138297   0.019123761444944928   0.0006517919863821129
-0.019177128154138297   0.019123761444944928   0.0006517919863821129
-0.08628126513680483   0.005444473683964705   0.003346072942829636
-0.08628126513680483   0.005444473683964705   0.003346072942829636
-0.08628126513680483   0.005444473683964705   0.003346072942829636
-0.08628126513680483   0.005444473683964705   0.003346072942829636
-0.1650431674663934   -0.006230427932099195   -0.002356903869288232
-0.1650431674663934   -0.006230427932099195   -0.002356903869288232
-0.1650431674663934   -0.006230427932099195   -0.002356903869288232
-0.1650431674663934   -0.006230427932099195   -0.002356903869288232
-0.289921029165077   -0.023834675215834752   0.0052756593148025055
-0.289921029165077   -0.023834675215834752   0.0052756593148025055
-0.289921029165077   -0.023834675215834752   0.0052756593148025055
-0.289921029165077   -0.023834675215834752   0.0052756593148025055
-0.28649097124641587   -0.02487379839702232   -0.011862039862591593
-0.28649097124641587   -0.02487379839702232   -0.011862039862591593
-0.28649097124641587   -0.02487379839702232   -0.011862039862591593
-0.28649097124641587   -0.02487379839702232   -0.011862039862591593
-0.15313456251032626   0.011333276272689694   0.010434165136747893
-0.15313456251032626   0.011333276272689694   0.010434165136747893
-0.15313456251032626   0.011333276272689694   0.010434165136747893
-0.15313456251032626   0.011333276272689694   0.010434165136747893
-0.2221019593979579   -0.009570371720888027   -0.0012764961352880466
-0.2221019593979579   -0.009570371720888027   -0.0012764961352880466
-0.2221019593979579   -0.009570371720888027   -0.0012764961352880466
-0.2221019593979579   -0.009570371720888027   -0.0012764961352880466
-0.1577161376179167   0.0025212412295774235   -0.0036616753580920383
-0.1577161376179167   0.0025212412295774235   -0.0036616753580920383
-0.1577161376179167   0.0025212412295774235   -0.0036616753580920383
-0.1577161376179167   0.0025212412295774235   -0.0036616753580920383
-0.2818488827936504   -0.016001250008735025   0.0024758540129484474
-0.2818488827936504   -0.016001250008735025   0.0024758540129484474
-0.2818488827936504   -0.016001250008735025   0.0024758540129484474
-0.2818488827936504   -0.016001250008735025   0.0024758540129484474
-0.27718358752863576   -0.016489525183350513   -0.013122829099601913
-0.27718358752863576   -0.016489525183350513   -0.013122829099601913
-0.27718358752863576   -0.016489525183350513   -0.013122829099601913
-0.27718358752863576   -0.016489525183350513   -0.013122829099601913
-0.14656242017921578   0.018062432364426326   0.008359947993863678
-0.14656242017921578   0.018062432364426326   0.008359947993863678
-0.14656242017921578   0.018062432364426326   0.008359947993863678
-0.14656242017921578   0.018062432364426326   0.008359947993863678
-0.21258182010898444   -0.0016333941925603668   0.002323851249487141
-0.21258182010898444   -0.0016333941925603668   0.002323851249487141
-0.21258182010898444   -0.0016333941925603668   0.002323851249487141
-0.21258182010898444   -0.0016333941925603668   0.002323851249487141
-0.15086460865493564   0.010317603339373364   -0.0054061653596826804
-0.15086460865493564   0.010317603339373364   -0.0054061653596826804
-0.15086460865493564   0.010317603339373364   -0.0054061653596826804
-0.15086460865493564   0.010317603339373364   -0.0054061653596826804
-0.27261227392344445   -0.008475571028823507   0.0017197847718278397
-0.27261227392344445   -0.008475571028823507   0.0017197847718278397
-0.27261227392344445   -0.008475571028823507   0.0017197847718278397
-0.27261227392344445   -0.008475571028823507   0.0017197847718278397
-0.2688662806349753   -0.007434230470843775   -0.013811124876949986
-0.2688662806349753   -0.007434230470843775   -0.013811124876949986
-0.2688662806349753   -0.007434230470843775   -0.013811124876949986
-0.2688662806349753   -0.007434230470843775   -0.013811124876949986
-0.14019784270421368   0.025422161726992534   0.0067685729157271265
-0.14019784270421368   0.025422161726992534   0.0067685729157271265
-0.14019784270421368   0.025422161726992534   0.0067685729157271265
-0.14019784270421368   0.025422161726992534   0.0067685729157271265
-0.20628506508005984   0.00512119589632315   0.005418545506096009
-0.20628506508005984   0.00512119589632315   0.005418545506096009
-0.20628506508005984   0.00512119589632315   0.005418545506096009
-0.20628506508005984   0.00512119589632315   0.005418545506096009
-0.2909736383042472   -0.013365206668442006   -0.010456854928441027
-0.2909736383042472   -0.013365206668442006   -0.010456854928441027
-0.2909736383042472   -0.013365206668442006   -0.010456854928441027
-0.2909736383042472   -0.013365206668442006   -0.010456854928441027
-0.4156913584326912   -0.015130376104656573   0.01806221516242712
-0.4156913584326912   -0.015130376104656573   0.01806221516242712
-0.4156913584326912   -0.015130376104656573   0.01806221516242712
-0.4156913584326912   -0.015130376104656573   0.01806221516242712
-0.40833597106575464   -0.029672089919675033   -0.014013469955829791
-0.40833597106575464   -0.029672089919675033   -0.014013469955829791
-0.40833597106575464   -0.029672089919675033   -0.014013469955829791
-0.40833597106575464   -0.029672089919675033   -0.014013469955829791
-0.2708715567516656   0.02292395447790317   0.018437279736232187
-0.2708715567516656   0.02292395447790317   0.018437279736232187
-0.2708715567516656   0.02292395447790317   0.018437279736232187
-0.2708715567516656   0.02292395447790317   0.018437279736232187
-0.3310649014841886   -0.004078242457139714   0.004045844069461138
-0.3310649014841886   -0.004078242457139714   0.004045844069461138
-0.3310649014841886   -0.004078242457139714   0.004045844069461138
-0.3310649014841886   -0.004078242457139714   0.004045844069461138
-0.28226822851403705   -0.003983560281424775   -0.01163856431629607
-0.28226822851403705   -0.003983560281424775   -0.01163856431629607
-0.28226822851403705   -0.003983560281424775   -0.01163856431629607
-0.28226822851403705   -0.003983560281424775   -0.01163856431629607
-0.396717545801006   -0.0025428216579728574   0.016949388106207774
-0.396717545801006   -0.0025428216579728574   0.016949388106207774
-0.396717545801006   -0.0025428216579728574   0.016949388106207774
-0.396717545801006   -0.0025428216579728574   0.016949388106207774
-0.39408770322184006   -0.024490398485178092   -0.016533074083018642
-0.39408770322184006   -0.024490398485178092   -0.016533074083018642
-0.39408770322184006   -0.024490398485178092   -0.016533074083018642
-0.39408770322184006   -0.024490398485178092   -0.016533074083018642
-0.2631086561789336   0.026115127606599734   0.014647174858958764
-0.2631086561789336   0.026115127606599734   0.014647174858958764
-0.2631086561789336   0.026115127606599734   0.014647174858958764
-0.2631086561789336   0.026115127606599734   0.014647174858958764
-0.32402168215224386   0.0015914331541342433   0.0069875793623842
-0.32402168215224386   0.0015914331541342433   0.0069875793623842
-0.32402168215224386   0.0015914331541342433   0.0069875793623842
-0.32402168215224386   0.0015914331541342433   0.0069875793623842
-0.27387825899115914   0.00020080238203997944   -0.01328651397760923
-0.27387825899115914   0.00020080238203997944   -0.01328651397760923
-0.27387825899115914   0.00020080238203997944   -0.01328651397760923
-0.27387825899115914   0.00020080238203997944   -0.01328651397760923
-0.3830899599440748   0.0016520672049202718   0.012313176615702665
-0.3830899599440748   0.0016520672049202718   0.012313176615702665
-0.3830899599440748   0.0016520672049202718   0.012313176615702665
-0.3830899599440748   0.0016520672049202718   0.012313176615702665
-0.37841939690587073   -0.018350896433057724   -0.018886191513407216
-0.37841939690587073   -0.018350896433057724   -0.018886191513407216
-0.37841939690587073   -0.018350896433057724   -0.018886191513407216
-0.37841939690587073   -0.018350896433057724   -0.018886191513407216
-0.25633199685953856   0.02896259094917955   0.012463472580209634
-0.25633199685953856   0.02896259094917955   0.012463472580209634
-0.25633199685953856   0.02896259094917955   0.012463472580209634
-0.25633199685953856   0.02896259094917955   0.012463472580209634
-0.30807568154678816   0.006266802410189714   0.011522506172654781
-0.30807568154678816   0.006266802410189714   0.011522506172654781
-0.30807568154678816   0.006266802410189714   0.011522506172654781
-0.30807568154678816   0.006266802410189714   0.011522506172654781
0.3594549354738193   0.02700185443921954   0.018624658476958572
0.3594549354738193   0.02700185443921954   0.018624658476958572
0.3594549354738193   0.02700185443921954   0.018624658476958572
0.3594549354738193   0.02700185443921954   0.018624658476958572
0.1578643933454615   -0.0415440794209284   -0.008737902663986902
0.1578643933454615   -0.0415440794209284   -0.008737902663986902
0.1578643933454615   -0.0415440794209284   -0.008737902663986902
0.1578643933454615   -0.0415440794209284   -0.008737902663986902
0.17543394606634946   -0.007642184986146698   0.012724462025453163
0.17543394606634946   -0.007642184986146698   0.012724462025453163
0.17543394606634946   -0.007642184986146698   0.012724462025453163
0.17543394606634946   -0.007642184986146698   0.012724462025453163
0.36308299461892374   0.0001273323185825015   -0.013571451820999877
0.36308299461892374   0.0001273323185825015   -0.013571451820999877
0.36308299461892374   0.0001273323185825015   -0.013571451820999877
0.36308299461892374   0.0001273323185825015   -0.013571451820999877
0.24853443163487055   -0.007215763817165113   -0.019156202419032195
0.24853443163487055   -0.007215763817165113   -0.019156202419032195
0.24853443163487055   -0.007215763817165113   -0.019156202419032195
0.24853443163487055   -0.007215763817165113   -0.019156202419032195
0.3754729151664715   0.03293484422987615   0.015570639005445364
0.3754729151664715   0.03293484422987615   0.015570639005445364
0.3754729151664715   0.03293484422987615   0.015570639005445364
0.3754729151664715   0.03293484422987615   0.015570639005445364
0.16424110832930333   -0.039252614086938344   -0.011629297558983735
0.16424110832930333   -0.039252614086938344   -0.011629297558983735
0.16424110832930333   -0.039252614086938344   -0.011629297558983735
0.16424110832930333   -0.039252614086938344   -0.011629297558983735
0.18217402802696167   -0.0038386550539850368   0.01025840643863727
0.18217402802696167   -0.0038386550539850368   0.01025840643863727
0.18217402802696167   -0.0038386550539850368   0.01025840643863727
0.18217402802696167   -0.0038386550539850368   0.01025840643863727
0.3750567382977422   0.0043084002331789245   -0.016873558354954132
0.3750567382977422   0.0043084002331789245   -0.016873558354954132
0.3750567382977422   0.0043084002331789245   -0.016873558354954132
0.3750567382977422   0.0043084002331789245   -0.016873558354954132
0.26370215411548287   -0.0027759146644857173   -0.013079939033469927
0.26370215411548287   -0.0027759146644857173   -0.013079939033469927
0.26370215411548287   -0.0027759146644857173   -0.013079939033469927
0.26370215411548287   -0.0027759146644857173   -0.013079939033469927
0.38736259589842514   0.037450169340756755   0.011513960540882745
0.38736259589842514   0.037450169340756755   0.011513960540882745
0.38736259589842514   0.037450169340756755   0.011513960540882745
0.38736259589842514   0.037450169340756755   0.011513960540882745
0.1709084533855836   -0.035940141202257976   -0.013967980619980051
0.1709084533855836   -0.035940141202257976   -0.013967980619980051
0.1709084533855836   -0.035940141202257976   -0.013967980619980051
0.1709084533855836   -0.035940141202257976   -0.013967980619980051
0.18829735486096869   0.006370458334588413   0.008994233118156524
0.18829735486096869   0.006370458334588413   0.008994233118156524
0.18829735486096869   0.006370458334588413   0.008994233118156524
0.18829735486096869   0.006370458334588413   0.008994233118156524
0.38985134554517187   0.016568972798586087   -0.017640759031970696
0.38985134554517187   0.016568972798586087   -0.017640759031970696
0.38985134554517187   0.016568972798586087   -0.017640759031970696
0.38985134554517187   0.016568972798586087   -0.017640759031970696
0.26911505428654925   0.0032510079395972925   -0.008919465151691355
0.26911505428654925   0.0032510079395972925   -0.008919465151691355
0.26911505428654925   0.0032510079395972925   -0.008919465151691355
0.26911505428654925   0.0032510079395972925   -0.008919465151691355
0.17458025627306764   0.01601264290757351   0.01728468964554084
0.17458025627306764   0.01601264290757351   0.01728468964554084
0.17458025627306764   0.01601264290757351   0.01728468964554084
0.17458025627306764   0.01601264290757351   0.01728468964554084
-0.022971978310336327   -0.05086875040580624   -0.005023264806553055
-0.022971978310336327   -0.05086875040580624   -0.005023264806553055
-0.022971978310336327   -0.05086875040580624   -0.005023264806553055
-0.022971978310336327   -0.05086875040580624   -0.005023264806553055
-0.007981048658406651   -0.01834366436725913   0.004240051013645444
-0.007981048658406651   -0.01834366436725913   0.004240051013645444
-0.007981048658406651   -0.01834366436725913   0.004240051013645444
-0.007981048658406651   -0.01834366436725913   0.004240051013645444
0.17297280893058228   -0.008180004147293663   0.0009565955077641963
0.17297280893058228   -0.008180004147293663   0.0009565955077641963
0.17297280893058228   -0.008180004147293663   0.0009565955077641963
0.17297280893058228   -0.008180004147293663   0.0009565955077641963
0.07699794067821915   -0.013829229981732312   -0.008979574411772953
0.07699794067821915   -0.013829229981732312   -0.008979574411772953
0.07699794067821915   -0.013829229981732312   -0.008979574411772953
0.07699794067821915   -0.013829229981732312   -0.008979574411772953
0.18185161934435748   0.021840823097028436   0.015329820332319131
0.18185161934435748   0.021840823097028436   0.015329820332319131
0.18185161934435748   0.021840823097028436   0.015329820332319131
0.18185161934435748   0.021840823097028436   0.015329820332319131
-0.016214542581399743   -0.04771917512079894   -0.007551907847780196
-0.016214542581399743   -0.04771917512079894   -0.007551907847780196
-0.016214542581399743   -0.04771917512079894   -0.007551907847780196
-0.016214542581399743   -0.04771917512079894   -0.007551907847780196
-0.0011156358134938532   -0.011497093279545397   0.00254389568500065
-0.0011156358134938532   -0.011497093279545397   0.00254389568500065
-0.0011156358134938532   -0.011497093279545397   0.00254389568500065
-0.0011156358134938532   -0.011497093279545397   0.00254389568500065
0.18004344500731814   -0.003012380256310088   -0.0012207834572551188
0.18004344500731814   -0.003012380256310088   -0.0012207834572551188
0.18004344500731814   -0.003012380256310088   -0.0012207834572551188
0.18004344500731814   -0.003012380256310088   -0.0012207834572551188
0.08290870350241658   -0.00961327898135627   -0.005792661963450147
0.08290870350241658   -0.00961327898135627   -0.005792661963450147
0.08290870350241658   -0.00961327898135627   -0.005792661963450147
0.08290870350241658   -0.00961327898135627   -0.005792661963450147
0.1893995100625897   0.028838824226024747   0.013708337336767802
0.1893995100625897   0.028838824226024747   0.013708337336767802
0.1893995100625897   0.028838824226024747   0.013708337336767802
0.1893995100625897   0.028838824226024747   0.013708337336767802
-0.01007508903603426   -0.04295168592914909   -0.010798777778097686
-0.01007508903603426   -0.04295168592914909   -0.010798777778097686
-0.01007508903603426   -0.04295168592914909   -0.010798777778097686
-0.01007508903603426   -0.04295168592914909   -0.010798777778097686
0.004281923292218382   -0.003418639255418797   0.0008351221355807037
0.004281923292218382   -0.003418639255418797   0.0008351221355807037
0.004281923292218382   -0.003418639255418797   0.0008351221355807037
0.004281923292218382   -0.003418639255418797   0.0008351221355807037
0.1853130164282438   0.0036183658834292084   -0.003175366594310572
0.1853130164282438   0.0036183658834292084   -0.003175366594310572
0.1853130164282438   0.0036183658834292084   -0.003175366594310572
0.1853130164282438   0.0036183658834292084   -0.003175366594310572
0.09029850976853471   -0.003283274809340116   -0.002334798576907035
0.09029850976853471   -0.003283274809340116   -0.002334798576907035
0.09029850976853471   -0.003283274809340116   -0.002334798576907035
0.09029850976853471   -0.003283274809340116   -0.002334798576907035
-0.009110421616262757   0.004777382468735251   0.008638385789273291
-0.009110421616262757   0.004777382468735251   0.008638385789273291
-0.009110421616262757   0.004777382468735251   0.008638385789273291
-0.009110421616262757   0.004777382468735251   0.008638385789273291
-0.2023496868481454   -0.06350920896708895   -0.003949749696718019
-0.2023496868481454   -0.06350920896708895   -0.003949749696718019
-0.2023496868481454   -0.06350920896708895   -0.003949749696718019
-0.2023496868481454   -0.06350920896708895   -0.003949749696718019
-0.18735992267987442   -0.02807665328747612   -0.004292892809195092
-0.18735992267987442   -0.02807665328747612   -0.004292892809195092
-0.18735992267987442   -0.02807665328747612   -0.004292892809195092
-0.18735992267987442   -0.02807665328747612   -0.004292892809195092
-0.008441247177365946   -0.020384364541343694   0.003979758592933532
-0.008441247177365946   -0.020384364541343694   0.003979758592933532
-0.008441247177365946   -0.020384364541343694   0.003979758592933532
-0.008441247177365946   -0.020384364541343694   0.003979758592933532
-0.10224916371207735   -0.025356351464735458   -0.007980301012520188
-0.10224916371207735   -0.025356351464735458   -0.007980301012520188
-0.10224916371207735   -0.025356351464735458   -0.007980301012520188
-0.10224916371207735   -0.025356351464735458   -0.007980301012520188
-0.0014780423991082123   0.011367154099243205   0.007044263843635307
-0.0014780423991082123   0.011367154099243205   0.007044263843635307
-0.0014780423991082123   0.011367154099243205   0.007044263843635307
-0.0014780423991082123   0.011367154099243205   0.007044263843635307
-0.1938515588893562   -0.05935660335928707   -0.005471123784793107
-0.1938515588893562   -0.05935660335928707   -0.005471123784793107
-0.1938515588893562   -0.05935660335928707   -0.005471123784793107
-0.1938515588893562   -0.05935660335928707   -0.005471123784793107
-0.17883147538751745   -0.020484930124119977   -0.005803335545505918
-0.17883147538751745   -0.020484930124119977   -0.005803335545505918
-0.17883147538751745   -0.020484930124119977   -0.005803335545505918
-0.17883147538751745   -0.020484930124119977   -0.005803335545505918
-0.00205809428788216   -0.01540725566797449   0.0017417657014882123
-0.00205809428788216   -0.01540725566797449   0.0017417657014882123
-0.00205809428788216   -0.01540725566797449   0.0017417657014882123
-0.00205809428788216   -0.01540725566797449   0.0017417657014882123
-0.09396983440651793   -0.01987713269079182   -0.004379767972822881
-0.09396983440651793   -0.01987713269079182   -0.004379767972822881
-0.09396983440651793   -0.01987713269079182   -0.004379767972822881
-0.09396983440651793   -0.01987713269079182   -0.004379767972822881
0.0055012533923238524   0.018640443689881853   0.005490804744661928
0.0055012533923238524   0.018640443689881853   0.005490804744661928
0.0055012533923238524   0.018640443689881853   0.005490804744661928
0.0055012533923238524   0.018640443689881853   0.005490804744661928
-0.18636169206659625   -0.05450349848084912   -0.009435850584170832
-0.18636169206659625   -0.05450349848084912   -0.009435850584170832
-0.18636169206659625   -0.05450349848084912   -0.009435850584170832
-0.18636169206659625   -0.05450349848084912   -0.009435850584170832
-0.1727973596761138   -0.013226870647434245   -0.007481136953538255
-0.1727973596761138   -0.013226870647434245   -0.007481136953538255
-0.1727973596761138   -0.013226870647434245   -0.007481136953538255
-0.1727973596761138   -0.013226870647434245   -0.007481136953538255
0.002114181739189258   -0.011376365373132991   -0.0020458595118497632
0.002114181739189258   -0.011376365373132991   -0.0020458595118497632
0.002114181739189258   -0.011376365373132991   -0.0020458595118497632
0.002114181739189258   -0.011376365373132991   -0.0020458595118497632
-0.08790533633069866   -0.014738962439279895   -0.0020867985053276833
-0.08790533633069866   -0.014738962439279895   -0.0020867985053276833
-0.08790533633069866   -0.014738962439279895   -0.0020867985053276833
-0.08790533633069866   -0.014738962439279895   -0.0020867985053276833
-0.18987298870084432   -0.004912743809507552   -0.00016272411779420792
-0.18987298870084432   -0.004912743809507552   -0.00016272411779420792
-0.18987298870084432   -0.004912743809507552   -0.00016272411779420792
-0.18987298870084432   -0.004912743809507552   -0.00016272411779420792
-0.38286616426723946   -0.06827984555756023   -0.0030891260432791418
-0.38286616426723946   -0.06827984555756023   -0.0030891260432791418
-0.38286616426723946   -0.06827984555756023   -0.0030891260432791418
-0.38286616426723946   -0.06827984555756023   -0.0030891260432791418
-0.36694699901390565   -0.03602975414347398   -0.012568550440491072
-0.36694699901390565   -0.03602975414347398   -0.012568550440491072
-0.36694699901390565   -0.03602975414347398   -0.012568550440491072
-0.36694699901390565   -0.03602975414347398   -0.012568550440491072
-0.18347634987303124   -0.0212320346284815   0.0082803525660263
-0.18347634987303124   -0.0212320346284815   0.0082803525660263
-0.18347634987303124   -0.0212320346284815   0.0082803525660263
-0.18347634987303124   -0.0212320346284815   0.0082803525660263
-0.2783785467405273   -0.030658052372133995   -0.005601861108358246
-0.2783785467405273   -0.030658052372133995   -0.005601861108358246
-0.2783785467405273   -0.030658052372133995   -0.005601861108358246
-0.2783785467405273   -0.030658052372133995   -0.005601861108358246
-0.1804474312605369   0.0035187097460843923   -0.0013257987460679743
-0.1804474312605369   0.0035187097460843923   -0.0013257987460679743
-0.1804474312605369   0.0035187097460843923   -0.0013257987460679743
-0.1804474312605369   0.0035187097460843923   -0.0013257987460679743
-0.37007153625196926   -0.06087611714360869   -0.003344873630671638
-0.37007153625196926   -0.06087611714360869   -0.003344873630671638
-0.37007153625196926   -0.06087611714360869   -0.003344873630671638
-0.37007153625196926   -0.06087611714360869   -0.003344873630671638
-0.3547061454338631   -0.028143095820773154   -0.01452396767750172
-0.3547061454338631   -0.028143095820773154   -0.01452396767750172
-0.3547061454338631   -0.028143095820773154   -0.01452396767750172
-0.3547061454338631   -0.028143095820773154   -0.01452396767750172
-0.17523103354203878   -0.015341965332299173   0.007055908890067963
-0.17523103354203878   -0.015341965332299173   0.007055908890067963
-0.17523103354203878   -0.015341965332299173   0.007055908890067963
-0.17523103354203878   -0.015341965332299173   0.007055908890067963
-0.26571705020924424   -0.02308792726434987   -0.0017276503065689966
-0.26571705020924424   -0.02308792726434987   -0.0017276503065689966
-0.26571705020924424   -0.02308792726434987   -0.0017276503065689966
-0.26571705020924424   -0.02308792726434987   -0.0017276503065689966
-0.1719079591949158   0.01082266501766091   -0.0024933497242786706
-0.1719079591949158   0.01082266501766091   -0.0024933497242786706
-0.1719079591949158   0.01082266501766091   -0.0024933497242786706
-0.1719079591949158   0.01082266501766091   -0.0024933497242786706
-0.35857442614936125   -0.05485293253910819   -0.007155534536654684
-0.35857442614936125   -0.05485293253910819   -0.007155534536654684
-0.35857442614936125   -0.05485293253910819   -0.007155534536654684
-0.35857442614936125   -0.05485293253910819   -0.007155534536654684
-0.3448607673559567   -0.019865726800295302   -0.015007945068968978
-0.3448607673559567   -0.019865726800295302   -0.015007945068968978
-0.3448607673559567   -0.019865726800295302   -0.015007945068968978
-0.3448607673559567   -0.019865726800295302   -0.015007945068968978
-0.1705120785338323   -0.011596978090095834   0.0023153762005326123
-0.1705120785338323   -0.011596978090095834   0.0023153762005326123
-0.1705120785338323   -0.011596978090095834   0.0023153762005326123
-0.1705120785338323   -0.011596978090095834   0.0023153762005326123
-0.2589599688405082   -0.018489904191302045   -0.00043800088128749526
-0.2589599688405082   -0.018489904191302045   -0.00043800088128749526
-0.2589599688405082   -0.018489904191302045   -0.00043800088128749526
-0.2589599688405082   -0.018489904191302045   -0.00043800088128749526
-0.372763118624417   -0.01193993321069126   -0.008913810176035847
-0.372763118624417   -0.01193993321069126   -0.008913810176035847
-0.372763118624417   -0.01193993321069126   -0.008913810176035847
-0.372763118624417   -0.01193993321069126   -0.008913810176035847
-0.5622739916600717   -0.04694794034660508   0.020395729579619076
-0.5622739916600717   -0.04694794034660508   0.020395729579619076
-0.5622739916600717   -0.04694794034660508   0.020395729579619076
-0.5622739916600717   -0.04694794034660508   0.020395729579619076
-0.5439887230986789   -0.03781372005074342   -0.012133926559987393
-0.5439887230986789   -0.03781372005074342   -0.012133926559987393
-0.5439887230986789   -0.03781372005074342   -0.012133926559987393
-0.5439887230986789   -0.03781372005074342   -0.012133926559987393
-0.3513534410971089   0.010416747748130586   0.01895273725188494
-0.3513534410971089   0.010416747748130586   0.01895273725188494
-0.3513534410971089   0.010416747748130586   0.01895273725188494
-0.3513534410971089   0.010416747748130586   0.01895273725188494
-0.43702980862156376   -0.014500346659861298   0.002568497297469427
-0.43702980862156376   -0.014500346659861298   0.002568497297469427
-0.43702980862156376   -0.014500346659861298   0.002568497297469427
-0.43702980862156376   -0.014500346659861298   0.002568497297469427
-0.3592924060927877   -0.0004272827777020184   -0.009898057200671634
-0.3592924060927877   -0.0004272827777020184   -0.009898057200671634
-0.3592924060927877   -0.0004272827777020184   -0.009898057200671634
-0.3592924060927877   -0.0004272827777020184   -0.009898057200671634
-0.5347728404774365   -0.025692771899346996   0.021824538394824455
-0.5347728404774365   -0.025692771899346996   0.021824538394824455
-0.5347728404774365   -0.025692771899346996   0.021824538394824455
-0.5347728404774365   -0.025692771899346996   0.021824538394824455
-0.5243141046970107   -0.031945488476135576   -0.014450457036625342
-0.5243141046970107   -0.031945488476135576   -0.014450457036625342
-0.5243141046970107   -0.031945488476135576   -0.014450457036625342
-0.5243141046970107   -0.031945488476135576   -0.014450457036625342
-0.33928710725785244   0.01620074315408727   0.018227384227690907
-0.33928710725785244   0.01620074315408727   0.018227384227690907
-0.33928710725785244   0.01620074315408727   0.018227384227690907
-0.33928710725785244   0.01620074315408727   0.018227384227690907
-0.4258399440438906   -0.005842994492106374   0.008836392372569446
-0.4258399440438906   -0.005842994492106374   0.008836392372569446
-0.4258399440438906   -0.005842994492106374   0.008836392372569446
-0.4258399440438906   -0.005842994492106374   0.008836392372569446
-0.34748504258443275   0.0041650879195700916   -0.01072663717069032
-0.34748504258443275   0.0041650879195700916   -0.01072663717069032
-0.34748504258443275   0.0041650879195700916   -0.01072663717069032
-0.34748504258443275   0.0041650879195700916   -0.01072663717069032
-0.515829290005086   -0.019622953876270374   0.015651081823136265
-0.515829290005086   -0.019622953876270374   0.015651081823136265
-0.515829290005086   -0.019622953876270374   0.015651081823136265
-0.515829290005086   -0.019622953876270374   0.015651081823136265
-0.5039216480903704   -0.02654661323326755   -0.01749289710119402
-0.5039216480903704   -0.02654661323326755   -0.01749289710119402
-0.5039216480903704   -0.02654661323326755   -0.01749289710119402
-0.5039216480903704   -0.02654661323326755   -0.01749289710119402
-0.33050634551709873   0.02289147435617301   0.014006962968854259
-0.33050634551709873   0.02289147435617301   0.014006962968854259
-0.33050634551709873   0.02289147435617301   0.014006962968854259
-0.33050634551709873   0.02289147435617301   0.014006962968854259
-0.4036746643345309   0.0015046798198545194   0.01525536603445396
-0.4036746643345309   0.0015046798198545194   0.01525536603445396
-0.4036746643345309   0.0015046798198545194   0.01525536603445396
-0.4036746643345309   0.0015046798198545194   0.01525536603445396
0.48751935011481573   0.02957558648815853   0.01720547011209353
0.48751935011481573   0.02957558648815853   0.01720547011209353
0.48751935011481573   0.02957558648815853   0.01720547011209353
0.48751935011481573   0.02957558648815853   0.01720547011209353
0.23149338223974714   -0.042805266966220196   0.003373007007149327
0.23149338223974714   -0.042805266966220196   0.003373007007149327
0.23149338223974714   -0.042805266966220196   0.003373007007149327
0.23149338223974714   -0.042805266966220196   0.003373007007149327
0.24384514614287275   -0.018388056517178654   0.013089452476245302
0.24384514614287275   -0.018388056517178654   0.013089452476245302
0.24384514614287275   -0.018388056517178654   0.013089452476245302
0.24384514614287275   -0.018388056517178654   0.013089452476245302
0.48983105266949367   0.005092382172901734   -0.0042303431198974645
0.48983105266949367   0.005092382172901734   -0.0042303431198974645
0.48983105266949367   0.005092382172901734   -0.0042303431198974645
0.48983105266949367   0.005092382172901734   -0.0042303431198974645
0.3422265056033847   -0.00892515542068735   -0.022424934632874288
0.3422265056033847   -0.00892515542068735   -0.022424934632874288
0.3422265056033847   -0.00892515542068735   -0.022424934632874288
0.3422265056033847   -0.00892515542068735   -0.022424934632874288
0.49892028253706405   0.03272559828715149   0.013582590103704759
0.49892028253706405   0.03272559828715149   0.013582590103704759
0.49892028253706405   0.03272559828715149   0.013582590103704759
0.49892028253706405   0.03272559828715149   0.013582590103704759
0.23690509555233474   -0.043872093354396055   0.003873236360772525
0.23690509555233474   -0.043872093354396055   0.003873236360772525
0.23690509555233474   -0.043872093354396055   0.003873236360772525
0.23690509555233474   -0.043872093354396055   0.003873236360772525
0.24842052642639992   -0.015659071556806306   0.009925294566461983
0.24842052642639992   -0.015659071556806306   0.009925294566461983
0.24842052642639992   -0.015659071556806306   0.009925294566461983
0.24842052642639992   -0.015659071556806306   0.009925294566461983
0.4980852868855322   0.008151386595280287   -0.0016739950416254645
0.4980852868855322   0.008151386595280287   -0.0016739950416254645
0.4980852868855322   0.008151386595280287   -0.0016739950416254645
0.4980852868855322   0.008151386595280287   -0.0016739950416254645
0.35601221695022217   -0.006989971833740952   -0.015412232947459234
0.35601221695022217   -0.006989971833740952   -0.015412232947459234
0.35601221695022217   -0.006989971833740952   -0.015412232947459234
0.35601221695022217   -0.006989971833740952   -0.015412232947459234
0.5058072710675289   0.03570890079237893   0.00937841167125926
0.5058072710675289   0.03570890079237893   0.00937841167125926
0.5058072710675289   0.03570890079237893   0.00937841167125926
0.5058072710675289   0.03570890079237893   0.00937841167125926
0.24219263520461481   -0.041722492793693375   0.004849259694423562
0.24219263520461481   -0.041722492793693375   0.004849259694423562
0.24219263520461481   -0.041722492793693375   0.004849259694423562
0.24219263520461481   -0.041722492793693375   0.004849259694423562
0.25520239007823314   -0.005017603642295958   0.009075314230542461
0.25520239007823314   -0.005017603642295958   0.009075314230542461
0.25520239007823314   -0.005017603642295958   0.009075314230542461
0.25520239007823314   -0.005017603642295958   0.009075314230542461
0.5067441391220637   0.015333280954359655   -0.0006897427880172002
0.5067441391220637   0.015333280954359655   -0.0006897427880172002
0.5067441391220637   0.015333280954359655   -0.0006897427880172002
0.5067441391220637   0.015333280954359655   -0.0006897427880172002
0.35742599409440656   -0.003028193610894382   -0.011647754545672226
0.35742599409440656   -0.003028193610894382   -0.011647754545672226
0.35742599409440656   -0.003028193610894382   -0.011647754545672226
0.35742599409440656   -0.003028193610894382   -0.011647754545672226
0.2445132415819223   0.007305294903595013   0.01836174184820994
0.2445132415819223   0.007305294903595013   0.01836174184820994
0.2445132415819223   0.007305294903595013   0.01836174184820994
0.2445132415819223   0.007305294903595013   0.01836174184820994
0.010638946690688282   -0.08395365231897248   0.008172452273763887
0.010638946690688282   -0.08395365231897248   0.008172452273763887
0.010638946690688282   -0.08395365231897248   0.008172452273763887
0.010638946690688282   -0.08395365231897248   0.008172452273763887
0.026553811425476765   -0.03608749385990983   0.007838144449788847
0.026553811425476765   -0.03608749385990983   0.007838144449788847
0.026553811425476765   -0.03608749385990983   0.007838144449788847
0.026553811425476765   -0.03608749385990983   0.007838144449788847
0.23836519146444998   -0.03833899973198662   0.0056406222989366095
0.23836519146444998   -0.03833899973198662   0.0056406222989366095
0.23836519146444998   -0.03833899973198662   0.0056406222989366095
0.23836519146444998   -0.03833899973198662   0.0056406222989366095
0.12584820122272292   -0.03694608448658891   -0.014010417555493999
0.12584820122272292   -0.03694608448658891   -0.014010417555493999
0.12584820122272292   -0.03694608448658891   -0.014010417555493999
0.12584820122272292   -0.03694608448658891   -0.014010417555493999
0.2500073851005048   0.010115091778819632   0.015397498968408148
0.2500073851005048   0.010115091778819632   0.015397498968408148
0.2500073851005048   0.010115091778819632   0.015397498968408148
0.2500073851005048   0.010115091778819632   0.015397498968408148
0.017989987016660783   -0.08146321614347408   0.010394744689273164
0.017989987016660783   -0.08146321614347408   0.010394744689273164
0.017989987016660783   -0.08146321614347408   0.010394744689273164
0.017989987016660783   -0.08146321614347408   0.010394744689273164
0.03288777561742603   -0.031080082582922365   0.0055963742995602745
0.03288777561742603   -0.031080082582922365   0.0055963742995602745
0.03288777561742603   -0.031080082582922365   0.0055963742995602745
0.03288777561742603   -0.031080082582922365   0.0055963742995602745
0.24381521196452532   -0.035658356344839395   0.0068980070451221676
0.24381521196452532   -0.035658356344839395   0.0068980070451221676
0.24381521196452532   -0.035658356344839395   0.0068980070451221676
0.24381521196452532   -0.035658356344839395   0.0068980070451221676
0.13117045608846709   -0.03498381174632027   -0.007012447425261591
0.13117045608846709   -0.03498381174632027   -0.007012447425261591
0.13117045608846709   -0.03498381174632027   -0.007012447425261591
0.13117045608846709   -0.03498381174632027   -0.007012447425261591
0.25514738102080764   0.014860552361814727   0.013039943619879493
0.25514738102080764   0.014860552361814727   0.013039943619879493
0.25514738102080764   0.014860552361814727   0.013039943619879493
0.25514738102080764   0.014860552361814727   0.013039943619879493
0.024511458391894458   -0.07864313945882832   0.011277845047808394
0.024511458391894458   -0.07864313945882832   0.011277845047808394
0.024511458391894458   -0.07864313945882832   0.011277845047808394
0.024511458391894458   -0.07864313945882832   0.011277845047808394
0.04265303610928482   -0.023553249973063833   0.003626534442183181
0.04265303610928482   -0.023553249973063833   0.003626534442183181
0.04265303610928482   -0.023553249973063833   0.003626534442183181
0.04265303610928482   -0.023553249973063833   0.003626534442183181
0.24974533580575198   -0.03160988262295665   0.008382321848798335
0.24974533580575198   -0.03160988262295665   0.008382321848798335
0.24974533580575198   -0.03160988262295665   0.008382321848798335
0.24974533580575198   -0.03160988262295665   0.008382321848798335
0.14074548321417468   -0.030307218093983387   0.0011584100257001385
0.14074548321417468   -0.030307218093983387   0.0011584100257001385
0.14074548321417468   -0.030307218093983387   0.0011584100257001385
0.14074548321417468   -0.030307218093983387   0.0011584100257001385
0.025187862799300624   -0.01484922749890205   0.011812607996755174
0.025187862799300624   -0.01484922749890205   0.011812607996755174
0.025187862799300624   -0.01484922749890205   0.011812607996755174
0.025187862799300624   -0.01484922749890205   0.011812607996755174
-0.2116837219147291   -0.1432268864066126   0.012169796206155839
-0.2116837219147291   -0.1432268864066126   0.012169796206155839
-0.2116837219147291   -0.1432268864066126   0.012169796206155839
-0.2116837219147291   -0.1432268864066126   0.012169796206155839
-0.1866988723431476   -0.056724364889111326   0.0005373820198770543
-0.1866988723431476   -0.056724364889111326   0.0005373820198770543
-0.1866988723431476   -0.056724364889111326   0.0005373820198770543
-0.1866988723431476   -0.056724364889111326   0.0005373820198770543
0.012842631181719603   -0.10184097522055956   0.005035724591652736
0.012842631181719603   -0.10184097522055956   0.005035724591652736
0.012842631181719603   -0.10184097522055956   0.005035724591652736
0.012842631181719603   -0.10184097522055956   0.005035724591652736
-0.09270552821664371   -0.07970540276949184   -0.01679290231433863
-0.09270552821664371   -0.07970540276949184   -0.01679290231433863
-0.09270552821664371   -0.07970540276949184   -0.01679290231433863
-0.09270552821664371   -0.07970540276949184   -0.01679290231433863
0.03182152613839061   -0.011258263971574537   0.009347488126022756
0.03182152613839061   -0.011258263971574537   0.009347488126022756
0.03182152613839061   -0.011258263971574537   0.009347488126022756
0.03182152613839061   -0.011258263971574537   0.009347488126022756
-0.2011687833375882   -0.14279809217586312   0.014261554334427468
-0.2011687833375882   -0.14279809217586312   0.014261554334427468
-0.2011687833375882   -0.14279809217586312   0.014261554334427468
-0.2011687833375882   -0.14279809217586312   0.014261554334427468
-0.17705083151578505   -0.050835508105726034   -0.0004067592593666597
-0.17705083151578505   -0.050835508105726034   -0.0004067592593666597
-0.17705083151578505   -0.050835508105726034   -0.0004067592593666597
-0.17705083151578505   -0.050835508105726034   -0.0004067592593666597
0.01953783476787291   -0.09935864166611506   0.007125229134987393
0.01953783476787291   -0.09935864166611506   0.007125229134987393
0.01953783476787291   -0.09935864166611506   0.007125229134987393
0.01953783476787291   -0.09935864166611506   0.007125229134987393
-0.08288674239711136   -0.07675027475142501   -0.006121948414804953
-0.08288674239711136   -0.07675027475142501   -0.006121948414804953
-0.08288674239711136   -0.07675027475142501   -0.006121948414804953
-0.08288674239711136   -0.07675027475142501   -0.006121948414804953
0.03788907121128807   -0.006551351476040382   0.006074121161988521
0.03788907121128807   -0.006551351476040382   0.006074121161988521
0.03788907121128807   -0.006551351476040382   0.006074121161988521
0.03788907121128807   -0.006551351476040382   0.006074121161988521
-0.19138145743892981   -0.13962218777552732   0.016726790794713495
-0.19138145743892981   -0.13962218777552732   0.016726790794713495
-0.19138145743892981   -0.13962218777552732   0.016726790794713495
-0.19138145743892981   -0.13962218777552732   0.016726790794713495
-0.16111676700321048   -0.044073558744067425   -0.00230087762413754
-0.16111676700321048   -0.044073558744067425   -0.00230087762413754
-0.16111676700321048   -0.044073558744067425   -0.00230087762413754
-0.16111676700321048   -0.044073558744067425   -0.00230087762413754
0.02997485830526469   -0.09284729789435867   0.009529693343376371
0.02997485830526469   -0.09284729789435867   0.009529693343376371
0.02997485830526469   -0.09284729789435867   0.009529693343376371
0.02997485830526469   -0.09284729789435867   0.009529693343376371
-0.07019764726837191   -0.07048743569627042   0.00490553735845984
-0.07019764726837191   -0.07048743569627042   0.00490553735845984
-0.07019764726837191   -0.07048743569627042   0.00490553735845984
-0.07019764726837191   -0.07048743569627042   0.00490553735845984
-0.18993221486880008   -0.027945951219485225   0.0056463962486717895
-0.18993221486880008   -0.027945951219485225   0.0056463962486717895
-0.18993221486880008   -0.027945951219485225   0.0056463962486717895
-0.18993221486880008   -0.027945951219485225   0.0056463962486717895
-0.4663669859217309   -0.2215511245679447   -0.009408020662540179
-0.4663669859217309   -0.2215511245679447   -0.009408020662540179
-0.4663669859217309   -0.2215511245679447   -0.009408020662540179
-0.4663669859217309   -0.2215511245679447   -0.009408020662540179
-0.42532314092315254   -0.07379413937948016   -0.012683380138845735
-0.42532314092315254   -0.07379413937948016   -0.012683380138845735
-0.42532314092315254   -0.07379413937948016   -0.012683380138845735
-0.42532314092315254   -0.07379413937948016   -0.012683380138845735
-0.21133925999746417   -0.18356082250978994   0.004171901368972969
-0.21133925999746417   -0.18356082250978994   0.004171901368972969
-0.21133925999746417   -0.18356082250978994   0.004171901368972969
-0.21133925999746417   -0.18356082250978994   0.004171901368972969
-0.3229143605606633   -0.1311379930362532   -0.017747095828635512
-0.3229143605606633   -0.1311379930362532   -0.017747095828635512
-0.3229143605606633   -0.1311379930362532   -0.017747095828635512
-0.3229143605606633   -0.1311379930362532   -0.017747095828635512
-0.17857450821648557   -0.020850641047968688   0.0052854788120447055
-0.17857450821648557   -0.020850641047968688   0.0052854788120447055
-0.17857450821648557   -0.020850641047968688   0.0052854788120447055
-0.17857450821648557   -0.020850641047968688   0.0052854788120447055
-0.4568224622280218   -0.2352388903651915   -0.008735235677476944
-0.4568224622280218   -0.2352388903651915   -0.008735235677476944
-0.4568224622280218   -0.2352388903651915   -0.008735235677476944
-0.4568224622280218   -0.2352388903651915   -0.008735235677476944
-0.41235567543937085   -0.06677434489340132   -0.01298134701811067
-0.41235567543937085   -0.06677434489340132   -0.01298134701811067
-0.41235567543937085   -0.06677434489340132   -0.01298134701811067
-0.41235567543937085   -0.06677434489340132   -0.01298134701811067
-0.20189996786157452   -0.18180240413236792   0.006314455038329239
-0.20189996786157452   -0.18180240413236792   0.006314455038329239
-0.20189996786157452   -0.18180240413236792   0.006314455038329239
-0.20189996786157452   -0.18180240413236792   0.006314455038329239
-0.30911432799369476   -0.12721509954418136   -0.011924735759829302
-0.30911432799369476   -0.12721509954418136   -0.011924735759829302
-0.30911432799369476   -0.12721509954418136   -0.011924735759829302
-0.30911432799369476   -0.12721509954418136   -0.011924735759829302
-0.16949424029101504   -0.015248042256963553   0.001788731015722328
-0.16949424029101504   -0.015248042256963553   0.001788731015722328
-0.16949424029101504   -0.015248042256963553   0.001788731015722328
-0.16949424029101504   -0.015248042256963553   0.001788731015722328
-0.4445522086992827   -0.23311951245815749   -0.00761884575291033
-0.4445522086992827   -0.23311951245815749   -0.00761884575291033
-0.4445522086992827   -0.23311951245815749   -0.00761884575291033
-0.4445522086992827   -0.23311951245815749   -0.00761884575291033
-0.39201299781918286   -0.05930705172899485   -0.01473407270859653
-0.39201299781918286   -0.05930705172899485   -0.01473407270859653
-0.39201299781918286   -0.05930705172899485   -0.01473407270859653
-0.39201299781918286   -0.05930705172899485   -0.01473407270859653
-0.1814597256676044   -0.16227067032854628   0.014181440638374579
-0.1814597256676044   -0.16227067032854628   0.014181440638374579
-0.1814597256676044   -0.16227067032854628   0.014181440638374579
-0.1814597256676044   -0.16227067032854628   0.014181440638374579
-0.29388514455822295   -0.11462317003806   -0.005983963412343557
-0.29388514455822295   -0.11462317003806   -0.005983963412343557
-0.29388514455822295   -0.11462317003806   -0.005983963412343557
-0.29388514455822295   -0.11462317003806   -0.005983963412343557
-0.42559245541982477   -0.024256731298892015   -0.0028297614220625517
-0.42559245541982477   -0.024256731298892015   -0.0028297614220625517
-0.42559245541982477   -0.024256731298892015   -0.0028297614220625517
-0.42559245541982477   -0.024256731298892015   -0.0028297614220625517
-0.746008876575465   -0.14766421328456433   0.0076878101526433595
-0.746008876575465   -0.14766421328456433   0.0076878101526433595
-0.746008876575465   -0.14766421328456433   0.0076878101526433595
-0.746008876575465   -0.14766421328456433   0.0076878101526433595
-0.7173682027629532   -0.06960776765598167   -0.01515507810283212
-0.7173682027629532   -0.06960776765598167   -0.01515507810283212
-0.7173682027629532   -0.06960776765598167   -0.01515507810283212
-0.7173682027629532   -0.06960776765598167   -0.01515507810283212
-0.4177597074007096   -0.07773667655113678   0.02907632464502566
-0.4177597074007096   -0.07773667655113678   0.02907632464502566
-0.4177597074007096   -0.07773667655113678   0.02907632464502566
-0.4177597074007096   -0.07773667655113678   0.02907632464502566
-0.5534373273124096   -0.08523230758237789   0.007262621973346067
-0.5534373273124096   -0.08523230758237789   0.007262621973346067
-0.5534373273124096   -0.08523230758237789   0.007262621973346067
-0.5534373273124096   -0.08523230758237789   0.007262621973346067
-0.4089913895867588   -0.004887618306206185   6.885546985095636e-05
-0.4089913895867588   -0.004887618306206185   6.885546985095636e-05
-0.4089913895867588   -0.004887618306206185   6.885546985095636e-05
-0.4089913895867588   -0.004887618306206185   6.885546985095636e-05
-0.7287172870228527   -0.14503759234686175   0.0035293252885439386
-0.7287172870228527   -0.14503759234686175   0.0035293252885439386
-0.7287172870228527   -0.14503759234686175   0.0035293252885439386
-0.7287172870228527   -0.14503759234686175   0.0035293252885439386
-0.7020366842614332   -0.06384644196727929   -0.019258964375561183
-0.7020366842614332   -0.06384644196727929   -0.019258964375561183
-0.7020366842614332   -0.06384644196727929   -0.019258964375561183
-0.7020366842614332   -0.06384644196727929   -0.019258964375561183
-0.40442808705197525   -0.07409097283775101   0.03397322286322024
-0.40442808705197525   -0.07409097283775101   0.03397322286322024
-0.40442808705197525   -0.07409097283775101   0.03397322286322024
-0.40442808705197525   -0.07409097283775101   0.03397322286322024
-0.5457187914098477   -0.07035830521909914   0.0071357500238045934
-0.5457187914098477   -0.07035830521909914   0.0071357500238045934
-0.5457187914098477   -0.07035830521909914   0.0071357500238045934
-0.5457187914098477   -0.07035830521909914   0.0071357500238045934
-0.39713208979642156   0.0002155975512356731   -0.003853361247997983
-0.39713208979642156   0.0002155975512356731   -0.003853361247997983
-0.39713208979642156   0.0002155975512356731   -0.003853361247997983
-0.39713208979642156   0.0002155975512356731   -0.003853361247997983
-0.7101496679727862   -0.13896999881206623   0.015299673912455125
-0.7101496679727862   -0.13896999881206623   0.015299673912455125
-0.7101496679727862   -0.13896999881206623   0.015299673912455125
-0.7101496679727862   -0.13896999881206623   0.015299673912455125
-0.6701543143917256   -0.052184769237823725   -0.021726286126502597
-0.6701543143917256   -0.052184769237823725   -0.021726286126502597
-0.6701543143917256   -0.052184769237823725   -0.021726286126502597
-0.6701543143917256   -0.052184769237823725   -0.021726286126502597
-0.38358433145780063   -0.06924702068141309   0.03734922805073522
-0.38358433145780063   -0.06924702068141309   0.03734922805073522
-0.38358433145780063   -0.06924702068141309   0.03734922805073522
-0.38358433145780063   -0.06924702068141309   0.03734922805073522
-0.5141830607942942   -0.05390557376365412   0.015262866817563503
-0.5141830607942942   -0.05390557376365412   0.015262866817563503
-0.5141830607942942   -0.05390557376365412   0.015262866817563503
-0.5141830607942942   -0.05390557376365412   0.015262866817563503
0.5340893233767264   0.018499882059520377   0.0073028109988728385
0.5340893233767264   0.018499882059520377   0.0073028109988728385
0.5340893233767264   0.018499882059520377   0.0073028109988728385
0.5340893233767264   0.018499882059520377   0.0073028109988728385
0.2711961243462672   -0.014908027411786123   0.004967001937747115
0.2711961243462672   -0.014908027411786123   0.004967001937747115
0.2711961243462672   -0.014908027411786123   0.004967001937747115
0.2711961243462672   -0.014908027411786123   0.004967001937747115
0.2610743918177488   -0.037752946781530225   0.010299672959687645
0.2610743918177488   -0.037752946781530225   0.010299672959687645
0.2610743918177488   -0.037752946781530225   0.010299672959687645
0.2610743918177488   -0.037752946781530225   0.010299672959687645
0.5302732619536139   0.029806184441087045   0.0034463042488330625
0.5302732619536139   0.029806184441087045   0.0034463042488330625
0.5302732619536139   0.029806184441087045   0.0034463042488330625
0.5302732619536139   0.029806184441087045   0.0034463042488330625
0.37789442424199293   -0.0051056925627446445   -0.014043184939553005
0.37789442424199293   -0.0051056925627446445   -0.014043184939553005
0.37789442424199293   -0.0051056925627446445   -0.014043184939553005
0.37789442424199293   -0.0051056925627446445   -0.014043184939553005
0.5276505464965873   0.01460844320271442   0.005530468202072383
0.5276505464965873   0.01460844320271442   0.005530468202072383
0.5276505464965873   0.01460844320271442   0.005530468202072383
0.5276505464965873   0.01460844320271442   0.005530468202072383
0.2628956202407951   -0.023356692577137926   0.005009560870527001
0.2628956202407951   -0.023356692577137926   0.005009560870527001
0.2628956202407951   -0.023356692577137926   0.005009560870527001
0.2628956202407951   -0.023356692577137926   0.005009560870527001
0.25454141300285754   -0.03852875569643571   0.00846916738246916
0.25454141300285754   -0.03852875569643571   0.00846916738246916
0.25454141300285754   -0.03852875569643571   0.00846916738246916
0.25454141300285754   -0.03852875569643571   0.00846916738246916
0.5243662903923547   0.028628487760785536   0.006228448339452727
0.5243662903923547   0.028628487760785536   0.006228448339452727
0.5243662903923547   0.028628487760785536   0.006228448339452727
0.5243662903923547   0.028628487760785536   0.006228448339452727
0.37712377769214883   -0.007024247551649824   -0.016023701908467455
0.37712377769214883   -0.007024247551649824   -0.016023701908467455
0.37712377769214883   -0.007024247551649824   -0.016023701908467455
0.37712377769214883   -0.007024247551649824   -0.016023701908467455
0.5203731983645634   0.013268385909722697   0.0016230900515553232
0.5203731983645634   0.013268385909722697   0.0016230900515553232
0.5203731983645634   0.013268385909722697   0.0016230900515553232
0.5203731983645634   0.013268385909722697   0.0016230900515553232
0.25706147254534845   -0.024641686330673908   0.007182395729161836
0.25706147254534845   -0.024641686330673908   0.007182395729161836
0.25706147254534845   -0.024641686330673908   0.007182395729161836
0.25706147254534845   -0.024641686330673908   0.007182395729161836
0.2476949483774436   -0.03487475464522437   0.007319269958682921
0.2476949483774436   -0.03487475464522437   0.007319269958682921
0.2476949483774436   -0.03487475464522437   0.007319269958682921
0.2476949483774436   -0.03487475464522437   0.007319269958682921
0.515316370716453   0.029270685539055617   0.009168380397563722
0.515316370716453   0.029270685539055617   0.009168380397563722
0.515316370716453   0.029270685539055617   0.009168380397563722
0.515316370716453   0.029270685539055617   0.009168380397563722
0.36329427182538826   -0.006953279492596186   -0.021426867943550865
0.36329427182538826   -0.006953279492596186   -0.021426867943550865
0.36329427182538826   -0.006953279492596186   -0.021426867943550865
0.36329427182538826   -0.006953279492596186   -0.021426867943550865
0.2696268804458003   -0.03112333751498129   0.01333609253860775
0.2696268804458003   -0.03112333751498129   0.01333609253860775
0.2696268804458003   -0.03112333751498129   0.01333609253860775
0.2696268804458003   -0.03112333751498129   0.01333609253860775
0.048751294786289256   -0.032037547528297565   0.0024091133471389305
0.048751294786289256   -0.032037547528297565   0.0024091133471389305
0.048751294786289256   -0.032037547528297565   0.0024091133471389305
0.048751294786289256   -0.032037547528297565   0.0024091133471389305
0.031256128705464965   -0.07819959678694285   0.01344669978312515
0.031256128705464965   -0.07819959678694285   0.01344669978312515
0.031256128705464965   -0.07819959678694285   0.01344669978312515
0.031256128705464965   -0.07819959678694285   0.01344669978312515
0.27089260906357887   0.01145825670311771   0.010179555704190206
0.27089260906357887   0.01145825670311771   0.010179555704190206
0.27089260906357887   0.01145825670311771   0.010179555704190206
0.27089260906357887   0.01145825670311771   0.010179555704190206
0.1527302350325458   -0.032613749951600324   -0.0006600427826529524
0.1527302350325458   -0.032613749951600324   -0.0006600427826529524
0.1527302350325458   -0.032613749951600324   -0.0006600427826529524
0.1527302350325458   -0.032613749951600324   -0.0006600427826529524
0.2623296277124979   -0.032424713176483724   0.011247618828387818
0.2623296277124979   -0.032424713176483724   0.011247618828387818
0.2623296277124979   -0.032424713176483724   0.011247618828387818
0.2623296277124979   -0.032424713176483724   0.011247618828387818
0.037647943727151606   -0.03648779323673541   0.0036939713413518785
0.037647943727151606   -0.03648779323673541   0.0036939713413518785
0.037647943727151606   -0.03648779323673541   0.0036939713413518785
0.037647943727151606   -0.03648779323673541   0.0036939713413518785
0.023359593273243055   -0.07872585381069104   0.012016138407146226
0.023359593273243055   -0.07872585381069104   0.012016138407146226
0.023359593273243055   -0.07872585381069104   0.012016138407146226
0.023359593273243055   -0.07872585381069104   0.012016138407146226
0.26487507615013234   0.009609947378821223   0.011998780043586288
0.26487507615013234   0.009609947378821223   0.011998780043586288
0.26487507615013234   0.009609947378821223   0.011998780043586288
0.26487507615013234   0.009609947378821223   0.011998780043586288
0.1419489379203761   -0.03470103992883964   -0.0071418595934438465
0.1419489379203761   -0.03470103992883964   -0.0071418595934438465
0.1419489379203761   -0.03470103992883964   -0.0071418595934438465
0.1419489379203761   -0.03470103992883964   -0.0071418595934438465
0.25587987603557577   -0.032748732974777   0.00938145982439903
0.25587987603557577   -0.032748732974777   0.00938145982439903
0.25587987603557577   -0.032748732974777   0.00938145982439903
0.25587987603557577   -0.032748732974777   0.00938145982439903
0.02998803690275773   -0.03873392994213771   0.0051664326861662595
0.02998803690275773   -0.03873392994213771   0.0051664326861662595
0.02998803690275773   -0.03873392994213771   0.0051664326861662595
0.02998803690275773   -0.03873392994213771   0.0051664326861662595
0.014539883876713837   -0.07846354767835037   0.00931944850086786
0.014539883876713837   -0.07846354767835037   0.00931944850086786
0.014539883876713837   -0.07846354767835037   0.00931944850086786
0.014539883876713837   -0.07846354767835037   0.00931944850086786
0.25804513409093377   0.009906648813747873   0.014288795067163261
0.25804513409093377   0.009906648813747873   0.014288795067163261
0.25804513409093377   0.009906648813747873   0.014288795067163261
0.25804513409093377   0.009906648813747873   0.014288795067163261
0.13547761584182944   -0.03424895007624873   -0.012605867711710027
0.13547761584182944   -0.03424895007624873   -0.012605867711710027
0.13547761584182944   -0.03424895007624873   -0.012605867711710027
0.13547761584182944   -0.03424895007624873   -0.012605867711710027
0.03839422739572408   -0.09327334167712503   0.011859570543140534
0.03839422739572408   -0.09327334167712503   0.011859570543140534
0.03839422739572408   -0.09327334167712503   0.011859570543140534
0.03839422739572408   -0.09327334167712503   0.011859570543140534
-0.16535654438729488   -0.04918835784707024   -0.00020216730381861225
-0.16535654438729488   -0.04918835784707024   -0.00020216730381861225
-0.16535654438729488   -0.04918835784707024   -0.00020216730381861225
-0.16535654438729488   -0.04918835784707024   -0.00020216730381861225
-0.19700364778819948   -0.14173660236491042   0.015403867839802202
-0.19700364778819948   -0.14173660236491042   0.015403867839802202
-0.19700364778819948   -0.14173660236491042   0.015403867839802202
-0.19700364778819948   -0.14173660236491042   0.015403867839802202
0.04415864171070314   -0.006782020179422569   0.006541688201796707
0.04415864171070314   -0.006782020179422569   0.006541688201796707
0.04415864171070314   -0.006782020179422569   0.006541688201796707
0.04415864171070314   -0.006782020179422569   0.006541688201796707
-0.069087256494959   -0.07170756545206686   0.0027793607104603033
-0.069087256494959   -0.07170756545206686   0.0027793607104603033
-0.069087256494959   -0.07170756545206686   0.0027793607104603033
-0.069087256494959   -0.07170756545206686   0.0027793607104603033
0.02624988237897662   -0.09843624635557549   0.008652117719316052
0.02624988237897662   -0.09843624635557549   0.008652117719316052
0.02624988237897662   -0.09843624635557549   0.008652117719316052
0.02624988237897662   -0.09843624635557549   0.008652117719316052
-0.1821675485132073   -0.05315503624549487   0.0010027980953455987
-0.1821675485132073   -0.05315503624549487   0.0010027980953455987
-0.1821675485132073   -0.05315503624549487   0.0010027980953455987
-0.1821675485132073   -0.05315503624549487   0.0010027980953455987
-0.20794201121104727   -0.14373578255199151   0.012719370684509956
-0.20794201121104727   -0.14373578255199151   0.012719370684509956
-0.20794201121104727   -0.14373578255199151   0.012719370684509956
-0.20794201121104727   -0.14373578255199151   0.012719370684509956
0.036745628435978145   -0.008825505433611198   0.009045965843741836
0.036745628435978145   -0.008825505433611198   0.009045965843741836
0.036745628435978145   -0.008825505433611198   0.009045965843741836
0.036745628435978145   -0.008825505433611198   0.009045965843741836
-0.08278774479388208   -0.07590797299895943   -0.006331606560824085
-0.08278774479388208   -0.07590797299895943   -0.006331606560824085
-0.08278774479388208   -0.07590797299895943   -0.006331606560824085
-0.08278774479388208   -0.07590797299895943   -0.006331606560824085
0.01783863117508781   -0.09998869449211147   0.0056741685977904355
0.01783863117508781   -0.09998869449211147   0.0056741685977904355
0.01783863117508781   -0.09998869449211147   0.0056741685977904355
0.01783863117508781   -0.09998869449211147   0.0056741685977904355
-0.1927411457819126   -0.05627872532524962   0.0012666406034404568
-0.1927411457819126   -0.05627872532524962   0.0012666406034404568
-0.1927411457819126   -0.05627872532524962   0.0012666406034404568
-0.1927411457819126   -0.05627872532524962   0.0012666406034404568
-0.21986763228647385   -0.14263639167220793   0.010426715045868576
-0.21986763228647385   -0.14263639167220793   0.010426715045868576
-0.21986763228647385   -0.14263639167220793   0.010426715045868576
-0.21986763228647385   -0.14263639167220793   0.010426715045868576
0.028514393777949693   -0.009908366434112862   0.010636816762809621
0.028514393777949693   -0.009908366434112862   0.010636816762809621
0.028514393777949693   -0.009908366434112862   0.010636816762809621
0.028514393777949693   -0.009908366434112862   0.010636816762809621
-0.09395750179233377   -0.07743813820822446   -0.015542628299526573
-0.09395750179233377   -0.07743813820822446   -0.015542628299526573
-0.09395750179233377   -0.07743813820822446   -0.015542628299526573
-0.09395750179233377   -0.07743813820822446   -0.015542628299526573
-0.18476610078031547   -0.16053083735862644   0.014092530242635598
-0.18476610078031547   -0.16053083735862644   0.014092530242635598
-0.18476610078031547   -0.16053083735862644   0.014092530242635598
-0.18476610078031547   -0.16053083735862644   0.014092530242635598
-0.40692948968876863   -0.061076834574647285   -0.009154635304579217
-0.40692948968876863   -0.061076834574647285   -0.009154635304579217
-0.40692948968876863   -0.061076834574647285   -0.009154635304579217
-0.40692948968876863   -0.061076834574647285   -0.009154635304579217
-0.4623868162320219   -0.2369427774923937   -0.01169031730948819
-0.4623868162320219   -0.2369427774923937   -0.01169031730948819
-0.4623868162320219   -0.2369427774923937   -0.01169031730948819
-0.4623868162320219   -0.2369427774923937   -0.01169031730948819
-0.17305074681979965   -0.012220744551837895   0.0056525148687269
-0.17305074681979965   -0.012220744551837895   0.0056525148687269
-0.17305074681979965   -0.012220744551837895   0.0056525148687269
-0.17305074681979965   -0.012220744551837895   0.0056525148687269
-0.3037488742497792   -0.11281522531634845   -0.008987422034546763
-0.3037488742497792   -0.11281522531634845   -0.008987422034546763
-0.3037488742497792   -0.11281522531634845   -0.008987422034546763
-0.3037488742497792   -0.11281522531634845   -0.008987422034546763
-0.20722800691102328   -0.18255321516178516   0.005098685022556032
-0.20722800691102328   -0.18255321516178516   0.005098685022556032
-0.20722800691102328   -0.18255321516178516   0.005098685022556032
-0.20722800691102328   -0.18255321516178516   0.005098685022556032
-0.4274690201873915   -0.0658697709290402   -0.0081743436496928
-0.4274690201873915   -0.0658697709290402   -0.0081743436496928
-0.4274690201873915   -0.0658697709290402   -0.0081743436496928
-0.4274690201873915   -0.0658697709290402   -0.0081743436496928
-0.47546550357786677   -0.24048084943559764   -0.013512235761527186
-0.47546550357786677   -0.24048084943559764   -0.013512235761527186
-0.47546550357786677   -0.24048084943559764   -0.013512235761527186
-0.47546550357786677   -0.24048084943559764   -0.013512235761527186
-0.18321075137770404   -0.015654397893593033   0.008294285192826621
-0.18321075137770404   -0.015654397893593033   0.008294285192826621
-0.18321075137770404   -0.015654397893593033   0.008294285192826621
-0.18321075137770404   -0.015654397893593033   0.008294285192826621
-0.31980880166654385   -0.12531156252612147   -0.013365710243723447
-0.31980880166654385   -0.12531156252612147   -0.013365710243723447
-0.31980880166654385   -0.12531156252612147   -0.013365710243723447
-0.31980880166654385   -0.12531156252612147   -0.013365710243723447
-0.21853130474453267   -0.18598678201967273   0.002023902484763279
-0.21853130474453267   -0.18598678201967273   0.002023902484763279
-0.21853130474453267   -0.18598678201967273   0.002023902484763279
-0.21853130474453267   -0.18598678201967273   0.002023902484763279
-0.44042314679488914   -0.07042666189336942   -0.00835463938887028
-0.44042314679488914   -0.07042666189336942   -0.00835463938887028
-0.44042314679488914   -0.07042666189336942   -0.00835463938887028
-0.44042314679488914   -0.07042666189336942   -0.00835463938887028
-0.4865370853163525   -0.2291675146905306   -0.015225421522798932
-0.4865370853163525   -0.2291675146905306   -0.015225421522798932
-0.4865370853163525   -0.2291675146905306   -0.015225421522798932
-0.4865370853163525   -0.2291675146905306   -0.015225421522798932
-0.19598005448664735   -0.020538659628958705   0.007766872001751884
-0.19598005448664735   -0.020538659628958705   0.007766872001751884
-0.19598005448664735   -0.020538659628958705   0.007766872001751884
-0.19598005448664735   -0.020538659628958705   0.007766872001751884
-0.33476712257243607   -0.12945348536613527   -0.017686512843837418
-0.33476712257243607   -0.12945348536613527   -0.017686512843837418
-0.33476712257243607   -0.12945348536613527   -0.017686512843837418
-0.33476712257243607   -0.12945348536613527   -0.017686512843837418
-0.4009325503934148   -0.07352988729931317   0.03328311389684896
-0.4009325503934148   -0.07352988729931317   0.03328311389684896
-0.4009325503934148   -0.07352988729931317   0.03328311389684896
-0.4009325503934148   -0.07352988729931317   0.03328311389684896
-0.6989071722946822   -0.05147228816161263   -0.011640299398062104
-0.6989071722946822   -0.05147228816161263   -0.011640299398062104
-0.6989071722946822   -0.05147228816161263   -0.011640299398062104
-0.6989071722946822   -0.05147228816161263   -0.011640299398062104
-0.7405579951033227   -0.14630149291652875   0.009050530520678945
-0.7405579951033227   -0.14630149291652875   0.009050530520678945
-0.7405579951033227   -0.14630149291652875   0.009050530520678945
-0.7405579951033227   -0.14630149291652875   0.009050530520678945
-0.41060425655501565   0.006628271121705002   0.0036514324614414506
-0.41060425655501565   0.006628271121705002   0.0036514324614414506
-0.41060425655501565   0.006628271121705002   0.0036514324614414506
-0.41060425655501565   0.006628271121705002   0.0036514324614414506
-0.5359652581444939   -0.051337420673145465   0.010602494324959688
-0.5359652581444939   -0.051337420673145465   0.010602494324959688
-0.5359652581444939   -0.051337420673145465   0.010602494324959688
-0.5359652581444939   -0.051337420673145465   0.010602494324959688
-0.42248993173483684   -0.07860643400846645   0.029457761692504636
-0.42248993173483684   -0.07860643400846645   0.029457761692504636
-0.42248993173483684   -0.07860643400846645   0.029457761692504636
-0.42248993173483684   -0.07860643400846645   0.029457761692504636
-0.7269868761260024   -0.05938134398885763   -0.01001402352038483
-0.7269868761260024   -0.05938134398885763   -0.01001402352038483
-0.7269868761260024   -0.05938134398885763   -0.01001402352038483
-0.7269868761260024   -0.05938134398885763   -0.01001402352038483
-0.7577680400111317   -0.15230028059393153   -0.003733362958525832
-0.7577680400111317   -0.15230028059393153   -0.003733362958525832
-0.7577680400111317   -0.15230028059393153   -0.003733362958525832
-0.7577680400111317   -0.15230028059393153   -0.003733362958525832
-0.4228367285047403   0.00268726774654892   0.006463522421955262
-0.4228367285047403   0.00268726774654892   0.006463522421955262
-0.4228367285047403   0.00268726774654892   0.006463522421955262
-0.4228367285047403   0.00268726774654892   0.006463522421955262
-0.5669404094902959   -0.06753003988616404   0.004202739048695253
-0.5669404094902959   -0.06753003988616404   0.004202739048695253
-0.5669404094902959   -0.06753003988616404   0.004202739048695253
-0.5669404094902959   -0.06753003988616404   0.004202739048695253
-0.4363200132431075   -0.08243094112773985   0.024165307604408215
-0.4363200132431075   -0.08243094112773985   0.024165307604408215
-0.4363200132431075   -0.08243094112773985   0.024165307604408215
-0.4363200132431075   -0.08243094112773985   0.024165307604408215
-0.7407516541812148   -0.06364897062809192   -0.007302743774774467
-0.7407516541812148   -0.06364897062809192   -0.007302743774774467
-0.7407516541812148   -0.06364897062809192   -0.007302743774774467
-0.7407516541812148   -0.06364897062809192   -0.007302743774774467
-0.7722769307986599   -0.15450181451853465   -0.00023214179401329083
-0.7722769307986599   -0.15450181451853465   -0.00023214179401329083
-0.7722769307986599   -0.15450181451853465   -0.00023214179401329083
-0.7722769307986599   -0.15450181451853465   -0.00023214179401329083
-0.44010833042176717   -0.015035681670693756   0.0027865199302892357
-0.44010833042176717   -0.015035681670693756   0.0027865199302892357
-0.44010833042176717   -0.015035681670693756   0.0027865199302892357
-0.44010833042176717   -0.015035681670693756   0.0027865199302892357
-0.5730889794752977   -0.08130774164139198   0.006577066665441389
-0.5730889794752977   -0.08130774164139198   0.006577066665441389
-0.5730889794752977   -0.08130774164139198   0.006577066665441389
-0.5730889794752977   -0.08130774164139198   0.006577066665441389
0.47191791968973423   0.02229763651138102   -0.009726473789884171
0.47191791968973423   0.02229763651138102   -0.009726473789884171
0.47191791968973423   0.02229763651138102   -0.009726473789884171
0.47191791968973423   0.02229763651138102   -0.009726473789884171
0.23634600946415463   -0.005504573497964654   0.00457023168101689
0.23634600946415463   -0.005504573497964654   0.00457023168101689
0.23634600946415463   -0.005504573497964654   0.00457023168101689
0.23634600946415463   -0.005504573497964654   0.00457023168101689
0.22191984473229134   -0.034307384951547185   -0.008768125493000177
0.22191984473229134   -0.034307384951547185   -0.008768125493000177
0.22191984473229134   -0.034307384951547185   -0.008768125493000177
0.22191984473229134   -0.034307384951547185   -0.008768125493000177
0.4666226370554364   0.03375578046428114   0.005346991039699475
0.4666226370554364   0.03375578046428114   0.005346991039699475
0.4666226370554364   0.03375578046428114   0.005346991039699475
0.4666226370554364   0.03375578046428114   0.005346991039699475
0.33090262609884874   0.0008264312668069818   -0.012763150259653688
0.33090262609884874   0.0008264312668069818   -0.012763150259653688
0.33090262609884874   0.0008264312668069818   -0.012763150259653688
0.33090262609884874   0.0008264312668069818   -0.012763150259653688
0.4594166930355492   0.01296685007384515   -0.00989379866929635
0.4594166930355492   0.01296685007384515   -0.00989379866929635
0.4594166930355492   0.01296685007384515   -0.00989379866929635
0.4594166930355492   0.01296685007384515   -0.00989379866929635
0.22874317920837364   -0.013901064104915801   0.004942226040777521
0.22874317920837364   -0.013901064104915801   0.004942226040777521
0.22874317920837364   -0.013901064104915801   0.004942226040777521
0.22874317920837364   -0.013901064104915801   0.004942226040777521
0.21412649149451152   -0.036124736415973045   -0.007297873646496929
0.21412649149451152   -0.036124736415973045   -0.007297873646496929
0.21412649149451152   -0.036124736415973045   -0.007297873646496929
0.21412649149451152   -0.036124736415973045   -0.007297873646496929
0.4558484749247759   0.031139709953531172   0.00795266262854255
0.4558484749247759   0.031139709953531172   0.00795266262854255
0.4558484749247759   0.031139709953531172   0.00795266262854255
0.4558484749247759   0.031139709953531172   0.00795266262854255
0.3269299432022563   -0.003115264922040839   -0.0150347232555898
0.3269299432022563   -0.003115264922040839   -0.0150347232555898
0.3269299432022563   -0.003115264922040839   -0.0150347232555898
0.3269299432022563   -0.003115264922040839   -0.0150347232555898
0.448577919665092   0.01064420267014431   -0.007904606386490556
0.448577919665092   0.01064420267014431   -0.007904606386490556
0.448577919665092   0.01064420267014431   -0.007904606386490556
0.448577919665092   0.01064420267014431   -0.007904606386490556
0.22084551603589864   -0.01618075985088306   0.006353272495348679
0.22084551603589864   -0.01618075985088306   0.006353272495348679
0.22084551603589864   -0.01618075985088306   0.006353272495348679
0.22084551603589864   -0.01618075985088306   0.006353272495348679
0.2066186472480067   -0.03531052254893826   -0.005039936573959382
0.2066186472480067   -0.03531052254893826   -0.005039936573959382
0.2066186472480067   -0.03531052254893826   -0.005039936573959382
0.2066186472480067   -0.03531052254893826   -0.005039936573959382
0.44254545827146874   0.02959907308737378   0.01047676131382369
0.44254545827146874   0.02959907308737378   0.01047676131382369
0.44254545827146874   0.02959907308737378   0.01047676131382369
0.44254545827146874   0.02959907308737378   0.01047676131382369
0.3112388875522078   -0.005380466936120536   -0.019618730081349914
0.3112388875522078   -0.005380466936120536   -0.019618730081349914
0.3112388875522078   -0.005380466936120536   -0.019618730081349914
0.3112388875522078   -0.005380466936120536   -0.019618730081349914
0.23821424019612344   0.005878817710683984   0.0025279941322124758
0.23821424019612344   0.005878817710683984   0.0025279941322124758
0.23821424019612344   0.005878817710683984   0.0025279941322124758
0.23821424019612344   0.005878817710683984   0.0025279941322124758
0.020728657381427082   -0.014679500249917259   -0.0007829788016078584
0.020728657381427082   -0.014679500249917259   -0.0007829788016078584
0.020728657381427082   -0.014679500249917259   -0.0007829788016078584
0.020728657381427082   -0.014679500249917259   -0.0007829788016078584
0.0071285114436402805   -0.045033396588389916   -0.008514613133409335
0.0071285114436402805   -0.045033396588389916   -0.008514613133409335
0.0071285114436402805   -0.045033396588389916   -0.008514613133409335
0.0071285114436402805   -0.045033396588389916   -0.008514613133409335
0.2383854592061903   0.02764460466327341   0.011607957261671638
0.2383854592061903   0.02764460466327341   0.011607957261671638
0.2383854592061903   0.02764460466327341   0.011607957261671638
0.2383854592061903   0.02764460466327341   0.011607957261671638
0.12380419966274452   -0.005987481683356988   -0.0047388954271671765
0.12380419966274452   -0.005987481683356988   -0.0047388954271671765
0.12380419966274452   -0.005987481683356988   -0.0047388954271671765
0.12380419966274452   -0.005987481683356988   -0.0047388954271671765
0.23180149621448984   0.002392226988125551   0.0039405199783184505
0.23180149621448984   0.002392226988125551   0.0039405199783184505
0.23180149621448984   0.002392226988125551   0.0039405199783184505
0.23180149621448984   0.002392226988125551   0.0039405199783184505
0.013977327564254814   -0.019516165784327768   0.00021223666560118808
0.013977327564254814   -0.019516165784327768   0.00021223666560118808
0.013977327564254814   -0.019516165784327768   0.00021223666560118808
0.013977327564254814   -0.019516165784327768   0.00021223666560118808
-0.00038720178801395237   -0.0470472542087418   -0.006024949956082512
-0.00038720178801395237   -0.0470472542087418   -0.006024949956082512
-0.00038720178801395237   -0.0470472542087418   -0.006024949956082512
-0.00038720178801395237   -0.0470472542087418   -0.006024949956082512
0.23014310286529369   0.023881685998580086   0.012778760792860715
0.23014310286529369   0.023881685998580086   0.012778760792860715
0.23014310286529369   0.023881685998580086   0.012778760792860715
0.23014310286529369   0.023881685998580086   0.012778760792860715
0.115080395628867   -0.009484628708571127   -0.006706350006939671
0.115080395628867   -0.009484628708571127   -0.006706350006939671
0.115080395628867   -0.009484628708571127   -0.006706350006939671
0.115080395628867   -0.009484628708571127   -0.006706350006939671
0.22393824129286805   0.0001250434870950102   0.005511095442219539
0.22393824129286805   0.0001250434870950102   0.005511095442219539
0.22393824129286805   0.0001250434870950102   0.005511095442219539
0.22393824129286805   0.0001250434870950102   0.005511095442219539
0.0057910898304284475   -0.023317181651239634   0.0011364355786273221
0.0057910898304284475   -0.023317181651239634   0.0011364355786273221
0.0057910898304284475   -0.023317181651239634   0.0011364355786273221
0.0057910898304284475   -0.023317181651239634   0.0011364355786273221
-0.008431663578270604   -0.04708397293525833   -0.00418751600866334
-0.008431663578270604   -0.04708397293525833   -0.00418751600866334
-0.008431663578270604   -0.04708397293525833   -0.00418751600866334
-0.008431663578270604   -0.04708397293525833   -0.00418751600866334
0.22182377847860574   0.021575100063360185   0.014100096966738744
0.22182377847860574   0.021575100063360185   0.014100096966738744
0.22182377847860574   0.021575100063360185   0.014100096966738744
0.22182377847860574   0.021575100063360185   0.014100096966738744
0.10839021212068889   -0.010759762193058155   -0.008347239322641663
0.10839021212068889   -0.010759762193058155   -0.008347239322641663
0.10839021212068889   -0.010759762193058155   -0.008347239322641663
0.10839021212068889   -0.010759762193058155   -0.008347239322641663
0.021742878098228183   -0.011505262485588195   0.0011138870180685907
0.021742878098228183   -0.011505262485588195   0.0011138870180685907
0.021742878098228183   -0.011505262485588195   0.0011138870180685907
0.021742878098228183   -0.011505262485588195   0.0011138870180685907
-0.18794299772925033   -0.021574755513869507   -0.005871528156239134
-0.18794299772925033   -0.021574755513869507   -0.005871528156239134
-0.18794299772925033   -0.021574755513869507   -0.005871528156239134
-0.18794299772925033   -0.021574755513869507   -0.005871528156239134
-0.20306540174896537   -0.05949627078444098   -0.009805521363626862
-0.20306540174896537   -0.05949627078444098   -0.009805521363626862
-0.20306540174896537   -0.05949627078444098   -0.009805521363626862
-0.20306540174896537   -0.05949627078444098   -0.009805521363626862
0.023282503989408922   0.020465218697560156   0.0067567343094838
0.023282503989408922   0.020465218697560156   0.0067567343094838
0.023282503989408922   0.020465218697560156   0.0067567343094838
0.023282503989408922   0.020465218697560156   0.0067567343094838
-0.08672254837866722   -0.01717260143937041   -0.00465166552895073
-0.08672254837866722   -0.01717260143937041   -0.00465166552895073
-0.08672254837866722   -0.01717260143937041   -0.00465166552895073
-0.08672254837866722   -0.01717260143937041   -0.00465166552895073
0.016081196842596495   -0.012885636115672556   0.0041010533886534275
0.016081196842596495   -0.012885636115672556   0.0041010533886534275
0.016081196842596495   -0.012885636115672556   0.0041010533886534275
0.016081196842596495   -0.012885636115672556   0.0041010533886534275
-0.19529919495300968   -0.025580516322065178   -0.004890241846224261
-0.19529919495300968   -0.025580516322065178   -0.004890241846224261
-0.19529919495300968   -0.025580516322065178   -0.004890241846224261
-0.19529919495300968   -0.025580516322065178   -0.004890241846224261
-0.21186111845764993   -0.06168440594788955   -0.006641789834021861
-0.21186111845764993   -0.06168440594788955   -0.006641789834021861
-0.21186111845764993   -0.06168440594788955   -0.006641789834021861
-0.21186111845764993   -0.06168440594788955   -0.006641789834021861
0.015040284043243988   0.016447636561000675   0.007617588430464711
0.015040284043243988   0.016447636561000675   0.007617588430464711
0.015040284043243988   0.016447636561000675   0.007617588430464711
0.015040284043243988   0.016447636561000675   0.007617588430464711
-0.09401737031343038   -0.019519094531539702   -0.005563109165879838
-0.09401737031343038   -0.019519094531539702   -0.005563109165879838
-0.09401737031343038   -0.019519094531539702   -0.005563109165879838
-0.09401737031343038   -0.019519094531539702   -0.005563109165879838
0.00828909532896964   -0.015220124116452115   0.00552940553654576
0.00828909532896964   -0.015220124116452115   0.00552940553654576
0.00828909532896964   -0.015220124116452115   0.00552940553654576
0.00828909532896964   -0.015220124116452115   0.00552940553654576
-0.20498152784692286   -0.02988824337398405   -0.0040399993542920495
-0.20498152784692286   -0.02988824337398405   -0.0040399993542920495
-0.20498152784692286   -0.02988824337398405   -0.0040399993542920495
-0.20498152784692286   -0.02988824337398405   -0.0040399993542920495
-0.22160048416336925   -0.06323812685051955   -0.005897107377904859
-0.22160048416336925   -0.06323812685051955   -0.005897107377904859
-0.22160048416336925   -0.06323812685051955   -0.005897107377904859
-0.22160048416336925   -0.06323812685051955   -0.005897107377904859
0.006122253468664056   0.013026659711857558   0.008471436578894074
0.006122253468664056   0.013026659711857558   0.008471436578894074
0.006122253468664056   0.013026659711857558   0.008471436578894074
0.006122253468664056   0.013026659711857558   0.008471436578894074
-0.10347148033666753   -0.022326031258609838   -0.007784195102326311
-0.10347148033666753   -0.022326031258609838   -0.007784195102326311
-0.10347148033666753   -0.022326031258609838   -0.007784195102326311
-0.10347148033666753   -0.022326031258609838   -0.007784195102326311
-0.18471337789273212   -0.014218601710023523   0.002920417222503087
-0.18471337789273212   -0.014218601710023523   0.002920417222503087
-0.18471337789273212   -0.014218601710023523   0.002920417222503087
-0.18471337789273212   -0.014218601710023523   0.002920417222503087
-0.392328522456438   -0.025289702317743513   -0.01019637480114545
-0.392328522456438   -0.025289702317743513   -0.01019637480114545
-0.392328522456438   -0.025289702317743513   -0.01019637480114545
-0.392328522456438   -0.025289702317743513   -0.01019637480114545
-0.4094550349418569   -0.06262602149796688   -0.009969581739860789
-0.4094550349418569   -0.06262602149796688   -0.009969581739860789
-0.4094550349418569   -0.06262602149796688   -0.009969581739860789
-0.4094550349418569   -0.06262602149796688   -0.009969581739860789
-0.18562790847507576   0.015816027853341238   0.002069646368037928
-0.18562790847507576   0.015816027853341238   0.002069646368037928
-0.18562790847507576   0.015816027853341238   0.002069646368037928
-0.18562790847507576   0.015816027853341238   0.002069646368037928
-0.29065118845440807   -0.02058779756507904   -0.0038030240754161615
-0.29065118845440807   -0.02058779756507904   -0.0038030240754161615
-0.29065118845440807   -0.02058779756507904   -0.0038030240754161615
-0.29065118845440807   -0.02058779756507904   -0.0038030240754161615
-0.1909705434422068   -0.015583922477433095   0.0067564218631580575
-0.1909705434422068   -0.015583922477433095   0.0067564218631580575
-0.1909705434422068   -0.015583922477433095   0.0067564218631580575
-0.1909705434422068   -0.015583922477433095   0.0067564218631580575
-0.4030291141674362   -0.030142785359903484   -0.010323214005825282
-0.4030291141674362   -0.030142785359903484   -0.010323214005825282
-0.4030291141674362   -0.030142785359903484   -0.010323214005825282
-0.4030291141674362   -0.030142785359903484   -0.010323214005825282
-0.4215748857759286   -0.06640666075846006   -0.0071028947332840014
-0.4215748857759286   -0.06640666075846006   -0.0071028947332840014
-0.4215748857759286   -0.06640666075846006   -0.0071028947332840014
-0.4215748857759286   -0.06640666075846006   -0.0071028947332840014
-0.19541715157632134   0.01140947377600423   0.002484164848727287
-0.19541715157632134   0.01140947377600423   0.002484164848727287
-0.19541715157632134   0.01140947377600423   0.002484164848727287
-0.19541715157632134   0.01140947377600423   0.002484164848727287
-0.2981858806038922   -0.022602040998390496   -0.0037628967388552426
-0.2981858806038922   -0.022602040998390496   -0.0037628967388552426
-0.2981858806038922   -0.022602040998390496   -0.0037628967388552426
-0.2981858806038922   -0.022602040998390496   -0.0037628967388552426
-0.2006622241768931   -0.0193915786396847   0.007059854261557336
-0.2006622241768931   -0.0193915786396847   0.007059854261557336
-0.2006622241768931   -0.0193915786396847   0.007059854261557336
-0.2006622241768931   -0.0193915786396847   0.007059854261557336
-0.4155989970121926   -0.03487479217960753   -0.008755319493460284
-0.4155989970121926   -0.03487479217960753   -0.008755319493460284
-0.4155989970121926   -0.03487479217960753   -0.008755319493460284
-0.4155989970121926   -0.03487479217960753   -0.008755319493460284
-0.43524895199932045   -0.07145073660631275   -0.0075246153723452225
-0.43524895199932045   -0.07145073660631275   -0.0075246153723452225
-0.43524895199932045   -0.07145073660631275   -0.0075246153723452225
-0.43524895199932045   -0.07145073660631275   -0.0075246153723452225
-0.2060054057681338   0.005922736676241028   0.00291742107151087
-0.2060054057681338   0.005922736676241028   0.00291742107151087
-0.2060054057681338   0.005922736676241028   0.00291742107151087
-0.2060054057681338   0.005922736676241028   0.00291742107151087
-0.31194158286395074   -0.027867663547524242   -0.006251692606999787
-0.31194158286395074   -0.027867663547524242   -0.006251692606999787
-0.31194158286395074   -0.027867663547524242   -0.006251692606999787
-0.31194158286395074   -0.027867663547524242   -0.006251692606999787
-0.37940038677933363   0.017156707561996765   0.011997893704636206
-0.37940038677933363   0.017156707561996765   0.011997893704636206
-0.37940038677933363   0.017156707561996765   0.011997893704636206
-0.37940038677933363   0.017156707561996765   0.011997893704636206
-0.5876286166195844   -0.029217363830142375   -0.007458654301510659
-0.5876286166195844   -0.029217363830142375   -0.007458654301510659
-0.5876286166195844   -0.029217363830142375   -0.007458654301510659
-0.5876286166195844   -0.029217363830142375   -0.007458654301510659
-0.6013048725206996   -0.029799182214488254   0.012214781746159281
-0.6013048725206996   -0.029799182214488254   0.012214781746159281
-0.6013048725206996   -0.029799182214488254   0.012214781746159281
-0.6013048725206996   -0.029799182214488254   0.012214781746159281
-0.392961460440424   0.012614409336438107   -0.002742140067106144
-0.392961460440424   0.012614409336438107   -0.002742140067106144
-0.392961460440424   0.012614409336438107   -0.002742140067106144
-0.392961460440424   0.012614409336438107   -0.002742140067106144
-0.46742956227668625   0.0001684542564463383   0.011961217247662623
-0.46742956227668625   0.0001684542564463383   0.011961217247662623
-0.46742956227668625   0.0001684542564463383   0.011961217247662623
-0.46742956227668625   0.0001684542564463383   0.011961217247662623
-0.3892309462953187   0.013231345566939685   0.015293494427917928
-0.3892309462953187   0.013231345566939685   0.015293494427917928
-0.3892309462953187   0.013231345566939685   0.015293494427917928
-0.3892309462953187   0.013231345566939685   0.015293494427917928
-0.6047667782072383   -0.030147509986423245   -0.004746418914598621
-0.6047667782072383   -0.030147509986423245   -0.004746418914598621
-0.6047667782072383   -0.030147509986423245   -0.004746418914598621
-0.6047667782072383   -0.030147509986423245   -0.004746418914598621
-0.6184816094221893   -0.0343976595809365   0.01668376670196181
-0.6184816094221893   -0.0343976595809365   0.01668376670196181
-0.6184816094221893   -0.0343976595809365   0.01668376670196181
-0.6184816094221893   -0.0343976595809365   0.01668376670196181
-0.4055584337554904   0.009477687884915733   -0.002904983274472278
-0.4055584337554904   0.009477687884915733   -0.002904983274472278
-0.4055584337554904   0.009477687884915733   -0.002904983274472278
-0.4055584337554904   0.009477687884915733   -0.002904983274472278
-0.4899858180259724   -0.005169978368801988   0.006865774798175489
-0.4899858180259724   -0.005169978368801988   0.006865774798175489
-0.4899858180259724   -0.005169978368801988   0.006865774798175489
-0.4899858180259724   -0.005169978368801988   0.006865774798175489
-0.4021429631662302   0.008552773201007256   0.015097284355736831
-0.4021429631662302   0.008552773201007256   0.015097284355736831
-0.4021429631662302   0.008552773201007256   0.015097284355736831
-0.4021429631662302   0.008552773201007256   0.015097284355736831
-0.6225411683295037   -0.03411683321508384   -0.0038948542004567654
-0.6225411683295037   -0.03411683321508384   -0.0038948542004567654
-0.6225411683295037   -0.03411683321508384   -0.0038948542004567654
-0.6225411683295037   -0.03411683321508384   -0.0038948542004567654
-0.6430036345138204   -0.05330907876906017   0.014314838530510354
-0.6430036345138204   -0.05330907876906017   0.014314838530510354
-0.6430036345138204   -0.05330907876906017   0.014314838530510354
-0.6430036345138204   -0.05330907876906017   0.014314838530510354
-0.42008760385987043   -0.00040877404528050915   -0.0027598372361303386
-0.42008760385987043   -0.00040877404528050915   -0.0027598372361303386
-0.42008760385987043   -0.00040877404528050915   -0.0027598372361303386
-0.42008760385987043   -0.00040877404528050915   -0.0027598372361303386
-0.49896317423169934   -0.012001424660703256   0.0025446553261560256
-0.49896317423169934   -0.012001424660703256   0.0025446553261560256
-0.49896317423169934   -0.012001424660703256   0.0025446553261560256
-0.49896317423169934   -0.012001424660703256   0.0025446553261560256
0.3868811783547471   0.02106033602634534   -0.01314038958802563
0.3868811783547471   0.02106033602634534   -0.01314038958802563
0.3868811783547471   0.02106033602634534   -0.01314038958802563
0.3868811783547471   0.02106033602634534   -0.01314038958802563
0.19078306688031305   -0.0009003397654195767   0.004577852266541921
0.19078306688031305   -0.0009003397654195767   0.004577852266541921
0.19078306688031305   -0.0009003397654195767   0.004577852266541921
0.19078306688031305   -0.0009003397654195767   0.004577852266541921
0.1750735021225044   -0.028062620570613733   -0.012195879201842882
0.1750735021225044   -0.028062620570613733   -0.012195879201842882
0.1750735021225044   -0.028062620570613733   -0.012195879201842882
0.1750735021225044   -0.028062620570613733   -0.012195879201842882
0.37994343521555596   0.030951745114269617   0.0057647138227387845
0.37994343521555596   0.030951745114269617   0.0057647138227387845
0.37994343521555596   0.030951745114269617   0.0057647138227387845
0.37994343521555596   0.030951745114269617   0.0057647138227387845
0.26853037650004336   0.0023394363077572436   -0.00885597969936578
0.26853037650004336   0.0023394363077572436   -0.00885597969936578
0.26853037650004336   0.0023394363077572436   -0.00885597969936578
0.26853037650004336   0.0023394363077572436   -0.00885597969936578
0.3723104039474305   0.011278496795014095   -0.01272719419862986
0.3723104039474305   0.011278496795014095   -0.01272719419862986
0.3723104039474305   0.011278496795014095   -0.01272719419862986
0.3723104039474305   0.011278496795014095   -0.01272719419862986
0.18239304826297897   -0.008702857379009122   0.005042088308922096
0.18239304826297897   -0.008702857379009122   0.005042088308922096
0.18239304826297897   -0.008702857379009122   0.005042088308922096
0.18239304826297897   -0.008702857379009122   0.005042088308922096
0.16722315079859043   -0.030304375793180863   -0.010642441978832122
0.16722315079859043   -0.030304375793180863   -0.010642441978832122
0.16722315079859043   -0.030304375793180863   -0.010642441978832122
0.16722315079859043   -0.030304375793180863   -0.010642441978832122
0.3682231581152783   0.027836507588885236   0.007981662953188237
0.3682231581152783   0.027836507588885236   0.007981662953188237
0.3682231581152783   0.027836507588885236   0.007981662953188237
0.3682231581152783   0.027836507588885236   0.007981662953188237
0.26264450768557934   -0.001775940155331196   -0.01142050198464789
0.26264450768557934   -0.001775940155331196   -0.01142050198464789
0.26264450768557934   -0.001775940155331196   -0.01142050198464789
0.26264450768557934   -0.001775940155331196   -0.01142050198464789
0.36074039819788195   0.008507030227888804   -0.010102659272790665
0.36074039819788195   0.008507030227888804   -0.010102659272790665
0.36074039819788195   0.008507030227888804   -0.010102659272790665
0.36074039819788195   0.008507030227888804   -0.010102659272790665
0.1744125069815056   -0.011268302166662292   0.006268265309223302
0.1744125069815056   -0.011268302166662292   0.006268265309223302
0.1744125069815056   -0.011268302166662292   0.006268265309223302
0.1744125069815056   -0.011268302166662292   0.006268265309223302
0.16008770044459128   -0.03072943590761843   -0.00870802583425987
0.16008770044459128   -0.03072943590761843   -0.00870802583425987
0.16008770044459128   -0.03072943590761843   -0.00870802583425987
0.16008770044459128   -0.03072943590761843   -0.00870802583425987
0.35501127313115144   0.025287950553434836   0.010027272164909368
0.35501127313115144   0.025287950553434836   0.010027272164909368
0.35501127313115144   0.025287950553434836   0.010027272164909368
0.35501127313115144   0.025287950553434836   0.010027272164909368
0.24809706207891682   -0.004532436950776941   -0.015409417187135468
0.24809706207891682   -0.004532436950776941   -0.015409417187135468
0.24809706207891682   -0.004532436950776941   -0.015409417187135468
0.24809706207891682   -0.004532436950776941   -0.015409417187135468
0.19442321278951447   0.020493045834539744   0.0013851962125897427
0.19442321278951447   0.020493045834539744   0.0013851962125897427
0.19442321278951447   0.020493045834539744   0.0013851962125897427
0.19442321278951447   0.020493045834539744   0.0013851962125897427
0.0051691140417603814   -0.006877392576399286   -0.0009818315620679597
0.0051691140417603814   -0.006877392576399286   -0.0009818315620679597
0.0051691140417603814   -0.006877392576399286   -0.0009818315620679597
0.0051691140417603814   -0.006877392576399286   -0.0009818315620679597
-0.006680906550140751   -0.02537089400824769   -0.00840317033958751
-0.006680906550140751   -0.02537089400824769   -0.00840317033958751
-0.006680906550140751   -0.02537089400824769   -0.00840317033958751
-0.006680906550140751   -0.02537089400824769   -0.00840317033958751
0.19083963596152217   0.028169112822301216   0.0104030566003279
0.19083963596152217   0.028169112822301216   0.0104030566003279
0.19083963596152217   0.028169112822301216   0.0104030566003279
0.19083963596152217   0.028169112822301216   0.0104030566003279
0.09443606045283982   0.004022477174735499   -0.0010029770512376933
0.09443606045283982   0.004022477174735499   -0.0010029770512376933
0.09443606045283982   0.004022477174735499   -0.0010029770512376933
0.09443606045283982   0.004022477174735499   -0.0010029770512376933
0.18670014797160325   0.01546741404885729   0.002407315424178068
0.18670014797160325   0.01546741404885729   0.002407315424178068
0.18670014797160325   0.01546741404885729   0.002407315424178068
0.18670014797160325   0.01546741404885729   0.002407315424178068
-0.00246271879422214   -0.012590495468801383   -9.263009944076011e-05
-0.00246271879422214   -0.012590495468801383   -9.263009944076011e-05
-0.00246271879422214   -0.012590495468801383   -9.263009944076011e-05
-0.00246271879422214   -0.012590495468801383   -9.263009944076011e-05
-0.014114839618004488   -0.028985674353592405   -0.007300098484703601
-0.014114839618004488   -0.028985674353592405   -0.007300098484703601
-0.014114839618004488   -0.028985674353592405   -0.007300098484703601
-0.014114839618004488   -0.028985674353592405   -0.007300098484703601
0.18241337324678997   0.02351464140624728   0.011489653062735583
0.18241337324678997   0.02351464140624728   0.011489653062735583
0.18241337324678997   0.02351464140624728   0.011489653062735583
0.18241337324678997   0.02351464140624728   0.011489653062735583
0.08528682203888226   -0.000590967836974635   -0.0036138541575730307
0.08528682203888226   -0.000590967836974635   -0.0036138541575730307
0.08528682203888226   -0.000590967836974635   -0.0036138541575730307
0.08528682203888226   -0.000590967836974635   -0.0036138541575730307
0.17843546998257412   0.011672802410870925   0.003441975737034468
0.17843546998257412   0.011672802410870925   0.003441975737034468
0.17843546998257412   0.011672802410870925   0.003441975737034468
0.17843546998257412   0.011672802410870925   0.003441975737034468
-0.010131638601863984   -0.017138537606291096   0.0007687698486976164
-0.010131638601863984   -0.017138537606291096   0.0007687698486976164
-0.010131638601863984   -0.017138537606291096   0.0007687698486976164
-0.010131638601863984   -0.017138537606291096   0.0007687698486976164
-0.021462862497542704   -0.031075449204751047   -0.005866008397669
-0.021462862497542704   -0.031075449204751047   -0.005866008397669
-0.021462862497542704   -0.031075449204751047   -0.005866008397669
-0.021462862497542704   -0.031075449204751047   -0.005866008397669
0.17439652338588466   0.019656603284295703   0.01245004968029071
0.17439652338588466   0.019656603284295703   0.01245004968029071
0.17439652338588466   0.019656603284295703   0.01245004968029071
0.17439652338588466   0.019656603284295703   0.01245004968029071
0.07863170553742706   -0.0034477497008305394   -0.005506697877170202
0.07863170553742706   -0.0034477497008305394   -0.005506697877170202
0.07863170553742706   -0.0034477497008305394   -0.005506697877170202
0.07863170553742706   -0.0034477497008305394   -0.005506697877170202
0.011710881920314966   0.020416874248460427   0.004432741005845256
0.011710881920314966   0.020416874248460427   0.004432741005845256
0.011710881920314966   0.020416874248460427   0.004432741005845256
0.011710881920314966   0.020416874248460427   0.004432741005845256
-0.17489117716274083   -0.011671860034322797   -0.005970684142084098
-0.17489117716274083   -0.011671860034322797   -0.005970684142084098
-0.17489117716274083   -0.011671860034322797   -0.005970684142084098
-0.17489117716274083   -0.011671860034322797   -0.005970684142084098
-0.18413236924355242   -0.023466659460615557   -0.005487783248448758
-0.18413236924355242   -0.023466659460615557   -0.005487783248448758
-0.18413236924355242   -0.023466659460615557   -0.005487783248448758
-0.18413236924355242   -0.023466659460615557   -0.005487783248448758
0.005718984522829359   0.023101474972991302   0.00512391604402405
0.005718984522829359   0.023101474972991302   0.00512391604402405
0.005718984522829359   0.023101474972991302   0.00512391604402405
0.005718984522829359   0.023101474972991302   0.00512391604402405
-0.08528634142308265   0.0024478158308267562   0.00037118754141905394
-0.08528634142308265   0.0024478158308267562   0.00037118754141905394
-0.08528634142308265   0.0024478158308267562   0.00037118754141905394
-0.08528634142308265   0.0024478158308267562   0.00037118754141905394
0.004464722395862669   0.01645094299449466   0.005503137387687245
0.004464722395862669   0.01645094299449466   0.005503137387687245
0.004464722395862669   0.01645094299449466   0.005503137387687245
0.004464722395862669   0.01645094299449466   0.005503137387687245
-0.18267202110408018   -0.01661004146961339   -0.0050426605420898635
-0.18267202110408018   -0.01661004146961339   -0.0050426605420898635
-0.18267202110408018   -0.01661004146961339   -0.0050426605420898635
-0.18267202110408018   -0.01661004146961339   -0.0050426605420898635
-0.19210383062965455   -0.02742887208656248   -0.004620840134452506
-0.19210383062965455   -0.02742887208656248   -0.004620840134452506
-0.19210383062965455   -0.02742887208656248   -0.004620840134452506
-0.19210383062965455   -0.02742887208656248   -0.004620840134452506
-0.0019558554763408555   0.018318588510105403   0.006190559359916758
-0.0019558554763408555   0.018318588510105403   0.006190559359916758
-0.0019558554763408555   0.018318588510105403   0.006190559359916758
-0.0019558554763408555   0.018318588510105403   0.006190559359916758
-0.09293006161465074   -0.0014700428199264327   -0.001570173404535257
-0.09293006161465074   -0.0014700428199264327   -0.001570173404535257
-0.09293006161465074   -0.0014700428199264327   -0.001570173404535257
-0.09293006161465074   -0.0014700428199264327   -0.001570173404535257
-0.0030202844978701824   0.01262450476596667   0.006562497996408857
-0.0030202844978701824   0.01262450476596667   0.006562497996408857
-0.0030202844978701824   0.01262450476596667   0.006562497996408857
-0.0030202844978701824   0.01262450476596667   0.006562497996408857
-0.19086750168011066   -0.02156288841440918   -0.0043051790588863326
-0.19086750168011066   -0.02156288841440918   -0.0043051790588863326
-0.19086750168011066   -0.02156288841440918   -0.0043051790588863326
-0.19086750168011066   -0.02156288841440918   -0.0043051790588863326
-0.20001196913617997   -0.030529333242040976   -0.003174305585754565
-0.20001196913617997   -0.030529333242040976   -0.003174305585754565
-0.20001196913617997   -0.030529333242040976   -0.003174305585754565
-0.20001196913617997   -0.030529333242040976   -0.003174305585754565
-0.009911309797509427   0.013813135639099649   0.0070031702586466765
-0.009911309797509427   0.013813135639099649   0.0070031702586466765
-0.009911309797509427   0.013813135639099649   0.0070031702586466765
-0.009911309797509427   0.013813135639099649   0.0070031702586466765
-0.10115815404199291   -0.005451690088699584   -0.0037027014733319596
-0.10115815404199291   -0.005451690088699584   -0.0037027014733319596
-0.10115815404199291   -0.005451690088699584   -0.0037027014733319596
-0.10115815404199291   -0.005451690088699584   -0.0037027014733319596
-0.1650564926899117   0.023758461861115975   0.007772416326625689
-0.1650564926899117   0.023758461861115975   0.007772416326625689
-0.1650564926899117   0.023758461861115975   0.007772416326625689
-0.1650564926899117   0.023758461861115975   0.007772416326625689
-0.34964112287860505   -0.015939061862984497   -0.00970161676139504
-0.34964112287860505   -0.015939061862984497   -0.00970161676139504
-0.34964112287860505   -0.015939061862984497   -0.00970161676139504
-0.34964112287860505   -0.015939061862984497   -0.00970161676139504
-0.35682533248020765   -0.0192134848851696   -0.0018804933193844048
-0.35682533248020765   -0.0192134848851696   -0.0018804933193844048
-0.35682533248020765   -0.0192134848851696   -0.0018804933193844048
-0.35682533248020765   -0.0192134848851696   -0.0018804933193844048
-0.17484558846239562   0.01758887965989258   -0.00010941846317188281
-0.17484558846239562   0.01758887965989258   -0.00010941846317188281
-0.17484558846239562   0.01758887965989258   -0.00010941846317188281
-0.17484558846239562   0.01758887965989258   -0.00010941846317188281
-0.25969418440697634   0.002296595258037099   0.0019297403754834977
-0.25969418440697634   0.002296595258037099   0.0019297403754834977
-0.25969418440697634   0.002296595258037099   0.0019297403754834977
-0.25969418440697634   0.002296595258037099   0.0019297403754834977
-0.17265348392317206   0.01973748355723505   0.008702500335603304
-0.17265348392317206   0.01973748355723505   0.008702500335603304
-0.17265348392317206   0.01973748355723505   0.008702500335603304
-0.17265348392317206   0.01973748355723505   0.008702500335603304
-0.35875225727689497   -0.0210969090399759   -0.009631693148014916
-0.35875225727689497   -0.0210969090399759   -0.009631693148014916
-0.35875225727689497   -0.0210969090399759   -0.009631693148014916
-0.35875225727689497   -0.0210969090399759   -0.009631693148014916
-0.36663134635121364   -0.023680436273791315   -0.0017511906253581677
-0.36663134635121364   -0.023680436273791315   -0.0017511906253581677
-0.36663134635121364   -0.023680436273791315   -0.0017511906253581677
-0.36663134635121364   -0.023680436273791315   -0.0017511906253581677
-0.1829219674709227   0.013025204245151585   0.0008343993274947253
-0.1829219674709227   0.013025204245151585   0.0008343993274947253
-0.1829219674709227   0.013025204245151585   0.0008343993274947253
-0.1829219674709227   0.013025204245151585   0.0008343993274947253
-0.2664676894010552   -0.00123354615898124   0.00034633462982910923
-0.2664676894010552   -0.00123354615898124   0.00034633462982910923
-0.2664676894010552   -0.00123354615898124   0.00034633462982910923
-0.2664676894010552   -0.00123354615898124   0.00034633462982910923
-0.1805126463139987   0.015895653108480477   0.010010556248785885
-0.1805126463139987   0.015895653108480477   0.010010556248785885
-0.1805126463139987   0.015895653108480477   0.010010556248785885
-0.1805126463139987   0.015895653108480477   0.010010556248785885
-0.3684814464174247   -0.025991664046407233   -0.008690463183797417
-0.3684814464174247   -0.025991664046407233   -0.008690463183797417
-0.3684814464174247   -0.025991664046407233   -0.008690463183797417
-0.3684814464174247   -0.025991664046407233   -0.008690463183797417
-0.37563876363402166   -0.02848446040377045   0.0005147935373413237
-0.37563876363402166   -0.02848446040377045   0.0005147935373413237
-0.37563876363402166   -0.02848446040377045   0.0005147935373413237
-0.37563876363402166   -0.02848446040377045   0.0005147935373413237
-0.19148255701397324   0.00754919518834587   0.0013942265948922589
-0.19148255701397324   0.00754919518834587   0.0013942265948922589
-0.19148255701397324   0.00754919518834587   0.0013942265948922589
-0.19148255701397324   0.00754919518834587   0.0013942265948922589
-0.2772916992321031   -0.006311676438895204   -0.0018274954290798673
-0.2772916992321031   -0.006311676438895204   -0.0018274954290798673
-0.2772916992321031   -0.006311676438895204   -0.0018274954290798673
-0.2772916992321031   -0.006311676438895204   -0.0018274954290798673
-0.3374790522519852   0.024448512337852515   0.010721162170864496
-0.3374790522519852   0.024448512337852515   0.010721162170864496
-0.3374790522519852   0.024448512337852515   0.010721162170864496
-0.3374790522519852   0.024448512337852515   0.010721162170864496
-0.5167350362667469   -0.023996258123243214   -0.008673915448469627
-0.5167350362667469   -0.023996258123243214   -0.008673915448469627
-0.5167350362667469   -0.023996258123243214   -0.008673915448469627
-0.5167350362667469   -0.023996258123243214   -0.008673915448469627
-0.5233819873490476   -0.011119207466809673   0.00901030282526323
-0.5233819873490476   -0.011119207466809673   0.00901030282526323
-0.5233819873490476   -0.011119207466809673   0.00901030282526323
-0.5233819873490476   -0.011119207466809673   0.00901030282526323
-0.351357152850617   0.010919941938832885   -0.004673021995433971
-0.351357152850617   0.010919941938832885   -0.004673021995433971
-0.351357152850617   0.010919941938832885   -0.004673021995433971
-0.351357152850617   0.010919941938832885   -0.004673021995433971
-0.41306270470138906   0.00490509883734629   0.009668526260553659
-0.41306270470138906   0.00490509883734629   0.009668526260553659
-0.41306270470138906   0.00490509883734629   0.009668526260553659
-0.41306270470138906   0.00490509883734629   0.009668526260553659
-0.34509995889433265   0.025201429670034203   0.012331460054782958
-0.34509995889433265   0.025201429670034203   0.012331460054782958
-0.34509995889433265   0.025201429670034203   0.012331460054782958
-0.34509995889433265   0.025201429670034203   0.012331460054782958
-0.5292719151581515   -0.02503342905083299   -0.006525114636228832
-0.5292719151581515   -0.02503342905083299   -0.006525114636228832
-0.5292719151581515   -0.02503342905083299   -0.006525114636228832
-0.5292719151581515   -0.02503342905083299   -0.006525114636228832
-0.5355777657631086   -0.013459379945219847   0.012429009582468009
-0.5355777657631086   -0.013459379945219847   0.012429009582468009
-0.5355777657631086   -0.013459379945219847   0.012429009582468009
-0.5355777657631086   -0.013459379945219847   0.012429009582468009
-0.36071369069720977   0.008301041162460485   -0.004144389791590597
-0.36071369069720977   0.008301041162460485   -0.004144389791590597
-0.36071369069720977   0.008301041162460485   -0.004144389791590597
-0.36071369069720977   0.008301041162460485   -0.004144389791590597
-0.4302101843162495   0.0024566907550412596   0.006410427786046974
-0.4302101843162495   0.0024566907550412596   0.006410427786046974
-0.4302101843162495   0.0024566907550412596   0.006410427786046974
-0.4302101843162495   0.0024566907550412596   0.006410427786046974
-0.3537972984027011   0.023465528482544816   0.015273084360868494
-0.3537972984027011   0.023465528482544816   0.015273084360868494
-0.3537972984027011   0.023465528482544816   0.015273084360868494
-0.3537972984027011   0.023465528482544816   0.015273084360868494
-0.5421309016842116   -0.028260610891895462   -0.005535439076368429
-0.5421309016842116   -0.028260610891895462   -0.005535439076368429
-0.5421309016842116   -0.028260610891895462   -0.005535439076368429
-0.5421309016842116   -0.028260610891895462   -0.005535439076368429
-0.5521332502939751   -0.02381657986973478   0.012246780075718305
-0.5521332502939751   -0.02381657986973478   0.012246780075718305
-0.5521332502939751   -0.02381657986973478   0.012246780075718305
-0.5521332502939751   -0.02381657986973478   0.012246780075718305
-0.37078909741005345   0.0001936040220440298   -0.0039149397686329135
-0.37078909741005345   0.0001936040220440298   -0.0039149397686329135
-0.37078909741005345   0.0001936040220440298   -0.0039149397686329135
-0.37078909741005345   0.0001936040220440298   -0.0039149397686329135
-0.43470623974413913   -0.0011806998140916694   0.00543760005877221
-0.43470623974413913   -0.0011806998140916694   0.00543760005877221
-0.43470623974413913   -0.0011806998140916694   0.00543760005877221
-0.43470623974413913   -0.0011806998140916694   0.00543760005877221
0.29751034143696936   0.016819889480663368   -0.013548276059699688
0.29751034143696936   0.016819889480663368   -0.013548276059699688
0.29751034143696936   0.016819889480663368   -0.013548276059699688
0.29751034143696936   0.016819889480663368   -0.013548276059699688
0.14080787846084983   0.002210705760318935   0.005019197627857984
0.14080787846084983   0.002210705760318935   0.005019197627857984
0.14080787846084983   0.002210705760318935   0.005019197627857984
0.14080787846084983   0.002210705760318935   0.005019197627857984
0.12582806956475268   -0.02361550690535004   -0.012956180624556245
0.12582806956475268   -0.02361550690535004   -0.012956180624556245
0.12582806956475268   -0.02361550690535004   -0.012956180624556245
0.12582806956475268   -0.02361550690535004   -0.012956180624556245
0.29144097704526767   0.027014663445534243   0.006228161205704519
0.29144097704526767   0.027014663445534243   0.006228161205704519
0.29144097704526767   0.027014663445534243   0.006228161205704519
0.29144097704526767   0.027014663445534243   0.006228161205704519
0.2028497337267212   0.002718498039112475   -0.006015050335504098
0.2028497337267212   0.002718498039112475   -0.006015050335504098
0.2028497337267212   0.002718498039112475   -0.006015050335504098
0.2028497337267212   0.002718498039112475   -0.006015050335504098
0.28381930377195663   0.008000723098282703   -0.012866264813596498
0.28381930377195663   0.008000723098282703   -0.012866264813596498
0.28381930377195663   0.008000723098282703   -0.012866264813596498
0.28381930377195663   0.008000723098282703   -0.012866264813596498
0.133304399967981   -0.004746909428181005   0.005556873914414957
0.133304399967981   -0.004746909428181005   0.005556873914414957
0.133304399967981   -0.004746909428181005   0.005556873914414957
0.133304399967981   -0.004746909428181005   0.005556873914414957
0.11885911240110197   -0.025851520439706205   -0.011094431475592623
0.11885911240110197   -0.025851520439706205   -0.011094431475592623
0.11885911240110197   -0.025851520439706205   -0.011094431475592623
0.11885911240110197   -0.025851520439706205   -0.011094431475592623
0.28059700363960244   0.02379770974756165   0.008273624361332166
0.28059700363960244   0.02379770974756165   0.008273624361332166
0.28059700363960244   0.02379770974756165   0.008273624361332166
0.28059700363960244   0.02379770974756165   0.008273624361332166
0.19681511490325457   -0.0012134060131166868   -0.008269972076791567
0.19681511490325457   -0.0012134060131166868   -0.008269972076791567
0.19681511490325457   -0.0012134060131166868   -0.008269972076791567
0.19681511490325457   -0.0012134060131166868   -0.008269972076791567
0.2731371994651325   0.00514787159627313   -0.010375558359726478
0.2731371994651325   0.00514787159627313   -0.010375558359726478
0.2731371994651325   0.00514787159627313   -0.010375558359726478
0.2731371994651325   0.00514787159627313   -0.010375558359726478
0.12612324003775707   -0.007397358826232199   0.006772045094208243
0.12612324003775707   -0.007397358826232199   0.006772045094208243
0.12612324003775707   -0.007397358826232199   0.006772045094208243
0.12612324003775707   -0.007397358826232199   0.006772045094208243
0.11260657437261049   -0.027048224778229043   -0.009248905734869077
0.11260657437261049   -0.027048224778229043   -0.009248905734869077
0.11260657437261049   -0.027048224778229043   -0.009248905734869077
0.11260657437261049   -0.027048224778229043   -0.009248905734869077
0.2683430898264615   0.020445864378547944   0.009898408829118556
0.2683430898264615   0.020445864378547944   0.009898408829118556
0.2683430898264615   0.020445864378547944   0.009898408829118556
0.2683430898264615   0.020445864378547944   0.009898408829118556
0.18426237781371538   -0.004121004404352849   -0.011714256941012628
0.18426237781371538   -0.004121004404352849   -0.011714256941012628
0.18426237781371538   -0.004121004404352849   -0.011714256941012628
0.18426237781371538   -0.004121004404352849   -0.011714256941012628
0.1434261246955781   0.0208621689826184   -0.0005410344207972748
0.1434261246955781   0.0208621689826184   -0.0005410344207972748
0.1434261246955781   0.0208621689826184   -0.0005410344207972748
0.1434261246955781   0.0208621689826184   -0.0005410344207972748
-0.010032633468131102   -0.0024772790380774177   -0.0002484464339276957
-0.010032633468131102   -0.0024772790380774177   -0.0002484464339276957
-0.010032633468131102   -0.0024772790380774177   -0.0002484464339276957
-0.010032633468131102   -0.0024772790380774177   -0.0002484464339276957
-0.020589959326736254   -0.017863594895326584   -0.00833088669955265
-0.020589959326736254   -0.017863594895326584   -0.00833088669955265
-0.020589959326736254   -0.017863594895326584   -0.00833088669955265
-0.020589959326736254   -0.017863594895326584   -0.00833088669955265
0.1399375786471372   0.024644051140802724   0.009331806741212222
0.1399375786471372   0.024644051140802724   0.009331806741212222
0.1399375786471372   0.024644051140802724   0.009331806741212222
0.1399375786471372   0.024644051140802724   0.009331806741212222
0.062202444818741535   0.005999964476266861   0.0004897729042299039
0.062202444818741535   0.005999964476266861   0.0004897729042299039
0.062202444818741535   0.005999964476266861   0.0004897729042299039
0.062202444818741535   0.005999964476266861   0.0004897729042299039
0.13633173686805383   0.0153135429007185   0.0006331060858826842
0.13633173686805383   0.0153135429007185   0.0006331060858826842
0.13633173686805383   0.0153135429007185   0.0006331060858826842
0.13633173686805383   0.0153135429007185   0.0006331060858826842
-0.01692566540651747   -0.008474634514106431   0.0006016225203211208
-0.01692566540651747   -0.008474634514106431   0.0006016225203211208
-0.01692566540651747   -0.008474634514106431   0.0006016225203211208
-0.01692566540651747   -0.008474634514106431   0.0006016225203211208
-0.027147866445742522   -0.02208109297083673   -0.0069277791301520005
-0.027147866445742522   -0.02208109297083673   -0.0069277791301520005
-0.027147866445742522   -0.02208109297083673   -0.0069277791301520005
-0.027147866445742522   -0.02208109297083673   -0.0069277791301520005
0.13219529107914874   0.019542089543874624   0.010192851931059635
0.13219529107914874   0.019542089543874624   0.010192851931059635
0.13219529107914874   0.019542089543874624   0.010192851931059635
0.13219529107914874   0.019542089543874624   0.010192851931059635
0.05406037023838535   0.000934670103410468   -0.0020464870323676256
0.05406037023838535   0.000934670103410468   -0.0020464870323676256
0.05406037023838535   0.000934670103410468   -0.0020464870323676256
0.05406037023838535   0.000934670103410468   -0.0020464870323676256
0.12871296434090101   0.010784408807718075   0.0015388989759784616
0.12871296434090101   0.010784408807718075   0.0015388989759784616
0.12871296434090101   0.010784408807718075   0.0015388989759784616
0.12871296434090101   0.010784408807718075   0.0015388989759784616
-0.02372307382233546   -0.013380946349520686   0.0014960373655672574
-0.02372307382233546   -0.013380946349520686   0.0014960373655672574
-0.02372307382233546   -0.013380946349520686   0.0014960373655672574
-0.02372307382233546   -0.013380946349520686   0.0014960373655672574
-0.033611360096495194   -0.02555716326461718   -0.005610899581893841
-0.033611360096495194   -0.02555716326461718   -0.005610899581893841
-0.033611360096495194   -0.02555716326461718   -0.005610899581893841
-0.033611360096495194   -0.02555716326461718   -0.005610899581893841
0.12504597279005303   0.01488649847016676   0.011013363103947228
0.12504597279005303   0.01488649847016676   0.011013363103947228
0.12504597279005303   0.01488649847016676   0.011013363103947228
0.12504597279005303   0.01488649847016676   0.011013363103947228
0.0479081141809791   -0.0028229912290527225   -0.0041320319170544025
0.0479081141809791   -0.0028229912290527225   -0.0041320319170544025
0.0479081141809791   -0.0028229912290527225   -0.0041320319170544025
0.0479081141809791   -0.0028229912290527225   -0.0041320319170544025
-0.003913782534282651   0.024409551299360743   0.0034589778978754405
-0.003913782534282651   0.024409551299360743   0.0034589778978754405
-0.003913782534282651   0.024409551299360743   0.0034589778978754405
-0.003913782534282651   0.024409551299360743   0.0034589778978754405
-0.15770394815650446   -0.007257644237451395   -0.005225493796272632
-0.15770394815650446   -0.007257644237451395   -0.005225493796272632
-0.15770394815650446   -0.007257644237451395   -0.005225493796272632
-0.15770394815650446   -0.007257644237451395   -0.005225493796272632
-0.16450030001346905   -0.012790408837652315   -0.004116218472895644
-0.16450030001346905   -0.012790408837652315   -0.004116218472895644
-0.16450030001346905   -0.012790408837652315   -0.004116218472895644
-0.16450030001346905   -0.012790408837652315   -0.004116218472895644
-0.010548718706566592   0.019889940983307867   0.004121780522662168
-0.010548718706566592   0.019889940983307867   0.004121780522662168
-0.010548718706566592   0.019889940983307867   0.004121780522662168
-0.010548718706566592   0.019889940983307867   0.004121780522662168
-0.08396439599427115   0.0060845025765331575   0.0016384802324105642
-0.08396439599427115   0.0060845025765331575   0.0016384802324105642
-0.08396439599427115   0.0060845025765331575   0.0016384802324105642
-0.08396439599427115   0.0060845025765331575   0.0016384802324105642
-0.010431484560627174   0.019805146995523843   0.004792745240143278
-0.010431484560627174   0.019805146995523843   0.004792745240143278
-0.010431484560627174   0.019805146995523843   0.004792745240143278
-0.010431484560627174   0.019805146995523843   0.004792745240143278
-0.1644944797207402   -0.012582560411200025   -0.004294965435703693
-0.1644944797207402   -0.012582560411200025   -0.004294965435703693
-0.1644944797207402   -0.012582560411200025   -0.004294965435703693
-0.1644944797207402   -0.012582560411200025   -0.004294965435703693
-0.17121991431846476   -0.017352480529699538   -0.0029007269969840085
-0.17121991431846476   -0.017352480529699538   -0.0029007269969840085
-0.17121991431846476   -0.017352480529699538   -0.0029007269969840085
-0.17121991431846476   -0.017352480529699538   -0.0029007269969840085
-0.017392165835383274   0.014638651344531883   0.0051309796062756225
-0.017392165835383274   0.014638651344531883   0.0051309796062756225
-0.017392165835383274   0.014638651344531883   0.0051309796062756225
-0.017392165835383274   0.014638651344531883   0.0051309796062756225
-0.09075354906322905   0.001550020509785058   -0.0004047488051278081
-0.09075354906322905   0.001550020509785058   -0.0004047488051278081
-0.09075354906322905   0.001550020509785058   -0.0004047488051278081
-0.09075354906322905   0.001550020509785058   -0.0004047488051278081
-0.01713608757735007   0.015212028888429097   0.005837993352544438
-0.01713608757735007   0.015212028888429097   0.005837993352544438
-0.01713608757735007   0.015212028888429097   0.005837993352544438
-0.01713608757735007   0.015212028888429097   0.005837993352544438
-0.17144611711364005   -0.01789598261073848   -0.0034882388918194077
-0.17144611711364005   -0.01789598261073848   -0.0034882388918194077
-0.17144611711364005   -0.01789598261073848   -0.0034882388918194077
-0.17144611711364005   -0.01789598261073848   -0.0034882388918194077
-0.17785004061330306   -0.02151361084199688   -0.001691831331042351
-0.17785004061330306   -0.02151361084199688   -0.001691831331042351
-0.17785004061330306   -0.02151361084199688   -0.001691831331042351
-0.17785004061330306   -0.02151361084199688   -0.001691831331042351
-0.02427078143996512   0.009560121103494888   0.0059747093326444406
-0.02427078143996512   0.009560121103494888   0.0059747093326444406
-0.02427078143996512   0.009560121103494888   0.0059747093326444406
-0.02427078143996512   0.009560121103494888   0.0059747093326444406
-0.09786142531172456   -0.0030181108189401137   -0.0026861744874268553
-0.09786142531172456   -0.0030181108189401137   -0.0026861744874268553
-0.09786142531172456   -0.0030181108189401137   -0.0026861744874268553
-0.09786142531172456   -0.0030181108189401137   -0.0026861744874268553
-0.1482105202324147   0.027736818613230955   0.007247182973491879
-0.1482105202324147   0.027736818613230955   0.007247182973491879
-0.1482105202324147   0.027736818613230955   0.007247182973491879
-0.1482105202324147   0.027736818613230955   0.007247182973491879
-0.3024761346435317   -0.012174554267931108   -0.009325121435270811
-0.3024761346435317   -0.012174554267931108   -0.009325121435270811
-0.3024761346435317   -0.012174554267931108   -0.009325121435270811
-0.3024761346435317   -0.012174554267931108   -0.009325121435270811
-0.30616963536671554   -0.00856036188085529   0.0004684207374087007
-0.30616963536671554   -0.00856036188085529   0.0004684207374087007
-0.30616963536671554   -0.00856036188085529   0.0004684207374087007
-0.30616963536671554   -0.00856036188085529   0.0004684207374087007
-0.1584592039129549   0.014353224410080152   -0.001054371218056415
-0.1584592039129549   0.014353224410080152   -0.001054371218056415
-0.1584592039129549   0.014353224410080152   -0.001054371218056415
-0.1584592039129549   0.014353224410080152   -0.001054371218056415
-0.22731768359518012   0.005601758424012681   0.002767330849283947
-0.22731768359518012   0.005601758424012681   0.002767330849283947
-0.22731768359518012   0.005601758424012681   0.002767330849283947
-0.22731768359518012   0.005601758424012681   0.002767330849283947
-0.15474507366327217   0.0233373060003683   0.008532198440067983
-0.15474507366327217   0.0233373060003683   0.008532198440067983
-0.15474507366327217   0.0233373060003683   0.008532198440067983
-0.15474507366327217   0.0233373060003683   0.008532198440067983
-0.30986146125447167   -0.017522139109214838   -0.009028931473014562
-0.30986146125447167   -0.017522139109214838   -0.009028931473014562
-0.30986146125447167   -0.017522139109214838   -0.009028931473014562
-0.30986146125447167   -0.017522139109214838   -0.009028931473014562
-0.3140017392972654   -0.013177157848369432   0.000902360686232298
-0.3140017392972654   -0.013177157848369432   0.000902360686232298
-0.3140017392972654   -0.013177157848369432   0.000902360686232298
-0.3140017392972654   -0.013177157848369432   0.000902360686232298
-0.16527961889150536   0.009486458996443629   -3.8189388327988794e-05
-0.16527961889150536   0.009486458996443629   -3.8189388327988794e-05
-0.16527961889150536   0.009486458996443629   -3.8189388327988794e-05
-0.16527961889150536   0.009486458996443629   -3.8189388327988794e-05
-0.23297717796483028   0.0016028674904816544   0.0008758016401129096
-0.23297717796483028   0.0016028674904816544   0.0008758016401129096
-0.23297717796483028   0.0016028674904816544   0.0008758016401129096
-0.23297717796483028   0.0016028674904816544   0.0008758016401129096
-0.16140374289407194   0.019106249345066106   0.009721400250216568
-0.16140374289407194   0.019106249345066106   0.009721400250216568
-0.16140374289407194   0.019106249345066106   0.009721400250216568
-0.16140374289407194   0.019106249345066106   0.009721400250216568
-0.3176830792291484   -0.0226024121314422   -0.008079084690114036
-0.3176830792291484   -0.0226024121314422   -0.008079084690114036
-0.3176830792291484   -0.0226024121314422   -0.008079084690114036
-0.3176830792291484   -0.0226024121314422   -0.008079084690114036
-0.32108210148670857   -0.018179178440473124   0.0023519029235326144
-0.32108210148670857   -0.018179178440473124   0.0023519029235326144
-0.32108210148670857   -0.018179178440473124   0.0023519029235326144
-0.32108210148670857   -0.018179178440473124   0.0023519029235326144
-0.1722949823938454   0.0038738869583016984   0.0006959619659475599
-0.1722949823938454   0.0038738869583016984   0.0006959619659475599
-0.1722949823938454   0.0038738869583016984   0.0006959619659475599
-0.1722949823938454   0.0038738869583016984   0.0006959619659475599
-0.2418130991552252   -0.0035085318078365603   -0.0015634975396405237
-0.2418130991552252   -0.0035085318078365603   -0.0015634975396405237
-0.2418130991552252   -0.0035085318078365603   -0.0015634975396405237
-0.2418130991552252   -0.0035085318078365603   -0.0015634975396405237
-0.29116801266801184   0.024883430434231024   0.010157503740166517
-0.29116801266801184   0.024883430434231024   0.010157503740166517
-0.29116801266801184   0.024883430434231024   0.010157503740166517
-0.29116801266801184   0.024883430434231024   0.010157503740166517
-0.44111256206111626   -0.02047836191334325   -0.01000875624886674
-0.44111256206111626   -0.02047836191334325   -0.01000875624886674
-0.44111256206111626   -0.02047836191334325   -0.01000875624886674
-0.44111256206111626   -0.02047836191334325   -0.01000875624886674
-0.445695095706254   -0.00515247643286687   0.009302829001704233
-0.445695095706254   -0.00515247643286687   0.009302829001704233
-0.445695095706254   -0.00515247643286687   0.009302829001704233
-0.445695095706254   -0.00515247643286687   0.009302829001704233
-0.3041754724941597   0.007590792809285502   -0.005711919589952985
-0.3041754724941597   0.007590792809285502   -0.005711919589952985
-0.3041754724941597   0.007590792809285502   -0.005711919589952985
-0.3041754724941597   0.007590792809285502   -0.005711919589952985
-0.3540815829363959   0.00540198796885755   0.008811814282042404
-0.3540815829363959   0.00540198796885755   0.008811814282042404
-0.3540815829363959   0.00540198796885755   0.008811814282042404
-0.3540815829363959   0.00540198796885755   0.008811814282042404
-0.2971502420913046   0.025080777947085176   0.011924247286515081
-0.2971502420913046   0.025080777947085176   0.011924247286515081
-0.2971502420913046   0.025080777947085176   0.011924247286515081
-0.2971502420913046   0.025080777947085176   0.011924247286515081
-0.45261384158989737   -0.022535977051455502   -0.007907399797920336
-0.45261384158989737   -0.022535977051455502   -0.007907399797920336
-0.45261384158989737   -0.022535977051455502   -0.007907399797920336
-0.45261384158989737   -0.022535977051455502   -0.007907399797920336
-0.45597704265789907   -0.007598585558918364   0.011620828562204477
-0.45597704265789907   -0.007598585558918364   0.011620828562204477
-0.45597704265789907   -0.007598585558918364   0.011620828562204477
-0.45597704265789907   -0.007598585558918364   0.011620828562204477
-0.3115366219588931   0.004925271101483098   -0.0048744815717590845
-0.3115366219588931   0.004925271101483098   -0.0048744815717590845
-0.3115366219588931   0.004925271101483098   -0.0048744815717590845
-0.3115366219588931   0.004925271101483098   -0.0048744815717590845
-0.3687526389551301   0.0026956210322795077   0.0055280018255594865
-0.3687526389551301   0.0026956210322795077   0.0055280018255594865
-0.3687526389551301   0.0026956210322795077   0.0055280018255594865
-0.3687526389551301   0.0026956210322795077   0.0055280018255594865
-0.30408619535837844   0.023263335579170343   0.014039586953127348
-0.30408619535837844   0.023263335579170343   0.014039586953127348
-0.30408619535837844   0.023263335579170343   0.014039586953127348
-0.30408619535837844   0.023263335579170343   0.014039586953127348
-0.4632386235142917   -0.025747804292482575   -0.006537856986188903
-0.4632386235142917   -0.025747804292482575   -0.006537856986188903
-0.4632386235142917   -0.025747804292482575   -0.006537856986188903
-0.4632386235142917   -0.025747804292482575   -0.006537856986188903
-0.4695556178701624   -0.016510795982590736   0.011329580668302253
-0.4695556178701624   -0.016510795982590736   0.011329580668302253
-0.4695556178701624   -0.016510795982590736   0.011329580668302253
-0.4695556178701624   -0.016510795982590736   0.011329580668302253
-0.31933899486044304   -0.002684964162941901   -0.004426778222672789
-0.31933899486044304   -0.002684964162941901   -0.004426778222672789
-0.31933899486044304   -0.002684964162941901   -0.004426778222672789
-0.31933899486044304   -0.002684964162941901   -0.004426778222672789
-0.37213101289962497   -0.0007466740835399555   0.004503790352918591
-0.37213101289962497   -0.0007466740835399555   0.004503790352918591
-0.37213101289962497   -0.0007466740835399555   0.004503790352918591
-0.37213101289962497   -0.0007466740835399555   0.004503790352918591
0.20839652947694406   0.012049858581822635   -0.013373689280702428
0.20839652947694406   0.012049858581822635   -0.013373689280702428
0.20839652947694406   0.012049858581822635   -0.013373689280702428
0.20839652947694406   0.012049858581822635   -0.013373689280702428
0.08897962644072537   0.005075578492824948   0.0056157962135841115
0.08897962644072537   0.005075578492824948   0.0056157962135841115
0.08897962644072537   0.005075578492824948   0.0056157962135841115
0.08897962644072537   0.005075578492824948   0.0056157962135841115
0.0752896793064483   -0.019965151056653918   -0.01251961356641689
0.0752896793064483   -0.019965151056653918   -0.01251961356641689
0.0752896793064483   -0.019965151056653918   -0.01251961356641689
0.0752896793064483   -0.019965151056653918   -0.01251961356641689
0.2038522552394695   0.023252238254803402   0.006837905044332682
0.2038522552394695   0.023252238254803402   0.006837905044332682
0.2038522552394695   0.023252238254803402   0.006837905044332682
0.2038522552394695   0.023252238254803402   0.006837905044332682
0.1365107876227823   0.0029928247674779404   -0.0037181524574349187
0.1365107876227823   0.0029928247674779404   -0.0037181524574349187
0.1365107876227823   0.0029928247674779404   -0.0037181524574349187
0.1365107876227823   0.0029928247674779404   -0.0037181524574349187
0.19617011772161388   0.004208958734694816   -0.012529503024838823
0.19617011772161388   0.004208958734694816   -0.012529503024838823
0.19617011772161388   0.004208958734694816   -0.012529503024838823
0.19617011772161388   0.004208958734694816   -0.012529503024838823
0.0828264615279152   -0.0010672268329341358   0.006266373317199297
0.0828264615279152   -0.0010672268329341358   0.006266373317199297
0.0828264615279152   -0.0010672268329341358   0.006266373317199297
0.0828264615279152   -0.0010672268329341358   0.006266373317199297
0.06949267724696953   -0.022217810575064133   -0.010699650859163868
0.06949267724696953   -0.022217810575064133   -0.010699650859163868
0.06949267724696953   -0.022217810575064133   -0.010699650859163868
0.06949267724696953   -0.022217810575064133   -0.010699650859163868
0.19429250554343658   0.020048706677392125   0.008884831964454595
0.19429250554343658   0.020048706677392125   0.008884831964454595
0.19429250554343658   0.020048706677392125   0.008884831964454595
0.19429250554343658   0.020048706677392125   0.008884831964454595
0.13067230805650557   -0.0007620750235159627   -0.005898467862388922
0.13067230805650557   -0.0007620750235159627   -0.005898467862388922
0.13067230805650557   -0.0007620750235159627   -0.005898467862388922
0.13067230805650557   -0.0007620750235159627   -0.005898467862388922
0.18671872038771162   0.0013168756646342265   -0.010252262801414162
0.18671872038771162   0.0013168756646342265   -0.010252262801414162
0.18671872038771162   0.0013168756646342265   -0.010252262801414162
0.18671872038771162   0.0013168756646342265   -0.010252262801414162
0.07684436934547212   -0.003708072619528829   0.007549071677814292
0.07684436934547212   -0.003708072619528829   0.007549071677814292
0.07684436934547212   -0.003708072619528829   0.007549071677814292
0.07684436934547212   -0.003708072619528829   0.007549071677814292
0.06433262816410323   -0.02412211544041941   -0.00893102860335997
0.06433262816410323   -0.02412211544041941   -0.00893102860335997
0.06433262816410323   -0.02412211544041941   -0.00893102860335997
0.06433262816410323   -0.02412211544041941   -0.00893102860335997
0.18309406141719295   0.015935116310637293   0.010198323414904564
0.18309406141719295   0.015935116310637293   0.010198323414904564
0.18309406141719295   0.015935116310637293   0.010198323414904564
0.18309406141719295   0.015935116310637293   0.010198323414904564
0.12034131201777014   -0.0037873856697924185   -0.008969496702392124
0.12034131201777014   -0.0037873856697924185   -0.008969496702392124
0.12034131201777014   -0.0037873856697924185   -0.008969496702392124
0.12034131201777014   -0.0037873856697924185   -0.008969496702392124
0.08982217325659281   0.01710349445900152   -0.0021993856732568998
0.08982217325659281   0.01710349445900152   -0.0021993856732568998
0.08982217325659281   0.01710349445900152   -0.0021993856732568998
0.08982217325659281   0.01710349445900152   -0.0021993856732568998
-0.026818884737327617   0.001093715399745935   0.0006328957654457481
-0.026818884737327617   0.001093715399745935   0.0006328957654457481
-0.026818884737327617   0.001093715399745935   0.0006328957654457481
-0.026818884737327617   0.001093715399745935   0.0006328957654457481
-0.03618044462143788   -0.014002526492239032   -0.007783058155421469
-0.03618044462143788   -0.014002526492239032   -0.007783058155421469
-0.03618044462143788   -0.014002526492239032   -0.007783058155421469
-0.03618044462143788   -0.014002526492239032   -0.007783058155421469
0.08756646482211536   0.020484262303307355   0.008414900651958594
0.08756646482211536   0.020484262303307355   0.008414900651958594
0.08756646482211536   0.020484262303307355   0.008414900651958594
0.08756646482211536   0.020484262303307355   0.008414900651958594
0.02797707977867928   0.005862951473063692   0.0010921979307867346
0.02797707977867928   0.005862951473063692   0.0010921979307867346
0.02797707977867928   0.005862951473063692   0.0010921979307867346
0.02797707977867928   0.005862951473063692   0.0010921979307867346
0.08382835522051042   0.011331306747235781   -0.0011226917999957071
0.08382835522051042   0.011331306747235781   -0.0011226917999957071
0.08382835522051042   0.011331306747235781   -0.0011226917999957071
0.08382835522051042   0.011331306747235781   -0.0011226917999957071
-0.03250410928250216   -0.004911345198838147   0.001507437245856268
-0.03250410928250216   -0.004911345198838147   0.001507437245856268
-0.03250410928250216   -0.004911345198838147   0.001507437245856268
-0.03250410928250216   -0.004911345198838147   0.001507437245856268
-0.041564317536047106   -0.018515248714509554   -0.006334230745665433
-0.041564317536047106   -0.018515248714509554   -0.006334230745665433
-0.041564317536047106   -0.018515248714509554   -0.006334230745665433
-0.041564317536047106   -0.018515248714509554   -0.006334230745665433
0.08095195428172874   0.015228338754183102   0.009150584985385454
0.08095195428172874   0.015228338754183102   0.009150584985385454
0.08095195428172874   0.015228338754183102   0.009150584985385454
0.08095195428172874   0.015228338754183102   0.009150584985385454
0.021290871770149093   0.0006934094513135083   -0.0013901457480736306
0.021290871770149093   0.0006934094513135083   -0.0013901457480736306
0.021290871770149093   0.0006934094513135083   -0.0013901457480736306
0.021290871770149093   0.0006934094513135083   -0.0013901457480736306
0.07733222442472146   0.006489133931402849   -0.0002088594768719712
0.07733222442472146   0.006489133931402849   -0.0002088594768719712
0.07733222442472146   0.006489133931402849   -0.0002088594768719712
0.07733222442472146   0.006489133931402849   -0.0002088594768719712
-0.038093255233008695   -0.009924711445698222   0.0024305435007162483
-0.038093255233008695   -0.009924711445698222   0.0024305435007162483
-0.038093255233008695   -0.009924711445698222   0.0024305435007162483
-0.038093255233008695   -0.009924711445698222   0.0024305435007162483
-0.0468702802087361   -0.022698820498689855   -0.004996978741546703
-0.0468702802087361   -0.022698820498689855   -0.004996978741546703
-0.0468702802087361   -0.022698820498689855   -0.004996978741546703
-0.0468702802087361   -0.022698820498689855   -0.004996978741546703
0.07498350101498613   0.010235589729178304   0.009965630481458522
0.07498350101498613   0.010235589729178304   0.009965630481458522
0.07498350101498613   0.010235589729178304   0.009965630481458522
0.07498350101498613   0.010235589729178304   0.009965630481458522
0.015994476288762313   -0.003525296736696738   -0.003560767679097128
0.015994476288762313   -0.003525296736696738   -0.003560767679097128
0.015994476288762313   -0.003525296736696738   -0.003560767679097128
0.015994476288762313   -0.003525296736696738   -0.003560767679097128
-0.022520846572512535   0.021222862697045618   0.00199393929222053
-0.022520846572512535   0.021222862697045618   0.00199393929222053
-0.022520846572512535   0.021222862697045618   0.00199393929222053
-0.022520846572512535   0.021222862697045618   0.00199393929222053
-0.14082949135868408   -0.003947806451226735   -0.004324351134912578
-0.14082949135868408   -0.003947806451226735   -0.004324351134912578
-0.14082949135868408   -0.003947806451226735   -0.004324351134912578
-0.14082949135868408   -0.003947806451226735   -0.004324351134912578
-0.14616937752306497   -0.008699955259315766   -0.003207041873957612
-0.14616937752306497   -0.008699955259315766   -0.003207041873957612
-0.14616937752306497   -0.008699955259315766   -0.003207041873957612
-0.14616937752306497   -0.008699955259315766   -0.003207041873957612
-0.028045366389910623   0.015600791795829046   0.0032890147141457693
-0.028045366389910623   0.015600791795829046   0.0032890147141457693
-0.028045366389910623   0.015600791795829046   0.0032890147141457693
-0.028045366389910623   0.015600791795829046   0.0032890147141457693
-0.08417981650564835   0.005932349123746739   0.0016980349014523756
-0.08417981650564835   0.005932349123746739   0.0016980349014523756
-0.08417981650564835   0.005932349123746739   0.0016980349014523756
-0.08417981650564835   0.005932349123746739   0.0016980349014523756
-0.02789897212308013   0.01626657480358198   0.0033552030405462705
-0.02789897212308013   0.01626657480358198   0.0033552030405462705
-0.02789897212308013   0.01626657480358198   0.0033552030405462705
-0.02789897212308013   0.01626657480358198   0.0033552030405462705
-0.14633880238263458   -0.0093887688598075   -0.003365352571313013
-0.14633880238263458   -0.0093887688598075   -0.003365352571313013
-0.14633880238263458   -0.0093887688598075   -0.003365352571313013
-0.14633880238263458   -0.0093887688598075   -0.003365352571313013
-0.15161379232742478   -0.013617013593845484   -0.0019257185935697002
-0.15161379232742478   -0.013617013593845484   -0.0019257185935697002
-0.15161379232742478   -0.013617013593845484   -0.0019257185935697002
-0.15161379232742478   -0.013617013593845484   -0.0019257185935697002
-0.03369788641414029   0.010193104408385714   0.0042895717409734135
-0.03369788641414029   0.010193104408385714   0.0042895717409734135
-0.03369788641414029   0.010193104408385714   0.0042895717409734135
-0.03369788641414029   0.010193104408385714   0.0042895717409734135
-0.08977479643398212   0.001122240282619244   -0.00042443791936953856
-0.08977479643398212   0.001122240282619244   -0.00042443791936953856
-0.08977479643398212   0.001122240282619244   -0.00042443791936953856
-0.08977479643398212   0.001122240282619244   -0.00042443791936953856
-0.03343609905159925   0.011301659477038845   0.004489953485026407
-0.03343609905159925   0.011301659477038845   0.004489953485026407
-0.03343609905159925   0.011301659477038845   0.004489953485026407
-0.03343609905159925   0.011301659477038845   0.004489953485026407
-0.15197367690518188   -0.01482366587771307   -0.002518489198486587
-0.15197367690518188   -0.01482366587771307   -0.002518489198486587
-0.15197367690518188   -0.01482366587771307   -0.002518489198486587
-0.15197367690518188   -0.01482366587771307   -0.002518489198486587
-0.15695681730361588   -0.01830652543468173   -0.0006724874946032258
-0.15695681730361588   -0.01830652543468173   -0.0006724874946032258
-0.15695681730361588   -0.01830652543468173   -0.0006724874946032258
-0.15695681730361588   -0.01830652543468173   -0.0006724874946032258
-0.03931071618142533   0.004941689413454737   0.005160331482863514
-0.03931071618142533   0.004941689413454737   0.005160331482863514
-0.03931071618142533   0.004941689413454737   0.005160331482863514
-0.03931071618142533   0.004941689413454737   0.005160331482863514
-0.09560876355670064   -0.0036897350748316005   -0.002730201402792346
-0.09560876355670064   -0.0036897350748316005   -0.002730201402792346
-0.09560876355670064   -0.0036897350748316005   -0.002730201402792346
-0.09560876355670064   -0.0036897350748316005   -0.002730201402792346
-0.13298547714874365   0.024815153508994388   0.006132759954568589
-0.13298547714874365   0.024815153508994388   0.006132759954568589
-0.13298547714874365   0.024815153508994388   0.006132759954568589
-0.13298547714874365   0.024815153508994388   0.006132759954568589
-0.2531844746638192   -0.009008435115037164   -0.008684078673988162
-0.2531844746638192   -0.009008435115037164   -0.008684078673988162
-0.2531844746638192   -0.009008435115037164   -0.008684078673988162
-0.2531844746638192   -0.009008435115037164   -0.008684078673988162
-0.25516475612548006   -0.00444020704627961   0.0016840237126699228
-0.25516475612548006   -0.00444020704627961   0.0016840237126699228
-0.25516475612548006   -0.00444020704627961   0.0016840237126699228
-0.25516475612548006   -0.00444020704627961   0.0016840237126699228
-0.1420960293817036   0.010206534185669608   -0.001746790612137214
-0.1420960293817036   0.010206534185669608   -0.001746790612137214
-0.1420960293817036   0.010206534185669608   -0.001746790612137214
-0.1420960293817036   0.010206534185669608   -0.001746790612137214
-0.1946628910310811   0.005435577093711459   0.0024409881149864768
-0.1946628910310811   0.005435577093711459   0.0024409881149864768
-0.1946628910310811   0.005435577093711459   0.0024409881149864768
-0.1946628910310811   0.005435577093711459   0.0024409881149864768
-0.13827098065518753   0.02009895062205654   0.0074860365840581505
-0.13827098065518753   0.02009895062205654   0.0074860365840581505
-0.13827098065518753   0.02009895062205654   0.0074860365840581505
-0.13827098065518753   0.02009895062205654   0.0074860365840581505
-0.25916912939888975   -0.01451194802955921   -0.008266101671102824
-0.25916912939888975   -0.01451194802955921   -0.008266101671102824
-0.25916912939888975   -0.01451194802955921   -0.008266101671102824
-0.25916912939888975   -0.01451194802955921   -0.008266101671102824
-0.261596476770599   -0.009316225054780091   0.002265248234647105
-0.261596476770599   -0.009316225054780091   0.002265248234647105
-0.261596476770599   -0.009316225054780091   0.002265248234647105
-0.261596476770599   -0.009316225054780091   0.002265248234647105
-0.14760171679192433   0.005214855976079762   -0.0006972104859935997
-0.14760171679192433   0.005214855976079762   -0.0006972104859935997
-0.14760171679192433   0.005214855976079762   -0.0006972104859935997
-0.14760171679192433   0.005214855976079762   -0.0006972104859935997
-0.19931376592300207   0.0011076372382136258   0.0003224409810926518
-0.19931376592300207   0.0011076372382136258   0.0003224409810926518
-0.19931376592300207   0.0011076372382136258   0.0003224409810926518
-0.19931376592300207   0.0011076372382136258   0.0003224409810926518
-0.14363632829286146   0.015576393825765426   0.008768194159637092
-0.14363632829286146   0.015576393825765426   0.008768194159637092
-0.14363632829286146   0.015576393825765426   0.008768194159637092
-0.14363632829286146   0.015576393825765426   0.008768194159637092
-0.2655840034993582   -0.019699901134162034   -0.007288709329768717
-0.2655840034993582   -0.019699901134162034   -0.007288709329768717
-0.2655840034993582   -0.019699901134162034   -0.007288709329768717
-0.2655840034993582   -0.019699901134162034   -0.007288709329768717
-0.2672995143301199   -0.014544364248905976   0.0036092378661990165
-0.2672995143301199   -0.014544364248905976   0.0036092378661990165
-0.2672995143301199   -0.014544364248905976   0.0036092378661990165
-0.2672995143301199   -0.014544364248905976   0.0036092378661990165
-0.15320831429789358   -0.0003631786659916737   0.00012668076531525962
-0.15320831429789358   -0.0003631786659916737   0.00012668076531525962
-0.15320831429789358   -0.0003631786659916737   0.00012668076531525962
-0.15320831429789358   -0.0003631786659916737   0.00012668076531525962
-0.20646176950243164   -0.003993198198042339   -0.0021671756354978075
-0.20646176950243164   -0.003993198198042339   -0.0021671756354978075
-0.20646176950243164   -0.003993198198042339   -0.0021671756354978075
-0.20646176950243164   -0.003993198198042339   -0.0021671756354978075
-0.24312026931343927   0.023039625398783615   0.009588887564090619
-0.24312026931343927   0.023039625398783615   0.009588887564090619
-0.24312026931343927   0.023039625398783615   0.009588887564090619
-0.24312026931343927   0.023039625398783615   0.009588887564090619
-0.3597921458432637   -0.01672022203014267   -0.011013697701746858
-0.3597921458432637   -0.01672022203014267   -0.011013697701746858
-0.3597921458432637   -0.01672022203014267   -0.011013697701746858
-0.3597921458432637   -0.01672022203014267   -0.011013697701746858
-0.36303981249173617   -0.0011452063153162412   0.009472424784614783
-0.36303981249173617   -0.0011452063153162412   0.009472424784614783
-0.36303981249173617   -0.0011452063153162412   0.009472424784614783
-0.36303981249173617   -0.0011452063153162412   0.009472424784614783
-0.2551581895303082   0.0037948202221019574   -0.006518170579858137
-0.2551581895303082   0.0037948202221019574   -0.006518170579858137
-0.2551581895303082   0.0037948202221019574   -0.006518170579858137
-0.2551581895303082   0.0037948202221019574   -0.006518170579858137
-0.2917835727641885   0.005153187092437367   0.007512772331772666
-0.2917835727641885   0.005153187092437367   0.007512772331772666
-0.2917835727641885   0.005153187092437367   0.007512772331772666
-0.2917835727641885   0.005153187092437367   0.007512772331772666
-0.24789944944699996   0.02225204279038816   0.011318307268400565
-0.24789944944699996   0.02225204279038816   0.011318307268400565
-0.24789944944699996   0.02225204279038816   0.011318307268400565
-0.24789944944699996   0.02225204279038816   0.011318307268400565
-0.3704556125923641   -0.019759488900923432   -0.008992293132921506
-0.3704556125923641   -0.019759488900923432   -0.008992293132921506
-0.3704556125923641   -0.019759488900923432   -0.008992293132921506
-0.3704556125923641   -0.019759488900923432   -0.008992293132921506
-0.3721665968268479   -0.0038416444216249034   0.011920915680655675
-0.3721665968268479   -0.0038416444216249034   0.011920915680655675
-0.3721665968268479   -0.0038416444216249034   0.011920915680655675
-0.3721665968268479   -0.0038416444216249034   0.011920915680655675
-0.26108104301161944   0.001060238968746765   -0.005534046993987567
-0.26108104301161944   0.001060238968746765   -0.005534046993987567
-0.26108104301161944   0.001060238968746765   -0.005534046993987567
-0.26108104301161944   0.001060238968746765   -0.005534046993987567
-0.30432284851966307   0.002075887029613855   0.004106749136938273
-0.30432284851966307   0.002075887029613855   0.004106749136938273
-0.30432284851966307   0.002075887029613855   0.004106749136938273
-0.30432284851966307   0.002075887029613855   0.004106749136938273
-0.2534887833990751   0.020172694279412838   0.013314795758071624
-0.2534887833990751   0.020172694279412838   0.013314795758071624
-0.2534887833990751   0.020172694279412838   0.013314795758071624
-0.2534887833990751   0.020172694279412838   0.013314795758071624
-0.37987049594711847   -0.023065739240017213   -0.007374485102308467
-0.37987049594711847   -0.023065739240017213   -0.007374485102308467
-0.37987049594711847   -0.023065739240017213   -0.007374485102308467
-0.37987049594711847   -0.023065739240017213   -0.007374485102308467
-0.3843749303354072   -0.012426986574774201   0.01189904519312987
-0.3843749303354072   -0.012426986574774201   0.01189904519312987
-0.3843749303354072   -0.012426986574774201   0.01189904519312987
-0.3843749303354072   -0.012426986574774201   0.01189904519312987
-0.2672981277816281   -0.006030533067386358   -0.004897660572867668
-0.2672981277816281   -0.006030533067386358   -0.004897660572867668
-0.2672981277816281   -0.006030533067386358   -0.004897660572867668
-0.2672981277816281   -0.006030533067386358   -0.004897660572867668
-0.30755084531754723   -0.0014944604319441987   0.002546129171142608
-0.30755084531754723   -0.0014944604319441987   0.002546129171142608
-0.30755084531754723   -0.0014944604319441987   0.002546129171142608
-0.30755084531754723   -0.0014944604319441987   0.002546129171142608
0.1191191921348149   0.007321355566056509   -0.013294884114347618
0.1191191921348149   0.007321355566056509   -0.013294884114347618
0.1191191921348149   0.007321355566056509   -0.013294884114347618
0.1191191921348149   0.007321355566056509   -0.013294884114347618
0.03598673737593058   0.00777527129414444   0.0062486877388342014
0.03598673737593058   0.00777527129414444   0.0062486877388342014
0.03598673737593058   0.00777527129414444   0.0062486877388342014
0.03598673737593058   0.00777527129414444   0.0062486877388342014
0.023677583916977267   -0.016502315225528835   -0.011760191034836262
0.023677583916977267   -0.016502315225528835   -0.011760191034836262
0.023677583916977267   -0.016502315225528835   -0.011760191034836262
0.023677583916977267   -0.016502315225528835   -0.011760191034836262
0.11614436494533613   0.019498650765621465   0.00751321798003558
0.11614436494533613   0.019498650765621465   0.00751321798003558
0.11614436494533613   0.019498650765621465   0.00751321798003558
0.11614436494533613   0.019498650765621465   0.00751321798003558
0.06948323601082203   0.0032806206346568485   -0.0015647187205079793
0.06948323601082203   0.0032806206346568485   -0.0015647187205079793
0.06948323601082203   0.0032806206346568485   -0.0015647187205079793
0.06948323601082203   0.0032806206346568485   -0.0015647187205079793
0.10836076680643095   0.000337612641295993   -0.012243734590165804
0.10836076680643095   0.000337612641295993   -0.012243734590165804
0.10836076680643095   0.000337612641295993   -0.012243734590165804
0.10836076680643095   0.000337612641295993   -0.012243734590165804
0.03121904988633206   0.0024165907292461094   0.007028232857162867
0.03121904988633206   0.0024165907292461094   0.007028232857162867
0.03121904988633206   0.0024165907292461094   0.007028232857162867
0.03121904988633206   0.0024165907292461094   0.007028232857162867
0.019046451613677327   -0.0187840699596505   -0.010032997290991597
0.019046451613677327   -0.0187840699596505   -0.010032997290991597
0.019046451613677327   -0.0187840699596505   -0.010032997290991597
0.019046451613677327   -0.0187840699596505   -0.010032997290991597
0.1078158841179619   0.016356208196122546   0.009715002107370186
0.1078158841179619   0.016356208196122546   0.009715002107370186
0.1078158841179619   0.016356208196122546   0.009715002107370186
0.1078158841179619   0.016356208196122546   0.009715002107370186
0.06380120131520746   -0.00030962869611973406   -0.0038550134309772114
0.06380120131520746   -0.00030962869611973406   -0.0038550134309772114
0.06380120131520746   -0.00030962869611973406   -0.0038550134309772114
0.06380120131520746   -0.00030962869611973406   -0.0038550134309772114
0.10005897090950171   -0.0025980314917062562   -0.010115324247102441
0.10005897090950171   -0.0025980314917062562   -0.010115324247102441
0.10005897090950171   -0.0025980314917062562   -0.010115324247102441
0.10005897090950171   -0.0025980314917062562   -0.010115324247102441
0.0264738878685852   -0.00015930722537271585   0.008479421249270586
0.0264738878685852   -0.00015930722537271585   0.008479421249270586
0.0264738878685852   -0.00015930722537271585   0.008479421249270586
0.0264738878685852   -0.00015930722537271585   0.008479421249270586
0.014918715189145611   -0.02141511098319133   -0.008377466826183557
0.014918715189145611   -0.02141511098319133   -0.008377466826183557
0.014918715189145611   -0.02141511098319133   -0.008377466826183557
0.014918715189145611   -0.02141511098319133   -0.008377466826183557
0.09746758642402593   0.011411291742896582   0.010837870239795745
0.09746758642402593   0.011411291742896582   0.010837870239795745
0.09746758642402593   0.011411291742896582   0.010837870239795745
0.09746758642402593   0.011411291742896582   0.010837870239795745
0.05562692300305107   -0.0034551250676336104   -0.006712026884106189
0.05562692300305107   -0.0034551250676336104   -0.006712026884106189
0.05562692300305107   -0.0034551250676336104   -0.006712026884106189
0.05562692300305107   -0.0034551250676336104   -0.006712026884106189
0.03496206963842666   0.012586209325749506   -0.0036855889802906664
0.03496206963842666   0.012586209325749506   -0.0036855889802906664
0.03496206963842666   0.012586209325749506   -0.0036855889802906664
0.03496206963842666   0.012586209325749506   -0.0036855889802906664
-0.044882501715053355   0.0037051944849508297   0.001426814920145009
-0.044882501715053355   0.0037051944849508297   0.001426814920145009
-0.044882501715053355   0.0037051944849508297   0.001426814920145009
-0.044882501715053355   0.0037051944849508297   0.001426814920145009
-0.052825809014005104   -0.01066106148778775   -0.006919444467396486
-0.052825809014005104   -0.01066106148778775   -0.006919444467396486
-0.052825809014005104   -0.01066106148778775   -0.006919444467396486
-0.052825809014005104   -0.01066106148778775   -0.006919444467396486
0.033923539287959395   0.015571897276778799   0.007395373317766836
0.033923539287959395   0.015571897276778799   0.007395373317766836
0.033923539287959395   0.015571897276778799   0.007395373317766836
0.033923539287959395   0.015571897276778799   0.007395373317766836
-0.0075004829557435895   0.005069749357682479   0.0013730551598784293
-0.0075004829557435895   0.005069749357682479   0.0013730551598784293
-0.0075004829557435895   0.005069749357682479   0.0013730551598784293
-0.0075004829557435895   0.005069749357682479   0.0013730551598784293
0.030145237850804623   0.006776824550339879   -0.002701061141568064
0.030145237850804623   0.006776824550339879   -0.002701061141568064
0.030145237850804623   0.006776824550339879   -0.002701061141568064
0.030145237850804623   0.006776824550339879   -0.002701061141568064
-0.04925967241483055   -0.002078153599327759   0.0023283306400163073
-0.04925967241483055   -0.002078153599327759   0.0023283306400163073
-0.04925967241483055   -0.002078153599327759   0.0023283306400163073
-0.04925967241483055   -0.002078153599327759   0.0023283306400163073
-0.056963761428418   -0.015276423139201724   -0.005457508771399616
-0.056963761428418   -0.015276423139201724   -0.005457508771399616
-0.056963761428418   -0.015276423139201724   -0.005457508771399616
-0.056963761428418   -0.015276423139201724   -0.005457508771399616
0.02849588538076436   0.010358183145494632   0.008071918439299032
0.02849588538076436   0.010358183145494632   0.008071918439299032
0.02849588538076436   0.010358183145494632   0.008071918439299032
0.02849588538076436   0.010358183145494632   0.008071918439299032
-0.01264000814037269   4.0741587892323644e-05   -0.0010425481393705372
-0.01264000814037269   4.0741587892323644e-05   -0.0010425481393705372
-0.01264000814037269   4.0741587892323644e-05   -0.0010425481393705372
-0.01264000814037269   4.0741587892323644e-05   -0.0010425481393705372
0.024824750969058437   0.0018230558331884818   -0.0017486263069250284
0.024824750969058437   0.0018230558331884818   -0.0017486263069250284
0.024824750969058437   0.0018230558331884818   -0.0017486263069250284
0.024824750969058437   0.0018230558331884818   -0.0017486263069250284
-0.05356806098936033   -0.007016729799543928   0.003261300084230919
-0.05356806098936033   -0.007016729799543928   0.003261300084230919
-0.05356806098936033   -0.007016729799543928   0.003261300084230919
-0.05356806098936033   -0.007016729799543928   0.003261300084230919
-0.06106679327579702   -0.019795249571885793   -0.004138271733078833
-0.06106679327579702   -0.019795249571885793   -0.004138271733078833
-0.06106679327579702   -0.019795249571885793   -0.004138271733078833
-0.06106679327579702   -0.019795249571885793   -0.004138271733078833
0.02374243166421325   0.005300844260410775   0.009025160305552895
0.02374243166421325   0.005300844260410775   0.009025160305552895
0.02374243166421325   0.005300844260410775   0.009025160305552895
0.02374243166421325   0.005300844260410775   0.009025160305552895
-0.017037138585305235   -0.00439215574151272   -0.0033043348450051808
-0.017037138585305235   -0.00439215574151272   -0.0033043348450051808
-0.017037138585305235   -0.00439215574151272   -0.0033043348450051808
-0.017037138585305235   -0.00439215574151272   -0.0033043348450051808
-0.04243742297328761   0.016722465063016657   0.000634938050907894
-0.04243742297328761   0.016722465063016657   0.000634938050907894
-0.04243742297328761   0.016722465063016657   0.000634938050907894
-0.04243742297328761   0.016722465063016657   0.000634938050907894
-0.12453010423967215   -0.0018061701627845777   -0.003501901486303735
-0.12453010423967215   -0.0018061701627845777   -0.003501901486303735
-0.12453010423967215   -0.0018061701627845777   -0.003501901486303735
-0.12453010423967215   -0.0018061701627845777   -0.003501901486303735
-0.12827881812387584   -0.005529825555558109   -0.002130620308817107
-0.12827881812387584   -0.005529825555558109   -0.002130620308817107
-0.12827881812387584   -0.005529825555558109   -0.002130620308817107
-0.12827881812387584   -0.005529825555558109   -0.002130620308817107
-0.04678263764585762   0.010274668373799319   0.002360682511753854
-0.04678263764585762   0.010274668373799319   0.002360682511753854
-0.04678263764585762   0.010274668373799319   0.002360682511753854
-0.04678263764585762   0.010274668373799319   0.002360682511753854
-0.08529561673420814   0.00479488404266172   0.00139961137401632
-0.08529561673420814   0.00479488404266172   0.00139961137401632
-0.08529561673420814   0.00479488404266172   0.00139961137401632
-0.08529561673420814   0.00479488404266172   0.00139961137401632
-0.04658228917188006   0.011635852456410557   0.0020012407990304282
-0.04658228917188006   0.011635852456410557   0.0020012407990304282
-0.04658228917188006   0.011635852456410557   0.0020012407990304282
-0.04658228917188006   0.011635852456410557   0.0020012407990304282
-0.12866712148288056   -0.007078964523196478   -0.002522998136202201
-0.12866712148288056   -0.007078964523196478   -0.002522998136202201
-0.12866712148288056   -0.007078964523196478   -0.002522998136202201
-0.12866712148288056   -0.007078964523196478   -0.002522998136202201
-0.13240316064321175   -0.010568707162413178   -0.0008142118839495824
-0.13240316064321175   -0.010568707162413178   -0.0008142118839495824
-0.13240316064321175   -0.010568707162413178   -0.0008142118839495824
-0.13240316064321175   -0.010568707162413178   -0.0008142118839495824
-0.051146912400318094   0.004986499889260783   0.0033638133406364585
-0.051146912400318094   0.004986499889260783   0.0033638133406364585
-0.051146912400318094   0.004986499889260783   0.0033638133406364585
-0.051146912400318094   0.004986499889260783   0.0033638133406364585
-0.0895935798356911   -3.4379218501251127e-06   -0.0007579644322314727
-0.0895935798356911   -3.4379218501251127e-06   -0.0007579644322314727
-0.0895935798356911   -3.4379218501251127e-06   -0.0007579644322314727
-0.0895935798356911   -3.4379218501251127e-06   -0.0007579644322314727
-0.050877498890476144   0.0065322864339545424   0.003165094345153408
-0.050877498890476144   0.0065322864339545424   0.003165094345153408
-0.050877498890476144   0.0065322864339545424   0.003165094345153408
-0.050877498890476144   0.0065322864339545424   0.003165094345153408
-0.1329388792471624   -0.012380798801214205   -0.00168071326490183
-0.1329388792471624   -0.012380798801214205   -0.00168071326490183
-0.1329388792471624   -0.012380798801214205   -0.00168071326490183
-0.1329388792471624   -0.012380798801214205   -0.00168071326490183
-0.13644049550621895   -0.015422663225736424   0.0004683476117013294
-0.13644049550621895   -0.015422663225736424   0.0004683476117013294
-0.13644049550621895   -0.015422663225736424   0.0004683476117013294
-0.13644049550621895   -0.015422663225736424   0.0004683476117013294
-0.05544607522847733   -9.91452205695055e-05   0.004269214152202359
-0.05544607522847733   -9.91452205695055e-05   0.004269214152202359
-0.05544607522847733   -9.91452205695055e-05   0.004269214152202359
-0.05544607522847733   -9.91452205695055e-05   0.004269214152202359
-0.09412251506812842   -0.004808898352768687   -0.0031041927342987767
-0.09412251506812842   -0.004808898352768687   -0.0031041927342987767
-0.09412251506812842   -0.004808898352768687   -0.0031041927342987767
-0.09412251506812842   -0.004808898352768687   -0.0031041927342987767
-0.11829932657217335   0.020728811313142317   0.005117005375263384
-0.11829932657217335   0.020728811313142317   0.005117005375263384
-0.11829932657217335   0.020728811313142317   0.005117005375263384
-0.11829932657217335   0.020728811313142317   0.005117005375263384
-0.20274472250907105   -0.0064252702334520895   -0.007865619129385854
-0.20274472250907105   -0.0064252702334520895   -0.007865619129385854
-0.20274472250907105   -0.0064252702334520895   -0.007865619129385854
-0.20274472250907105   -0.0064252702334520895   -0.007865619129385854
-0.20310456830876264   -0.0010615599513615452   0.0029212776297583704
-0.20310456830876264   -0.0010615599513615452   0.0029212776297583704
-0.20310456830876264   -0.0010615599513615452   0.0029212776297583704
-0.20310456830876264   -0.0010615599513615452   0.0029212776297583704
-0.12616181983519661   0.005326296793226553   -0.002401751214206351
-0.12616181983519661   0.005326296793226553   -0.002401751214206351
-0.12616181983519661   0.005326296793226553   -0.002401751214206351
-0.12616181983519661   0.005326296793226553   -0.002401751214206351
-0.1617102979431473   0.004617878543999438   0.001799281484046976
-0.1617102979431473   0.004617878543999438   0.001799281484046976
-0.1617102979431473   0.004617878543999438   0.001799281484046976
-0.1617102979431473   0.004617878543999438   0.001799281484046976
-0.12228657109510838   0.015814951517758732   0.006485837761705478
-0.12228657109510838   0.015814951517758732   0.006485837761705478
-0.12228657109510838   0.015814951517758732   0.006485837761705478
-0.12228657109510838   0.015814951517758732   0.006485837761705478
-0.2073367100539883   -0.011907107681030985   -0.007393883366702367
-0.2073367100539883   -0.011907107681030985   -0.007393883366702367
-0.2073367100539883   -0.011907107681030985   -0.007393883366702367
-0.2073367100539883   -0.011907107681030985   -0.007393883366702367
-0.20819086201554873   -0.00603869030119889   0.0036242033512375385
-0.20819086201554873   -0.00603869030119889   0.0036242033512375385
-0.20819086201554873   -0.00603869030119889   0.0036242033512375385
-0.20819086201554873   -0.00603869030119889   0.0036242033512375385
-0.13030782534010263   0.00044091956015771504   -0.001347162090975823
-0.13030782534010263   0.00044091956015771504   -0.001347162090975823
-0.13030782534010263   0.00044091956015771504   -0.001347162090975823
-0.13030782534010263   0.00044091956015771504   -0.001347162090975823
-0.16532559988700535   0.00016707582642111994   -0.00045634685748720955
-0.16532559988700535   0.00016707582642111994   -0.00045634685748720955
-0.16532559988700535   0.00016707582642111994   -0.00045634685748720955
-0.16532559988700535   0.00016707582642111994   -0.00045634685748720955
-0.12633074626277851   0.011170268958555652   0.007808883897247737
-0.12633074626277851   0.011170268958555652   0.007808883897247737
-0.12633074626277851   0.011170268958555652   0.007808883897247737
-0.12633074626277851   0.011170268958555652   0.007808883897247737
-0.21239168220016846   -0.01699178080689517   -0.006426807066166738
-0.21239168220016846   -0.01699178080689517   -0.006426807066166738
-0.21239168220016846   -0.01699178080689517   -0.006426807066166738
-0.21239168220016846   -0.01699178080689517   -0.006426807066166738
-0.21256492717499406   -0.011259187668839538   0.005003248628168706
-0.21256492717499406   -0.011259187668839538   0.005003248628168706
-0.21256492717499406   -0.011259187668839538   0.005003248628168706
-0.21256492717499406   -0.011259187668839538   0.005003248628168706
-0.13451047221998227   -0.004821105903027163   -0.000483093279828397
-0.13451047221998227   -0.004821105903027163   -0.000483093279828397
-0.13451047221998227   -0.004821105903027163   -0.000483093279828397
-0.13451047221998227   -0.004821105903027163   -0.000483093279828397
-0.1708130751776385   -0.004745300786979644   -0.002939051231424933
-0.1708130751776385   -0.004745300786979644   -0.002939051231424933
-0.1708130751776385   -0.004745300786979644   -0.002939051231424933
-0.1708130751776385   -0.004745300786979644   -0.002939051231424933
-0.19398631349593687   0.020453262600199223   0.00904789310263577
-0.19398631349593687   0.020453262600199223   0.00904789310263577
-0.19398631349593687   0.020453262600199223   0.00904789310263577
-0.19398631349593687   0.020453262600199223   0.00904789310263577
-0.2747405260750593   -0.012832900413088254   -0.01167158363663915
-0.2747405260750593   -0.012832900413088254   -0.01167158363663915
-0.2747405260750593   -0.012832900413088254   -0.01167158363663915
-0.2747405260750593   -0.012832900413088254   -0.01167158363663915
-0.27664783891529976   0.002700381332342329   0.009499284356343007
-0.27664783891529976   0.002700381332342329   0.009499284356343007
-0.27664783891529976   0.002700381332342329   0.009499284356343007
-0.27664783891529976   0.002700381332342329   0.009499284356343007
-0.2049506510354655   -0.00029078763928917957   -0.00707990831583221
-0.2049506510354655   -0.00029078763928917957   -0.00707990831583221
-0.2049506510354655   -0.00029078763928917957   -0.00707990831583221
-0.2049506510354655   -0.00029078763928917957   -0.00707990831583221
-0.2273019942678409   0.004711965288303454   0.005650474952386478
-0.2273019942678409   0.004711965288303454   0.005650474952386478
-0.2273019942678409   0.004711965288303454   0.005650474952386478
-0.2273019942678409   0.004711965288303454   0.005650474952386478
-0.1975849559219567   0.018753880818523985   0.010703898793900518
-0.1975849559219567   0.018753880818523985   0.010703898793900518
-0.1975849559219567   0.018753880818523985   0.010703898793900518
-0.1975849559219567   0.018753880818523985   0.010703898793900518
-0.28439668188113637   -0.016727434977796368   -0.009817114162697274
-0.28439668188113637   -0.016727434977796368   -0.009817114162697274
-0.28439668188113637   -0.016727434977796368   -0.009817114162697274
-0.28439668188113637   -0.016727434977796368   -0.009817114162697274
-0.2846065513934317   -0.00011684367855029076   0.012106048151339394
-0.2846065513934317   -0.00011684367855029076   0.012106048151339394
-0.2846065513934317   -0.00011684367855029076   0.012106048151339394
-0.2846065513934317   -0.00011684367855029076   0.012106048151339394
-0.20952170204162118   -0.0030160223769189025   -0.006052664703406527
-0.20952170204162118   -0.0030160223769189025   -0.006052664703406527
-0.20952170204162118   -0.0030160223769189025   -0.006052664703406527
-0.20952170204162118   -0.0030160223769189025   -0.006052664703406527
-0.23762675303118688   0.001402554959772451   0.0022339749998225855
-0.23762675303118688   0.001402554959772451   0.0022339749998225855
-0.23762675303118688   0.001402554959772451   0.0022339749998225855
-0.23762675303118688   0.001402554959772451   0.0022339749998225855
-0.20185570275983866   0.016553648569682798   0.012707660758904157
-0.20185570275983866   0.016553648569682798   0.012707660758904157
-0.20185570275983866   0.016553648569682798   0.012707660758904157
-0.20185570275983866   0.016553648569682798   0.012707660758904157
-0.292628716990262   -0.020042680940196924   -0.00807894257116347
-0.292628716990262   -0.020042680940196924   -0.00807894257116347
-0.292628716990262   -0.020042680940196924   -0.00807894257116347
-0.292628716990262   -0.020042680940196924   -0.00807894257116347
-0.29558111075390636   -0.008216968323334368   0.012453146119670522
-0.29558111075390636   -0.008216968323334368   0.012453146119670522
-0.29558111075390636   -0.008216968323334368   0.012453146119670522
-0.29558111075390636   -0.008216968323334368   0.012453146119670522
-0.21424961229027972   -0.009399439745245892   -0.005279924871859187
-0.21424961229027972   -0.009399439745245892   -0.005279924871859187
-0.21424961229027972   -0.009399439745245892   -0.005279924871859187
-0.21424961229027972   -0.009399439745245892   -0.005279924871859187
-0.24076452454100497   -0.0021650922505493195   0.00025179188870765035
-0.24076452454100497   -0.0021650922505493195   0.00025179188870765035
-0.24076452454100497   -0.0021650922505493195   0.00025179188870765035
-0.24076452454100497   -0.0021650922505493195   0.00025179188870765035
0.028419367526658922   0.002318497338705103   -0.01346781218908316
0.028419367526658922   0.002318497338705103   -0.01346781218908316
0.028419367526658922   0.002318497338705103   -0.01346781218908316
0.028419367526658922   0.002318497338705103   -0.01346781218908316
-0.017823970241550163   0.009929916325216588   0.006785918159764102
-0.017823970241550163   0.009929916325216588   0.006785918159764102
-0.017823970241550163   0.009929916325216588   0.006785918159764102
-0.017823970241550163   0.009929916325216588   0.006785918159764102
-0.02881032167638374   -0.013175089396690279   -0.010900796209795605
-0.02881032167638374   -0.013175089396690279   -0.010900796209795605
-0.02881032167638374   -0.013175089396690279   -0.010900796209795605
-0.02881032167638374   -0.013175089396690279   -0.010900796209795605
0.026756038285426186   0.014882098551471242   0.008275365173791634
0.026756038285426186   0.014882098551471242   0.008275365173791634
0.026756038285426186   0.014882098551471242   0.008275365173791634
0.026756038285426186   0.014882098551471242   0.008275365173791634
0.0013864349795521594   0.003276536567635243   0.001129987249893966
0.0013864349795521594   0.003276536567635243   0.001129987249893966
0.0013864349795521594   0.003276536567635243   0.001129987249893966
0.0013864349795521594   0.003276536567635243   0.001129987249893966
0.018929416662942587   -0.0038684261369140984   -0.01210721825024103
0.018929416662942587   -0.0038684261369140984   -0.01210721825024103
0.018929416662942587   -0.0038684261369140984   -0.01210721825024103
0.018929416662942587   -0.0038684261369140984   -0.01210721825024103
-0.021431912076588854   0.005127223269006347   0.007688939123482202
-0.021431912076588854   0.005127223269006347   0.007688939123482202
-0.021431912076588854   0.005127223269006347   0.007688939123482202
-0.021431912076588854   0.005127223269006347   0.007688939123482202
-0.03246403405013302   -0.01550116278558994   -0.00929193463309731
-0.03246403405013302   -0.01550116278558994   -0.00929193463309731
-0.03246403405013302   -0.01550116278558994   -0.00929193463309731
-0.03246403405013302   -0.01550116278558994   -0.00929193463309731
0.01931537046824452   0.01174587257654942   0.01141376843660868
0.01931537046824452   0.01174587257654942   0.01141376843660868
0.01931537046824452   0.01174587257654942   0.01141376843660868
0.01931537046824452   0.01174587257654942   0.01141376843660868
-0.004370943380859416   -0.00021691466669772358   -0.0015269603098946266
-0.004370943380859416   -0.00021691466669772358   -0.0015269603098946266
-0.004370943380859416   -0.00021691466669772358   -0.0015269603098946266
-0.004370943380859416   -0.00021691466669772358   -0.0015269603098946266
0.011290526283311248   -0.006903983145484787   -0.010060596766023493
0.011290526283311248   -0.006903983145484787   -0.010060596766023493
0.011290526283311248   -0.006903983145484787   -0.010060596766023493
0.011290526283311248   -0.006903983145484787   -0.010060596766023493
-0.02506780823559837   0.0025200745660468793   0.009667957087938864
-0.02506780823559837   0.0025200745660468793   0.009667957087938864
-0.02506780823559837   0.0025200745660468793   0.009667957087938864
-0.02506780823559837   0.0025200745660468793   0.009667957087938864
-0.03580651541703649   -0.01895839819357385   -0.0077364776014939764
-0.03580651541703649   -0.01895839819357385   -0.0077364776014939764
-0.03580651541703649   -0.01895839819357385   -0.0077364776014939764
-0.03580651541703649   -0.01895839819357385   -0.0077364776014939764
0.008978196643472904   0.005251221772479945   0.01307224853553988
0.008978196643472904   0.005251221772479945   0.01307224853553988
0.008978196643472904   0.005251221772479945   0.01307224853553988
0.008978196643472904   0.005251221772479945   0.01307224853553988
-0.010810306014585174   -0.003684201133869949   -0.004639803196792596
-0.010810306014585174   -0.003684201133869949   -0.004639803196792596
-0.010810306014585174   -0.003684201133869949   -0.004639803196792596
-0.010810306014585174   -0.003684201133869949   -0.004639803196792596
-0.020771091862620418   0.0071984656227785816   -0.005218239243149169
-0.020771091862620418   0.0071984656227785816   -0.005218239243149169
-0.020771091862620418   0.0071984656227785816   -0.005218239243149169
-0.020771091862620418   0.0071984656227785816   -0.005218239243149169
-0.0635169048376008   0.0026969365599877637   0.0017149203046966984
-0.0635169048376008   0.0026969365599877637   0.0017149203046966984
-0.0635169048376008   0.0026969365599877637   0.0017149203046966984
-0.0635169048376008   0.0026969365599877637   0.0017149203046966984
-0.06924961224084036   -0.007686809280140644   -0.005725007938030638
-0.06924961224084036   -0.007686809280140644   -0.005725007938030638
-0.06924961224084036   -0.007686809280140644   -0.005725007938030638
-0.06924961224084036   -0.007686809280140644   -0.005725007938030638
-0.02146663972015029   0.0071426026464005195   0.005499921528280863
-0.02146663972015029   0.0071426026464005195   0.005499921528280863
-0.02146663972015029   0.0071426026464005195   0.005499921528280863
-0.02146663972015029   0.0071426026464005195   0.005499921528280863
-0.04368596552038277   0.0021922747618344464   0.0012120357043561257
-0.04368596552038277   0.0021922747618344464   0.0012120357043561257
-0.04368596552038277   0.0021922747618344464   0.0012120357043561257
-0.04368596552038277   0.0021922747618344464   0.0012120357043561257
-0.024547599647407017   0.0015384497781930394   -0.004300725239795562
-0.024547599647407017   0.0015384497781930394   -0.004300725239795562
-0.024547599647407017   0.0015384497781930394   -0.004300725239795562
-0.024547599647407017   0.0015384497781930394   -0.004300725239795562
-0.06654665944702898   -0.002460663545378555   0.0025636102962641825
-0.06654665944702898   -0.002460663545378555   0.0025636102962641825
-0.06654665944702898   -0.002460663545378555   0.0025636102962641825
-0.06654665944702898   -0.002460663545378555   0.0025636102962641825
-0.07210923458751889   -0.012231682032244291   -0.004272287481104668
-0.07210923458751889   -0.012231682032244291   -0.004272287481104668
-0.07210923458751889   -0.012231682032244291   -0.004272287481104668
-0.07210923458751889   -0.012231682032244291   -0.004272287481104668
-0.025841956270700774   0.002113171539679341   0.006204119938794418
-0.025841956270700774   0.002113171539679341   0.006204119938794418
-0.025841956270700774   0.002113171539679341   0.006204119938794418
-0.025841956270700774   0.002113171539679341   0.006204119938794418
-0.04729487300528699   -0.0024068009074360063   -0.001109973766680537
-0.04729487300528699   -0.0024068009074360063   -0.001109973766680537
-0.04729487300528699   -0.0024068009074360063   -0.001109973766680537
-0.04729487300528699   -0.0024068009074360063   -0.001109973766680537
-0.028822369656520012   -0.0033640055332887814   -0.0032207699173336696
-0.028822369656520012   -0.0033640055332887814   -0.0032207699173336696
-0.028822369656520012   -0.0033640055332887814   -0.0032207699173336696
-0.028822369656520012   -0.0033640055332887814   -0.0032207699173336696
-0.06953678036419625   -0.00716246412177149   0.0035207657250357384
-0.06953678036419625   -0.00716246412177149   0.0035207657250357384
-0.06953678036419625   -0.00716246412177149   0.0035207657250357384
-0.06953678036419625   -0.00716246412177149   0.0035207657250357384
-0.07498761893944633   -0.016847969823549185   -0.0029888595105873293
-0.07498761893944633   -0.016847969823549185   -0.0029888595105873293
-0.07498761893944633   -0.016847969823549185   -0.0029888595105873293
-0.07498761893944633   -0.016847969823549185   -0.0029888595105873293
-0.02951063662719758   -0.0029090486185691057   0.007693566772695826
-0.02951063662719758   -0.0029090486185691057   0.007693566772695826
-0.02951063662719758   -0.0029090486185691057   0.007693566772695826
-0.02951063662719758   -0.0029090486185691057   0.007693566772695826
-0.05085749501768268   -0.006881666590745388   -0.0034517977983162113
-0.05085749501768268   -0.006881666590745388   -0.0034517977983162113
-0.05085749501768268   -0.006881666590745388   -0.0034517977983162113
-0.05085749501768268   -0.006881666590745388   -0.0034517977983162113
-0.062259610414881844   0.011239978912575065   -0.0005416499342958403
-0.062259610414881844   0.011239978912575065   -0.0005416499342958403
-0.062259610414881844   0.011239978912575065   -0.0005416499342958403
-0.062259610414881844   0.011239978912575065   -0.0005416499342958403
-0.10853493693341164   -0.003864454901558955   -0.0031555584730878564
-0.10853493693341164   -0.003864454901558955   -0.0031555584730878564
-0.10853493693341164   -0.003864454901558955   -0.0031555584730878564
-0.10853493693341164   -0.003864454901558955   -0.0031555584730878564
-0.10973104362500073   -0.0029409587401469112   -0.0007690470788418689
-0.10973104362500073   -0.0029409587401469112   -0.0007690470788418689
-0.10973104362500073   -0.0029409587401469112   -0.0007690470788418689
-0.10973104362500073   -0.0029409587401469112   -0.0007690470788418689
-0.06617826186571697   0.0010847275586414553   0.0008602070988042009
-0.06617826186571697   0.0010847275586414553   0.0008602070988042009
-0.06617826186571697   0.0010847275586414553   0.0008602070988042009
-0.06617826186571697   0.0010847275586414553   0.0008602070988042009
-0.08648510040614463   0.0012800643006536756   0.0004923151036367764
-0.08648510040614463   0.0012800643006536756   0.0004923151036367764
-0.08648510040614463   0.0012800643006536756   0.0004923151036367764
-0.08648510040614463   0.0012800643006536756   0.0004923151036367764
-0.06514278887370968   0.006295801291146749   0.0008264983263353825
-0.06514278887370968   0.006295801291146749   0.0008264983263353825
-0.06514278887370968   0.006295801291146749   0.0008264983263353825
-0.06514278887370968   0.006295801291146749   0.0008264983263353825
-0.11113369110659929   -0.008519206962243477   -0.0022040362647381406
-0.11113369110659929   -0.008519206962243477   -0.0022040362647381406
-0.11113369110659929   -0.008519206962243477   -0.0022040362647381406
-0.11113369110659929   -0.008519206962243477   -0.0022040362647381406
-0.11242087154811402   -0.0078256725597355   0.0005769102434433002
-0.11242087154811402   -0.0078256725597355   0.0005769102434433002
-0.11242087154811402   -0.0078256725597355   0.0005769102434433002
-0.11242087154811402   -0.0078256725597355   0.0005769102434433002
-0.06919754086661649   -0.00372588969188274   0.00178038878304582
-0.06919754086661649   -0.00372588969188274   0.00178038878304582
-0.06919754086661649   -0.00372588969188274   0.00178038878304582
-0.06919754086661649   -0.00372588969188274   0.00178038878304582
-0.08938887022472158   -0.0031631906548775573   -0.0016380039324491377
-0.08938887022472158   -0.0031631906548775573   -0.0016380039324491377
-0.08938887022472158   -0.0031631906548775573   -0.0016380039324491377
-0.08938887022472158   -0.0031631906548775573   -0.0016380039324491377
-0.0681423291100521   0.0013173045449864215   0.0020132533289986387
-0.0681423291100521   0.0013173045449864215   0.0020132533289986387
-0.0681423291100521   0.0013173045449864215   0.0020132533289986387
-0.0681423291100521   0.0013173045449864215   0.0020132533289986387
-0.11391998482130222   -0.013312768313229745   -0.0014315603690034755
-0.11391998482130222   -0.013312768313229745   -0.0014315603690034755
-0.11391998482130222   -0.013312768313229745   -0.0014315603690034755
-0.11391998482130222   -0.013312768313229745   -0.0014315603690034755
-0.11503662845401724   -0.012495749338879106   0.0018767467861942715
-0.11503662845401724   -0.012495749338879106   0.0018767467861942715
-0.11503662845401724   -0.012495749338879106   0.0018767467861942715
-0.11503662845401724   -0.012495749338879106   0.0018767467861942715
-0.07211122035708711   -0.00824433914429358   0.0027895027219531493
-0.07211122035708711   -0.00824433914429358   0.0027895027219531493
-0.07211122035708711   -0.00824433914429358   0.0027895027219531493
-0.07211122035708711   -0.00824433914429358   0.0027895027219531493
-0.09251324604731158   -0.007625812781753188   -0.00395442625226439
-0.09251324604731158   -0.007625812781753188   -0.00395442625226439
-0.09251324604731158   -0.007625812781753188   -0.00395442625226439
-0.09251324604731158   -0.007625812781753188   -0.00395442625226439
-0.10307266265152838   0.01595044764240626   0.0043409103923632356
-0.10307266265152838   0.01595044764240626   0.0043409103923632356
-0.10307266265152838   0.01595044764240626   0.0043409103923632356
-0.10307266265152838   0.01595044764240626   0.0043409103923632356
-0.15204343568775325   -0.00656794432525546   -0.007020846234375554
-0.15204343568775325   -0.00656794432525546   -0.007020846234375554
-0.15204343568775325   -0.00656794432525546   -0.007020846234375554
-0.15204343568775325   -0.00656794432525546   -0.007020846234375554
-0.15013713348782404   0.0018747654685970193   0.004315905815273413
-0.15013713348782404   0.0018747654685970193   0.004315905815273413
-0.15013713348782404   0.0018747654685970193   0.004315905815273413
-0.15013713348782404   0.0018747654685970193   0.004315905815273413
-0.1099809557666602   -0.0019064127232169886   -0.0030531538040691752
-0.1099809557666602   -0.0019064127232169886   -0.0030531538040691752
-0.1099809557666602   -0.0019064127232169886   -0.0030531538040691752
-0.1099809557666602   -0.0019064127232169886   -0.0030531538040691752
-0.1283199694758586   0.002339253332560639   0.0007118700708676796
-0.1283199694758586   0.002339253332560639   0.0007118700708676796
-0.1283199694758586   0.002339253332560639   0.0007118700708676796
-0.1283199694758586   0.002339253332560639   0.0007118700708676796
-0.10563637216019209   0.011053672393399681   0.0057096791116547745
-0.10563637216019209   0.011053672393399681   0.0057096791116547745
-0.10563637216019209   0.011053672393399681   0.0057096791116547745
-0.10563637216019209   0.011053672393399681   0.0057096791116547745
-0.15501915066375213   -0.011622753217478365   -0.00659666137829178
-0.15501915066375213   -0.011622753217478365   -0.00659666137829178
-0.15501915066375213   -0.011622753217478365   -0.00659666137829178
-0.15501915066375213   -0.011622753217478365   -0.00659666137829178
-0.15372587963336748   -0.0029492896141416723   0.00511984633079976
-0.15372587963336748   -0.0029492896141416723   0.00511984633079976
-0.15372587963336748   -0.0029492896141416723   0.00511984633079976
-0.15372587963336748   -0.0029492896141416723   0.00511984633079976
-0.1126459789236544   -0.006309705631911337   -0.0020645935620827796
-0.1126459789236544   -0.006309705631911337   -0.0020645935620827796
-0.1126459789236544   -0.006309705631911337   -0.0020645935620827796
-0.1126459789236544   -0.006309705631911337   -0.0020645935620827796
-0.13074724287877687   -0.0019365069915519388   -0.0015961170995672236
-0.13074724287877687   -0.0019365069915519388   -0.0015961170995672236
-0.13074724287877687   -0.0019365069915519388   -0.0015961170995672236
-0.13074724287877687   -0.0019365069915519388   -0.0015961170995672236
-0.10825814915229871   0.006527714290392107   0.007037135372392221
-0.10825814915229871   0.006527714290392107   0.007037135372392221
-0.10825814915229871   0.006527714290392107   0.007037135372392221
-0.10825814915229871   0.006527714290392107   0.007037135372392221
-0.15853815285931458   -0.01621115299103687   -0.00567965642204258
-0.15853815285931458   -0.01621115299103687   -0.00567965642204258
-0.15853815285931458   -0.01621115299103687   -0.00567965642204258
-0.15853815285931458   -0.01621115299103687   -0.00567965642204258
-0.15663828410983263   -0.007839170710807959   0.0065543945711179705
-0.15663828410983263   -0.007839170710807959   0.0065543945711179705
-0.15663828410983263   -0.007839170710807959   0.0065543945711179705
-0.15663828410983263   -0.007839170710807959   0.0065543945711179705
-0.11532632679965489   -0.01084768264903752   -0.0012198116318355642
-0.11532632679965489   -0.01084768264903752   -0.0012198116318355642
-0.11532632679965489   -0.01084768264903752   -0.0012198116318355642
-0.11532632679965489   -0.01084768264903752   -0.0012198116318355642
-0.1344389770819276   -0.006346311154369428   -0.003980422991026144
-0.1344389770819276   -0.006346311154369428   -0.003980422991026144
-0.1344389770819276   -0.006346311154369428   -0.003980422991026144
-0.1344389770819276   -0.006346311154369428   -0.003980422991026144
-0.14413466926526056   0.017344663322304853   0.00861037823052764
-0.14413466926526056   0.017344663322304853   0.00861037823052764
-0.14413466926526056   0.017344663322304853   0.00861037823052764
-0.14413466926526056   0.017344663322304853   0.00861037823052764
-0.1879078955726486   -0.009587178037243156   -0.011504717818221134
-0.1879078955726486   -0.009587178037243156   -0.011504717818221134
-0.1879078955726486   -0.009587178037243156   -0.011504717818221134
-0.1879078955726486   -0.009587178037243156   -0.011504717818221134
-0.18813121810976732   0.0063879710591903185   0.009494452250874766
-0.18813121810976732   0.0063879710591903185   0.009494452250874766
-0.18813121810976732   0.0063879710591903185   0.009494452250874766
-0.18813121810976732   0.0063879710591903185   0.009494452250874766
-0.15375590802729314   -0.004877874646868751   -0.007025326766606287
-0.15375590802729314   -0.004877874646868751   -0.007025326766606287
-0.15375590802729314   -0.004877874646868751   -0.007025326766606287
-0.15375590802729314   -0.004877874646868751   -0.007025326766606287
-0.1615861661954961   0.003927134252842589   0.0033075444447021457
-0.1615861661954961   0.003927134252842589   0.0033075444447021457
-0.1615861661954961   0.003927134252842589   0.0033075444447021457
-0.1615861661954961   0.003927134252842589   0.0033075444447021457
-0.14636968515753396   0.01487247482210519   0.010155438113215738
-0.14636968515753396   0.01487247482210519   0.010155438113215738
-0.14636968515753396   0.01487247482210519   0.010155438113215738
-0.14636968515753396   0.01487247482210519   0.010155438113215738
-0.196082762753147   -0.013927700183404128   -0.009947599723429283
-0.196082762753147   -0.013927700183404128   -0.009947599723429283
-0.196082762753147   -0.013927700183404128   -0.009947599723429283
-0.196082762753147   -0.013927700183404128   -0.009947599723429283
-0.19465060951136745   0.003608590136641974   0.012199305334144137
-0.19465060951136745   0.003608590136641974   0.012199305334144137
-0.19465060951136745   0.003608590136641974   0.012199305334144137
-0.19465060951136745   0.003608590136641974   0.012199305334144137
-0.156867979509193   -0.007415055132154502   -0.006124887530315187
-0.156867979509193   -0.007415055132154502   -0.006124887530315187
-0.156867979509193   -0.007415055132154502   -0.006124887530315187
-0.156867979509193   -0.007415055132154502   -0.006124887530315187
-0.16942568907109484   0.0005704292603175894   5.071967856038612e-05
-0.16942568907109484   0.0005704292603175894   5.071967856038612e-05
-0.16942568907109484   0.0005704292603175894   5.071967856038612e-05
-0.16942568907109484   0.0005704292603175894   5.071967856038612e-05
-0.14919200761096216   0.012690360679692623   0.012149556148992088
-0.14919200761096216   0.012690360679692623   0.012149556148992088
-0.14919200761096216   0.012690360679692623   0.012149556148992088
-0.14919200761096216   0.012690360679692623   0.012149556148992088
-0.20289345901706154   -0.017063703282666765   -0.00834264877501565
-0.20289345901706154   -0.017063703282666765   -0.00834264877501565
-0.20289345901706154   -0.017063703282666765   -0.00834264877501565
-0.20289345901706154   -0.017063703282666765   -0.00834264877501565
-0.204193865549009   -0.0037593673349944016   0.012864690438127532
-0.204193865549009   -0.0037593673349944016   0.012864690438127532
-0.204193865549009   -0.0037593673349944016   0.012864690438127532
-0.204193865549009   -0.0037593673349944016   0.012864690438127532
-0.15999855172504646   -0.012797173848983018   -0.005288940366778183
-0.15999855172504646   -0.012797173848983018   -0.005288940366778183
-0.15999855172504646   -0.012797173848983018   -0.005288940366778183
-0.15999855172504646   -0.012797173848983018   -0.005288940366778183
-0.1723131934195461   -0.0027945202410055783   -0.0022201507848282898
-0.1723131934195461   -0.0027945202410055783   -0.0022201507848282898
-0.1723131934195461   -0.0027945202410055783   -0.0022201507848282898
-0.1723131934195461   -0.0027945202410055783   -0.0022201507848282898
-0.06782724009826373   -0.004324440959090693   -0.014482598405058738
-0.06782724009826373   -0.004324440959090693   -0.014482598405058738
-0.06782724009826373   -0.004324440959090693   -0.014482598405058738
-0.06782724009826373   -0.004324440959090693   -0.014482598405058738
-0.07147091898508189   0.010804314900951293   0.006444660871242337
-0.07147091898508189   0.010804314900951293   0.006444660871242337
-0.07147091898508189   0.010804314900951293   0.006444660871242337
-0.07147091898508189   0.010804314900951293   0.006444660871242337
-0.08114639260764812   -0.010339969351668445   -0.009932543448832496
-0.08114639260764812   -0.010339969351668445   -0.009932543448832496
-0.08114639260764812   -0.010339969351668445   -0.009932543448832496
-0.08114639260764812   -0.010339969351668445   -0.009932543448832496
-0.0695406399522341   0.006415662894653396   0.009492588593298004
-0.0695406399522341   0.006415662894653396   0.009492588593298004
-0.0695406399522341   0.006415662894653396   0.009492588593298004
-0.0695406399522341   0.006415662894653396   0.009492588593298004
-0.06883582568064868   0.0020034389673857875   0.006579608236161763
-0.06883582568064868   0.0020034389673857875   0.006579608236161763
-0.06883582568064868   0.0020034389673857875   0.006579608236161763
-0.06883582568064868   0.0020034389673857875   0.006579608236161763
-0.07716995092000566   -0.010004860828795517   -0.012233442522110331
-0.07716995092000566   -0.010004860828795517   -0.012233442522110331
-0.07716995092000566   -0.010004860828795517   -0.012233442522110331
-0.07716995092000566   -0.010004860828795517   -0.012233442522110331
-0.07441783290607328   0.0051798031055838535   0.008190482601789454
-0.07441783290607328   0.0051798031055838535   0.008190482601789454
-0.07441783290607328   0.0051798031055838535   0.008190482601789454
-0.07441783290607328   0.0051798031055838535   0.008190482601789454
-0.08418109990767415   -0.012930670630482576   -0.008472477222632642
-0.08418109990767415   -0.012930670630482576   -0.008472477222632642
-0.08418109990767415   -0.012930670630482576   -0.008472477222632642
-0.08418109990767415   -0.012930670630482576   -0.008472477222632642
-0.07703894080314323   0.0029366388984476324   0.017858279475391228
-0.07703894080314323   0.0029366388984476324   0.017858279475391228
-0.07703894080314323   0.0029366388984476324   0.017858279475391228
-0.07703894080314323   0.0029366388984476324   0.017858279475391228
-0.07562026151121226   -0.002427917401891172   0.0027150975170398134
-0.07562026151121226   -0.002427917401891172   0.0027150975170398134
-0.07562026151121226   -0.002427917401891172   0.0027150975170398134
-0.07562026151121226   -0.002427917401891172   0.0027150975170398134
-0.08582369118436574   -0.013492050123124093   -0.009636783409148631
-0.08582369118436574   -0.013492050123124093   -0.009636783409148631
-0.08582369118436574   -0.013492050123124093   -0.009636783409148631
-0.08582369118436574   -0.013492050123124093   -0.009636783409148631
-0.07759609236828398   0.0012982755492569704   0.010223614294578666
-0.07759609236828398   0.0012982755492569704   0.010223614294578666
-0.07759609236828398   0.0012982755492569704   0.010223614294578666
-0.07759609236828398   0.0012982755492569704   0.010223614294578666
-0.08669113944016162   -0.01784295829644954   -0.006729315725473042
-0.08669113944016162   -0.01784295829644954   -0.006729315725473042
-0.08669113944016162   -0.01784295829644954   -0.006729315725473042
-0.08669113944016162   -0.01784295829644954   -0.006729315725473042
-0.0886352197947309   -0.00856401034714196   0.016676972116742884
-0.0886352197947309   -0.00856401034714196   0.016676972116742884
-0.0886352197947309   -0.00856401034714196   0.016676972116742884
-0.0886352197947309   -0.00856401034714196   0.016676972116742884
-0.08176836251874497   -0.007640889757643113   -0.003516654270914979
-0.08176836251874497   -0.007640889757643113   -0.003516654270914979
-0.08176836251874497   -0.007640889757643113   -0.003516654270914979
-0.08176836251874497   -0.007640889757643113   -0.003516654270914979
-0.0767391094856893   -0.0017574031472803648   -0.007334573583563117
-0.0767391094856893   -0.0017574031472803648   -0.007334573583563117
-0.0767391094856893   -0.0017574031472803648   -0.007334573583563117
-0.0767391094856893   -0.0017574031472803648   -0.007334573583563117
-0.08102191195651773   -0.010085983164049137   -0.00044749496580439446
-0.08102191195651773   -0.010085983164049137   -0.00044749496580439446
-0.08102191195651773   -0.010085983164049137   -0.00044749496580439446
-0.08102191195651773   -0.010085983164049137   -0.00044749496580439446
-0.08184883235285191   -0.006804156966527284   -0.003851683903656535
-0.08184883235285191   -0.006804156966527284   -0.003851683903656535
-0.08184883235285191   -0.006804156966527284   -0.003851683903656535
-0.08184883235285191   -0.006804156966527284   -0.003851683903656535
-0.07970789343385931   -0.013097016610711243   1.6999679154344055e-05
-0.07970789343385931   -0.013097016610711243   1.6999679154344055e-05
-0.07970789343385931   -0.013097016610711243   1.6999679154344055e-05
-0.07970789343385931   -0.013097016610711243   1.6999679154344055e-05
-0.0791624462758226   -0.00828740922750101   -8.07902017288635e-05
-0.0791624462758226   -0.00828740922750101   -8.07902017288635e-05
-0.0791624462758226   -0.00828740922750101   -8.07902017288635e-05
-0.0791624462758226   -0.00828740922750101   -8.07902017288635e-05
-0.0797449269501159   -0.006888396673179304   -0.006376787839660314
-0.0797449269501159   -0.006888396673179304   -0.006376787839660314
-0.0797449269501159   -0.006888396673179304   -0.006376787839660314
-0.0797449269501159   -0.006888396673179304   -0.006376787839660314
-0.08233296148279559   -0.01353393955025818   0.0004574530303559435
-0.08233296148279559   -0.01353393955025818   0.0004574530303559435
-0.08233296148279559   -0.01353393955025818   0.0004574530303559435
-0.08233296148279559   -0.01353393955025818   0.0004574530303559435
-0.08342764182330131   -0.011155083596440175   -0.002551470189202612
-0.08342764182330131   -0.011155083596440175   -0.002551470189202612
-0.08342764182330131   -0.011155083596440175   -0.002551470189202612
-0.08342764182330131   -0.011155083596440175   -0.002551470189202612
-0.08291770771778939   -0.01711727826835073   0.002031091364659312
-0.08291770771778939   -0.01711727826835073   0.002031091364659312
-0.08291770771778939   -0.01711727826835073   0.002031091364659312
-0.08291770771778939   -0.01711727826835073   0.002031091364659312
-0.08124101321857183   -0.01183872238108654   -0.002144858984157016
-0.08124101321857183   -0.01183872238108654   -0.002144858984157016
-0.08124101321857183   -0.01183872238108654   -0.002144858984157016
-0.08124101321857183   -0.01183872238108654   -0.002144858984157016
-0.08316212186674851   -0.01154444758082208   -0.004763810067664954
-0.08316212186674851   -0.01154444758082208   -0.004763810067664954
-0.08316212186674851   -0.01154444758082208   -0.004763810067664954
-0.08316212186674851   -0.01154444758082208   -0.004763810067664954
-0.08384666813506064   -0.01739135474468744   0.001589669400247025
-0.08384666813506064   -0.01739135474468744   0.001589669400247025
-0.08384666813506064   -0.01739135474468744   0.001589669400247025
-0.08384666813506064   -0.01739135474468744   0.001589669400247025
-0.08487421654008424   -0.015774295513379843   -0.0012690877884635292
-0.08487421654008424   -0.015774295513379843   -0.0012690877884635292
-0.08487421654008424   -0.015774295513379843   -0.0012690877884635292
-0.08487421654008424   -0.015774295513379843   -0.0012690877884635292
-0.08540462020780497   -0.022118276230803032   0.003978598370662466
-0.08540462020780497   -0.022118276230803032   0.003978598370662466
-0.08540462020780497   -0.022118276230803032   0.003978598370662466
-0.08540462020780497   -0.022118276230803032   0.003978598370662466
-0.08398704907763771   -0.016029705829211066   -0.00472645567488867
-0.08398704907763771   -0.016029705829211066   -0.00472645567488867
-0.08398704907763771   -0.016029705829211066   -0.00472645567488867
-0.08398704907763771   -0.016029705829211066   -0.00472645567488867
-0.07869675199506392   0.002460631763508263   -0.0013683100860918049
-0.07869675199506392   0.002460631763508263   -0.0013683100860918049
-0.07869675199506392   0.002460631763508263   -0.0013683100860918049
-0.07869675199506392   0.002460631763508263   -0.0013683100860918049
-0.09176917430108265   -0.01745668591865954   -0.004471018053642403
-0.09176917430108265   -0.01745668591865954   -0.004471018053642403
-0.09176917430108265   -0.01745668591865954   -0.004471018053642403
-0.09176917430108265   -0.01745668591865954   -0.004471018053642403
-0.08823883591802643   -0.003295956384917794   0.001017361433317418
-0.08823883591802643   -0.003295956384917794   0.001017361433317418
-0.08823883591802643   -0.003295956384917794   0.001017361433317418
-0.08823883591802643   -0.003295956384917794   0.001017361433317418
-0.08390918213062068   -0.018291531159343788   -0.002666058599683878
-0.08390918213062068   -0.018291531159343788   -0.002666058599683878
-0.08390918213062068   -0.018291531159343788   -0.002666058599683878
-0.08390918213062068   -0.018291531159343788   -0.002666058599683878
-0.08559176044707689   -0.00944380395796999   -0.0018167413359884733
-0.08559176044707689   -0.00944380395796999   -0.0018167413359884733
-0.08559176044707689   -0.00944380395796999   -0.0018167413359884733
-0.08559176044707689   -0.00944380395796999   -0.0018167413359884733
-0.08009923425235857   -0.0018775653433259487   -3.0285024391216164e-05
-0.08009923425235857   -0.0018775653433259487   -3.0285024391216164e-05
-0.08009923425235857   -0.0018775653433259487   -3.0285024391216164e-05
-0.08009923425235857   -0.0018775653433259487   -3.0285024391216164e-05
-0.09252652114276237   -0.020187659547409142   -0.003529361527872775
-0.09252652114276237   -0.020187659547409142   -0.003529361527872775
-0.09252652114276237   -0.020187659547409142   -0.003529361527872775
-0.09252652114276237   -0.020187659547409142   -0.003529361527872775
-0.08943168495784468   -0.007667453120047131   0.0023067157334520534
-0.08943168495784468   -0.007667453120047131   0.0023067157334520534
-0.08943168495784468   -0.007667453120047131   0.0023067157334520534
-0.08943168495784468   -0.007667453120047131   0.0023067157334520534
-0.08538878488963224   -0.02172112114694881   -0.0017911479703495124
-0.08538878488963224   -0.02172112114694881   -0.0017911479703495124
-0.08538878488963224   -0.02172112114694881   -0.0017911479703495124
-0.08538878488963224   -0.02172112114694881   -0.0017911479703495124
-0.08683733732760704   -0.012756008895315488   -0.0035882249232175867
-0.08683733732760704   -0.012756008895315488   -0.0035882249232175867
-0.08683733732760704   -0.012756008895315488   -0.0035882249232175867
-0.08683733732760704   -0.012756008895315488   -0.0035882249232175867
-0.08170199136600821   -0.006332098206838245   0.0012537967076600223
-0.08170199136600821   -0.006332098206838245   0.0012537967076600223
-0.08170199136600821   -0.006332098206838245   0.0012537967076600223
-0.08170199136600821   -0.006332098206838245   0.0012537967076600223
-0.09365241793523127   -0.02359041551392027   -0.0028739867596077884
-0.09365241793523127   -0.02359041551392027   -0.0028739867596077884
-0.09365241793523127   -0.02359041551392027   -0.0028739867596077884
-0.09365241793523127   -0.02359041551392027   -0.0028739867596077884
-0.09043832697144982   -0.011752287540450644   0.0035768673555228517
-0.09043832697144982   -0.011752287540450644   0.0035768673555228517
-0.09043832697144982   -0.011752287540450644   0.0035768673555228517
-0.09043832697144982   -0.011752287540450644   0.0035768673555228517
-0.08655130701390032   -0.02496320687028362   -0.00046562880064014364
-0.08655130701390032   -0.02496320687028362   -0.00046562880064014364
-0.08655130701390032   -0.02496320687028362   -0.00046562880064014364
-0.08655130701390032   -0.02496320687028362   -0.00046562880064014364
-0.08829477580306777   -0.01621065112406098   -0.005531732080831506
-0.08829477580306777   -0.01621065112406098   -0.005531732080831506
-0.08829477580306777   -0.01621065112406098   -0.005531732080831506
-0.08829477580306777   -0.01621065112406098   -0.005531732080831506
-0.08471258390928124   0.009144537395545889   0.004210710591159194
-0.08471258390928124   0.009144537395545889   0.004210710591159194
-0.08471258390928124   0.009144537395545889   0.004210710591159194
-0.08471258390928124   0.009144537395545889   0.004210710591159194
-0.1025044769683716   -0.01334790599599751   -0.006336883343271954
-0.1025044769683716   -0.01334790599599751   -0.006336883343271954
-0.1025044769683716   -0.01334790599599751   -0.006336883343271954
-0.1025044769683716   -0.01334790599599751   -0.006336883343271954
-0.097304205661994   0.002383006026766208   0.005717189841180623
-0.097304205661994   0.002383006026766208   0.005717189841180623
-0.097304205661994   0.002383006026766208   0.005717189841180623
-0.097304205661994   0.002383006026766208   0.005717189841180623
-0.09139179927270816   -0.0142826715506445   -0.0037607401743645213
-0.09139179927270816   -0.0142826715506445   -0.0037607401743645213
-0.09139179927270816   -0.0142826715506445   -0.0037607401743645213
-0.09139179927270816   -0.0142826715506445   -0.0037607401743645213
-0.09393080105008317   -0.003938135737924486   -0.0010820029668318284
-0.09393080105008317   -0.003938135737924486   -0.0010820029668318284
-0.09393080105008317   -0.003938135737924486   -0.0010820029668318284
-0.09393080105008317   -0.003938135737924486   -0.0010820029668318284
-0.08575153199190727   0.004651406440288765   0.005506518238706664
-0.08575153199190727   0.004651406440288765   0.005506518238706664
-0.08575153199190727   0.004651406440288765   0.005506518238706664
-0.08575153199190727   0.004651406440288765   0.005506518238706664
-0.10358485829580058   -0.01719145731717306   -0.006111609983914891
-0.10358485829580058   -0.01719145731717306   -0.006111609983914891
-0.10358485829580058   -0.01719145731717306   -0.006111609983914891
-0.10358485829580058   -0.01719145731717306   -0.006111609983914891
-0.09923772997872468   -0.0019148983854864084   0.00650119372511215
-0.09923772997872468   -0.0019148983854864084   0.00650119372511215
-0.09923772997872468   -0.0019148983854864084   0.00650119372511215
-0.09923772997872468   -0.0019148983854864084   0.00650119372511215
-0.09245446459127375   -0.017497681038039354   -0.0029769545157010933
-0.09245446459127375   -0.017497681038039354   -0.0029769545157010933
-0.09245446459127375   -0.017497681038039354   -0.0029769545157010933
-0.09245446459127375   -0.017497681038039354   -0.0029769545157010933
-0.09497892752512195   -0.007545878925770523   -0.0031658705348197418
-0.09497892752512195   -0.007545878925770523   -0.0031658705348197418
-0.09497892752512195   -0.007545878925770523   -0.0031658705348197418
-0.09497892752512195   -0.007545878925770523   -0.0031658705348197418
-0.08688631966637878   0.000606968955089349   0.006759120115645032
-0.08688631966637878   0.000606968955089349   0.006759120115645032
-0.08688631966637878   0.000606968955089349   0.006759120115645032
-0.08688631966637878   0.000606968955089349   0.006759120115645032
-0.10535954595220852   -0.020573219427204623   -0.005449565100588825
-0.10535954595220852   -0.020573219427204623   -0.005449565100588825
-0.10535954595220852   -0.020573219427204623   -0.005449565100588825
-0.10535954595220852   -0.020573219427204623   -0.005449565100588825
-0.10056562036476568   -0.006062669688205876   0.007944546737433448
-0.10056562036476568   -0.006062669688205876   0.007944546737433448
-0.10056562036476568   -0.006062669688205876   0.007944546737433448
-0.10056562036476568   -0.006062669688205876   0.007944546737433448
-0.09340111417643712   -0.0207364277539995   -0.0022529284558648263
-0.09340111417643712   -0.0207364277539995   -0.0022529284558648263
-0.09340111417643712   -0.0207364277539995   -0.0022529284558648263
-0.09340111417643712   -0.0207364277539995   -0.0022529284558648263
-0.09672468234603751   -0.010984184189367644   -0.005199290439181839
-0.09672468234603751   -0.010984184189367644   -0.005199290439181839
-0.09672468234603751   -0.010984184189367644   -0.005199290439181839
-0.09672468234603751   -0.010984184189367644   -0.005199290439181839
-0.09424258388692051   0.013143135897619899   0.00848154017036606
-0.09424258388692051   0.013143135897619899   0.00848154017036606
-0.09424258388692051   0.013143135897619899   0.00848154017036606
-0.09424258388692051   0.013143135897619899   0.00848154017036606
-0.10358646945173713   -0.008330562122546192   -0.009090566261098703
-0.10358646945173713   -0.008330562122546192   -0.009090566261098703
-0.10358646945173713   -0.008330562122546192   -0.009090566261098703
-0.10358646945173713   -0.008330562122546192   -0.009090566261098703
-0.10160574875467754   0.00884567915785412   0.009442282984392484
-0.10160574875467754   0.00884567915785412   0.009442282984392484
-0.10160574875467754   0.00884567915785412   0.009442282984392484
-0.10160574875467754   0.00884567915785412   0.009442282984392484
-0.10202748257213547   -0.009953571181614274   -0.00556261750114808
-0.10202748257213547   -0.009953571181614274   -0.00556261750114808
-0.10202748257213547   -0.009953571181614274   -0.00556261750114808
-0.10202748257213547   -0.009953571181614274   -0.00556261750114808
-0.09685924724330601   0.002182481237998717   0.0006019825642241718
-0.09685924724330601   0.002182481237998717   0.0006019825642241718
-0.09685924724330601   0.002182481237998717   0.0006019825642241718
-0.09685924724330601   0.002182481237998717   0.0006019825642241718
-0.0949130243423514   0.010255823280560062   0.009800279185596054
-0.0949130243423514   0.010255823280560062   0.009800279185596054
-0.0949130243423514   0.010255823280560062   0.009800279185596054
-0.0949130243423514   0.010255823280560062   0.009800279185596054
-0.10925590668699307   -0.011899415006851995   -0.008063412512479076
-0.10925590668699307   -0.011899415006851995   -0.008063412512479076
-0.10925590668699307   -0.011899415006851995   -0.008063412512479076
-0.10925590668699307   -0.011899415006851995   -0.008063412512479076
-0.10607197201050356   0.006392857881254174   0.01211867003803107
-0.10607197201050356   0.006392857881254174   0.01211867003803107
-0.10607197201050356   0.006392857881254174   0.01211867003803107
-0.10607197201050356   0.006392857881254174   0.01211867003803107
-0.10353553842279994   -0.011866076945726951   -0.00503666993502554
-0.10353553842279994   -0.011866076945726951   -0.00503666993502554
-0.10353553842279994   -0.011866076945726951   -0.00503666993502554
-0.10353553842279994   -0.011866076945726951   -0.00503666993502554
-0.10170331385960885   -0.0007685973573657206   -0.0019213059426667067
-0.10170331385960885   -0.0007685973573657206   -0.0019213059426667067
-0.10170331385960885   -0.0007685973573657206   -0.0019213059426667067
-0.10170331385960885   -0.0007685973573657206   -0.0019213059426667067
-0.09615728698967303   0.00829146911232413   0.01169704117255798
-0.09615728698967303   0.00829146911232413   0.01169704117255798
-0.09615728698967303   0.00829146911232413   0.01169704117255798
-0.09615728698967303   0.00829146911232413   0.01169704117255798
-0.11413130894928313   -0.01444577368245082   -0.007339383092161714
-0.11413130894928313   -0.01444577368245082   -0.007339383092161714
-0.11413130894928313   -0.01444577368245082   -0.007339383092161714
-0.11413130894928313   -0.01444577368245082   -0.007339383092161714
-0.11370999984343198   0.00010383473327522583   0.012927550662898558
-0.11370999984343198   0.00010383473327522583   0.012927550662898558
-0.11370999984343198   0.00010383473327522583   0.012927550662898558
-0.11370999984343198   0.00010383473327522583   0.012927550662898558
-0.10493189138670383   -0.015583406465346816   -0.004366071595116348
-0.10493189138670383   -0.015583406465346816   -0.004366071595116348
-0.10493189138670383   -0.015583406465346816   -0.004366071595116348
-0.10493189138670383   -0.015583406465346816   -0.004366071595116348
-0.10398445076944689   -0.003522349006047221   -0.0041542375645446175
-0.10398445076944689   -0.003522349006047221   -0.0041542375645446175
-0.10398445076944689   -0.003522349006047221   -0.0041542375645446175
-0.10398445076944689   -0.003522349006047221   -0.0041542375645446175
-0.18653736340777466   -0.017224879055399888   -0.018634864487820785
-0.18653736340777466   -0.017224879055399888   -0.018634864487820785
-0.18653736340777466   -0.017224879055399888   -0.018634864487820785
-0.18653736340777466   -0.017224879055399888   -0.018634864487820785
-0.12057840271924895   0.009442725865366784   0.004322378480730429
-0.12057840271924895   0.009442725865366784   0.004322378480730429
-0.12057840271924895   0.009442725865366784   0.004322378480730429
-0.12057840271924895   0.009442725865366784   0.004322378480730429
-0.12686351465485135   -0.008652472930323729   -0.008525215828966544
-0.12686351465485135   -0.008652472930323729   -0.008525215828966544
-0.12686351465485135   -0.008652472930323729   -0.008525215828966544
-0.12686351465485135   -0.008652472930323729   -0.008525215828966544
-0.19948448482476944   -0.023687817505717863   0.020374702540136132
-0.19948448482476944   -0.023687817505717863   0.020374702540136132
-0.19948448482476944   -0.023687817505717863   0.020374702540136132
-0.19948448482476944   -0.023687817505717863   0.020374702540136132
-0.145311471134899   -0.0059416859529873595   0.020022473917231137
-0.145311471134899   -0.0059416859529873595   0.020022473917231137
-0.145311471134899   -0.0059416859529873595   0.020022473917231137
-0.145311471134899   -0.0059416859529873595   0.020022473917231137
-0.20671762063995636   -0.025678341474877946   -0.013800452566636492
-0.20671762063995636   -0.025678341474877946   -0.013800452566636492
-0.20671762063995636   -0.025678341474877946   -0.013800452566636492
-0.20671762063995636   -0.025678341474877946   -0.013800452566636492
-0.12475020168816582   -0.011781771809664271   0.0051706478838004916
-0.12475020168816582   -0.011781771809664271   0.0051706478838004916
-0.12475020168816582   -0.011781771809664271   0.0051706478838004916
-0.12475020168816582   -0.011781771809664271   0.0051706478838004916
-0.12922631402368717   -0.012327006759697305   -0.006272575594789533
-0.12922631402368717   -0.012327006759697305   -0.006272575594789533
-0.12922631402368717   -0.012327006759697305   -0.006272575594789533
-0.12922631402368717   -0.012327006759697305   -0.006272575594789533
-0.2064311151075972   -0.03293732770764411   0.00017929527928229466
-0.2064311151075972   -0.03293732770764411   0.00017929527928229466
-0.2064311151075972   -0.03293732770764411   0.00017929527928229466
-0.2064311151075972   -0.03293732770764411   0.00017929527928229466
-0.1617211560868466   -0.019861978004749488   0.004740797389186563
-0.1617211560868466   -0.019861978004749488   0.004740797389186563
-0.1617211560868466   -0.019861978004749488   0.004740797389186563
-0.1617211560868466   -0.019861978004749488   0.004740797389186563
-0.20795234588294037   -0.02907544606133767   -0.011288740243738125
-0.20795234588294037   -0.02907544606133767   -0.011288740243738125
-0.20795234588294037   -0.02907544606133767   -0.011288740243738125
-0.20795234588294037   -0.02907544606133767   -0.011288740243738125
-0.12921483214528637   -0.01769863730294602   -0.0008435356595380833
-0.12921483214528637   -0.01769863730294602   -0.0008435356595380833
-0.12921483214528637   -0.01769863730294602   -0.0008435356595380833
-0.12921483214528637   -0.01769863730294602   -0.0008435356595380833
-0.12969756440127675   -0.021044938266847876   -0.004665322875240834
-0.12969756440127675   -0.021044938266847876   -0.004665322875240834
-0.12969756440127675   -0.021044938266847876   -0.004665322875240834
-0.12969756440127675   -0.021044938266847876   -0.004665322875240834
-0.2121030421331422   -0.05002767484293337   0.002812748360465335
-0.2121030421331422   -0.05002767484293337   0.002812748360465335
-0.2121030421331422   -0.05002767484293337   0.002812748360465335
-0.2121030421331422   -0.05002767484293337   0.002812748360465335
-0.16201697803834672   -0.027204380366001722   0.0004956045121400493
-0.16201697803834672   -0.027204380366001722   0.0004956045121400493
-0.16201697803834672   -0.027204380366001722   0.0004956045121400493
-0.16201697803834672   -0.027204380366001722   0.0004956045121400493
-0.13014994845705294   -0.02220051361631637   -0.01189211072660537
-0.13014994845705294   -0.02220051361631637   -0.01189211072660537
-0.13014994845705294   -0.02220051361631637   -0.01189211072660537
-0.13014994845705294   -0.02220051361631637   -0.01189211072660537
-0.09121908326474705   -0.06100099005584669   -0.011338586426716552
-0.09121908326474705   -0.06100099005584669   -0.011338586426716552
-0.09121908326474705   -0.06100099005584669   -0.011338586426716552
-0.09121908326474705   -0.06100099005584669   -0.011338586426716552
-0.0800063544685018   -0.013339110542238413   -0.0008950089438390131
-0.0800063544685018   -0.013339110542238413   -0.0008950089438390131
-0.0800063544685018   -0.013339110542238413   -0.0008950089438390131
-0.0800063544685018   -0.013339110542238413   -0.0008950089438390131
-0.13907595184747973   -0.06414516517037021   -0.014094709552063128
-0.13907595184747973   -0.06414516517037021   -0.014094709552063128
-0.13907595184747973   -0.06414516517037021   -0.014094709552063128
-0.13907595184747973   -0.06414516517037021   -0.014094709552063128
-0.10887958671499834   -0.04251652463451991   -0.0032277575364396023
-0.10887958671499834   -0.04251652463451991   -0.0032277575364396023
-0.10887958671499834   -0.04251652463451991   -0.0032277575364396023
-0.10887958671499834   -0.04251652463451991   -0.0032277575364396023
-0.13023129358607122   -0.025007011050052746   -0.009009572365337414
-0.13023129358607122   -0.025007011050052746   -0.009009572365337414
-0.13023129358607122   -0.025007011050052746   -0.009009572365337414
-0.13023129358607122   -0.025007011050052746   -0.009009572365337414
-0.0893692604206763   -0.052995512353322574   -0.00805313689362834
-0.0893692604206763   -0.052995512353322574   -0.00805313689362834
-0.0893692604206763   -0.052995512353322574   -0.00805313689362834
-0.0893692604206763   -0.052995512353322574   -0.00805313689362834
-0.08127806886712946   -0.017208880081710884   -6.655655280136258e-05
-0.08127806886712946   -0.017208880081710884   -6.655655280136258e-05
-0.08127806886712946   -0.017208880081710884   -6.655655280136258e-05
-0.08127806886712946   -0.017208880081710884   -6.655655280136258e-05
-0.1399165908059542   -0.06378724223999895   -0.008263724025824114
-0.1399165908059542   -0.06378724223999895   -0.008263724025824114
-0.1399165908059542   -0.06378724223999895   -0.008263724025824114
-0.1399165908059542   -0.06378724223999895   -0.008263724025824114
-0.10791627406562293   -0.03984432488256258   -0.003433500899551613
-0.10791627406562293   -0.03984432488256258   -0.003433500899551613
-0.10791627406562293   -0.03984432488256258   -0.003433500899551613
-0.10791627406562293   -0.03984432488256258   -0.003433500899551613
-0.13263399098624995   -0.028828622190362373   -0.006809344976938341
-0.13263399098624995   -0.028828622190362373   -0.006809344976938341
-0.13263399098624995   -0.028828622190362373   -0.006809344976938341
-0.13263399098624995   -0.028828622190362373   -0.006809344976938341
-0.08966781072821448   -0.05327464217272837   -0.00594950376721088
-0.08966781072821448   -0.05327464217272837   -0.00594950376721088
-0.08966781072821448   -0.05327464217272837   -0.00594950376721088
-0.08966781072821448   -0.05327464217272837   -0.00594950376721088
-0.08166068720898235   -0.02194185624821975   0.0011167652847562486
-0.08166068720898235   -0.02194185624821975   0.0011167652847562486
-0.08166068720898235   -0.02194185624821975   0.0011167652847562486
-0.08166068720898235   -0.02194185624821975   0.0011167652847562486
-0.13994696644949156   -0.06458919693614583   -0.012368074447019081
-0.13994696644949156   -0.06458919693614583   -0.012368074447019081
-0.13994696644949156   -0.06458919693614583   -0.012368074447019081
-0.13994696644949156   -0.06458919693614583   -0.012368074447019081
-0.10994420024644791   -0.0427760111221971   -0.006418279058129247
-0.10994420024644791   -0.0427760111221971   -0.006418279058129247
-0.10994420024644791   -0.0427760111221971   -0.006418279058129247
-0.10994420024644791   -0.0427760111221971   -0.006418279058129247
-0.07984423201731752   -0.014392131583550967   -0.0010731886618646456
-0.07984423201731752   -0.014392131583550967   -0.0010731886618646456
-0.07984423201731752   -0.014392131583550967   -0.0010731886618646456
-0.07984423201731752   -0.014392131583550967   -0.0010731886618646456
-0.06879468487289177   -0.0470518941217045   -0.00811774988678481
-0.06879468487289177   -0.0470518941217045   -0.00811774988678481
-0.06879468487289177   -0.0470518941217045   -0.00811774988678481
-0.06879468487289177   -0.0470518941217045   -0.00811774988678481
-0.05937195709992782   -0.012240543665837869   0.0030516538371528727
-0.05937195709992782   -0.012240543665837869   0.0030516538371528727
-0.05937195709992782   -0.012240543665837869   0.0030516538371528727
-0.05937195709992782   -0.012240543665837869   0.0030516538371528727
-0.08906594602616857   -0.050686930255483875   -0.008845147018928343
-0.08906594602616857   -0.050686930255483875   -0.008845147018928343
-0.08906594602616857   -0.050686930255483875   -0.008845147018928343
-0.08906594602616857   -0.050686930255483875   -0.008845147018928343
-0.07396671618884891   -0.0314633097270825   -0.0037118907332650067
-0.07396671618884891   -0.0314633097270825   -0.0037118907332650067
-0.07396671618884891   -0.0314633097270825   -0.0037118907332650067
-0.07396671618884891   -0.0314633097270825   -0.0037118907332650067
-0.0805510477948502   -0.017065174829847485   0.0001075887120271582
-0.0805510477948502   -0.017065174829847485   0.0001075887120271582
-0.0805510477948502   -0.017065174829847485   0.0001075887120271582
-0.0805510477948502   -0.017065174829847485   0.0001075887120271582
-0.06835984934913834   -0.0463352931093664   -0.007793057965371202
-0.06835984934913834   -0.0463352931093664   -0.007793057965371202
-0.06835984934913834   -0.0463352931093664   -0.007793057965371202
-0.06835984934913834   -0.0463352931093664   -0.007793057965371202
-0.05972811677944584   -0.01543457049998662   0.003980937154275034
-0.05972811677944584   -0.01543457049998662   0.003980937154275034
-0.05972811677944584   -0.01543457049998662   0.003980937154275034
-0.05972811677944584   -0.01543457049998662   0.003980937154275034
-0.0896826106822942   -0.051484534362541974   -0.007813611347795815
-0.0896826106822942   -0.051484534362541974   -0.007813611347795815
-0.0896826106822942   -0.051484534362541974   -0.007813611347795815
-0.0896826106822942   -0.051484534362541974   -0.007813611347795815
-0.07412109578990199   -0.03261904205872011   -0.00482530235200903
-0.07412109578990199   -0.03261904205872011   -0.00482530235200903
-0.07412109578990199   -0.03261904205872011   -0.00482530235200903
-0.07412109578990199   -0.03261904205872011   -0.00482530235200903
-0.0815943852110171   -0.02031284607328799   0.0014558277193356325
-0.0815943852110171   -0.02031284607328799   0.0014558277193356325
-0.0815943852110171   -0.02031284607328799   0.0014558277193356325
-0.0815943852110171   -0.02031284607328799   0.0014558277193356325
-0.06808154781943929   -0.046871464357956326   -0.00634932418772248
-0.06808154781943929   -0.046871464357956326   -0.00634932418772248
-0.06808154781943929   -0.046871464357956326   -0.00634932418772248
-0.06808154781943929   -0.046871464357956326   -0.00634932418772248
-0.05940437001667225   -0.01843953388055535   0.005005799150776986
-0.05940437001667225   -0.01843953388055535   0.005005799150776986
-0.05940437001667225   -0.01843953388055535   0.005005799150776986
-0.05940437001667225   -0.01843953388055535   0.005005799150776986
-0.08901759745186891   -0.052037591250416064   -0.005572050927479328
-0.08901759745186891   -0.052037591250416064   -0.005572050927479328
-0.08901759745186891   -0.052037591250416064   -0.005572050927479328
-0.08901759745186891   -0.052037591250416064   -0.005572050927479328
-0.07427352325646043   -0.0341982940731952   -0.0056490082719055645
-0.07427352325646043   -0.0341982940731952   -0.0056490082719055645
-0.07427352325646043   -0.0341982940731952   -0.0056490082719055645
-0.07427352325646043   -0.0341982940731952   -0.0056490082719055645
-0.0570134733967051   -0.0018625382821008543   0.0055989516545448415
-0.0570134733967051   -0.0018625382821008543   0.0055989516545448415
-0.0570134733967051   -0.0018625382821008543   0.0055989516545448415
-0.0570134733967051   -0.0018625382821008543   0.0055989516545448415
-0.05574248719422559   -0.02527983277547387   -0.005027997733355664
-0.05574248719422559   -0.02527983277547387   -0.005027997733355664
-0.05574248719422559   -0.02527983277547387   -0.005027997733355664
-0.05574248719422559   -0.02527983277547387   -0.005027997733355664
-0.04839082088471271   -0.0036450437746256637   0.0064264203177341935
-0.04839082088471271   -0.0036450437746256637   0.0064264203177341935
-0.04839082088471271   -0.0036450437746256637   0.0064264203177341935
-0.04839082088471271   -0.0036450437746256637   0.0064264203177341935
-0.06397992418031306   -0.02873692192223581   -0.003491803308375379
-0.06397992418031306   -0.02873692192223581   -0.003491803308375379
-0.06397992418031306   -0.02873692192223581   -0.003491803308375379
-0.06397992418031306   -0.02873692192223581   -0.003491803308375379
-0.05645476603973551   -0.014713405208846288   -0.0020335178534101953
-0.05645476603973551   -0.014713405208846288   -0.0020335178534101953
-0.05645476603973551   -0.014713405208846288   -0.0020335178534101953
-0.05645476603973551   -0.014713405208846288   -0.0020335178534101953
-0.057326501552175474   -0.0054248219913747625   0.006463209901451477
-0.057326501552175474   -0.0054248219913747625   0.006463209901451477
-0.057326501552175474   -0.0054248219913747625   0.006463209901451477
-0.057326501552175474   -0.0054248219913747625   0.006463209901451477
-0.055567063388650854   -0.027479963581287282   -0.00561987239529496
-0.055567063388650854   -0.027479963581287282   -0.00561987239529496
-0.055567063388650854   -0.027479963581287282   -0.00561987239529496
-0.055567063388650854   -0.027479963581287282   -0.00561987239529496
-0.04877987968635369   -0.006781080951701349   0.006931461011068877
-0.04877987968635369   -0.006781080951701349   0.006931461011068877
-0.04877987968635369   -0.006781080951701349   0.006931461011068877
-0.04877987968635369   -0.006781080951701349   0.006931461011068877
-0.06430310024865575   -0.030511584306966502   -0.0038169663847947254
-0.06430310024865575   -0.030511584306966502   -0.0038169663847947254
-0.06430310024865575   -0.030511584306966502   -0.0038169663847947254
-0.06430310024865575   -0.030511584306966502   -0.0038169663847947254
-0.05650352266254219   -0.017201816620228884   -0.0034820272366891183
-0.05650352266254219   -0.017201816620228884   -0.0034820272366891183
-0.05650352266254219   -0.017201816620228884   -0.0034820272366891183
-0.05650352266254219   -0.017201816620228884   -0.0034820272366891183
-0.0576628827021211   -0.008474555290738484   0.007347092331650604
-0.0576628827021211   -0.008474555290738484   0.007347092331650604
-0.0576628827021211   -0.008474555290738484   0.007347092331650604
-0.0576628827021211   -0.008474555290738484   0.007347092331650604
-0.05573823612789885   -0.029136248862939855   -0.005505153285418408
-0.05573823612789885   -0.029136248862939855   -0.005505153285418408
-0.05573823612789885   -0.029136248862939855   -0.005505153285418408
-0.05573823612789885   -0.029136248862939855   -0.005505153285418408
-0.048710040563660864   -0.009738157674748114   0.00804734832761201
-0.048710040563660864   -0.009738157674748114   0.00804734832761201
-0.048710040563660864   -0.009738157674748114   0.00804734832761201
-0.048710040563660864   -0.009738157674748114   0.00804734832761201
-0.06367875505462306   -0.032259322630303705   -0.00254633728922872
-0.06367875505462306   -0.032259322630303705   -0.00254633728922872
-0.06367875505462306   -0.032259322630303705   -0.00254633728922872
-0.06367875505462306   -0.032259322630303705   -0.00254633728922872
-0.05670047676221452   -0.019400958256065994   -0.00453389639480988
-0.05670047676221452   -0.019400958256065994   -0.00453389639480988
-0.05670047676221452   -0.019400958256065994   -0.00453389639480988
-0.05670047676221452   -0.019400958256065994   -0.00453389639480988
-0.046579235027837534   0.006658903399230322   0.008849526923880427
-0.046579235027837534   0.006658903399230322   0.008849526923880427
-0.046579235027837534   0.006658903399230322   0.008849526923880427
-0.046579235027837534   0.006658903399230322   0.008849526923880427
-0.03345087425419646   -0.008590396363715983   -0.0032154982393791734
-0.03345087425419646   -0.008590396363715983   -0.0032154982393791734
-0.03345087425419646   -0.008590396363715983   -0.0032154982393791734
-0.03345087425419646   -0.008590396363715983   -0.0032154982393791734
-0.02989212058409892   0.007342612399594042   0.008782938416856942
-0.02989212058409892   0.007342612399594042   0.008782938416856942
-0.02989212058409892   0.007342612399594042   0.008782938416856942
-0.02989212058409892   0.007342612399594042   0.008782938416856942
-0.05179257914747248   -0.012537804334816698   -0.0016896104358736317
-0.05179257914747248   -0.012537804334816698   -0.0016896104358736317
-0.05179257914747248   -0.012537804334816698   -0.0016896104358736317
-0.05179257914747248   -0.012537804334816698   -0.0016896104358736317
-0.039771021164025686   -0.0008902609851147024   -0.0014549867431157514
-0.039771021164025686   -0.0008902609851147024   -0.0014549867431157514
-0.039771021164025686   -0.0008902609851147024   -0.0014549867431157514
-0.039771021164025686   -0.0008902609851147024   -0.0014549867431157514
-0.04616118966711494   0.004265097854865447   0.009664434776229988
-0.04616118966711494   0.004265097854865447   0.009664434776229988
-0.04616118966711494   0.004265097854865447   0.009664434776229988
-0.04616118966711494   0.004265097854865447   0.009664434776229988
-0.0356010981651831   -0.009537877890814752   -0.0028814591981513515
-0.0356010981651831   -0.009537877890814752   -0.0028814591981513515
-0.0356010981651831   -0.009537877890814752   -0.0028814591981513515
-0.0356010981651831   -0.009537877890814752   -0.0028814591981513515
-0.031467170871214395   0.00576018133542154   0.011026253919131368
-0.031467170871214395   0.00576018133542154   0.011026253919131368
-0.031467170871214395   0.00576018133542154   0.011026253919131368
-0.031467170871214395   0.00576018133542154   0.011026253919131368
-0.05190364729907589   -0.013397717952600783   -0.002070740051642714
-0.05190364729907589   -0.013397717952600783   -0.002070740051642714
-0.05190364729907589   -0.013397717952600783   -0.002070740051642714
-0.05190364729907589   -0.013397717952600783   -0.002070740051642714
-0.04131307919691381   -0.002608887948642645   -0.0022467823237060074
-0.04131307919691381   -0.002608887948642645   -0.0022467823237060074
-0.04131307919691381   -0.002608887948642645   -0.0022467823237060074
-0.04131307919691381   -0.002608887948642645   -0.0022467823237060074
-0.046015130581048905   0.00286680310567285   0.011107322480218593
-0.046015130581048905   0.00286680310567285   0.011107322480218593
-0.046015130581048905   0.00286680310567285   0.011107322480218593
-0.046015130581048905   0.00286680310567285   0.011107322480218593
-0.03775922968821633   -0.010907881821826393   -0.0037659770086303414
-0.03775922968821633   -0.010907881821826393   -0.0037659770086303414
-0.03775922968821633   -0.010907881821826393   -0.0037659770086303414
-0.03775922968821633   -0.010907881821826393   -0.0037659770086303414
-0.03587911333883297   0.0013962558505565634   0.011479461936529697
-0.03587911333883297   0.0013962558505565634   0.011479461936529697
-0.03587911333883297   0.0013962558505565634   0.011479461936529697
-0.03587911333883297   0.0013962558505565634   0.011479461936529697
-0.05156792488594364   -0.014280324745092148   -0.0016999062134578375
-0.05156792488594364   -0.014280324745092148   -0.0016999062134578375
-0.05156792488594364   -0.014280324745092148   -0.0016999062134578375
-0.05156792488594364   -0.014280324745092148   -0.0016999062134578375
-0.04218829510153151   -0.003916280395164553   -0.003409679772089241
-0.04218829510153151   -0.003916280395164553   -0.003409679772089241
-0.04218829510153151   -0.003916280395164553   -0.003409679772089241
-0.04218829510153151   -0.003916280395164553   -0.003409679772089241
-0.45355674696619325   -0.06578943328913413   -0.038860073044831675
-0.45355674696619325   -0.06578943328913413   -0.038860073044831675
-0.45355674696619325   -0.06578943328913413   -0.038860073044831675
-0.45355674696619325   -0.06578943328913413   -0.038860073044831675
-0.15948627580557867   -0.26720378274425477   -0.030099270037865937
-0.15948627580557867   -0.26720378274425477   -0.030099270037865937
-0.15948627580557867   -0.26720378274425477   -0.030099270037865937
-0.15948627580557867   -0.26720378274425477   -0.030099270037865937
-0.12098139959013453   -0.01207447310429387   -6.166068737879782e-05
-0.12098139959013453   -0.01207447310429387   -6.166068737879782e-05
-0.12098139959013453   -0.01207447310429387   -6.166068737879782e-05
-0.12098139959013453   -0.01207447310429387   -6.166068737879782e-05
-0.4886760459683681   -0.3106209505603541   -0.15985939930574444
-0.4886760459683681   -0.3106209505603541   -0.15985939930574444
-0.4886760459683681   -0.3106209505603541   -0.15985939930574444
-0.4886760459683681   -0.3106209505603541   -0.15985939930574444
-0.2979511636206416   -0.1540398900174351   -0.022508451669340873
-0.2979511636206416   -0.1540398900174351   -0.022508451669340873
-0.2979511636206416   -0.1540398900174351   -0.022508451669340873
-0.2979511636206416   -0.1540398900174351   -0.022508451669340873
-0.42170355032973655   -0.08277512120777275   -0.05284275046517123
-0.42170355032973655   -0.08277512120777275   -0.05284275046517123
-0.42170355032973655   -0.08277512120777275   -0.05284275046517123
-0.42170355032973655   -0.08277512120777275   -0.05284275046517123
-0.17289657999894267   -0.22486298722705214   -0.046849048608660064
-0.17289657999894267   -0.22486298722705214   -0.046849048608660064
-0.17289657999894267   -0.22486298722705214   -0.046849048608660064
-0.17289657999894267   -0.22486298722705214   -0.046849048608660064
-0.12401334893160215   -0.015577873925929518   0.00455879801186021
-0.12401334893160215   -0.015577873925929518   0.00455879801186021
-0.12401334893160215   -0.015577873925929518   0.00455879801186021
-0.12401334893160215   -0.015577873925929518   0.00455879801186021
-0.45768352393632006   -0.278968238868179   -0.14733035256089982
-0.45768352393632006   -0.278968238868179   -0.14733035256089982
-0.45768352393632006   -0.278968238868179   -0.14733035256089982
-0.45768352393632006   -0.278968238868179   -0.14733035256089982
-0.28096156283636275   -0.13951563976690246   0.010897485951302702
-0.28096156283636275   -0.13951563976690246   0.010897485951302702
-0.28096156283636275   -0.13951563976690246   0.010897485951302702
-0.28096156283636275   -0.13951563976690246   0.010897485951302702
-0.3961509151634208   -0.07887021357298542   -0.03976533399160065
-0.3961509151634208   -0.07887021357298542   -0.03976533399160065
-0.3961509151634208   -0.07887021357298542   -0.03976533399160065
-0.3961509151634208   -0.07887021357298542   -0.03976533399160065
-0.1687527090779908   -0.19888265059461294   -0.0358332260513986
-0.1687527090779908   -0.19888265059461294   -0.0358332260513986
-0.1687527090779908   -0.19888265059461294   -0.0358332260513986
-0.1687527090779908   -0.19888265059461294   -0.0358332260513986
-0.1438988586757742   -0.03853907346308554   -0.00794842819766349
-0.1438988586757742   -0.03853907346308554   -0.00794842819766349
-0.1438988586757742   -0.03853907346308554   -0.00794842819766349
-0.1438988586757742   -0.03853907346308554   -0.00794842819766349
-0.4173840229058813   -0.2369075408808211   -0.13085831275734047
-0.4173840229058813   -0.2369075408808211   -0.13085831275734047
-0.4173840229058813   -0.2369075408808211   -0.13085831275734047
-0.4173840229058813   -0.2369075408808211   -0.13085831275734047
-0.2606255043401652   -0.12141692206906012   0.048812288717828736
-0.2606255043401652   -0.12141692206906012   0.048812288717828736
-0.2606255043401652   -0.12141692206906012   0.048812288717828736
-0.2606255043401652   -0.12141692206906012   0.048812288717828736
-0.11501183423962907   -0.06539832662996206   -0.009532518322411344
-0.11501183423962907   -0.06539832662996206   -0.009532518322411344
-0.11501183423962907   -0.06539832662996206   -0.009532518322411344
-0.11501183423962907   -0.06539832662996206   -0.009532518322411344
-0.05504208588030335   -0.08976436609236227   -0.013688463145572524
-0.05504208588030335   -0.08976436609236227   -0.013688463145572524
-0.05504208588030335   -0.08976436609236227   -0.013688463145572524
-0.05504208588030335   -0.08976436609236227   -0.013688463145572524
-0.04739046719998234   -0.04277464517810102   0.0010724057617854908
-0.04739046719998234   -0.04277464517810102   0.0010724057617854908
-0.04739046719998234   -0.04277464517810102   0.0010724057617854908
-0.04739046719998234   -0.04277464517810102   0.0010724057617854908
-0.1438057637127881   -0.12727961944540206   0.0010216650404627145
-0.1438057637127881   -0.12727961944540206   0.0010216650404627145
-0.1438057637127881   -0.12727961944540206   0.0010216650404627145
-0.1438057637127881   -0.12727961944540206   0.0010216650404627145
-0.07639712934784923   -0.06122948554232938   0.02513883944373068
-0.07639712934784923   -0.06122948554232938   0.02513883944373068
-0.07639712934784923   -0.06122948554232938   0.02513883944373068
-0.07639712934784923   -0.06122948554232938   0.02513883944373068
-0.13201407823174854   -0.061144794947299984   -0.006154732052443157
-0.13201407823174854   -0.061144794947299984   -0.006154732052443157
-0.13201407823174854   -0.061144794947299984   -0.006154732052443157
-0.13201407823174854   -0.061144794947299984   -0.006154732052443157
-0.06344699913398778   -0.11317431612916923   -0.008810582957173456
-0.06344699913398778   -0.11317431612916923   -0.008810582957173456
-0.06344699913398778   -0.11317431612916923   -0.008810582957173456
-0.06344699913398778   -0.11317431612916923   -0.008810582957173456
-0.051733558068042355   -0.04425340591431163   0.001222424864700672
-0.051733558068042355   -0.04425340591431163   0.001222424864700672
-0.051733558068042355   -0.04425340591431163   0.001222424864700672
-0.051733558068042355   -0.04425340591431163   0.001222424864700672
-0.15165799810778982   -0.12634465584165627   -0.02289766595335032
-0.15165799810778982   -0.12634465584165627   -0.02289766595335032
-0.15165799810778982   -0.12634465584165627   -0.02289766595335032
-0.15165799810778982   -0.12634465584165627   -0.02289766595335032
-0.09215591658003891   -0.07791106452500304   0.010974042585418856
-0.09215591658003891   -0.07791106452500304   0.010974042585418856
-0.09215591658003891   -0.07791106452500304   0.010974042585418856
-0.09215591658003891   -0.07791106452500304   0.010974042585418856
-0.1369028211218578   -0.06385419239257029   -0.011612244472777207
-0.1369028211218578   -0.06385419239257029   -0.011612244472777207
-0.1369028211218578   -0.06385419239257029   -0.011612244472777207
-0.1369028211218578   -0.06385419239257029   -0.011612244472777207
-0.06611921939825127   -0.10637435370767467   -0.008584933992980884
-0.06611921939825127   -0.10637435370767467   -0.008584933992980884
-0.06611921939825127   -0.10637435370767467   -0.008584933992980884
-0.06611921939825127   -0.10637435370767467   -0.008584933992980884
-0.05860523952941712   -0.045482967584696506   0.0018213453901550006
-0.05860523952941712   -0.045482967584696506   0.0018213453901550006
-0.05860523952941712   -0.045482967584696506   0.0018213453901550006
-0.05860523952941712   -0.045482967584696506   0.0018213453901550006
-0.16317390830326334   -0.12326817835055387   -0.01959457144764129
-0.16317390830326334   -0.12326817835055387   -0.01959457144764129
-0.16317390830326334   -0.12326817835055387   -0.01959457144764129
-0.16317390830326334   -0.12326817835055387   -0.01959457144764129
-0.09716563390562738   -0.07355084238858262   0.011509271727886461
-0.09716563390562738   -0.07355084238858262   0.011509271727886461
-0.09716563390562738   -0.07355084238858262   0.011509271727886461
-0.09716563390562738   -0.07355084238858262   0.011509271727886461
-0.04165834973978682   -0.03942325568733081   0.002889107151978671
-0.04165834973978682   -0.03942325568733081   0.002889107151978671
-0.04165834973978682   -0.03942325568733081   0.002889107151978671
-0.04165834973978682   -0.03942325568733081   0.002889107151978671
-0.026993433332990313   -0.030795029274606298   -0.006823646464277908
-0.026993433332990313   -0.030795029274606298   -0.006823646464277908
-0.026993433332990313   -0.030795029274606298   -0.006823646464277908
-0.026993433332990313   -0.030795029274606298   -0.006823646464277908
-0.025643038940689224   -0.035675758135211476   0.0027878064969543044
-0.025643038940689224   -0.035675758135211476   0.0027878064969543044
-0.025643038940689224   -0.035675758135211476   0.0027878064969543044
-0.025643038940689224   -0.035675758135211476   0.0027878064969543044
-0.04762950880135342   -0.040536977426550706   -0.002360469996620179
-0.04762950880135342   -0.040536977426550706   -0.002360469996620179
-0.04762950880135342   -0.040536977426550706   -0.002360469996620179
-0.04762950880135342   -0.040536977426550706   -0.002360469996620179
-0.02977962618188049   -0.030727426425736688   0.012729381008416613
-0.02977962618188049   -0.030727426425736688   0.012729381008416613
-0.02977962618188049   -0.030727426425736688   0.012729381008416613
-0.02977962618188049   -0.030727426425736688   0.012729381008416613
-0.04635693645893611   -0.03973584673372382   0.0032012610226394497
-0.04635693645893611   -0.03973584673372382   0.0032012610226394497
-0.04635693645893611   -0.03973584673372382   0.0032012610226394497
-0.04635693645893611   -0.03973584673372382   0.0032012610226394497
-0.02743929370906109   -0.03700057125399288   -0.004868654226123611
-0.02743929370906109   -0.03700057125399288   -0.004868654226123611
-0.02743929370906109   -0.03700057125399288   -0.004868654226123611
-0.02743929370906109   -0.03700057125399288   -0.004868654226123611
-0.0262997199770385   -0.03673752983932006   0.0025385205630580523
-0.0262997199770385   -0.03673752983932006   0.0025385205630580523
-0.0262997199770385   -0.03673752983932006   0.0025385205630580523
-0.0262997199770385   -0.03673752983932006   0.0025385205630580523
-0.05114101379806406   -0.04696144752963721   0.006893187829917713
-0.05114101379806406   -0.04696144752963721   0.006893187829917713
-0.05114101379806406   -0.04696144752963721   0.006893187829917713
-0.05114101379806406   -0.04696144752963721   0.006893187829917713
-0.032997859783611395   -0.0343623447296328   0.010416122260573004
-0.032997859783611395   -0.0343623447296328   0.010416122260573004
-0.032997859783611395   -0.0343623447296328   0.010416122260573004
-0.032997859783611395   -0.0343623447296328   0.010416122260573004
-0.050515486271118584   -0.04123042635312176   0.004289804288129657
-0.050515486271118584   -0.04123042635312176   0.004289804288129657
-0.050515486271118584   -0.04123042635312176   0.004289804288129657
-0.050515486271118584   -0.04123042635312176   0.004289804288129657
-0.029260397564518974   -0.04480370107637051   -0.004198696137293853
-0.029260397564518974   -0.04480370107637051   -0.004198696137293853
-0.029260397564518974   -0.04480370107637051   -0.004198696137293853
-0.029260397564518974   -0.04480370107637051   -0.004198696137293853
-0.027254972254694455   -0.03784645756887682   0.003620992283042414
-0.027254972254694455   -0.03784645756887682   0.003620992283042414
-0.027254972254694455   -0.03784645756887682   0.003620992283042414
-0.027254972254694455   -0.03784645756887682   0.003620992283042414
-0.06078671880709449   -0.05693787954142894   0.002368860958499648
-0.06078671880709449   -0.05693787954142894   0.002368860958499648
-0.06078671880709449   -0.05693787954142894   0.002368860958499648
-0.06078671880709449   -0.05693787954142894   0.002368860958499648
-0.03749978749378557   -0.03887758688715862   0.004409418178070047
-0.03749978749378557   -0.03887758688715862   0.004409418178070047
-0.03749978749378557   -0.03887758688715862   0.004409418178070047
-0.03749978749378557   -0.03887758688715862   0.004409418178070047
-0.021098045171854738   -0.015811409842474863   0.007669674909268523
-0.021098045171854738   -0.015811409842474863   0.007669674909268523
-0.021098045171854738   -0.015811409842474863   0.007669674909268523
-0.021098045171854738   -0.015811409842474863   0.007669674909268523
-0.01598260027284462   -0.002572681708463109   -0.001608188683731368
-0.01598260027284462   -0.002572681708463109   -0.001608188683731368
-0.01598260027284462   -0.002572681708463109   -0.001608188683731368
-0.01598260027284462   -0.002572681708463109   -0.001608188683731368
-0.015082827896220952   -0.017319960278619064   0.004695908625616222
-0.015082827896220952   -0.017319960278619064   0.004695908625616222
-0.015082827896220952   -0.017319960278619064   0.004695908625616222
-0.015082827896220952   -0.017319960278619064   0.004695908625616222
-0.020323160632287358   -0.0057983116891931405   -0.0004902484070546907
-0.020323160632287358   -0.0057983116891931405   -0.0004902484070546907
-0.020323160632287358   -0.0057983116891931405   -0.0004902484070546907
-0.020323160632287358   -0.0057983116891931405   -0.0004902484070546907
-0.016693906654265636   -0.009709080451349718   0.003797993126900002
-0.016693906654265636   -0.009709080451349718   0.003797993126900002
-0.016693906654265636   -0.009709080451349718   0.003797993126900002
-0.016693906654265636   -0.009709080451349718   0.003797993126900002
-0.021210666763977645   -0.018024939940194586   0.00729884918549532
-0.021210666763977645   -0.018024939940194586   0.00729884918549532
-0.021210666763977645   -0.018024939940194586   0.00729884918549532
-0.021210666763977645   -0.018024939940194586   0.00729884918549532
-0.013883328099756098   -0.004781338362843055   -0.001845214307835521
-0.013883328099756098   -0.004781338362843055   -0.001845214307835521
-0.013883328099756098   -0.004781338362843055   -0.001845214307835521
-0.013883328099756098   -0.004781338362843055   -0.001845214307835521
-0.01415784920195665   -0.018841196030216115   0.0043897239522580934
-0.01415784920195665   -0.018841196030216115   0.0043897239522580934
-0.01415784920195665   -0.018841196030216115   0.0043897239522580934
-0.01415784920195665   -0.018841196030216115   0.0043897239522580934
-0.020904523438292424   -0.009217867217800267   0.0019948406352686496
-0.020904523438292424   -0.009217867217800267   0.0019948406352686496
-0.020904523438292424   -0.009217867217800267   0.0019948406352686496
-0.020904523438292424   -0.009217867217800267   0.0019948406352686496
-0.015735273768244348   -0.011220359197486662   0.004249052551471084
-0.015735273768244348   -0.011220359197486662   0.004249052551471084
-0.015735273768244348   -0.011220359197486662   0.004249052551471084
-0.015735273768244348   -0.011220359197486662   0.004249052551471084
-0.021690545894351147   -0.019546923276426403   0.00839378441360116
-0.021690545894351147   -0.019546923276426403   0.00839378441360116
-0.021690545894351147   -0.019546923276426403   0.00839378441360116
-0.021690545894351147   -0.019546923276426403   0.00839378441360116
-0.01357877651517733   -0.008719089740869705   -0.0028370189031936364
-0.01357877651517733   -0.008719089740869705   -0.0028370189031936364
-0.01357877651517733   -0.008719089740869705   -0.0028370189031936364
-0.01357877651517733   -0.008719089740869705   -0.0028370189031936364
-0.012436681415473305   -0.020526207248642788   0.0048771659799261135
-0.012436681415473305   -0.020526207248642788   0.0048771659799261135
-0.012436681415473305   -0.020526207248642788   0.0048771659799261135
-0.012436681415473305   -0.020526207248642788   0.0048771659799261135
-0.023306048904239728   -0.017028135286330712   0.002547286752769941
-0.023306048904239728   -0.017028135286330712   0.002547286752769941
-0.023306048904239728   -0.017028135286330712   0.002547286752769941
-0.023306048904239728   -0.017028135286330712   0.002547286752769941
-0.015664026884522682   -0.01399119846583078   0.0033366244898429057
-0.015664026884522682   -0.01399119846583078   0.0033366244898429057
-0.015664026884522682   -0.01399119846583078   0.0033366244898429057
-0.015664026884522682   -0.01399119846583078   0.0033366244898429057
-0.014073988995010979   -0.002499568720506922   0.007861754717480646
-0.014073988995010979   -0.002499568720506922   0.007861754717480646
-0.014073988995010979   -0.002499568720506922   0.007861754717480646
-0.014073988995010979   -0.002499568720506922   0.007861754717480646
-0.003341585171946313   0.001176017867495457   -0.00015954438496862774
-0.003341585171946313   0.001176017867495457   -0.00015954438496862774
-0.003341585171946313   0.001176017867495457   -0.00015954438496862774
-0.003341585171946313   0.001176017867495457   -0.00015954438496862774
-0.00021341365482086157   -0.0008896192900668802   0.004972149295225768
-0.00021341365482086157   -0.0008896192900668802   0.004972149295225768
-0.00021341365482086157   -0.0008896192900668802   0.004972149295225768
-0.00021341365482086157   -0.0008896192900668802   0.004972149295225768
-0.012499675984799855   0.0005739794904436943   -0.000282271586341054
-0.012499675984799855   0.0005739794904436943   -0.000282271586341054
-0.012499675984799855   0.0005739794904436943   -0.000282271586341054
-0.012499675984799855   0.0005739794904436943   -0.000282271586341054
-0.00760833102994584   -0.0006691437175836158   -0.0005137675318822854
-0.00760833102994584   -0.0006691437175836158   -0.0005137675318822854
-0.00760833102994584   -0.0006691437175836158   -0.0005137675318822854
-0.00760833102994584   -0.0006691437175836158   -0.0005137675318822854
-0.011412195467205073   -0.0024816528443109844   0.008210763336389457
-0.011412195467205073   -0.0024816528443109844   0.008210763336389457
-0.011412195467205073   -0.0024816528443109844   0.008210763336389457
-0.011412195467205073   -0.0024816528443109844   0.008210763336389457
-0.0009019361054971821   0.0025649711116065804   -0.0019250533598292954
-0.0009019361054971821   0.0025649711116065804   -0.0019250533598292954
-0.0009019361054971821   0.0025649711116065804   -0.0019250533598292954
-0.0009019361054971821   0.0025649711116065804   -0.0019250533598292954
0.0011526086252785916   -0.0011426533435214116   0.006148327069399656
0.0011526086252785916   -0.0011426533435214116   0.006148327069399656
0.0011526086252785916   -0.0011426533435214116   0.006148327069399656
0.0011526086252785916   -0.0011426533435214116   0.006148327069399656
-0.011339603390819433   1.663222600476529e-05   -0.0003768752482786234
-0.011339603390819433   1.663222600476529e-05   -0.0003768752482786234
-0.011339603390819433   1.663222600476529e-05   -0.0003768752482786234
-0.011339603390819433   1.663222600476529e-05   -0.0003768752482786234
-0.005519132463053506   -0.00036964079063592345   0.0006820972873396957
-0.005519132463053506   -0.00036964079063592345   0.0006820972873396957
-0.005519132463053506   -0.00036964079063592345   0.0006820972873396957
-0.005519132463053506   -0.00036964079063592345   0.0006820972873396957
-0.010056476643101771   -0.002835881389845437   0.00889127210615989
-0.010056476643101771   -0.002835881389845437   0.00889127210615989
-0.010056476643101771   -0.002835881389845437   0.00889127210615989
-0.010056476643101771   -0.002835881389845437   0.00889127210615989
0.00018974401231761442   0.002030122407085476   -0.0018387717460121179
0.00018974401231761442   0.002030122407085476   -0.0018387717460121179
0.00018974401231761442   0.002030122407085476   -0.0018387717460121179
0.00018974401231761442   0.002030122407085476   -0.0018387717460121179
0.002352318206975804   -0.001946576142564604   0.006048593706260442
0.002352318206975804   -0.001946576142564604   0.006048593706260442
0.002352318206975804   -0.001946576142564604   0.006048593706260442
0.002352318206975804   -0.001946576142564604   0.006048593706260442
-0.00949834906193123   -0.0005668866971965223   -0.00039049280380977947
-0.00949834906193123   -0.0005668866971965223   -0.00039049280380977947
-0.00949834906193123   -0.0005668866971965223   -0.00039049280380977947
-0.00949834906193123   -0.0005668866971965223   -0.00039049280380977947
-0.0037309098400023647   -0.000317430819016557   0.0016266556488358363
-0.0037309098400023647   -0.000317430819016557   0.0016266556488358363
-0.0037309098400023647   -0.000317430819016557   0.0016266556488358363
-0.0037309098400023647   -0.000317430819016557   0.0016266556488358363
              </DataArray>   
             <DataArray type="Float64" NumberOfComponents="3" Name="Displacements" format="ascii">   
0.0   0.0   0.0
-0.001276437931928601   -0.0008472885273222978   -0.00042820432395451947
0.0   0.0   0.0
0.0   0.0   0.0
-0.001276437931928601   -0.0008472885273222978   -0.00042820432395451947
-0.000811276513748328   -0.0007632067323966963   -0.00031471834524171067
0.0   0.0   0.0
-0.0007945801714611045   -0.0008009323085242315   -0.0002638752789495271
0.0   0.0   0.0
0.0   0.0   0.0
-0.0007945801714611045   -0.0008009323085242315   -0.0002638752789495271
0.0   0.0   0.0
0.0   0.0   0.0
-0.0007945801714611045   -0.0008009323085242315   -0.0002638752789495271
-0.0013350465400415843   -0.0009021978842276069   -0.00034410226122320533
-0.001276437931928601   -0.0008472885273222978   -0.00042820432395451947
0.0   0.0   0.0
-0.0007945801714611045   -0.0008009323085242315   -0.0002638752789495271
-0.001276437931928601   -0.0008472885273222978   -0.00042820432395451947
0.0   0.0   0.0
0.0   0.0   0.0
-0.0013350465400415843   -0.0009021978842276069   -0.00034410226122320533
0.0   0.0   0.0
0.0   0.0   0.0
-0.0013350465400415843   -0.0009021978842276069   -0.00034410226122320533
-0.0007945801714611045   -0.0008009323085242315   -0.0002638752789495271
0.0   0.0   0.0
-0.0007961160905698486   -0.0008203465751509635   -0.00021318582121914383
0.0   0.0   0.0
0.0   0.0   0.0
-0.0007961160905698486   -0.0008203465751509635   -0.00021318582121914383
0.0   0.0   0.0
0.0   0.0   0.0
-0.0007961160905698486   -0.0008203465751509635   -0.00021318582121914383
-0.0013758831684199393   -0.0009289362856760136   -0.00026367195005791005
-0.0013350465400415843   -0.0009021978842276069   -0.00034410226122320533
0.0   0.0   0.0
-0.0007961160905698486   -0.0008203465751509635   -0.00021318582121914383
-0.0013350465400415843   -0.0009021978842276069   -0.00034410226122320533
0.0   0.0   0.0
0.0   0.0   0.0
-0.0013758831684199393   -0.0009289362856760136   -0.00026367195005791005
0.0   0.0   0.0
0.0   0.0   0.0
-0.0013758831684199393   -0.0009289362856760136   -0.00026367195005791005
-0.0007961160905698486   -0.0008203465751509635   -0.00021318582121914383
0.0   0.0   0.0
-0.0007949029728295781   -0.0008254464286451676   -0.00016087246840002127
0.0   0.0   0.0
0.0   0.0   0.0
-0.0007949029728295781   -0.0008254464286451676   -0.00016087246840002127
0.0   0.0   0.0
0.0   0.0   0.0
-0.0007949029728295781   -0.0008254464286451676   -0.00016087246840002127
-0.0014645560896722205   -0.0009494612270776196   -0.00017046059450690718
-0.0013758831684199393   -0.0009289362856760136   -0.00026367195005791005
0.0   0.0   0.0
-0.0007949029728295781   -0.0008254464286451676   -0.00016087246840002127
-0.0013758831684199393   -0.0009289362856760136   -0.00026367195005791005
0.0   0.0   0.0
0.0   0.0   0.0
-0.000811276513748328   -0.0007632067323966963   -0.00031471834524171067
0.0   0.0   0.0
0.0   0.0   0.0
-0.000811276513748328   -0.0007632067323966963   -0.00031471834524171067
-0.00037027492032704897   -0.000732515687643441   -0.00023968362633721975
0.0   0.0   0.0
-0.00035543812080443863   -0.0007569870372859023   -0.00021559621959786208
0.0   0.0   0.0
0.0   0.0   0.0
-0.00035543812080443863   -0.0007569870372859023   -0.00021559621959786208
0.0   0.0   0.0
0.0   0.0   0.0
-0.00035543812080443863   -0.0007569870372859023   -0.00021559621959786208
-0.0007945801714611045   -0.0008009323085242315   -0.0002638752789495271
-0.000811276513748328   -0.0007632067323966963   -0.00031471834524171067
0.0   0.0   0.0
-0.00035543812080443863   -0.0007569870372859023   -0.00021559621959786208
-0.000811276513748328   -0.0007632067323966963   -0.00031471834524171067
0.0   0.0   0.0
0.0   0.0   0.0
-0.0007945801714611045   -0.0008009323085242315   -0.0002638752789495271
0.0   0.0   0.0
0.0   0.0   0.0
-0.0007945801714611045   -0.0008009323085242315   -0.0002638752789495271
-0.00035543812080443863   -0.0007569870372859023   -0.00021559621959786208
0.0   0.0   0.0
-0.0003468171566193963   -0.0007663434846586049   -0.00019221701475520236
0.0   0.0   0.0
0.0   0.0   0.0
-0.0003468171566193963   -0.0007663434846586049   -0.00019221701475520236
0.0   0.0   0.0
0.0   0.0   0.0
-0.0003468171566193963   -0.0007663434846586049   -0.00019221701475520236
-0.0007961160905698486   -0.0008203465751509635   -0.00021318582121914383
-0.0007945801714611045   -0.0008009323085242315   -0.0002638752789495271
0.0   0.0   0.0
-0.0003468171566193963   -0.0007663434846586049   -0.00019221701475520236
-0.0007945801714611045   -0.0008009323085242315   -0.0002638752789495271
0.0   0.0   0.0
0.0   0.0   0.0
-0.0007961160905698486   -0.0008203465751509635   -0.00021318582121914383
0.0   0.0   0.0
0.0   0.0   0.0
-0.0007961160905698486   -0.0008203465751509635   -0.00021318582121914383
-0.0003468171566193963   -0.0007663434846586049   -0.00019221701475520236
0.0   0.0   0.0
-0.0003388506417403574   -0.000762507203931041   -0.00016812973519707413
0.0   0.0   0.0
0.0   0.0   0.0
-0.0003388506417403574   -0.000762507203931041   -0.00016812973519707413
0.0   0.0   0.0
0.0   0.0   0.0
-0.0003388506417403574   -0.000762507203931041   -0.00016812973519707413
-0.0007949029728295781   -0.0008254464286451676   -0.00016087246840002127
-0.0007961160905698486   -0.0008203465751509635   -0.00021318582121914383
0.0   0.0   0.0
-0.0003388506417403574   -0.000762507203931041   -0.00016812973519707413
-0.0007961160905698486   -0.0008203465751509635   -0.00021318582121914383
0.0   0.0   0.0
0.0   0.0   0.0
-0.00037027492032704897   -0.000732515687643441   -0.00023968362633721975
0.0   0.0   0.0
0.0   0.0   0.0
-0.00037027492032704897   -0.000732515687643441   -0.00023968362633721975
4.578627773139354e-05   -0.0007365581891371587   -0.0001920754071241991
0.0   0.0   0.0
5.558336039187208e-05   -0.0007491476518938948   -0.00019520501151185457
0.0   0.0   0.0
0.0   0.0   0.0
5.558336039187208e-05   -0.0007491476518938948   -0.00019520501151185457
0.0   0.0   0.0
0.0   0.0   0.0
5.558336039187208e-05   -0.0007491476518938948   -0.00019520501151185457
-0.00035543812080443863   -0.0007569870372859023   -0.00021559621959786208
-0.00037027492032704897   -0.000732515687643441   -0.00023968362633721975
0.0   0.0   0.0
5.558336039187208e-05   -0.0007491476518938948   -0.00019520501151185457
-0.00037027492032704897   -0.000732515687643441   -0.00023968362633721975
0.0   0.0   0.0
0.0   0.0   0.0
-0.00035543812080443863   -0.0007569870372859023   -0.00021559621959786208
0.0   0.0   0.0
0.0   0.0   0.0
-0.00035543812080443863   -0.0007569870372859023   -0.00021559621959786208
5.558336039187208e-05   -0.0007491476518938948   -0.00019520501151185457
0.0   0.0   0.0
6.340901371599693e-05   -0.0007480217486930314   -0.0001981002320346222
0.0   0.0   0.0
0.0   0.0   0.0
6.340901371599693e-05   -0.0007480217486930314   -0.0001981002320346222
0.0   0.0   0.0
0.0   0.0   0.0
6.340901371599693e-05   -0.0007480217486930314   -0.0001981002320346222
-0.0003468171566193963   -0.0007663434846586049   -0.00019221701475520236
-0.00035543812080443863   -0.0007569870372859023   -0.00021559621959786208
0.0   0.0   0.0
6.340901371599693e-05   -0.0007480217486930314   -0.0001981002320346222
-0.00035543812080443863   -0.0007569870372859023   -0.00021559621959786208
0.0   0.0   0.0
0.0   0.0   0.0
-0.0003468171566193963   -0.0007663434846586049   -0.00019221701475520236
0.0   0.0   0.0
0.0   0.0   0.0
-0.0003468171566193963   -0.0007663434846586049   -0.00019221701475520236
6.340901371599693e-05   -0.0007480217486930314   -0.0001981002320346222
0.0   0.0   0.0
7.370445931890053e-05   -0.0007320693823026981   -0.0002011584108102975
0.0   0.0   0.0
0.0   0.0   0.0
7.370445931890053e-05   -0.0007320693823026981   -0.0002011584108102975
0.0   0.0   0.0
0.0   0.0   0.0
7.370445931890053e-05   -0.0007320693823026981   -0.0002011584108102975
-0.0003388506417403574   -0.000762507203931041   -0.00016812973519707413
-0.0003468171566193963   -0.0007663434846586049   -0.00019221701475520236
0.0   0.0   0.0
7.370445931890053e-05   -0.0007320693823026981   -0.0002011584108102975
-0.0003468171566193963   -0.0007663434846586049   -0.00019221701475520236
0.0   0.0   0.0
0.0   0.0   0.0
4.578627773139354e-05   -0.0007365581891371587   -0.0001920754071241991
0.0   0.0   0.0
0.0   0.0   0.0
4.578627773139354e-05   -0.0007365581891371587   -0.0001920754071241991
0.0004980141563257913   -0.000771607601992154   -0.00016880155743750997
0.0   0.0   0.0
0.0004997776345329213   -0.000775451050150082   -0.00020057596913505247
0.0   0.0   0.0
0.0   0.0   0.0
0.0004997776345329213   -0.000775451050150082   -0.00020057596913505247
0.0   0.0   0.0
0.0   0.0   0.0
0.0004997776345329213   -0.000775451050150082   -0.00020057596913505247
5.558336039187208e-05   -0.0007491476518938948   -0.00019520501151185457
4.578627773139354e-05   -0.0007365581891371587   -0.0001920754071241991
0.0   0.0   0.0
0.0004997776345329213   -0.000775451050150082   -0.00020057596913505247
4.578627773139354e-05   -0.0007365581891371587   -0.0001920754071241991
0.0   0.0   0.0
0.0   0.0   0.0
5.558336039187208e-05   -0.0007491476518938948   -0.00019520501151185457
0.0   0.0   0.0
0.0   0.0   0.0
5.558336039187208e-05   -0.0007491476518938948   -0.00019520501151185457
0.0004997776345329213   -0.000775451050150082   -0.00020057596913505247
0.0   0.0   0.0
0.0004983937387066654   -0.0007643841915157726   -0.00023115676665086873
0.0   0.0   0.0
0.0   0.0   0.0
0.0004983937387066654   -0.0007643841915157726   -0.00023115676665086873
0.0   0.0   0.0
0.0   0.0   0.0
0.0004983937387066654   -0.0007643841915157726   -0.00023115676665086873
6.340901371599693e-05   -0.0007480217486930314   -0.0001981002320346222
5.558336039187208e-05   -0.0007491476518938948   -0.00019520501151185457
0.0   0.0   0.0
0.0004983937387066654   -0.0007643841915157726   -0.00023115676665086873
5.558336039187208e-05   -0.0007491476518938948   -0.00019520501151185457
0.0   0.0   0.0
0.0   0.0   0.0
6.340901371599693e-05   -0.0007480217486930314   -0.0001981002320346222
0.0   0.0   0.0
0.0   0.0   0.0
6.340901371599693e-05   -0.0007480217486930314   -0.0001981002320346222
0.0004983937387066654   -0.0007643841915157726   -0.00023115676665086873
0.0   0.0   0.0
0.0005087730979834842   -0.0007351010634997833   -0.0002612336421225705
0.0   0.0   0.0
0.0   0.0   0.0
0.0005087730979834842   -0.0007351010634997833   -0.0002612336421225705
0.0   0.0   0.0
0.0   0.0   0.0
0.0005087730979834842   -0.0007351010634997833   -0.0002612336421225705
7.370445931890053e-05   -0.0007320693823026981   -0.0002011584108102975
6.340901371599693e-05   -0.0007480217486930314   -0.0001981002320346222
0.0   0.0   0.0
0.0005087730979834842   -0.0007351010634997833   -0.0002612336421225705
6.340901371599693e-05   -0.0007480217486930314   -0.0001981002320346222
0.0   0.0   0.0
0.0   0.0   0.0
0.0004980141563257913   -0.000771607601992154   -0.00016880155743750997
0.0   0.0   0.0
0.0   0.0   0.0
0.0004980141563257913   -0.000771607601992154   -0.00016880155743750997
0.0011289800047772332   -0.0008608120701882252   -0.00015995672974734095
0.0   0.0   0.0
0.0010614347787784681   -0.0008510716393990923   -0.00023227510564973974
0.0   0.0   0.0
0.0   0.0   0.0
0.0010614347787784681   -0.0008510716393990923   -0.00023227510564973974
0.0   0.0   0.0
0.0   0.0   0.0
0.0010614347787784681   -0.0008510716393990923   -0.00023227510564973974
0.0004997776345329213   -0.000775451050150082   -0.00020057596913505247
0.0004980141563257913   -0.000771607601992154   -0.00016880155743750997
0.0   0.0   0.0
0.0010614347787784681   -0.0008510716393990923   -0.00023227510564973974
0.0004980141563257913   -0.000771607601992154   -0.00016880155743750997
0.0   0.0   0.0
0.0   0.0   0.0
0.0004997776345329213   -0.000775451050150082   -0.00020057596913505247
0.0   0.0   0.0
0.0   0.0   0.0
0.0004997776345329213   -0.000775451050150082   -0.00020057596913505247
0.0010614347787784681   -0.0008510716393990923   -0.00023227510564973974
0.0   0.0   0.0
0.0010306287135293136   -0.0008333856878842249   -0.00029350792395003213
0.0   0.0   0.0
0.0   0.0   0.0
0.0010306287135293136   -0.0008333856878842249   -0.00029350792395003213
0.0   0.0   0.0
0.0   0.0   0.0
0.0010306287135293136   -0.0008333856878842249   -0.00029350792395003213
0.0004983937387066654   -0.0007643841915157726   -0.00023115676665086873
0.0004997776345329213   -0.000775451050150082   -0.00020057596913505247
0.0   0.0   0.0
0.0010306287135293136   -0.0008333856878842249   -0.00029350792395003213
0.0004997776345329213   -0.000775451050150082   -0.00020057596913505247
0.0   0.0   0.0
0.0   0.0   0.0
0.0004983937387066654   -0.0007643841915157726   -0.00023115676665086873
0.0   0.0   0.0
0.0   0.0   0.0
0.0004983937387066654   -0.0007643841915157726   -0.00023115676665086873
0.0010306287135293136   -0.0008333856878842249   -0.00029350792395003213
0.0   0.0   0.0
0.0009842383413049864   -0.0007884036717047355   -0.0003584786898289565
0.0   0.0   0.0
0.0   0.0   0.0
0.0009842383413049864   -0.0007884036717047355   -0.0003584786898289565
0.0   0.0   0.0
0.0   0.0   0.0
0.0009842383413049864   -0.0007884036717047355   -0.0003584786898289565
0.0005087730979834842   -0.0007351010634997833   -0.0002612336421225705
0.0004983937387066654   -0.0007643841915157726   -0.00023115676665086873
0.0   0.0   0.0
0.0009842383413049864   -0.0007884036717047355   -0.0003584786898289565
0.0004983937387066654   -0.0007643841915157726   -0.00023115676665086873
0.0   0.0   0.0
-0.001276437931928601   -0.0008472885273222978   -0.00042820432395451947
-0.0023768518861438455   -0.002350929114067119   -0.0005772577030829031
-0.000811276513748328   -0.0007632067323966963   -0.00031471834524171067
-0.0013350465400415843   -0.0009021978842276069   -0.00034410226122320533
-0.0023768518861438455   -0.002350929114067119   -0.0005772577030829031
-0.001516719059145447   -0.0022755728952000807   -0.00047589652609303265
-0.000811276513748328   -0.0007632067323966963   -0.00031471834524171067
-0.0015173936094020086   -0.0023140281205006343   -0.00042906451493549507
-0.0013350465400415843   -0.0009021978842276069   -0.00034410226122320533
-0.0007945801714611045   -0.0008009323085242315   -0.0002638752789495271
-0.0015173936094020086   -0.0023140281205006343   -0.00042906451493549507
-0.000811276513748328   -0.0007632067323966963   -0.00031471834524171067
-0.0013350465400415843   -0.0009021978842276069   -0.00034410226122320533
-0.0015173936094020086   -0.0023140281205006343   -0.00042906451493549507
-0.0024465802356701985   -0.0024047066552052372   -0.0005013781245285118
-0.0023768518861438455   -0.002350929114067119   -0.0005772577030829031
-0.0013350465400415843   -0.0009021978842276069   -0.00034410226122320533
-0.0015173936094020086   -0.0023140281205006343   -0.00042906451493549507
-0.0023768518861438455   -0.002350929114067119   -0.0005772577030829031
-0.000811276513748328   -0.0007632067323966963   -0.00031471834524171067
-0.0013350465400415843   -0.0009021978842276069   -0.00034410226122320533
-0.0024465802356701985   -0.0024047066552052372   -0.0005013781245285118
-0.0007945801714611045   -0.0008009323085242315   -0.0002638752789495271
-0.0013758831684199393   -0.0009289362856760136   -0.00026367195005791005
-0.0024465802356701985   -0.0024047066552052372   -0.0005013781245285118
-0.0015173936094020086   -0.0023140281205006343   -0.00042906451493549507
-0.0007945801714611045   -0.0008009323085242315   -0.0002638752789495271
-0.001522168929105784   -0.002337573342195485   -0.0003841336592295664
-0.0013758831684199393   -0.0009289362856760136   -0.00026367195005791005
-0.0007961160905698486   -0.0008203465751509635   -0.00021318582121914383
-0.001522168929105784   -0.002337573342195485   -0.0003841336592295664
-0.0007945801714611045   -0.0008009323085242315   -0.0002638752789495271
-0.0013758831684199393   -0.0009289362856760136   -0.00026367195005791005
-0.001522168929105784   -0.002337573342195485   -0.0003841336592295664
-0.00249455547217287   -0.0024351763084288288   -0.00042717959338006977
-0.0024465802356701985   -0.0024047066552052372   -0.0005013781245285118
-0.0013758831684199393   -0.0009289362856760136   -0.00026367195005791005
-0.001522168929105784   -0.002337573342195485   -0.0003841336592295664
-0.0024465802356701985   -0.0024047066552052372   -0.0005013781245285118
-0.0007945801714611045   -0.0008009323085242315   -0.0002638752789495271
-0.0013758831684199393   -0.0009289362856760136   -0.00026367195005791005
-0.00249455547217287   -0.0024351763084288288   -0.00042717959338006977
-0.0007961160905698486   -0.0008203465751509635   -0.00021318582121914383
-0.0014645560896722205   -0.0009494612270776196   -0.00017046059450690718
-0.00249455547217287   -0.0024351763084288288   -0.00042717959338006977
-0.001522168929105784   -0.002337573342195485   -0.0003841336592295664
-0.0007961160905698486   -0.0008203465751509635   -0.00021318582121914383
-0.001516388350307797   -0.0023499622202768295   -0.0003421495401658862
-0.0014645560896722205   -0.0009494612270776196   -0.00017046059450690718
-0.0007949029728295781   -0.0008254464286451676   -0.00016087246840002127
-0.001516388350307797   -0.0023499622202768295   -0.0003421495401658862
-0.0007961160905698486   -0.0008203465751509635   -0.00021318582121914383
-0.0014645560896722205   -0.0009494612270776196   -0.00017046059450690718
-0.001516388350307797   -0.0023499622202768295   -0.0003421495401658862
-0.002551209095706171   -0.002453196839770082   -0.00035983416775884676
-0.00249455547217287   -0.0024351763084288288   -0.00042717959338006977
-0.0014645560896722205   -0.0009494612270776196   -0.00017046059450690718
-0.001516388350307797   -0.0023499622202768295   -0.0003421495401658862
-0.00249455547217287   -0.0024351763084288288   -0.00042717959338006977
-0.0007961160905698486   -0.0008203465751509635   -0.00021318582121914383
-0.000811276513748328   -0.0007632067323966963   -0.00031471834524171067
-0.001516719059145447   -0.0022755728952000807   -0.00047589652609303265
-0.00037027492032704897   -0.000732515687643441   -0.00023968362633721975
-0.0007945801714611045   -0.0008009323085242315   -0.0002638752789495271
-0.001516719059145447   -0.0022755728952000807   -0.00047589652609303265
-0.0007056892782566143   -0.002240500417671306   -0.00040681018500311864
-0.00037027492032704897   -0.000732515687643441   -0.00023968362633721975
-0.0006984631543167254   -0.002264871281780608   -0.00038270622503686405
-0.0007945801714611045   -0.0008009323085242315   -0.0002638752789495271
-0.00035543812080443863   -0.0007569870372859023   -0.00021559621959786208
-0.0006984631543167254   -0.002264871281780608   -0.00038270622503686405
-0.00037027492032704897   -0.000732515687643441   -0.00023968362633721975
-0.0007945801714611045   -0.0008009323085242315   -0.0002638752789495271
-0.0006984631543167254   -0.002264871281780608   -0.00038270622503686405
-0.0015173936094020086   -0.0023140281205006343   -0.00042906451493549507
-0.001516719059145447   -0.0022755728952000807   -0.00047589652609303265
-0.0007945801714611045   -0.0008009323085242315   -0.0002638752789495271
-0.0006984631543167254   -0.002264871281780608   -0.00038270622503686405
-0.001516719059145447   -0.0022755728952000807   -0.00047589652609303265
-0.00037027492032704897   -0.000732515687643441   -0.00023968362633721975
-0.0007945801714611045   -0.0008009323085242315   -0.0002638752789495271
-0.0015173936094020086   -0.0023140281205006343   -0.00042906451493549507
-0.00035543812080443863   -0.0007569870372859023   -0.00021559621959786208
-0.0007961160905698486   -0.0008203465751509635   -0.00021318582121914383
-0.0015173936094020086   -0.0023140281205006343   -0.00042906451493549507
-0.0006984631543167254   -0.002264871281780608   -0.00038270622503686405
-0.00035543812080443863   -0.0007569870372859023   -0.00021559621959786208
-0.0006919314684824652   -0.002276729882709298   -0.00036090422374323515
-0.0007961160905698486   -0.0008203465751509635   -0.00021318582121914383
-0.0003468171566193963   -0.0007663434846586049   -0.00019221701475520236
-0.0006919314684824652   -0.002276729882709298   -0.00036090422374323515
-0.00035543812080443863   -0.0007569870372859023   -0.00021559621959786208
-0.0007961160905698486   -0.0008203465751509635   -0.00021318582121914383
-0.0006919314684824652   -0.002276729882709298   -0.00036090422374323515
-0.001522168929105784   -0.002337573342195485   -0.0003841336592295664
-0.0015173936094020086   -0.0023140281205006343   -0.00042906451493549507
-0.0007961160905698486   -0.0008203465751509635   -0.00021318582121914383
-0.0006919314684824652   -0.002276729882709298   -0.00036090422374323515
-0.0015173936094020086   -0.0023140281205006343   -0.00042906451493549507
-0.00035543812080443863   -0.0007569870372859023   -0.00021559621959786208
-0.0007961160905698486   -0.0008203465751509635   -0.00021318582121914383
-0.001522168929105784   -0.002337573342195485   -0.0003841336592295664
-0.0003468171566193963   -0.0007663434846586049   -0.00019221701475520236
-0.0007949029728295781   -0.0008254464286451676   -0.00016087246840002127
-0.001522168929105784   -0.002337573342195485   -0.0003841336592295664
-0.0006919314684824652   -0.002276729882709298   -0.00036090422374323515
-0.0003468171566193963   -0.0007663434846586049   -0.00019221701475520236
-0.0006827150921753282   -0.0022765203372425756   -0.0003419807441638521
-0.0007949029728295781   -0.0008254464286451676   -0.00016087246840002127
-0.0003388506417403574   -0.000762507203931041   -0.00016812973519707413
-0.0006827150921753282   -0.0022765203372425756   -0.0003419807441638521
-0.0003468171566193963   -0.0007663434846586049   -0.00019221701475520236
-0.0007949029728295781   -0.0008254464286451676   -0.00016087246840002127
-0.0006827150921753282   -0.0022765203372425756   -0.0003419807441638521
-0.001516388350307797   -0.0023499622202768295   -0.0003421495401658862
-0.001522168929105784   -0.002337573342195485   -0.0003841336592295664
-0.0007949029728295781   -0.0008254464286451676   -0.00016087246840002127
-0.0006827150921753282   -0.0022765203372425756   -0.0003419807441638521
-0.001522168929105784   -0.002337573342195485   -0.0003841336592295664
-0.0003468171566193963   -0.0007663434846586049   -0.00019221701475520236
-0.00037027492032704897   -0.000732515687643441   -0.00023968362633721975
-0.0007056892782566143   -0.002240500417671306   -0.00040681018500311864
4.578627773139354e-05   -0.0007365581891371587   -0.0001920754071241991
-0.00035543812080443863   -0.0007569870372859023   -0.00021559621959786208
-0.0007056892782566143   -0.002240500417671306   -0.00040681018500311864
7.566341683757631e-05   -0.00224161292210869   -0.00036338785561296867
4.578627773139354e-05   -0.0007365581891371587   -0.0001920754071241991
8.434744254231766e-05   -0.0022529940071032853   -0.00036158132973457507
-0.00035543812080443863   -0.0007569870372859023   -0.00021559621959786208
5.558336039187208e-05   -0.0007491476518938948   -0.00019520501151185457
8.434744254231766e-05   -0.0022529940071032853   -0.00036158132973457507
4.578627773139354e-05   -0.0007365581891371587   -0.0001920754071241991
-0.00035543812080443863   -0.0007569870372859023   -0.00021559621959786208
8.434744254231766e-05   -0.0022529940071032853   -0.00036158132973457507
-0.0006984631543167254   -0.002264871281780608   -0.00038270622503686405
-0.0007056892782566143   -0.002240500417671306   -0.00040681018500311864
-0.00035543812080443863   -0.0007569870372859023   -0.00021559621959786208
8.434744254231766e-05   -0.0022529940071032853   -0.00036158132973457507
-0.0007056892782566143   -0.002240500417671306   -0.00040681018500311864
4.578627773139354e-05   -0.0007365581891371587   -0.0001920754071241991
-0.00035543812080443863   -0.0007569870372859023   -0.00021559621959786208
-0.0006984631543167254   -0.002264871281780608   -0.00038270622503686405
5.558336039187208e-05   -0.0007491476518938948   -0.00019520501151185457
-0.0003468171566193963   -0.0007663434846586049   -0.00019221701475520236
-0.0006984631543167254   -0.002264871281780608   -0.00038270622503686405
8.434744254231766e-05   -0.0022529940071032853   -0.00036158132973457507
5.558336039187208e-05   -0.0007491476518938948   -0.00019520501151185457
9.055182328366068e-05   -0.0022521521843187104   -0.00036238315679480764
-0.0003468171566193963   -0.0007663434846586049   -0.00019221701475520236
6.340901371599693e-05   -0.0007480217486930314   -0.0001981002320346222
9.055182328366068e-05   -0.0022521521843187104   -0.00036238315679480764
5.558336039187208e-05   -0.0007491476518938948   -0.00019520501151185457
-0.0003468171566193963   -0.0007663434846586049   -0.00019221701475520236
9.055182328366068e-05   -0.0022521521843187104   -0.00036238315679480764
-0.0006919314684824652   -0.002276729882709298   -0.00036090422374323515
-0.0006984631543167254   -0.002264871281780608   -0.00038270622503686405
-0.0003468171566193963   -0.0007663434846586049   -0.00019221701475520236
9.055182328366068e-05   -0.0022521521843187104   -0.00036238315679480764
-0.0006984631543167254   -0.002264871281780608   -0.00038270622503686405
5.558336039187208e-05   -0.0007491476518938948   -0.00019520501151185457
-0.0003468171566193963   -0.0007663434846586049   -0.00019221701475520236
-0.0006919314684824652   -0.002276729882709298   -0.00036090422374323515
6.340901371599693e-05   -0.0007480217486930314   -0.0001981002320346222
-0.0003388506417403574   -0.000762507203931041   -0.00016812973519707413
-0.0006919314684824652   -0.002276729882709298   -0.00036090422374323515
9.055182328366068e-05   -0.0022521521843187104   -0.00036238315679480764
6.340901371599693e-05   -0.0007480217486930314   -0.0001981002320346222
9.712340305285356e-05   -0.00223872002047309   -0.00036583314655545633
-0.0003388506417403574   -0.000762507203931041   -0.00016812973519707413
7.370445931890053e-05   -0.0007320693823026981   -0.0002011584108102975
9.712340305285356e-05   -0.00223872002047309   -0.00036583314655545633
6.340901371599693e-05   -0.0007480217486930314   -0.0001981002320346222
-0.0003388506417403574   -0.000762507203931041   -0.00016812973519707413
9.712340305285356e-05   -0.00223872002047309   -0.00036583314655545633
-0.0006827150921753282   -0.0022765203372425756   -0.0003419807441638521
-0.0006919314684824652   -0.002276729882709298   -0.00036090422374323515
-0.0003388506417403574   -0.000762507203931041   -0.00016812973519707413
9.712340305285356e-05   -0.00223872002047309   -0.00036583314655545633
-0.0006919314684824652   -0.002276729882709298   -0.00036090422374323515
6.340901371599693e-05   -0.0007480217486930314   -0.0001981002320346222
4.578627773139354e-05   -0.0007365581891371587   -0.0001920754071241991
7.566341683757631e-05   -0.00224161292210869   -0.00036338785561296867
0.0004980141563257913   -0.000771607601992154   -0.00016880155743750997
5.558336039187208e-05   -0.0007491476518938948   -0.00019520501151185457
7.566341683757631e-05   -0.00224161292210869   -0.00036338785561296867
0.0009043104987575694   -0.002277626506109068   -0.00034353923840283027
0.0004980141563257913   -0.000771607601992154   -0.00016880155743750997
0.0009098755173169749   -0.0022771577543566606   -0.00036474529634269293
5.558336039187208e-05   -0.0007491476518938948   -0.00019520501151185457
0.0004997776345329213   -0.000775451050150082   -0.00020057596913505247
0.0009098755173169749   -0.0022771577543566606   -0.00036474529634269293
0.0004980141563257913   -0.000771607601992154   -0.00016880155743750997
5.558336039187208e-05   -0.0007491476518938948   -0.00019520501151185457
0.0009098755173169749   -0.0022771577543566606   -0.00036474529634269293
8.434744254231766e-05   -0.0022529940071032853   -0.00036158132973457507
7.566341683757631e-05   -0.00224161292210869   -0.00036338785561296867
5.558336039187208e-05   -0.0007491476518938948   -0.00019520501151185457
0.0009098755173169749   -0.0022771577543566606   -0.00036474529634269293
7.566341683757631e-05   -0.00224161292210869   -0.00036338785561296867
0.0004980141563257913   -0.000771607601992154   -0.00016880155743750997
5.558336039187208e-05   -0.0007491476518938948   -0.00019520501151185457
8.434744254231766e-05   -0.0022529940071032853   -0.00036158132973457507
0.0004997776345329213   -0.000775451050150082   -0.00020057596913505247
6.340901371599693e-05   -0.0007480217486930314   -0.0001981002320346222
8.434744254231766e-05   -0.0022529940071032853   -0.00036158132973457507
0.0009098755173169749   -0.0022771577543566606   -0.00036474529634269293
0.0004997776345329213   -0.000775451050150082   -0.00020057596913505247
0.000906959046026333   -0.0022647380264074423   -0.0003889014555968185
6.340901371599693e-05   -0.0007480217486930314   -0.0001981002320346222
0.0004983937387066654   -0.0007643841915157726   -0.00023115676665086873
0.000906959046026333   -0.0022647380264074423   -0.0003889014555968185
0.0004997776345329213   -0.000775451050150082   -0.00020057596913505247
6.340901371599693e-05   -0.0007480217486930314   -0.0001981002320346222
0.000906959046026333   -0.0022647380264074423   -0.0003889014555968185
9.055182328366068e-05   -0.0022521521843187104   -0.00036238315679480764
8.434744254231766e-05   -0.0022529940071032853   -0.00036158132973457507
6.340901371599693e-05   -0.0007480217486930314   -0.0001981002320346222
0.000906959046026333   -0.0022647380264074423   -0.0003889014555968185
8.434744254231766e-05   -0.0022529940071032853   -0.00036158132973457507
0.0004997776345329213   -0.000775451050150082   -0.00020057596913505247
6.340901371599693e-05   -0.0007480217486930314   -0.0001981002320346222
9.055182328366068e-05   -0.0022521521843187104   -0.00036238315679480764
0.0004983937387066654   -0.0007643841915157726   -0.00023115676665086873
7.370445931890053e-05   -0.0007320693823026981   -0.0002011584108102975
9.055182328366068e-05   -0.0022521521843187104   -0.00036238315679480764
0.000906959046026333   -0.0022647380264074423   -0.0003889014555968185
0.0004983937387066654   -0.0007643841915157726   -0.00023115676665086873
0.0009057549225619805   -0.002237022374322845   -0.00041510957044338235
7.370445931890053e-05   -0.0007320693823026981   -0.0002011584108102975
0.0005087730979834842   -0.0007351010634997833   -0.0002612336421225705
0.0009057549225619805   -0.002237022374322845   -0.00041510957044338235
0.0004983937387066654   -0.0007643841915157726   -0.00023115676665086873
7.370445931890053e-05   -0.0007320693823026981   -0.0002011584108102975
0.0009057549225619805   -0.002237022374322845   -0.00041510957044338235
9.712340305285356e-05   -0.00223872002047309   -0.00036583314655545633
9.055182328366068e-05   -0.0022521521843187104   -0.00036238315679480764
7.370445931890053e-05   -0.0007320693823026981   -0.0002011584108102975
0.0009057549225619805   -0.002237022374322845   -0.00041510957044338235
9.055182328366068e-05   -0.0022521521843187104   -0.00036238315679480764
0.0004983937387066654   -0.0007643841915157726   -0.00023115676665086873
0.0004980141563257913   -0.000771607601992154   -0.00016880155743750997
0.0009043104987575694   -0.002277626506109068   -0.00034353923840283027
0.0011289800047772332   -0.0008608120701882252   -0.00015995672974734095
0.0004997776345329213   -0.000775451050150082   -0.00020057596913505247
0.0009043104987575694   -0.002277626506109068   -0.00034353923840283027
0.0019059225209946877   -0.002344338925343149   -0.00033901693023564446
0.0011289800047772332   -0.0008608120701882252   -0.00015995672974734095
0.0018690517772756254   -0.002337455861311863   -0.00038689878525923426
0.0004997776345329213   -0.000775451050150082   -0.00020057596913505247
0.0010614347787784681   -0.0008510716393990923   -0.00023227510564973974
0.0018690517772756254   -0.002337455861311863   -0.00038689878525923426
0.0011289800047772332   -0.0008608120701882252   -0.00015995672974734095
0.0004997776345329213   -0.000775451050150082   -0.00020057596913505247
0.0018690517772756254   -0.002337455861311863   -0.00038689878525923426
0.0009098755173169749   -0.0022771577543566606   -0.00036474529634269293
0.0009043104987575694   -0.002277626506109068   -0.00034353923840283027
0.0004997776345329213   -0.000775451050150082   -0.00020057596913505247
0.0018690517772756254   -0.002337455861311863   -0.00038689878525923426
0.0009043104987575694   -0.002277626506109068   -0.00034353923840283027
0.0011289800047772332   -0.0008608120701882252   -0.00015995672974734095
0.0004997776345329213   -0.000775451050150082   -0.00020057596913505247
0.0009098755173169749   -0.0022771577543566606   -0.00036474529634269293
0.0010614347787784681   -0.0008510716393990923   -0.00023227510564973974
0.0004983937387066654   -0.0007643841915157726   -0.00023115676665086873
0.0009098755173169749   -0.0022771577543566606   -0.00036474529634269293
0.0018690517772756254   -0.002337455861311863   -0.00038689878525923426
0.0010614347787784681   -0.0008510716393990923   -0.00023227510564973974
0.00183593851094171   -0.0023183794680961176   -0.00044097254361682525
0.0004983937387066654   -0.0007643841915157726   -0.00023115676665086873
0.0010306287135293136   -0.0008333856878842249   -0.00029350792395003213
0.00183593851094171   -0.0023183794680961176   -0.00044097254361682525
0.0010614347787784681   -0.0008510716393990923   -0.00023227510564973974
0.0004983937387066654   -0.0007643841915157726   -0.00023115676665086873
0.00183593851094171   -0.0023183794680961176   -0.00044097254361682525
0.000906959046026333   -0.0022647380264074423   -0.0003889014555968185
0.0009098755173169749   -0.0022771577543566606   -0.00036474529634269293
0.0004983937387066654   -0.0007643841915157726   -0.00023115676665086873
0.00183593851094171   -0.0023183794680961176   -0.00044097254361682525
0.0009098755173169749   -0.0022771577543566606   -0.00036474529634269293
0.0010614347787784681   -0.0008510716393990923   -0.00023227510564973974
0.0004983937387066654   -0.0007643841915157726   -0.00023115676665086873
0.000906959046026333   -0.0022647380264074423   -0.0003889014555968185
0.0010306287135293136   -0.0008333856878842249   -0.00029350792395003213
0.0005087730979834842   -0.0007351010634997833   -0.0002612336421225705
0.000906959046026333   -0.0022647380264074423   -0.0003889014555968185
0.00183593851094171   -0.0023183794680961176   -0.00044097254361682525
0.0010306287135293136   -0.0008333856878842249   -0.00029350792395003213
0.0017855092294317264   -0.0022763592549909363   -0.0004973877088331571
0.0005087730979834842   -0.0007351010634997833   -0.0002612336421225705
0.0009842383413049864   -0.0007884036717047355   -0.0003584786898289565
0.0017855092294317264   -0.0022763592549909363   -0.0004973877088331571
0.0010306287135293136   -0.0008333856878842249   -0.00029350792395003213
0.0005087730979834842   -0.0007351010634997833   -0.0002612336421225705
0.0017855092294317264   -0.0022763592549909363   -0.0004973877088331571
0.0009057549225619805   -0.002237022374322845   -0.00041510957044338235
0.000906959046026333   -0.0022647380264074423   -0.0003889014555968185
0.0005087730979834842   -0.0007351010634997833   -0.0002612336421225705
0.0017855092294317264   -0.0022763592549909363   -0.0004973877088331571
0.000906959046026333   -0.0022647380264074423   -0.0003889014555968185
0.0010306287135293136   -0.0008333856878842249   -0.00029350792395003213
-0.0023768518861438455   -0.002350929114067119   -0.0005772577030829031
-0.0032476095885074717   -0.004389870092704089   -0.0006585621301058732
-0.001516719059145447   -0.0022755728952000807   -0.00047589652609303265
-0.0024465802356701985   -0.0024047066552052372   -0.0005013781245285118
-0.0032476095885074717   -0.004389870092704089   -0.0006585621301058732
-0.00208898624861011   -0.00433259339706683   -0.0005769117810881524
-0.001516719059145447   -0.0022755728952000807   -0.00047589652609303265
-0.00209220237464228   -0.004365587298296215   -0.0005407640291498635
-0.0024465802356701985   -0.0024047066552052372   -0.0005013781245285118
-0.0015173936094020086   -0.0023140281205006343   -0.00042906451493549507
-0.00209220237464228   -0.004365587298296215   -0.0005407640291498635
-0.001516719059145447   -0.0022755728952000807   -0.00047589652609303265
-0.0024465802356701985   -0.0024047066552052372   -0.0005013781245285118
-0.00209220237464228   -0.004365587298296215   -0.0005407640291498635
-0.0033034851587935648   -0.0044350398180174715   -0.0006023966921619668
-0.0032476095885074717   -0.004389870092704089   -0.0006585621301058732
-0.0024465802356701985   -0.0024047066552052372   -0.0005013781245285118
-0.00209220237464228   -0.004365587298296215   -0.0005407640291498635
-0.0032476095885074717   -0.004389870092704089   -0.0006585621301058732
-0.001516719059145447   -0.0022755728952000807   -0.00047589652609303265
-0.0024465802356701985   -0.0024047066552052372   -0.0005013781245285118
-0.0033034851587935648   -0.0044350398180174715   -0.0006023966921619668
-0.0015173936094020086   -0.0023140281205006343   -0.00042906451493549507
-0.00249455547217287   -0.0024351763084288288   -0.00042717959338006977
-0.0033034851587935648   -0.0044350398180174715   -0.0006023966921619668
-0.00209220237464228   -0.004365587298296215   -0.0005407640291498635
-0.0015173936094020086   -0.0023140281205006343   -0.00042906451493549507
-0.0020961559847620407   -0.004388659679502036   -0.0005072818538622153
-0.00249455547217287   -0.0024351763084288288   -0.00042717959338006977
-0.001522168929105784   -0.002337573342195485   -0.0003841336592295664
-0.0020961559847620407   -0.004388659679502036   -0.0005072818538622153
-0.0015173936094020086   -0.0023140281205006343   -0.00042906451493549507
-0.00249455547217287   -0.0024351763084288288   -0.00042717959338006977
-0.0020961559847620407   -0.004388659679502036   -0.0005072818538622153
-0.003338083916263693   -0.0044634903600021805   -0.000550133791058154
-0.0033034851587935648   -0.0044350398180174715   -0.0006023966921619668
-0.00249455547217287   -0.0024351763084288288   -0.00042717959338006977
-0.0020961559847620407   -0.004388659679502036   -0.0005072818538622153
-0.0033034851587935648   -0.0044350398180174715   -0.0006023966921619668
-0.0015173936094020086   -0.0023140281205006343   -0.00042906451493549507
-0.00249455547217287   -0.0024351763084288288   -0.00042717959338006977
-0.003338083916263693   -0.0044634903600021805   -0.000550133791058154
-0.001522168929105784   -0.002337573342195485   -0.0003841336592295664
-0.002551209095706171   -0.002453196839770082   -0.00035983416775884676
-0.003338083916263693   -0.0044634903600021805   -0.000550133791058154
-0.0020961559847620407   -0.004388659679502036   -0.0005072818538622153
-0.001522168929105784   -0.002337573342195485   -0.0003841336592295664
-0.0020907837324248284   -0.00440401011324805   -0.00047589400238767527
-0.002551209095706171   -0.002453196839770082   -0.00035983416775884676
-0.001516388350307797   -0.0023499622202768295   -0.0003421495401658862
-0.0020907837324248284   -0.00440401011324805   -0.00047589400238767527
-0.001522168929105784   -0.002337573342195485   -0.0003841336592295664
-0.002551209095706171   -0.002453196839770082   -0.00035983416775884676
-0.0020907837324248284   -0.00440401011324805   -0.00047589400238767527
-0.0033774492047275715   -0.004484228587468725   -0.0005021396092876175
-0.003338083916263693   -0.0044634903600021805   -0.000550133791058154
-0.002551209095706171   -0.002453196839770082   -0.00035983416775884676
-0.0020907837324248284   -0.00440401011324805   -0.00047589400238767527
-0.003338083916263693   -0.0044634903600021805   -0.000550133791058154
-0.001522168929105784   -0.002337573342195485   -0.0003841336592295664
-0.001516719059145447   -0.0022755728952000807   -0.00047589652609303265
-0.00208898624861011   -0.00433259339706683   -0.0005769117810881524
-0.0007056892782566143   -0.002240500417671306   -0.00040681018500311864
-0.0015173936094020086   -0.0023140281205006343   -0.00042906451493549507
-0.00208898624861011   -0.00433259339706683   -0.0005769117810881524
-0.0009984808528519808   -0.004303918890082309   -0.000520245003137163
-0.0007056892782566143   -0.002240500417671306   -0.00040681018500311864
-0.0009946259296896986   -0.004324913551309899   -0.0004996835347631346
-0.0015173936094020086   -0.0023140281205006343   -0.00042906451493549507
-0.0006984631543167254   -0.002264871281780608   -0.00038270622503686405
-0.0009946259296896986   -0.004324913551309899   -0.0004996835347631346
-0.0007056892782566143   -0.002240500417671306   -0.00040681018500311864
-0.0015173936094020086   -0.0023140281205006343   -0.00042906451493549507
-0.0009946259296896986   -0.004324913551309899   -0.0004996835347631346
-0.00209220237464228   -0.004365587298296215   -0.0005407640291498635
-0.00208898624861011   -0.00433259339706683   -0.0005769117810881524
-0.0015173936094020086   -0.0023140281205006343   -0.00042906451493549507
-0.0009946259296896986   -0.004324913551309899   -0.0004996835347631346
-0.00208898624861011   -0.00433259339706683   -0.0005769117810881524
-0.0007056892782566143   -0.002240500417671306   -0.00040681018500311864
-0.0015173936094020086   -0.0023140281205006343   -0.00042906451493549507
-0.00209220237464228   -0.004365587298296215   -0.0005407640291498635
-0.0006984631543167254   -0.002264871281780608   -0.00038270622503686405
-0.001522168929105784   -0.002337573342195485   -0.0003841336592295664
-0.00209220237464228   -0.004365587298296215   -0.0005407640291498635
-0.0009946259296896986   -0.004324913551309899   -0.0004996835347631346
-0.0006984631543167254   -0.002264871281780608   -0.00038270622503686405
-0.0009902166082312062   -0.004337289341870989   -0.0004816518669374919
-0.001522168929105784   -0.002337573342195485   -0.0003841336592295664
-0.0006919314684824652   -0.002276729882709298   -0.00036090422374323515
-0.0009902166082312062   -0.004337289341870989   -0.0004816518669374919
-0.0006984631543167254   -0.002264871281780608   -0.00038270622503686405
-0.001522168929105784   -0.002337573342195485   -0.0003841336592295664
-0.0009902166082312062   -0.004337289341870989   -0.0004816518669374919
-0.0020961559847620407   -0.004388659679502036   -0.0005072818538622153
-0.00209220237464228   -0.004365587298296215   -0.0005407640291498635
-0.001522168929105784   -0.002337573342195485   -0.0003841336592295664
-0.0009902166082312062   -0.004337289341870989   -0.0004816518669374919
-0.00209220237464228   -0.004365587298296215   -0.0005407640291498635
-0.0006984631543167254   -0.002264871281780608   -0.00038270622503686405
-0.001522168929105784   -0.002337573342195485   -0.0003841336592295664
-0.0020961559847620407   -0.004388659679502036   -0.0005072818538622153
-0.0006919314684824652   -0.002276729882709298   -0.00036090422374323515
-0.001516388350307797   -0.0023499622202768295   -0.0003421495401658862
-0.0020961559847620407   -0.004388659679502036   -0.0005072818538622153
-0.0009902166082312062   -0.004337289341870989   -0.0004816518669374919
-0.0006919314684824652   -0.002276729882709298   -0.00036090422374323515
-0.0009838151691917687   -0.00434122289486849   -0.0004661463963271879
-0.001516388350307797   -0.0023499622202768295   -0.0003421495401658862
-0.0006827150921753282   -0.0022765203372425756   -0.0003419807441638521
-0.0009838151691917687   -0.00434122289486849   -0.0004661463963271879
-0.0006919314684824652   -0.002276729882709298   -0.00036090422374323515
-0.001516388350307797   -0.0023499622202768295   -0.0003421495401658862
-0.0009838151691917687   -0.00434122289486849   -0.0004661463963271879
-0.0020907837324248284   -0.00440401011324805   -0.00047589400238767527
-0.0020961559847620407   -0.004388659679502036   -0.0005072818538622153
-0.001516388350307797   -0.0023499622202768295   -0.0003421495401658862
-0.0009838151691917687   -0.00434122289486849   -0.0004661463963271879
-0.0020961559847620407   -0.004388659679502036   -0.0005072818538622153
-0.0006919314684824652   -0.002276729882709298   -0.00036090422374323515
-0.0007056892782566143   -0.002240500417671306   -0.00040681018500311864
-0.0009984808528519808   -0.004303918890082309   -0.000520245003137163
7.566341683757631e-05   -0.00224161292210869   -0.00036338785561296867
-0.0006984631543167254   -0.002264871281780608   -0.00038270622503686405
-0.0009984808528519808   -0.004303918890082309   -0.000520245003137163
5.9419277044306544e-05   -0.0043023697812583925   -0.00048538384056322263
7.566341683757631e-05   -0.00224161292210869   -0.00036338785561296867
6.542173880939478e-05   -0.004311519688733019   -0.00048033388223640865
-0.0006984631543167254   -0.002264871281780608   -0.00038270622503686405
8.434744254231766e-05   -0.0022529940071032853   -0.00036158132973457507
6.542173880939478e-05   -0.004311519688733019   -0.00048033388223640865
7.566341683757631e-05   -0.00224161292210869   -0.00036338785561296867
-0.0006984631543167254   -0.002264871281780608   -0.00038270622503686405
6.542173880939478e-05   -0.004311519688733019   -0.00048033388223640865
-0.0009946259296896986   -0.004324913551309899   -0.0004996835347631346
-0.0009984808528519808   -0.004303918890082309   -0.000520245003137163
-0.0006984631543167254   -0.002264871281780608   -0.00038270622503686405
6.542173880939478e-05   -0.004311519688733019   -0.00048033388223640865
-0.0009984808528519808   -0.004303918890082309   -0.000520245003137163
7.566341683757631e-05   -0.00224161292210869   -0.00036338785561296867
-0.0006984631543167254   -0.002264871281780608   -0.00038270622503686405
-0.0009946259296896986   -0.004324913551309899   -0.0004996835347631346
8.434744254231766e-05   -0.0022529940071032853   -0.00036158132973457507
-0.0006919314684824652   -0.002276729882709298   -0.00036090422374323515
-0.0009946259296896986   -0.004324913551309899   -0.0004996835347631346
6.542173880939478e-05   -0.004311519688733019   -0.00048033388223640865
8.434744254231766e-05   -0.0022529940071032853   -0.00036158132973457507
6.975282513340838e-05   -0.0043120826169922135   -0.0004777522429373544
-0.0006919314684824652   -0.002276729882709298   -0.00036090422374323515
9.055182328366068e-05   -0.0022521521843187104   -0.00036238315679480764
6.975282513340838e-05   -0.0043120826169922135   -0.0004777522429373544
8.434744254231766e-05   -0.0022529940071032853   -0.00036158132973457507
-0.0006919314684824652   -0.002276729882709298   -0.00036090422374323515
6.975282513340838e-05   -0.0043120826169922135   -0.0004777522429373544
-0.0009902166082312062   -0.004337289341870989   -0.0004816518669374919
-0.0009946259296896986   -0.004324913551309899   -0.0004996835347631346
-0.0006919314684824652   -0.002276729882709298   -0.00036090422374323515
6.975282513340838e-05   -0.0043120826169922135   -0.0004777522429373544
-0.0009946259296896986   -0.004324913551309899   -0.0004996835347631346
8.434744254231766e-05   -0.0022529940071032853   -0.00036158132973457507
-0.0006919314684824652   -0.002276729882709298   -0.00036090422374323515
-0.0009902166082312062   -0.004337289341870989   -0.0004816518669374919
9.055182328366068e-05   -0.0022521521843187104   -0.00036238315679480764
-0.0006827150921753282   -0.0022765203372425756   -0.0003419807441638521
-0.0009902166082312062   -0.004337289341870989   -0.0004816518669374919
6.975282513340838e-05   -0.0043120826169922135   -0.0004777522429373544
9.055182328366068e-05   -0.0022521521843187104   -0.00036238315679480764
7.327566345221356e-05   -0.004303932378371739   -0.00047778377209039966
-0.0006827150921753282   -0.0022765203372425756   -0.0003419807441638521
9.712340305285356e-05   -0.00223872002047309   -0.00036583314655545633
7.327566345221356e-05   -0.004303932378371739   -0.00047778377209039966
9.055182328366068e-05   -0.0022521521843187104   -0.00036238315679480764
-0.0006827150921753282   -0.0022765203372425756   -0.0003419807441638521
7.327566345221356e-05   -0.004303932378371739   -0.00047778377209039966
-0.0009838151691917687   -0.00434122289486849   -0.0004661463963271879
-0.0009902166082312062   -0.004337289341870989   -0.0004816518669374919
-0.0006827150921753282   -0.0022765203372425756   -0.0003419807441638521
7.327566345221356e-05   -0.004303932378371739   -0.00047778377209039966
-0.0009902166082312062   -0.004337289341870989   -0.0004816518669374919
9.055182328366068e-05   -0.0022521521843187104   -0.00036238315679480764
7.566341683757631e-05   -0.00224161292210869   -0.00036338785561296867
5.9419277044306544e-05   -0.0043023697812583925   -0.00048538384056322263
0.0009043104987575694   -0.002277626506109068   -0.00034353923840283027
8.434744254231766e-05   -0.0022529940071032853   -0.00036158132973457507
5.9419277044306544e-05   -0.0043023697812583925   -0.00048538384056322263
0.0011628544557608935   -0.004326321487521962   -0.0004717723364952661
0.0009043104987575694   -0.002277626506109068   -0.00034353923840283027
0.0011684050455504748   -0.004324566926397766   -0.00048254503231855145
8.434744254231766e-05   -0.0022529940071032853   -0.00036158132973457507
0.0009098755173169749   -0.0022771577543566606   -0.00036474529634269293
0.0011684050455504748   -0.004324566926397766   -0.00048254503231855145
0.0009043104987575694   -0.002277626506109068   -0.00034353923840283027
8.434744254231766e-05   -0.0022529940071032853   -0.00036158132973457507
0.0011684050455504748   -0.004324566926397766   -0.00048254503231855145
6.542173880939478e-05   -0.004311519688733019   -0.00048033388223640865
5.9419277044306544e-05   -0.0043023697812583925   -0.00048538384056322263
8.434744254231766e-05   -0.0022529940071032853   -0.00036158132973457507
0.0011684050455504748   -0.004324566926397766   -0.00048254503231855145
5.9419277044306544e-05   -0.0043023697812583925   -0.00048538384056322263
0.0009043104987575694   -0.002277626506109068   -0.00034353923840283027
8.434744254231766e-05   -0.0022529940071032853   -0.00036158132973457507
6.542173880939478e-05   -0.004311519688733019   -0.00048033388223640865
0.0009098755173169749   -0.0022771577543566606   -0.00036474529634269293
9.055182328366068e-05   -0.0022521521843187104   -0.00036238315679480764
6.542173880939478e-05   -0.004311519688733019   -0.00048033388223640865
0.0011684050455504748   -0.004324566926397766   -0.00048254503231855145
0.0009098755173169749   -0.0022771577543566606   -0.00036474529634269293
0.0011669858383646242   -0.0043144552120762125   -0.00049560469624262
9.055182328366068e-05   -0.0022521521843187104   -0.00036238315679480764
0.000906959046026333   -0.0022647380264074423   -0.0003889014555968185
0.0011669858383646242   -0.0043144552120762125   -0.00049560469624262
0.0009098755173169749   -0.0022771577543566606   -0.00036474529634269293
9.055182328366068e-05   -0.0022521521843187104   -0.00036238315679480764
0.0011669858383646242   -0.0043144552120762125   -0.00049560469624262
6.975282513340838e-05   -0.0043120826169922135   -0.0004777522429373544
6.542173880939478e-05   -0.004311519688733019   -0.00048033388223640865
9.055182328366068e-05   -0.0022521521843187104   -0.00036238315679480764
0.0011669858383646242   -0.0043144552120762125   -0.00049560469624262
6.542173880939478e-05   -0.004311519688733019   -0.00048033388223640865
0.0009098755173169749   -0.0022771577543566606   -0.00036474529634269293
9.055182328366068e-05   -0.0022521521843187104   -0.00036238315679480764
6.975282513340838e-05   -0.0043120826169922135   -0.0004777522429373544
0.000906959046026333   -0.0022647380264074423   -0.0003889014555968185
9.712340305285356e-05   -0.00223872002047309   -0.00036583314655545633
6.975282513340838e-05   -0.0043120826169922135   -0.0004777522429373544
0.0011669858383646242   -0.0043144552120762125   -0.00049560469624262
0.000906959046026333   -0.0022647380264074423   -0.0003889014555968185
0.0011639958648056255   -0.004293866223748163   -0.0005112264251926768
9.712340305285356e-05   -0.00223872002047309   -0.00036583314655545633
0.0009057549225619805   -0.002237022374322845   -0.00041510957044338235
0.0011639958648056255   -0.004293866223748163   -0.0005112264251926768
0.000906959046026333   -0.0022647380264074423   -0.0003889014555968185
9.712340305285356e-05   -0.00223872002047309   -0.00036583314655545633
0.0011639958648056255   -0.004293866223748163   -0.0005112264251926768
7.327566345221356e-05   -0.004303932378371739   -0.00047778377209039966
6.975282513340838e-05   -0.0043120826169922135   -0.0004777522429373544
9.712340305285356e-05   -0.00223872002047309   -0.00036583314655545633
0.0011639958648056255   -0.004293866223748163   -0.0005112264251926768
6.975282513340838e-05   -0.0043120826169922135   -0.0004777522429373544
0.000906959046026333   -0.0022647380264074423   -0.0003889014555968185
0.0009043104987575694   -0.002277626506109068   -0.00034353923840283027
0.0011628544557608935   -0.004326321487521962   -0.0004717723364952661
0.0019059225209946877   -0.002344338925343149   -0.00033901693023564446
0.0009098755173169749   -0.0022771577543566606   -0.00036474529634269293
0.0011628544557608935   -0.004326321487521962   -0.0004717723364952661
0.002420300857742301   -0.004369460496248978   -0.00047314244837287547
0.0019059225209946877   -0.002344338925343149   -0.00033901693023564446
0.0024014999086388097   -0.004361347677759111   -0.0005016253701628945
0.0009098755173169749   -0.0022771577543566606   -0.00036474529634269293
0.0018690517772756254   -0.002337455861311863   -0.00038689878525923426
0.0024014999086388097   -0.004361347677759111   -0.0005016253701628945
0.0019059225209946877   -0.002344338925343149   -0.00033901693023564446
0.0009098755173169749   -0.0022771577543566606   -0.00036474529634269293
0.0024014999086388097   -0.004361347677759111   -0.0005016253701628945
0.0011684050455504748   -0.004324566926397766   -0.00048254503231855145
0.0011628544557608935   -0.004326321487521962   -0.0004717723364952661
0.0009098755173169749   -0.0022771577543566606   -0.00036474529634269293
0.0024014999086388097   -0.004361347677759111   -0.0005016253701628945
0.0011628544557608935   -0.004326321487521962   -0.0004717723364952661
0.0019059225209946877   -0.002344338925343149   -0.00033901693023564446
0.0009098755173169749   -0.0022771577543566606   -0.00036474529634269293
0.0011684050455504748   -0.004324566926397766   -0.00048254503231855145
0.0018690517772756254   -0.002337455861311863   -0.00038689878525923426
0.000906959046026333   -0.0022647380264074423   -0.0003889014555968185
0.0011684050455504748   -0.004324566926397766   -0.00048254503231855145
0.0024014999086388097   -0.004361347677759111   -0.0005016253701628945
0.0018690517772756254   -0.002337455861311863   -0.00038689878525923426
0.002382415773554452   -0.004345868438099622   -0.0005342334472183171
0.000906959046026333   -0.0022647380264074423   -0.0003889014555968185
0.00183593851094171   -0.0023183794680961176   -0.00044097254361682525
0.002382415773554452   -0.004345868438099622   -0.0005342334472183171
0.0018690517772756254   -0.002337455861311863   -0.00038689878525923426
0.000906959046026333   -0.0022647380264074423   -0.0003889014555968185
0.002382415773554452   -0.004345868438099622   -0.0005342334472183171
0.0011669858383646242   -0.0043144552120762125   -0.00049560469624262
0.0011684050455504748   -0.004324566926397766   -0.00048254503231855145
0.000906959046026333   -0.0022647380264074423   -0.0003889014555968185
0.002382415773554452   -0.004345868438099622   -0.0005342334472183171
0.0011684050455504748   -0.004324566926397766   -0.00048254503231855145
0.0018690517772756254   -0.002337455861311863   -0.00038689878525923426
0.000906959046026333   -0.0022647380264074423   -0.0003889014555968185
0.0011669858383646242   -0.0043144552120762125   -0.00049560469624262
0.00183593851094171   -0.0023183794680961176   -0.00044097254361682525
0.0009057549225619805   -0.002237022374322845   -0.00041510957044338235
0.0011669858383646242   -0.0043144552120762125   -0.00049560469624262
0.002382415773554452   -0.004345868438099622   -0.0005342334472183171
0.00183593851094171   -0.0023183794680961176   -0.00044097254361682525
0.0023470560905962854   -0.0043138827208522865   -0.0005709716128883919
0.0009057549225619805   -0.002237022374322845   -0.00041510957044338235
0.0017855092294317264   -0.0022763592549909363   -0.0004973877088331571
0.0023470560905962854   -0.0043138827208522865   -0.0005709716128883919
0.00183593851094171   -0.0023183794680961176   -0.00044097254361682525
0.0009057549225619805   -0.002237022374322845   -0.00041510957044338235
0.0023470560905962854   -0.0043138827208522865   -0.0005709716128883919
0.0011639958648056255   -0.004293866223748163   -0.0005112264251926768
0.0011669858383646242   -0.0043144552120762125   -0.00049560469624262
0.0009057549225619805   -0.002237022374322845   -0.00041510957044338235
0.0023470560905962854   -0.0043138827208522865   -0.0005709716128883919
0.0011669858383646242   -0.0043144552120762125   -0.00049560469624262
0.00183593851094171   -0.0023183794680961176   -0.00044097254361682525
-0.0032476095885074717   -0.004389870092704089   -0.0006585621301058732
-0.00386837486381191   -0.006796414252914685   -0.0007038096406165859
-0.00208898624861011   -0.00433259339706683   -0.0005769117810881524
-0.0033034851587935648   -0.0044350398180174715   -0.0006023966921619668
-0.00386837486381191   -0.006796414252914685   -0.0007038096406165859
-0.0025136010225706   -0.006760263837919804   -0.0006377383661850303
-0.00208898624861011   -0.00433259339706683   -0.0005769117810881524
-0.002515233383469828   -0.006788446795916644   -0.0006120116155793302
-0.0033034851587935648   -0.0044350398180174715   -0.0006023966921619668
-0.00209220237464228   -0.004365587298296215   -0.0005407640291498635
-0.002515233383469828   -0.006788446795916644   -0.0006120116155793302
-0.00208898624861011   -0.00433259339706683   -0.0005769117810881524
-0.0033034851587935648   -0.0044350398180174715   -0.0006023966921619668
-0.002515233383469828   -0.006788446795916644   -0.0006120116155793302
-0.0039052209537319606   -0.006834610837560224   -0.0006668684349870386
-0.00386837486381191   -0.006796414252914685   -0.0007038096406165859
-0.0033034851587935648   -0.0044350398180174715   -0.0006023966921619668
-0.002515233383469828   -0.006788446795916644   -0.0006120116155793302
-0.00386837486381191   -0.006796414252914685   -0.0007038096406165859
-0.00208898624861011   -0.00433259339706683   -0.0005769117810881524
-0.0033034851587935648   -0.0044350398180174715   -0.0006023966921619668
-0.0039052209537319606   -0.006834610837560224   -0.0006668684349870386
-0.00209220237464228   -0.004365587298296215   -0.0005407640291498635
-0.003338083916263693   -0.0044634903600021805   -0.000550133791058154
-0.0039052209537319606   -0.006834610837560224   -0.0006668684349870386
-0.002515233383469828   -0.006788446795916644   -0.0006120116155793302
-0.00209220237464228   -0.004365587298296215   -0.0005407640291498635
-0.0025159530587518467   -0.006810908372312555   -0.0005888729786822914
-0.003338083916263693   -0.0044634903600021805   -0.000550133791058154
-0.0020961559847620407   -0.004388659679502036   -0.0005072818538622153
-0.0025159530587518467   -0.006810908372312555   -0.0005888729786822914
-0.00209220237464228   -0.004365587298296215   -0.0005407640291498635
-0.003338083916263693   -0.0044634903600021805   -0.000550133791058154
-0.0025159530587518467   -0.006810908372312555   -0.0005888729786822914
-0.003925676221930657   -0.006861778194084192   -0.0006335313995786759
-0.0039052209537319606   -0.006834610837560224   -0.0006668684349870386
-0.003338083916263693   -0.0044634903600021805   -0.000550133791058154
-0.0025159530587518467   -0.006810908372312555   -0.0005888729786822914
-0.0039052209537319606   -0.006834610837560224   -0.0006668684349870386
-0.00209220237464228   -0.004365587298296215   -0.0005407640291498635
-0.003338083916263693   -0.0044634903600021805   -0.000550133791058154
-0.003925676221930657   -0.006861778194084192   -0.0006335313995786759
-0.0020961559847620407   -0.004388659679502036   -0.0005072818538622153
-0.0033774492047275715   -0.004484228587468725   -0.0005021396092876175
-0.003925676221930657   -0.006861778194084192   -0.0006335313995786759
-0.0025159530587518467   -0.006810908372312555   -0.0005888729786822914
-0.0020961559847620407   -0.004388659679502036   -0.0005072818538622153
-0.0025093395128577556   -0.006829524243119434   -0.0005679696371299378
-0.0033774492047275715   -0.004484228587468725   -0.0005021396092876175
-0.0020907837324248284   -0.00440401011324805   -0.00047589400238767527
-0.0025093395128577556   -0.006829524243119434   -0.0005679696371299378
-0.0020961559847620407   -0.004388659679502036   -0.0005072818538622153
-0.0033774492047275715   -0.004484228587468725   -0.0005021396092876175
-0.0025093395128577556   -0.006829524243119434   -0.0005679696371299378
-0.0039466307306691446   -0.006886373239271168   -0.0006042350140305307
-0.003925676221930657   -0.006861778194084192   -0.0006335313995786759
-0.0033774492047275715   -0.004484228587468725   -0.0005021396092876175
-0.0025093395128577556   -0.006829524243119434   -0.0005679696371299378
-0.003925676221930657   -0.006861778194084192   -0.0006335313995786759
-0.0020961559847620407   -0.004388659679502036   -0.0005072818538622153
-0.00208898624861011   -0.00433259339706683   -0.0005769117810881524
-0.0025136010225706   -0.006760263837919804   -0.0006377383661850303
-0.0009984808528519808   -0.004303918890082309   -0.000520245003137163
-0.00209220237464228   -0.004365587298296215   -0.0005407640291498635
-0.0025136010225706   -0.006760263837919804   -0.0006377383661850303
-0.0012447005701524017   -0.00674138306401536   -0.0005920315834164576
-0.0009984808528519808   -0.004303918890082309   -0.000520245003137163
-0.0012409839537688174   -0.006758966763478589   -0.0005748866814484288
-0.00209220237464228   -0.004365587298296215   -0.0005407640291498635
-0.0009946259296896986   -0.004324913551309899   -0.0004996835347631346
-0.0012409839537688174   -0.006758966763478589   -0.0005748866814484288
-0.0009984808528519808   -0.004303918890082309   -0.000520245003137163
-0.00209220237464228   -0.004365587298296215   -0.0005407640291498635
-0.0012409839537688174   -0.006758966763478589   -0.0005748866814484288
-0.002515233383469828   -0.006788446795916644   -0.0006120116155793302
-0.0025136010225706   -0.006760263837919804   -0.0006377383661850303
-0.00209220237464228   -0.004365587298296215   -0.0005407640291498635
-0.0012409839537688174   -0.006758966763478589   -0.0005748866814484288
-0.0025136010225706   -0.006760263837919804   -0.0006377383661850303
-0.0009984808528519808   -0.004303918890082309   -0.000520245003137163
-0.00209220237464228   -0.004365587298296215   -0.0005407640291498635
-0.002515233383469828   -0.006788446795916644   -0.0006120116155793302
-0.0009946259296896986   -0.004324913551309899   -0.0004996835347631346
-0.0020961559847620407   -0.004388659679502036   -0.0005072818538622153
-0.002515233383469828   -0.006788446795916644   -0.0006120116155793302
-0.0012409839537688174   -0.006758966763478589   -0.0005748866814484288
-0.0009946259296896986   -0.004324913551309899   -0.0004996835347631346
-0.0012364199919521568   -0.006771743579779141   -0.0005602839777537135
-0.0020961559847620407   -0.004388659679502036   -0.0005072818538622153
-0.0009902166082312062   -0.004337289341870989   -0.0004816518669374919
-0.0012364199919521568   -0.006771743579779141   -0.0005602839777537135
-0.0009946259296896986   -0.004324913551309899   -0.0004996835347631346
-0.0020961559847620407   -0.004388659679502036   -0.0005072818538622153
-0.0012364199919521568   -0.006771743579779141   -0.0005602839777537135
-0.0025159530587518467   -0.006810908372312555   -0.0005888729786822914
-0.002515233383469828   -0.006788446795916644   -0.0006120116155793302
-0.0020961559847620407   -0.004388659679502036   -0.0005072818538622153
-0.0012364199919521568   -0.006771743579779141   -0.0005602839777537135
-0.002515233383469828   -0.006788446795916644   -0.0006120116155793302
-0.0009946259296896986   -0.004324913551309899   -0.0004996835347631346
-0.0020961559847620407   -0.004388659679502036   -0.0005072818538622153
-0.0025159530587518467   -0.006810908372312555   -0.0005888729786822914
-0.0009902166082312062   -0.004337289341870989   -0.0004816518669374919
-0.0020907837324248284   -0.00440401011324805   -0.00047589400238767527
-0.0025159530587518467   -0.006810908372312555   -0.0005888729786822914
-0.0012364199919521568   -0.006771743579779141   -0.0005602839777537135
-0.0009902166082312062   -0.004337289341870989   -0.0004816518669374919
-0.0012302562537216553   -0.006779798738111099   -0.0005482706873466232
-0.0020907837324248284   -0.00440401011324805   -0.00047589400238767527
-0.0009838151691917687   -0.00434122289486849   -0.0004661463963271879
-0.0012302562537216553   -0.006779798738111099   -0.0005482706873466232
-0.0009902166082312062   -0.004337289341870989   -0.0004816518669374919
-0.0020907837324248284   -0.00440401011324805   -0.00047589400238767527
-0.0012302562537216553   -0.006779798738111099   -0.0005482706873466232
-0.0025093395128577556   -0.006829524243119434   -0.0005679696371299378
-0.0025159530587518467   -0.006810908372312555   -0.0005888729786822914
-0.0020907837324248284   -0.00440401011324805   -0.00047589400238767527
-0.0012302562537216553   -0.006779798738111099   -0.0005482706873466232
-0.0025159530587518467   -0.006810908372312555   -0.0005888729786822914
-0.0009902166082312062   -0.004337289341870989   -0.0004816518669374919
-0.0009984808528519808   -0.004303918890082309   -0.000520245003137163
-0.0012447005701524017   -0.00674138306401536   -0.0005920315834164576
5.9419277044306544e-05   -0.0043023697812583925   -0.00048538384056322263
-0.0009946259296896986   -0.004324913551309899   -0.0004996835347631346
-0.0012447005701524017   -0.00674138306401536   -0.0005920315834164576
-1.0591554194707575e-05   -0.006738013492636096   -0.0005657015338190891
5.9419277044306544e-05   -0.0043023697812583925   -0.00048538384056322263
-4.753581568455898e-06   -0.0067448984468176185   -0.0005572217790209194
-0.0009946259296896986   -0.004324913551309899   -0.0004996835347631346
6.542173880939478e-05   -0.004311519688733019   -0.00048033388223640865
-4.753581568455898e-06   -0.0067448984468176185   -0.0005572217790209194
5.9419277044306544e-05   -0.0043023697812583925   -0.00048538384056322263
-0.0009946259296896986   -0.004324913551309899   -0.0004996835347631346
-4.753581568455898e-06   -0.0067448984468176185   -0.0005572217790209194
-0.0012409839537688174   -0.006758966763478589   -0.0005748866814484288
-0.0012447005701524017   -0.00674138306401536   -0.0005920315834164576
-0.0009946259296896986   -0.004324913551309899   -0.0004996835347631346
-4.753581568455898e-06   -0.0067448984468176185   -0.0005572217790209194
-0.0012447005701524017   -0.00674138306401536   -0.0005920315834164576
5.9419277044306544e-05   -0.0043023697812583925   -0.00048538384056322263
-0.0009946259296896986   -0.004324913551309899   -0.0004996835347631346
-0.0012409839537688174   -0.006758966763478589   -0.0005748866814484288
6.542173880939478e-05   -0.004311519688733019   -0.00048033388223640865
-0.0009902166082312062   -0.004337289341870989   -0.0004816518669374919
-0.0012409839537688174   -0.006758966763478589   -0.0005748866814484288
-4.753581568455898e-06   -0.0067448984468176185   -0.0005572217790209194
6.542173880939478e-05   -0.004311519688733019   -0.00048033388223640865
-2.1062244213963617e-07   -0.006746941654566071   -0.0005512568847653073
-0.0009902166082312062   -0.004337289341870989   -0.0004816518669374919
6.975282513340838e-05   -0.0043120826169922135   -0.0004777522429373544
-2.1062244213963617e-07   -0.006746941654566071   -0.0005512568847653073
6.542173880939478e-05   -0.004311519688733019   -0.00048033388223640865
-0.0009902166082312062   -0.004337289341870989   -0.0004816518669374919
-2.1062244213963617e-07   -0.006746941654566071   -0.0005512568847653073
-0.0012364199919521568   -0.006771743579779141   -0.0005602839777537135
-0.0012409839537688174   -0.006758966763478589   -0.0005748866814484288
-0.0009902166082312062   -0.004337289341870989   -0.0004816518669374919
-2.1062244213963617e-07   -0.006746941654566071   -0.0005512568847653073
-0.0012409839537688174   -0.006758966763478589   -0.0005748866814484288
6.542173880939478e-05   -0.004311519688733019   -0.00048033388223640865
-0.0009902166082312062   -0.004337289341870989   -0.0004816518669374919
-0.0012364199919521568   -0.006771743579779141   -0.0005602839777537135
6.975282513340838e-05   -0.0043120826169922135   -0.0004777522429373544
-0.0009838151691917687   -0.00434122289486849   -0.0004661463963271879
-0.0012364199919521568   -0.006771743579779141   -0.0005602839777537135
-2.1062244213963617e-07   -0.006746941654566071   -0.0005512568847653073
6.975282513340838e-05   -0.0043120826169922135   -0.0004777522429373544
3.1915519866005732e-06   -0.006744075561748712   -0.0005479140152262948
-0.0009838151691917687   -0.00434122289486849   -0.0004661463963271879
7.327566345221356e-05   -0.004303932378371739   -0.00047778377209039966
3.1915519866005732e-06   -0.006744075561748712   -0.0005479140152262948
6.975282513340838e-05   -0.0043120826169922135   -0.0004777522429373544
-0.0009838151691917687   -0.00434122289486849   -0.0004661463963271879
3.1915519866005732e-06   -0.006744075561748712   -0.0005479140152262948
-0.0012302562537216553   -0.006779798738111099   -0.0005482706873466232
-0.0012364199919521568   -0.006771743579779141   -0.0005602839777537135
-0.0009838151691917687   -0.00434122289486849   -0.0004661463963271879
3.1915519866005732e-06   -0.006744075561748712   -0.0005479140152262948
-0.0012364199919521568   -0.006771743579779141   -0.0005602839777537135
6.975282513340838e-05   -0.0043120826169922135   -0.0004777522429373544
5.9419277044306544e-05   -0.0043023697812583925   -0.00048538384056322263
-1.0591554194707575e-05   -0.006738013492636096   -0.0005657015338190891
0.0011628544557608935   -0.004326321487521962   -0.0004717723364952661
6.542173880939478e-05   -0.004311519688733019   -0.00048033388223640865
-1.0591554194707575e-05   -0.006738013492636096   -0.0005657015338190891
0.001266035183798168   -0.0067487962362773645   -0.0005586929214069518
0.0011628544557608935   -0.004326321487521962   -0.0004717723364952661
0.0012729836119719344   -0.006745561627289249   -0.0005590501423855049
6.542173880939478e-05   -0.004311519688733019   -0.00048033388223640865
0.0011684050455504748   -0.004324566926397766   -0.00048254503231855145
0.0012729836119719344   -0.006745561627289249   -0.0005590501423855049
0.0011628544557608935   -0.004326321487521962   -0.0004717723364952661
6.542173880939478e-05   -0.004311519688733019   -0.00048033388223640865
0.0012729836119719344   -0.006745561627289249   -0.0005590501423855049
-4.753581568455898e-06   -0.0067448984468176185   -0.0005572217790209194
-1.0591554194707575e-05   -0.006738013492636096   -0.0005657015338190891
6.542173880939478e-05   -0.004311519688733019   -0.00048033388223640865
0.0012729836119719344   -0.006745561627289249   -0.0005590501423855049
-1.0591554194707575e-05   -0.006738013492636096   -0.0005657015338190891
0.0011628544557608935   -0.004326321487521962   -0.0004717723364952661
6.542173880939478e-05   -0.004311519688733019   -0.00048033388223640865
-4.753581568455898e-06   -0.0067448984468176185   -0.0005572217790209194
0.0011684050455504748   -0.004324566926397766   -0.00048254503231855145
6.975282513340838e-05   -0.0043120826169922135   -0.0004777522429373544
-4.753581568455898e-06   -0.0067448984468176185   -0.0005572217790209194
0.0012729836119719344   -0.006745561627289249   -0.0005590501423855049
0.0011684050455504748   -0.004324566926397766   -0.00048254503231855145
0.0012749728477589898   -0.00673790870990988   -0.0005617831946224506
6.975282513340838e-05   -0.0043120826169922135   -0.0004777522429373544
0.0011669858383646242   -0.0043144552120762125   -0.00049560469624262
0.0012749728477589898   -0.00673790870990988   -0.0005617831946224506
0.0011684050455504748   -0.004324566926397766   -0.00048254503231855145
6.975282513340838e-05   -0.0043120826169922135   -0.0004777522429373544
0.0012749728477589898   -0.00673790870990988   -0.0005617831946224506
-2.1062244213963617e-07   -0.006746941654566071   -0.0005512568847653073
-4.753581568455898e-06   -0.0067448984468176185   -0.0005572217790209194
6.975282513340838e-05   -0.0043120826169922135   -0.0004777522429373544
0.0012749728477589898   -0.00673790870990988   -0.0005617831946224506
-4.753581568455898e-06   -0.0067448984468176185   -0.0005572217790209194
0.0011684050455504748   -0.004324566926397766   -0.00048254503231855145
6.975282513340838e-05   -0.0043120826169922135   -0.0004777522429373544
-2.1062244213963617e-07   -0.006746941654566071   -0.0005512568847653073
0.0011669858383646242   -0.0043144552120762125   -0.00049560469624262
7.327566345221356e-05   -0.004303932378371739   -0.00047778377209039966
-2.1062244213963617e-07   -0.006746941654566071   -0.0005512568847653073
0.0012749728477589898   -0.00673790870990988   -0.0005617831946224506
0.0011669858383646242   -0.0043144552120762125   -0.00049560469624262
0.0012736800212358923   -0.006723973416555918   -0.0005669873814777103
7.327566345221356e-05   -0.004303932378371739   -0.00047778377209039966
0.0011639958648056255   -0.004293866223748163   -0.0005112264251926768
0.0012736800212358923   -0.006723973416555918   -0.0005669873814777103
0.0011669858383646242   -0.0043144552120762125   -0.00049560469624262
7.327566345221356e-05   -0.004303932378371739   -0.00047778377209039966
0.0012736800212358923   -0.006723973416555918   -0.0005669873814777103
3.1915519866005732e-06   -0.006744075561748712   -0.0005479140152262948
-2.1062244213963617e-07   -0.006746941654566071   -0.0005512568847653073
7.327566345221356e-05   -0.004303932378371739   -0.00047778377209039966
0.0012736800212358923   -0.006723973416555918   -0.0005669873814777103
-2.1062244213963617e-07   -0.006746941654566071   -0.0005512568847653073
0.0011669858383646242   -0.0043144552120762125   -0.00049560469624262
0.0011628544557608935   -0.004326321487521962   -0.0004717723364952661
0.001266035183798168   -0.0067487962362773645   -0.0005586929214069518
0.002420300857742301   -0.004369460496248978   -0.00047314244837287547
0.0011684050455504748   -0.004324566926397766   -0.00048254503231855145
0.001266035183798168   -0.0067487962362773645   -0.0005586929214069518
0.002675601457598604   -0.006768367587519882   -0.0005670349515566936
0.002420300857742301   -0.004369460496248978   -0.00047314244837287547
0.0026754739372669427   -0.006758223920784759   -0.0005767677636075688
0.0011684050455504748   -0.004324566926397766   -0.00048254503231855145
0.0024014999086388097   -0.004361347677759111   -0.0005016253701628945
0.0026754739372669427   -0.006758223920784759   -0.0005767677636075688
0.002420300857742301   -0.004369460496248978   -0.00047314244837287547
0.0011684050455504748   -0.004324566926397766   -0.00048254503231855145
0.0026754739372669427   -0.006758223920784759   -0.0005767677636075688
0.0012729836119719344   -0.006745561627289249   -0.0005590501423855049
0.001266035183798168   -0.0067487962362773645   -0.0005586929214069518
0.0011684050455504748   -0.004324566926397766   -0.00048254503231855145
0.0026754739372669427   -0.006758223920784759   -0.0005767677636075688
0.001266035183798168   -0.0067487962362773645   -0.0005586929214069518
0.002420300857742301   -0.004369460496248978   -0.00047314244837287547
0.0011684050455504748   -0.004324566926397766   -0.00048254503231855145
0.0012729836119719344   -0.006745561627289249   -0.0005590501423855049
0.0024014999086388097   -0.004361347677759111   -0.0005016253701628945
0.0011669858383646242   -0.0043144552120762125   -0.00049560469624262
0.0012729836119719344   -0.006745561627289249   -0.0005590501423855049
0.0026754739372669427   -0.006758223920784759   -0.0005767677636075688
0.0024014999086388097   -0.004361347677759111   -0.0005016253701628945
0.0026708368040117194   -0.006745850101338624   -0.0005903650871863035
0.0011669858383646242   -0.0043144552120762125   -0.00049560469624262
0.002382415773554452   -0.004345868438099622   -0.0005342334472183171
0.0026708368040117194   -0.006745850101338624   -0.0005903650871863035
0.0024014999086388097   -0.004361347677759111   -0.0005016253701628945
0.0011669858383646242   -0.0043144552120762125   -0.00049560469624262
0.0026708368040117194   -0.006745850101338624   -0.0005903650871863035
0.0012749728477589898   -0.00673790870990988   -0.0005617831946224506
0.0012729836119719344   -0.006745561627289249   -0.0005590501423855049
0.0011669858383646242   -0.0043144552120762125   -0.00049560469624262
0.0026708368040117194   -0.006745850101338624   -0.0005903650871863035
0.0012729836119719344   -0.006745561627289249   -0.0005590501423855049
0.0024014999086388097   -0.004361347677759111   -0.0005016253701628945
0.0011669858383646242   -0.0043144552120762125   -0.00049560469624262
0.0012749728477589898   -0.00673790870990988   -0.0005617831946224506
0.002382415773554452   -0.004345868438099622   -0.0005342334472183171
0.0011639958648056255   -0.004293866223748163   -0.0005112264251926768
0.0012749728477589898   -0.00673790870990988   -0.0005617831946224506
0.0026708368040117194   -0.006745850101338624   -0.0005903650871863035
0.002382415773554452   -0.004345868438099622   -0.0005342334472183171
0.0026547809309389993   -0.006722726862976196   -0.0006077986897380352
0.0011639958648056255   -0.004293866223748163   -0.0005112264251926768
0.0023470560905962854   -0.0043138827208522865   -0.0005709716128883919
0.0026547809309389993   -0.006722726862976196   -0.0006077986897380352
0.002382415773554452   -0.004345868438099622   -0.0005342334472183171
0.0011639958648056255   -0.004293866223748163   -0.0005112264251926768
0.0026547809309389993   -0.006722726862976196   -0.0006077986897380352
0.0012736800212358923   -0.006723973416555918   -0.0005669873814777103
0.0012749728477589898   -0.00673790870990988   -0.0005617831946224506
0.0011639958648056255   -0.004293866223748163   -0.0005112264251926768
0.0026547809309389993   -0.006722726862976196   -0.0006077986897380352
0.0012749728477589898   -0.00673790870990988   -0.0005617831946224506
0.002382415773554452   -0.004345868438099622   -0.0005342334472183171
-0.00386837486381191   -0.006796414252914685   -0.0007038096406165859
-0.004239732197614068   -0.009405335601814738   -0.0007183154003818531
-0.0025136010225706   -0.006760263837919804   -0.0006377383661850303
-0.0039052209537319606   -0.006834610837560224   -0.0006668684349870386
-0.004239732197614068   -0.009405335601814738   -0.0007183154003818531
-0.0027904013944781963   -0.009390867172821032   -0.0006661297180563416
-0.0025136010225706   -0.006760263837919804   -0.0006377383661850303
-0.0027881067396847785   -0.009414724025368812   -0.0006504526082300788
-0.0039052209537319606   -0.006834610837560224   -0.0006668684349870386
-0.002515233383469828   -0.006788446795916644   -0.0006120116155793302
-0.0027881067396847785   -0.009414724025368812   -0.0006504526082300788
-0.0025136010225706   -0.006760263837919804   -0.0006377383661850303
-0.0039052209537319606   -0.006834610837560224   -0.0006668684349870386
-0.0027881067396847785   -0.009414724025368812   -0.0006504526082300788
-0.004256079295131176   -0.009437469065981096   -0.0006995871944734484
-0.004239732197614068   -0.009405335601814738   -0.0007183154003818531
-0.0039052209537319606   -0.006834610837560224   -0.0006668684349870386
-0.0027881067396847785   -0.009414724025368812   -0.0006504526082300788
-0.004239732197614068   -0.009405335601814738   -0.0007183154003818531
-0.0025136010225706   -0.006760263837919804   -0.0006377383661850303
-0.0039052209537319606   -0.006834610837560224   -0.0006668684349870386
-0.004256079295131176   -0.009437469065981096   -0.0006995871944734484
-0.002515233383469828   -0.006788446795916644   -0.0006120116155793302
-0.003925676221930657   -0.006861778194084192   -0.0006335313995786759
-0.004256079295131176   -0.009437469065981096   -0.0006995871944734484
-0.0027881067396847785   -0.009414724025368812   -0.0006504526082300788
-0.002515233383469828   -0.006788446795916644   -0.0006120116155793302
-0.002783177354848346   -0.009436870119088975   -0.0006373829757280248
-0.003925676221930657   -0.006861778194084192   -0.0006335313995786759
-0.0025159530587518467   -0.006810908372312555   -0.0005888729786822914
-0.002783177354848346   -0.009436870119088975   -0.0006373829757280248
-0.002515233383469828   -0.006788446795916644   -0.0006120116155793302
-0.003925676221930657   -0.006861778194084192   -0.0006335313995786759
-0.002783177354848346   -0.009436870119088975   -0.0006373829757280248
-0.004260312500692975   -0.009463845632179805   -0.0006846078233469106
-0.004256079295131176   -0.009437469065981096   -0.0006995871944734484
-0.003925676221930657   -0.006861778194084192   -0.0006335313995786759
-0.002783177354848346   -0.009436870119088975   -0.0006373829757280248
-0.004256079295131176   -0.009437469065981096   -0.0006995871944734484
-0.002515233383469828   -0.006788446795916644   -0.0006120116155793302
-0.003925676221930657   -0.006861778194084192   -0.0006335313995786759
-0.004260312500692975   -0.009463845632179805   -0.0006846078233469106
-0.0025159530587518467   -0.006810908372312555   -0.0005888729786822914
-0.0039466307306691446   -0.006886373239271168   -0.0006042350140305307
-0.004260312500692975   -0.009463845632179805   -0.0006846078233469106
-0.002783177354848346   -0.009436870119088975   -0.0006373829757280248
-0.0025159530587518467   -0.006810908372312555   -0.0005888729786822914
-0.002772831307166412   -0.009459006547535636   -0.0006267263037094095
-0.0039466307306691446   -0.006886373239271168   -0.0006042350140305307
-0.0025093395128577556   -0.006829524243119434   -0.0005679696371299378
-0.002772831307166412   -0.009459006547535636   -0.0006267263037094095
-0.0025159530587518467   -0.006810908372312555   -0.0005888729786822914
-0.0039466307306691446   -0.006886373239271168   -0.0006042350140305307
-0.002772831307166412   -0.009459006547535636   -0.0006267263037094095
-0.004260642081234453   -0.009492707278755353   -0.0006737125229829403
-0.004260312500692975   -0.009463845632179805   -0.0006846078233469106
-0.0039466307306691446   -0.006886373239271168   -0.0006042350140305307
-0.002772831307166412   -0.009459006547535636   -0.0006267263037094095
-0.004260312500692975   -0.009463845632179805   -0.0006846078233469106
-0.0025159530587518467   -0.006810908372312555   -0.0005888729786822914
-0.0025136010225706   -0.006760263837919804   -0.0006377383661850303
-0.0027904013944781963   -0.009390867172821032   -0.0006661297180563416
-0.0012447005701524017   -0.00674138306401536   -0.0005920315834164576
-0.002515233383469828   -0.006788446795916644   -0.0006120116155793302
-0.0027904013944781963   -0.009390867172821032   -0.0006661297180563416
-0.0014443534977002456   -0.009382297774800388   -0.0006306432310705152
-0.0012447005701524017   -0.00674138306401536   -0.0005920315834164576
-0.0014381649560276867   -0.009396637589910092   -0.0006167834725390501
-0.002515233383469828   -0.006788446795916644   -0.0006120116155793302
-0.0012409839537688174   -0.006758966763478589   -0.0005748866814484288
-0.0014381649560276867   -0.009396637589910092   -0.0006167834725390501
-0.0012447005701524017   -0.00674138306401536   -0.0005920315834164576
-0.002515233383469828   -0.006788446795916644   -0.0006120116155793302
-0.0014381649560276867   -0.009396637589910092   -0.0006167834725390501
-0.0027881067396847785   -0.009414724025368812   -0.0006504526082300788
-0.0027904013944781963   -0.009390867172821032   -0.0006661297180563416
-0.002515233383469828   -0.006788446795916644   -0.0006120116155793302
-0.0014381649560276867   -0.009396637589910092   -0.0006167834725390501
-0.0027904013944781963   -0.009390867172821032   -0.0006661297180563416
-0.0012447005701524017   -0.00674138306401536   -0.0005920315834164576
-0.002515233383469828   -0.006788446795916644   -0.0006120116155793302
-0.0027881067396847785   -0.009414724025368812   -0.0006504526082300788
-0.0012409839537688174   -0.006758966763478589   -0.0005748866814484288
-0.0025159530587518467   -0.006810908372312555   -0.0005888729786822914
-0.0027881067396847785   -0.009414724025368812   -0.0006504526082300788
-0.0014381649560276867   -0.009396637589910092   -0.0006167834725390501
-0.0012409839537688174   -0.006758966763478589   -0.0005748866814484288
-0.00143085739698521   -0.009409893422774793   -0.0006055270382956151
-0.0025159530587518467   -0.006810908372312555   -0.0005888729786822914
-0.0012364199919521568   -0.006771743579779141   -0.0005602839777537135
-0.00143085739698521   -0.009409893422774793   -0.0006055270382956151
-0.0012409839537688174   -0.006758966763478589   -0.0005748866814484288
-0.0025159530587518467   -0.006810908372312555   -0.0005888729786822914
-0.00143085739698521   -0.009409893422774793   -0.0006055270382956151
-0.002783177354848346   -0.009436870119088975   -0.0006373829757280248
-0.0027881067396847785   -0.009414724025368812   -0.0006504526082300788
-0.0025159530587518467   -0.006810908372312555   -0.0005888729786822914
-0.00143085739698521   -0.009409893422774793   -0.0006055270382956151
-0.0027881067396847785   -0.009414724025368812   -0.0006504526082300788
-0.0012409839537688174   -0.006758966763478589   -0.0005748866814484288
-0.0025159530587518467   -0.006810908372312555   -0.0005888729786822914
-0.002783177354848346   -0.009436870119088975   -0.0006373829757280248
-0.0012364199919521568   -0.006771743579779141   -0.0005602839777537135
-0.0025093395128577556   -0.006829524243119434   -0.0005679696371299378
-0.002783177354848346   -0.009436870119088975   -0.0006373829757280248
-0.00143085739698521   -0.009409893422774793   -0.0006055270382956151
-0.0012364199919521568   -0.006771743579779141   -0.0005602839777537135
-0.0014222924373241657   -0.009422111198180871   -0.0005969425404492674
-0.0025093395128577556   -0.006829524243119434   -0.0005679696371299378
-0.0012302562537216553   -0.006779798738111099   -0.0005482706873466232
-0.0014222924373241657   -0.009422111198180871   -0.0005969425404492674
-0.0012364199919521568   -0.006771743579779141   -0.0005602839777537135
-0.0025093395128577556   -0.006829524243119434   -0.0005679696371299378
-0.0014222924373241657   -0.009422111198180871   -0.0005969425404492674
-0.002772831307166412   -0.009459006547535636   -0.0006267263037094095
-0.002783177354848346   -0.009436870119088975   -0.0006373829757280248
-0.0025093395128577556   -0.006829524243119434   -0.0005679696371299378
-0.0014222924373241657   -0.009422111198180871   -0.0005969425404492674
-0.002783177354848346   -0.009436870119088975   -0.0006373829757280248
-0.0012364199919521568   -0.006771743579779141   -0.0005602839777537135
-0.0012447005701524017   -0.00674138306401536   -0.0005920315834164576
-0.0014443534977002456   -0.009382297774800388   -0.0006306432310705152
-1.0591554194707575e-05   -0.006738013492636096   -0.0005657015338190891
-0.0012409839537688174   -0.006758966763478589   -0.0005748866814484288
-0.0014443534977002456   -0.009382297774800388   -0.0006306432310705152
-0.0001347969000156928   -0.009377212216847898   -0.0006126049687700719
-1.0591554194707575e-05   -0.006738013492636096   -0.0005657015338190891
-0.00012657362892687049   -0.009381812835453165   -0.0006007152511785445
-0.0012409839537688174   -0.006758966763478589   -0.0005748866814484288
-4.753581568455898e-06   -0.0067448984468176185   -0.0005572217790209194
-0.00012657362892687049   -0.009381812835453165   -0.0006007152511785445
-1.0591554194707575e-05   -0.006738013492636096   -0.0005657015338190891
-0.0012409839537688174   -0.006758966763478589   -0.0005748866814484288
-0.00012657362892687049   -0.009381812835453165   -0.0006007152511785445
-0.0014381649560276867   -0.009396637589910092   -0.0006167834725390501
-0.0014443534977002456   -0.009382297774800388   -0.0006306432310705152
-0.0012409839537688174   -0.006758966763478589   -0.0005748866814484288
-0.00012657362892687049   -0.009381812835453165   -0.0006007152511785445
-0.0014443534977002456   -0.009382297774800388   -0.0006306432310705152
-1.0591554194707575e-05   -0.006738013492636096   -0.0005657015338190891
-0.0012409839537688174   -0.006758966763478589   -0.0005748866814484288
-0.0014381649560276867   -0.009396637589910092   -0.0006167834725390501
-4.753581568455898e-06   -0.0067448984468176185   -0.0005572217790209194
-0.0012364199919521568   -0.006771743579779141   -0.0005602839777537135
-0.0014381649560276867   -0.009396637589910092   -0.0006167834725390501
-0.00012657362892687049   -0.009381812835453165   -0.0006007152511785445
-4.753581568455898e-06   -0.0067448984468176185   -0.0005572217790209194
-0.0001193038491831874   -0.009385246253692135   -0.000591411570014218
-0.0012364199919521568   -0.006771743579779141   -0.0005602839777537135
-2.1062244213963617e-07   -0.006746941654566071   -0.0005512568847653073
-0.0001193038491831874   -0.009385246253692135   -0.000591411570014218
-4.753581568455898e-06   -0.0067448984468176185   -0.0005572217790209194
-0.0012364199919521568   -0.006771743579779141   -0.0005602839777537135
-0.0001193038491831874   -0.009385246253692135   -0.000591411570014218
-0.00143085739698521   -0.009409893422774793   -0.0006055270382956151
-0.0014381649560276867   -0.009396637589910092   -0.0006167834725390501
-0.0012364199919521568   -0.006771743579779141   -0.0005602839777537135
-0.0001193038491831874   -0.009385246253692135   -0.000591411570014218
-0.0014381649560276867   -0.009396637589910092   -0.0006167834725390501
-4.753581568455898e-06   -0.0067448984468176185   -0.0005572217790209194
-0.0012364199919521568   -0.006771743579779141   -0.0005602839777537135
-0.00143085739698521   -0.009409893422774793   -0.0006055270382956151
-2.1062244213963617e-07   -0.006746941654566071   -0.0005512568847653073
-0.0012302562537216553   -0.006779798738111099   -0.0005482706873466232
-0.00143085739698521   -0.009409893422774793   -0.0006055270382956151
-0.0001193038491831874   -0.009385246253692135   -0.000591411570014218
-2.1062244213963617e-07   -0.006746941654566071   -0.0005512568847653073
-0.00011346428051855551   -0.009387490940975319   -0.0005847849260535961
-0.0012302562537216553   -0.006779798738111099   -0.0005482706873466232
3.1915519866005732e-06   -0.006744075561748712   -0.0005479140152262948
-0.00011346428051855551   -0.009387490940975319   -0.0005847849260535961
-2.1062244213963617e-07   -0.006746941654566071   -0.0005512568847653073
-0.0012302562537216553   -0.006779798738111099   -0.0005482706873466232
-0.00011346428051855551   -0.009387490940975319   -0.0005847849260535961
-0.0014222924373241657   -0.009422111198180871   -0.0005969425404492674
-0.00143085739698521   -0.009409893422774793   -0.0006055270382956151
-0.0012302562537216553   -0.006779798738111099   -0.0005482706873466232
-0.00011346428051855551   -0.009387490940975319   -0.0005847849260535961
-0.00143085739698521   -0.009409893422774793   -0.0006055270382956151
-2.1062244213963617e-07   -0.006746941654566071   -0.0005512568847653073
-1.0591554194707575e-05   -0.006738013492636096   -0.0005657015338190891
-0.0001347969000156928   -0.009377212216847898   -0.0006126049687700719
0.001266035183798168   -0.0067487962362773645   -0.0005586929214069518
-4.753581568455898e-06   -0.0067448984468176185   -0.0005572217790209194
-0.0001347969000156928   -0.009377212216847898   -0.0006126049687700719
0.001214470406129714   -0.00937472507411277   -0.0006122254889111505
0.001266035183798168   -0.0067487962362773645   -0.0005586929214069518
0.0012250863625956545   -0.009369856182264236   -0.0006023985693359902
-4.753581568455898e-06   -0.0067448984468176185   -0.0005572217790209194
0.0012729836119719344   -0.006745561627289249   -0.0005590501423855049
0.0012250863625956545   -0.009369856182264236   -0.0006023985693359902
0.001266035183798168   -0.0067487962362773645   -0.0005586929214069518
-4.753581568455898e-06   -0.0067448984468176185   -0.0005572217790209194
0.0012250863625956545   -0.009369856182264236   -0.0006023985693359902
-0.00012657362892687049   -0.009381812835453165   -0.0006007152511785445
-0.0001347969000156928   -0.009377212216847898   -0.0006126049687700719
-4.753581568455898e-06   -0.0067448984468176185   -0.0005572217790209194
0.0012250863625956545   -0.009369856182264236   -0.0006023985693359902
-0.0001347969000156928   -0.009377212216847898   -0.0006126049687700719
0.001266035183798168   -0.0067487962362773645   -0.0005586929214069518
-4.753581568455898e-06   -0.0067448984468176185   -0.0005572217790209194
-0.00012657362892687049   -0.009381812835453165   -0.0006007152511785445
0.0012729836119719344   -0.006745561627289249   -0.0005590501423855049
-2.1062244213963617e-07   -0.006746941654566071   -0.0005512568847653073
-0.00012657362892687049   -0.009381812835453165   -0.0006007152511785445
0.0012250863625956545   -0.009369856182264236   -0.0006023985693359902
0.0012729836119719344   -0.006745561627289249   -0.0005590501423855049
0.0012326889939889571   -0.009364401186791617   -0.0005950795048749955
-2.1062244213963617e-07   -0.006746941654566071   -0.0005512568847653073
0.0012749728477589898   -0.00673790870990988   -0.0005617831946224506
0.0012326889939889571   -0.009364401186791617   -0.0005950795048749955
0.0012729836119719344   -0.006745561627289249   -0.0005590501423855049
-2.1062244213963617e-07   -0.006746941654566071   -0.0005512568847653073
0.0012326889939889571   -0.009364401186791617   -0.0005950795048749955
-0.0001193038491831874   -0.009385246253692135   -0.000591411570014218
-0.00012657362892687049   -0.009381812835453165   -0.0006007152511785445
-2.1062244213963617e-07   -0.006746941654566071   -0.0005512568847653073
0.0012326889939889571   -0.009364401186791617   -0.0005950795048749955
-0.00012657362892687049   -0.009381812835453165   -0.0006007152511785445
0.0012729836119719344   -0.006745561627289249   -0.0005590501423855049
-2.1062244213963617e-07   -0.006746941654566071   -0.0005512568847653073
-0.0001193038491831874   -0.009385246253692135   -0.000591411570014218
0.0012749728477589898   -0.00673790870990988   -0.0005617831946224506
3.1915519866005732e-06   -0.006744075561748712   -0.0005479140152262948
-0.0001193038491831874   -0.009385246253692135   -0.000591411570014218
0.0012326889939889571   -0.009364401186791617   -0.0005950795048749955
0.0012749728477589898   -0.00673790870990988   -0.0005617831946224506
0.0012352868881475012   -0.009356640263505963   -0.0005902198809200061
3.1915519866005732e-06   -0.006744075561748712   -0.0005479140152262948
0.0012736800212358923   -0.006723973416555918   -0.0005669873814777103
0.0012352868881475012   -0.009356640263505963   -0.0005902198809200061
0.0012749728477589898   -0.00673790870990988   -0.0005617831946224506
3.1915519866005732e-06   -0.006744075561748712   -0.0005479140152262948
0.0012352868881475012   -0.009356640263505963   -0.0005902198809200061
-0.00011346428051855551   -0.009387490940975319   -0.0005847849260535961
-0.0001193038491831874   -0.009385246253692135   -0.000591411570014218
3.1915519866005732e-06   -0.006744075561748712   -0.0005479140152262948
0.0012352868881475012   -0.009356640263505963   -0.0005902198809200061
-0.0001193038491831874   -0.009385246253692135   -0.000591411570014218
0.0012749728477589898   -0.00673790870990988   -0.0005617831946224506
0.001266035183798168   -0.0067487962362773645   -0.0005586929214069518
0.001214470406129714   -0.00937472507411277   -0.0006122254889111505
0.002675601457598604   -0.006768367587519882   -0.0005670349515566936
0.0012729836119719344   -0.006745561627289249   -0.0005590501423855049
0.001214470406129714   -0.00937472507411277   -0.0006122254889111505
0.002675614300498781   -0.00937092607929691   -0.0006279390884944454
0.002675601457598604   -0.006768367587519882   -0.0005670349515566936
0.002695929136214705   -0.009358528338460086   -0.0006194199332768644
0.0012729836119719344   -0.006745561627289249   -0.0005590501423855049
0.0026754739372669427   -0.006758223920784759   -0.0005767677636075688
0.002695929136214705   -0.009358528338460086   -0.0006194199332768644
0.002675601457598604   -0.006768367587519882   -0.0005670349515566936
0.0012729836119719344   -0.006745561627289249   -0.0005590501423855049
0.002695929136214705   -0.009358528338460086   -0.0006194199332768644
0.0012250863625956545   -0.009369856182264236   -0.0006023985693359902
0.001214470406129714   -0.00937472507411277   -0.0006122254889111505
0.0012729836119719344   -0.006745561627289249   -0.0005590501423855049
0.002695929136214705   -0.009358528338460086   -0.0006194199332768644
0.001214470406129714   -0.00937472507411277   -0.0006122254889111505
0.002675601457598604   -0.006768367587519882   -0.0005670349515566936
0.0012729836119719344   -0.006745561627289249   -0.0005590501423855049
0.0012250863625956545   -0.009369856182264236   -0.0006023985693359902
0.0026754739372669427   -0.006758223920784759   -0.0005767677636075688
0.0012749728477589898   -0.00673790870990988   -0.0005617831946224506
0.0012250863625956545   -0.009369856182264236   -0.0006023985693359902
0.002695929136214705   -0.009358528338460086   -0.0006194199332768644
0.0026754739372669427   -0.006758223920784759   -0.0005767677636075688
0.002707458450946325   -0.009348862026385941   -0.0006147256110182525
0.0012749728477589898   -0.00673790870990988   -0.0005617831946224506
0.0026708368040117194   -0.006745850101338624   -0.0005903650871863035
0.002707458450946325   -0.009348862026385941   -0.0006147256110182525
0.0026754739372669427   -0.006758223920784759   -0.0005767677636075688
0.0012749728477589898   -0.00673790870990988   -0.0005617831946224506
0.002707458450946325   -0.009348862026385941   -0.0006147256110182525
0.0012326889939889571   -0.009364401186791617   -0.0005950795048749955
0.0012250863625956545   -0.009369856182264236   -0.0006023985693359902
0.0012749728477589898   -0.00673790870990988   -0.0005617831946224506
0.002707458450946325   -0.009348862026385941   -0.0006147256110182525
0.0012250863625956545   -0.009369856182264236   -0.0006023985693359902
0.0026754739372669427   -0.006758223920784759   -0.0005767677636075688
0.0012749728477589898   -0.00673790870990988   -0.0005617831946224506
0.0012326889939889571   -0.009364401186791617   -0.0005950795048749955
0.0026708368040117194   -0.006745850101338624   -0.0005903650871863035
0.0012736800212358923   -0.006723973416555918   -0.0005669873814777103
0.0012326889939889571   -0.009364401186791617   -0.0005950795048749955
0.002707458450946325   -0.009348862026385941   -0.0006147256110182525
0.0026708368040117194   -0.006745850101338624   -0.0005903650871863035
0.002711955481924048   -0.009333739750247608   -0.0006139219277858772
0.0012736800212358923   -0.006723973416555918   -0.0005669873814777103
0.0026547809309389993   -0.006722726862976196   -0.0006077986897380352
0.002711955481924048   -0.009333739750247608   -0.0006139219277858772
0.0026708368040117194   -0.006745850101338624   -0.0005903650871863035
0.0012736800212358923   -0.006723973416555918   -0.0005669873814777103
0.002711955481924048   -0.009333739750247608   -0.0006139219277858772
0.0012352868881475012   -0.009356640263505963   -0.0005902198809200061
0.0012326889939889571   -0.009364401186791617   -0.0005950795048749955
0.0012736800212358923   -0.006723973416555918   -0.0005669873814777103
0.002711955481924048   -0.009333739750247608   -0.0006139219277858772
0.0012326889939889571   -0.009364401186791617   -0.0005950795048749955
0.0026708368040117194   -0.006745850101338624   -0.0005903650871863035
-0.004239732197614068   -0.009405335601814738   -0.0007183154003818531
-0.00436439753522026   -0.012051222655743741   -0.0007077245105685828
-0.0027904013944781963   -0.009390867172821032   -0.0006661297180563416
-0.004256079295131176   -0.009437469065981096   -0.0006995871944734484
-0.00436439753522026   -0.012051222655743741   -0.0007077245105685828
-0.002921277557661189   -0.012058365958071925   -0.0006695168245698124
-0.0027904013944781963   -0.009390867172821032   -0.0006661297180563416
-0.0029126915240620336   -0.012077873616563938   -0.0006636377868703389
-0.004256079295131176   -0.009437469065981096   -0.0006995871944734484
-0.0027881067396847785   -0.009414724025368812   -0.0006504526082300788
-0.0029126915240620336   -0.012077873616563938   -0.0006636377868703389
-0.0027904013944781963   -0.009390867172821032   -0.0006661297180563416
-0.004256079295131176   -0.009437469065981096   -0.0006995871944734484
-0.0029126915240620336   -0.012077873616563938   -0.0006636377868703389
-0.004358167683804449   -0.01207737226657314   -0.0007069410765611885
-0.00436439753522026   -0.012051222655743741   -0.0007077245105685828
-0.004256079295131176   -0.009437469065981096   -0.0006995871944734484
-0.0029126915240620336   -0.012077873616563938   -0.0006636377868703389
-0.00436439753522026   -0.012051222655743741   -0.0007077245105685828
-0.0027904013944781963   -0.009390867172821032   -0.0006661297180563416
-0.004256079295131176   -0.009437469065981096   -0.0006995871944734484
-0.004358167683804449   -0.01207737226657314   -0.0007069410765611885
-0.0027881067396847785   -0.009414724025368812   -0.0006504526082300788
-0.004260312500692975   -0.009463845632179805   -0.0006846078233469106
-0.004358167683804449   -0.01207737226657314   -0.0007069410765611885
-0.0029126915240620336   -0.012077873616563938   -0.0006636377868703389
-0.0027881067396847785   -0.009414724025368812   -0.0006504526082300788
-0.002899771140561806   -0.01209966067839582   -0.0006604104875321529
-0.004260312500692975   -0.009463845632179805   -0.0006846078233469106
-0.002783177354848346   -0.009436870119088975   -0.0006373829757280248
-0.002899771140561806   -0.01209966067839582   -0.0006604104875321529
-0.0027881067396847785   -0.009414724025368812   -0.0006504526082300788
-0.004260312500692975   -0.009463845632179805   -0.0006846078233469106
-0.002899771140561806   -0.01209966067839582   -0.0006604104875321529
-0.004343884445789617   -0.01210297274366899   -0.0007101161316991593
-0.004358167683804449   -0.01207737226657314   -0.0007069410765611885
-0.004260312500692975   -0.009463845632179805   -0.0006846078233469106
-0.002899771140561806   -0.01209966067839582   -0.0006604104875321529
-0.004358167683804449   -0.01207737226657314   -0.0007069410765611885
-0.0027881067396847785   -0.009414724025368812   -0.0006504526082300788
-0.004260312500692975   -0.009463845632179805   -0.0006846078233469106
-0.004343884445789617   -0.01210297274366899   -0.0007101161316991593
-0.002783177354848346   -0.009436870119088975   -0.0006373829757280248
-0.004260642081234453   -0.009492707278755353   -0.0006737125229829403
-0.004343884445789617   -0.01210297274366899   -0.0007101161316991593
-0.002899771140561806   -0.01209966067839582   -0.0006604104875321529
-0.002783177354848346   -0.009436870119088975   -0.0006373829757280248
-0.0028833195975094196   -0.012125239499724928   -0.0006597793356284189
-0.004260642081234453   -0.009492707278755353   -0.0006737125229829403
-0.002772831307166412   -0.009459006547535636   -0.0006267263037094095
-0.0028833195975094196   -0.012125239499724928   -0.0006597793356284189
-0.002783177354848346   -0.009436870119088975   -0.0006373829757280248
-0.004260642081234453   -0.009492707278755353   -0.0006737125229829403
-0.0028833195975094196   -0.012125239499724928   -0.0006597793356284189
-0.004321351958916144   -0.012136137698875489   -0.0007174657159952261
-0.004343884445789617   -0.01210297274366899   -0.0007101161316991593
-0.004260642081234453   -0.009492707278755353   -0.0006737125229829403
-0.0028833195975094196   -0.012125239499724928   -0.0006597793356284189
-0.004343884445789617   -0.01210297274366899   -0.0007101161316991593
-0.002783177354848346   -0.009436870119088975   -0.0006373829757280248
-0.0027904013944781963   -0.009390867172821032   -0.0006661297180563416
-0.002921277557661189   -0.012058365958071925   -0.0006695168245698124
-0.0014443534977002456   -0.009382297774800388   -0.0006306432310705152
-0.0027881067396847785   -0.009414724025368812   -0.0006504526082300788
-0.002921277557661189   -0.012058365958071925   -0.0006695168245698124
-0.0015986621898053054   -0.012059730003470787   -0.000644169349841782
-0.0014443534977002456   -0.009382297774800388   -0.0006306432310705152
-0.0015874916364356348   -0.012070820648357508   -0.0006334701738737288
-0.0027881067396847785   -0.009414724025368812   -0.0006504526082300788
-0.0014381649560276867   -0.009396637589910092   -0.0006167834725390501
-0.0015874916364356348   -0.012070820648357508   -0.0006334701738737288
-0.0014443534977002456   -0.009382297774800388   -0.0006306432310705152
-0.0027881067396847785   -0.009414724025368812   -0.0006504526082300788
-0.0015874916364356348   -0.012070820648357508   -0.0006334701738737288
-0.0029126915240620336   -0.012077873616563938   -0.0006636377868703389
-0.002921277557661189   -0.012058365958071925   -0.0006695168245698124
-0.0027881067396847785   -0.009414724025368812   -0.0006504526082300788
-0.0015874916364356348   -0.012070820648357508   -0.0006334701738737288
-0.002921277557661189   -0.012058365958071925   -0.0006695168245698124
-0.0014443534977002456   -0.009382297774800388   -0.0006306432310705152
-0.0027881067396847785   -0.009414724025368812   -0.0006504526082300788
-0.0029126915240620336   -0.012077873616563938   -0.0006636377868703389
-0.0014381649560276867   -0.009396637589910092   -0.0006167834725390501
-0.002783177354848346   -0.009436870119088975   -0.0006373829757280248
-0.0029126915240620336   -0.012077873616563938   -0.0006636377868703389
-0.0015874916364356348   -0.012070820648357508   -0.0006334701738737288
-0.0014381649560276867   -0.009396637589910092   -0.0006167834725390501
-0.0015749936212079733   -0.012084466973412535   -0.0006254279655417815
-0.002783177354848346   -0.009436870119088975   -0.0006373829757280248
-0.00143085739698521   -0.009409893422774793   -0.0006055270382956151
-0.0015749936212079733   -0.012084466973412535   -0.0006254279655417815
-0.0014381649560276867   -0.009396637589910092   -0.0006167834725390501
-0.002783177354848346   -0.009436870119088975   -0.0006373829757280248
-0.0015749936212079733   -0.012084466973412535   -0.0006254279655417815
-0.002899771140561806   -0.01209966067839582   -0.0006604104875321529
-0.0029126915240620336   -0.012077873616563938   -0.0006636377868703389
-0.002783177354848346   -0.009436870119088975   -0.0006373829757280248
-0.0015749936212079733   -0.012084466973412535   -0.0006254279655417815
-0.0029126915240620336   -0.012077873616563938   -0.0006636377868703389
-0.0014381649560276867   -0.009396637589910092   -0.0006167834725390501
-0.002783177354848346   -0.009436870119088975   -0.0006373829757280248
-0.002899771140561806   -0.01209966067839582   -0.0006604104875321529
-0.00143085739698521   -0.009409893422774793   -0.0006055270382956151
-0.002772831307166412   -0.009459006547535636   -0.0006267263037094095
-0.002899771140561806   -0.01209966067839582   -0.0006604104875321529
-0.0015749936212079733   -0.012084466973412535   -0.0006254279655417815
-0.00143085739698521   -0.009409893422774793   -0.0006055270382956151
-0.0015615755868915874   -0.01210071189218373   -0.0006201354986676655
-0.002772831307166412   -0.009459006547535636   -0.0006267263037094095
-0.0014222924373241657   -0.009422111198180871   -0.0005969425404492674
-0.0015615755868915874   -0.01210071189218373   -0.0006201354986676655
-0.00143085739698521   -0.009409893422774793   -0.0006055270382956151
-0.002772831307166412   -0.009459006547535636   -0.0006267263037094095
-0.0015615755868915874   -0.01210071189218373   -0.0006201354986676655
-0.0028833195975094196   -0.012125239499724928   -0.0006597793356284189
-0.002899771140561806   -0.01209966067839582   -0.0006604104875321529
-0.002772831307166412   -0.009459006547535636   -0.0006267263037094095
-0.0015615755868915874   -0.01210071189218373   -0.0006201354986676655
-0.002899771140561806   -0.01209966067839582   -0.0006604104875321529
-0.00143085739698521   -0.009409893422774793   -0.0006055270382956151
-0.0014443534977002456   -0.009382297774800388   -0.0006306432310705152
-0.0015986621898053054   -0.012059730003470787   -0.000644169349841782
-0.0001347969000156928   -0.009377212216847898   -0.0006126049687700719
-0.0014381649560276867   -0.009396637589910092   -0.0006167834725390501
-0.0015986621898053054   -0.012059730003470787   -0.000644169349841782
-0.0003133015068689157   -0.012052495220815992   -0.0006341760143450491
-0.0001347969000156928   -0.009377212216847898   -0.0006126049687700719
-0.00030020603333495965   -0.012054838397959487   -0.0006188989455902549
-0.0014381649560276867   -0.009396637589910092   -0.0006167834725390501
-0.00012657362892687049   -0.009381812835453165   -0.0006007152511785445
-0.00030020603333495965   -0.012054838397959487   -0.0006188989455902549
-0.0001347969000156928   -0.009377212216847898   -0.0006126049687700719
-0.0014381649560276867   -0.009396637589910092   -0.0006167834725390501
-0.00030020603333495965   -0.012054838397959487   -0.0006188989455902549
-0.0015874916364356348   -0.012070820648357508   -0.0006334701738737288
-0.0015986621898053054   -0.012059730003470787   -0.000644169349841782
-0.0014381649560276867   -0.009396637589910092   -0.0006167834725390501
-0.00030020603333495965   -0.012054838397959487   -0.0006188989455902549
-0.0015986621898053054   -0.012059730003470787   -0.000644169349841782
-0.0001347969000156928   -0.009377212216847898   -0.0006126049687700719
-0.0014381649560276867   -0.009396637589910092   -0.0006167834725390501
-0.0015874916364356348   -0.012070820648357508   -0.0006334701738737288
-0.00012657362892687049   -0.009381812835453165   -0.0006007152511785445
-0.00143085739698521   -0.009409893422774793   -0.0006055270382956151
-0.0015874916364356348   -0.012070820648357508   -0.0006334701738737288
-0.00030020603333495965   -0.012054838397959487   -0.0006188989455902549
-0.00012657362892687049   -0.009381812835453165   -0.0006007152511785445
-0.0002877756593492465   -0.012059552535323016   -0.0006062655075736508
-0.00143085739698521   -0.009409893422774793   -0.0006055270382956151
-0.0001193038491831874   -0.009385246253692135   -0.000591411570014218
-0.0002877756593492465   -0.012059552535323016   -0.0006062655075736508
-0.00012657362892687049   -0.009381812835453165   -0.0006007152511785445
-0.00143085739698521   -0.009409893422774793   -0.0006055270382956151
-0.0002877756593492465   -0.012059552535323016   -0.0006062655075736508
-0.0015749936212079733   -0.012084466973412535   -0.0006254279655417815
-0.0015874916364356348   -0.012070820648357508   -0.0006334701738737288
-0.00143085739698521   -0.009409893422774793   -0.0006055270382956151
-0.0002877756593492465   -0.012059552535323016   -0.0006062655075736508
-0.0015874916364356348   -0.012070820648357508   -0.0006334701738737288
-0.00012657362892687049   -0.009381812835453165   -0.0006007152511785445
-0.00143085739698521   -0.009409893422774793   -0.0006055270382956151
-0.0015749936212079733   -0.012084466973412535   -0.0006254279655417815
-0.0001193038491831874   -0.009385246253692135   -0.000591411570014218
-0.0014222924373241657   -0.009422111198180871   -0.0005969425404492674
-0.0015749936212079733   -0.012084466973412535   -0.0006254279655417815
-0.0002877756593492465   -0.012059552535323016   -0.0006062655075736508
-0.0001193038491831874   -0.009385246253692135   -0.000591411570014218
-0.000277078382350945   -0.012066737973782769   -0.0005963650661263574
-0.0014222924373241657   -0.009422111198180871   -0.0005969425404492674
-0.00011346428051855551   -0.009387490940975319   -0.0005847849260535961
-0.000277078382350945   -0.012066737973782769   -0.0005963650661263574
-0.0001193038491831874   -0.009385246253692135   -0.000591411570014218
-0.0014222924373241657   -0.009422111198180871   -0.0005969425404492674
-0.000277078382350945   -0.012066737973782769   -0.0005963650661263574
-0.0015615755868915874   -0.01210071189218373   -0.0006201354986676655
-0.0015749936212079733   -0.012084466973412535   -0.0006254279655417815
-0.0014222924373241657   -0.009422111198180871   -0.0005969425404492674
-0.000277078382350945   -0.012066737973782769   -0.0005963650661263574
-0.0015749936212079733   -0.012084466973412535   -0.0006254279655417815
-0.0001193038491831874   -0.009385246253692135   -0.000591411570014218
-0.0001347969000156928   -0.009377212216847898   -0.0006126049687700719
-0.0003133015068689157   -0.012052495220815992   -0.0006341760143450491
0.001214470406129714   -0.00937472507411277   -0.0006122254889111505
-0.00012657362892687049   -0.009381812835453165   -0.0006007152511785445
-0.0003133015068689157   -0.012052495220815992   -0.0006341760143450491
0.0010100784920603274   -0.012036517195062409   -0.0006400716303853832
0.001214470406129714   -0.00937472507411277   -0.0006122254889111505
0.001026660505940617   -0.012030058099011712   -0.0006202761630098298
-0.00012657362892687049   -0.009381812835453165   -0.0006007152511785445
0.0012250863625956545   -0.009369856182264236   -0.0006023985693359902
0.001026660505940617   -0.012030058099011712   -0.0006202761630098298
0.001214470406129714   -0.00937472507411277   -0.0006122254889111505
-0.00012657362892687049   -0.009381812835453165   -0.0006007152511785445
0.001026660505940617   -0.012030058099011712   -0.0006202761630098298
-0.00030020603333495965   -0.012054838397959487   -0.0006188989455902549
-0.0003133015068689157   -0.012052495220815992   -0.0006341760143450491
-0.00012657362892687049   -0.009381812835453165   -0.0006007152511785445
0.001026660505940617   -0.012030058099011712   -0.0006202761630098298
-0.0003133015068689157   -0.012052495220815992   -0.0006341760143450491
0.001214470406129714   -0.00937472507411277   -0.0006122254889111505
-0.00012657362892687049   -0.009381812835453165   -0.0006007152511785445
-0.00030020603333495965   -0.012054838397959487   -0.0006188989455902549
0.0012250863625956545   -0.009369856182264236   -0.0006023985693359902
-0.0001193038491831874   -0.009385246253692135   -0.000591411570014218
-0.00030020603333495965   -0.012054838397959487   -0.0006188989455902549
0.001026660505940617   -0.012030058099011712   -0.0006202761630098298
0.0012250863625956545   -0.009369856182264236   -0.0006023985693359902
0.001042135708607582   -0.012026682620713363   -0.0006031129427941555
-0.0001193038491831874   -0.009385246253692135   -0.000591411570014218
0.0012326889939889571   -0.009364401186791617   -0.0005950795048749955
0.001042135708607582   -0.012026682620713363   -0.0006031129427941555
0.0012250863625956545   -0.009369856182264236   -0.0006023985693359902
-0.0001193038491831874   -0.009385246253692135   -0.000591411570014218
0.001042135708607582   -0.012026682620713363   -0.0006031129427941555
-0.0002877756593492465   -0.012059552535323016   -0.0006062655075736508
-0.00030020603333495965   -0.012054838397959487   -0.0006188989455902549
-0.0001193038491831874   -0.009385246253692135   -0.000591411570014218
0.001042135708607582   -0.012026682620713363   -0.0006031129427941555
-0.00030020603333495965   -0.012054838397959487   -0.0006188989455902549
0.0012250863625956545   -0.009369856182264236   -0.0006023985693359902
-0.0001193038491831874   -0.009385246253692135   -0.000591411570014218
-0.0002877756593492465   -0.012059552535323016   -0.0006062655075736508
0.0012326889939889571   -0.009364401186791617   -0.0005950795048749955
-0.00011346428051855551   -0.009387490940975319   -0.0005847849260535961
-0.0002877756593492465   -0.012059552535323016   -0.0006062655075736508
0.001042135708607582   -0.012026682620713363   -0.0006031129427941555
0.0012326889939889571   -0.009364401186791617   -0.0005950795048749955
0.0010508770350313422   -0.012024850237420184   -0.0005884100516062838
-0.00011346428051855551   -0.009387490940975319   -0.0005847849260535961
0.0012352868881475012   -0.009356640263505963   -0.0005902198809200061
0.0010508770350313422   -0.012024850237420184   -0.0005884100516062838
0.0012326889939889571   -0.009364401186791617   -0.0005950795048749955
-0.00011346428051855551   -0.009387490940975319   -0.0005847849260535961
0.0010508770350313422   -0.012024850237420184   -0.0005884100516062838
-0.000277078382350945   -0.012066737973782769   -0.0005963650661263574
-0.0002877756593492465   -0.012059552535323016   -0.0006062655075736508
-0.00011346428051855551   -0.009387490940975319   -0.0005847849260535961
0.0010508770350313422   -0.012024850237420184   -0.0005884100516062838
-0.0002877756593492465   -0.012059552535323016   -0.0006062655075736508
0.0012326889939889571   -0.009364401186791617   -0.0005950795048749955
0.001214470406129714   -0.00937472507411277   -0.0006122254889111505
0.0010100784920603274   -0.012036517195062409   -0.0006400716303853832
0.002675614300498781   -0.00937092607929691   -0.0006279390884944454
0.0012250863625956545   -0.009369856182264236   -0.0006023985693359902
0.0010100784920603274   -0.012036517195062409   -0.0006400716303853832
0.002425042193075722   -0.012009478370110037   -0.0006628333289501098
0.002675614300498781   -0.00937092607929691   -0.0006279390884944454
0.002467591592862148   -0.011994996794638545   -0.0006366351014859932
0.0012250863625956545   -0.009369856182264236   -0.0006023985693359902
0.002695929136214705   -0.009358528338460086   -0.0006194199332768644
0.002467591592862148   -0.011994996794638545   -0.0006366351014859932
0.002675614300498781   -0.00937092607929691   -0.0006279390884944454
0.0012250863625956545   -0.009369856182264236   -0.0006023985693359902
0.002467591592862148   -0.011994996794638545   -0.0006366351014859932
0.001026660505940617   -0.012030058099011712   -0.0006202761630098298
0.0010100784920603274   -0.012036517195062409   -0.0006400716303853832
0.0012250863625956545   -0.009369856182264236   -0.0006023985693359902
0.002467591592862148   -0.011994996794638545   -0.0006366351014859932
0.0010100784920603274   -0.012036517195062409   -0.0006400716303853832
0.002675614300498781   -0.00937092607929691   -0.0006279390884944454
0.0012250863625956545   -0.009369856182264236   -0.0006023985693359902
0.001026660505940617   -0.012030058099011712   -0.0006202761630098298
0.002695929136214705   -0.009358528338460086   -0.0006194199332768644
0.0012326889939889571   -0.009364401186791617   -0.0005950795048749955
0.001026660505940617   -0.012030058099011712   -0.0006202761630098298
0.002467591592862148   -0.011994996794638545   -0.0006366351014859932
0.002695929136214705   -0.009358528338460086   -0.0006194199332768644
0.002497205501180079   -0.01198795192084186   -0.0006142011504843857
0.0012326889939889571   -0.009364401186791617   -0.0005950795048749955
0.002707458450946325   -0.009348862026385941   -0.0006147256110182525
0.002497205501180079   -0.01198795192084186   -0.0006142011504843857
0.002695929136214705   -0.009358528338460086   -0.0006194199332768644
0.0012326889939889571   -0.009364401186791617   -0.0005950795048749955
0.002497205501180079   -0.01198795192084186   -0.0006142011504843857
0.001042135708607582   -0.012026682620713363   -0.0006031129427941555
0.001026660505940617   -0.012030058099011712   -0.0006202761630098298
0.0012326889939889571   -0.009364401186791617   -0.0005950795048749955
0.002497205501180079   -0.01198795192084186   -0.0006142011504843857
0.001026660505940617   -0.012030058099011712   -0.0006202761630098298
0.002695929136214705   -0.009358528338460086   -0.0006194199332768644
0.0012326889939889571   -0.009364401186791617   -0.0005950795048749955
0.001042135708607582   -0.012026682620713363   -0.0006031129427941555
0.002707458450946325   -0.009348862026385941   -0.0006147256110182525
0.0012352868881475012   -0.009356640263505963   -0.0005902198809200061
0.001042135708607582   -0.012026682620713363   -0.0006031129427941555
0.002497205501180079   -0.01198795192084186   -0.0006142011504843857
0.002707458450946325   -0.009348862026385941   -0.0006147256110182525
0.0025239971687886073   -0.011980551353635235   -0.0005956916020061179
0.0012352868881475012   -0.009356640263505963   -0.0005902198809200061
0.002711955481924048   -0.009333739750247608   -0.0006139219277858772
0.0025239971687886073   -0.011980551353635235   -0.0005956916020061179
0.002707458450946325   -0.009348862026385941   -0.0006147256110182525
0.0012352868881475012   -0.009356640263505963   -0.0005902198809200061
0.0025239971687886073   -0.011980551353635235   -0.0005956916020061179
0.0010508770350313422   -0.012024850237420184   -0.0005884100516062838
0.001042135708607582   -0.012026682620713363   -0.0006031129427941555
0.0012352868881475012   -0.009356640263505963   -0.0005902198809200061
0.0025239971687886073   -0.011980551353635235   -0.0005956916020061179
0.001042135708607582   -0.012026682620713363   -0.0006031129427941555
0.002707458450946325   -0.009348862026385941   -0.0006147256110182525
-0.00436439753522026   -0.012051222655743741   -0.0007077245105685828
-0.0042430965120624125   -0.014568824259457802   -0.0006779337913743154
-0.002921277557661189   -0.012058365958071925   -0.0006695168245698124
-0.004358167683804449   -0.01207737226657314   -0.0007069410765611885
-0.0042430965120624125   -0.014568824259457802   -0.0006779337913743154
-0.002907995485771528   -0.014597713185727414   -0.0006552110590167177
-0.002921277557661189   -0.012058365958071925   -0.0006695168245698124
-0.0028908470173736366   -0.014612174779363406   -0.0006587797773178389
-0.004358167683804449   -0.01207737226657314   -0.0007069410765611885
-0.0029126915240620336   -0.012077873616563938   -0.0006636377868703389
-0.0028908470173736366   -0.014612174779363406   -0.0006587797773178389
-0.002921277557661189   -0.012058365958071925   -0.0006695168245698124
-0.004358167683804449   -0.01207737226657314   -0.0007069410765611885
-0.0028908470173736366   -0.014612174779363406   -0.0006587797773178389
-0.004212083328525429   -0.014588367239607564   -0.0006949379619400744
-0.0042430965120624125   -0.014568824259457802   -0.0006779337913743154
-0.004358167683804449   -0.01207737226657314   -0.0007069410765611885
-0.0028908470173736366   -0.014612174779363406   -0.0006587797773178389
-0.0042430965120624125   -0.014568824259457802   -0.0006779337913743154
-0.002921277557661189   -0.012058365958071925   -0.0006695168245698124
-0.004358167683804449   -0.01207737226657314   -0.0007069410765611885
-0.004212083328525429   -0.014588367239607564   -0.0006949379619400744
-0.0029126915240620336   -0.012077873616563938   -0.0006636377868703389
-0.004343884445789617   -0.01210297274366899   -0.0007101161316991593
-0.004212083328525429   -0.014588367239607564   -0.0006949379619400744
-0.0028908470173736366   -0.014612174779363406   -0.0006587797773178389
-0.0029126915240620336   -0.012077873616563938   -0.0006636377868703389
-0.002867784428555631   -0.014632980902815082   -0.0006650342996516235
-0.004343884445789617   -0.01210297274366899   -0.0007101161316991593
-0.002899771140561806   -0.01209966067839582   -0.0006604104875321529
-0.002867784428555631   -0.014632980902815082   -0.0006650342996516235
-0.0029126915240620336   -0.012077873616563938   -0.0006636377868703389
-0.004343884445789617   -0.01210297274366899   -0.0007101161316991593
-0.002867784428555631   -0.014632980902815082   -0.0006650342996516235
-0.004177013507551976   -0.014612626198767858   -0.0007161603588576553
-0.004212083328525429   -0.014588367239607564   -0.0006949379619400744
-0.004343884445789617   -0.01210297274366899   -0.0007101161316991593
-0.002867784428555631   -0.014632980902815082   -0.0006650342996516235
-0.004212083328525429   -0.014588367239607564   -0.0006949379619400744
-0.0029126915240620336   -0.012077873616563938   -0.0006636377868703389
-0.004343884445789617   -0.01210297274366899   -0.0007101161316991593
-0.004177013507551976   -0.014612626198767858   -0.0007161603588576553
-0.002899771140561806   -0.01209966067839582   -0.0006604104875321529
-0.004321351958916144   -0.012136137698875489   -0.0007174657159952261
-0.004177013507551976   -0.014612626198767858   -0.0007161603588576553
-0.002867784428555631   -0.014632980902815082   -0.0006650342996516235
-0.002899771140561806   -0.01209966067839582   -0.0006604104875321529
-0.002843108527073872   -0.01466141131273996   -0.000674042969391042
-0.004321351958916144   -0.012136137698875489   -0.0007174657159952261
-0.0028833195975094196   -0.012125239499724928   -0.0006597793356284189
-0.002843108527073872   -0.01466141131273996   -0.000674042969391042
-0.002899771140561806   -0.01209966067839582   -0.0006604104875321529
-0.004321351958916144   -0.012136137698875489   -0.0007174657159952261
-0.002843108527073872   -0.01466141131273996   -0.000674042969391042
-0.004129497124162844   -0.01464969328653824   -0.0007416955679029569
-0.004177013507551976   -0.014612626198767858   -0.0007161603588576553
-0.004321351958916144   -0.012136137698875489   -0.0007174657159952261
-0.002843108527073872   -0.01466141131273996   -0.000674042969391042
-0.004177013507551976   -0.014612626198767858   -0.0007161603588576553
-0.002899771140561806   -0.01209966067839582   -0.0006604104875321529
-0.002921277557661189   -0.012058365958071925   -0.0006695168245698124
-0.002907995485771528   -0.014597713185727414   -0.0006552110590167177
-0.0015986621898053054   -0.012059730003470787   -0.000644169349841782
-0.0029126915240620336   -0.012077873616563938   -0.0006636377868703389
-0.002907995485771528   -0.014597713185727414   -0.0006552110590167177
-0.0017094263821379589   -0.01460887222200726   -0.0006407346989980873
-0.0015986621898053054   -0.012059730003470787   -0.000644169349841782
-0.0016908387606340205   -0.014616296005743134   -0.0006329312766056569
-0.0029126915240620336   -0.012077873616563938   -0.0006636377868703389
-0.0015874916364356348   -0.012070820648357508   -0.0006334701738737288
-0.0016908387606340205   -0.014616296005743134   -0.0006329312766056569
-0.0015986621898053054   -0.012059730003470787   -0.000644169349841782
-0.0029126915240620336   -0.012077873616563938   -0.0006636377868703389
-0.0016908387606340205   -0.014616296005743134   -0.0006329312766056569
-0.0028908470173736366   -0.014612174779363406   -0.0006587797773178389
-0.002907995485771528   -0.014597713185727414   -0.0006552110590167177
-0.0029126915240620336   -0.012077873616563938   -0.0006636377868703389
-0.0016908387606340205   -0.014616296005743134   -0.0006329312766056569
-0.002907995485771528   -0.014597713185727414   -0.0006552110590167177
-0.0015986621898053054   -0.012059730003470787   -0.000644169349841782
-0.0029126915240620336   -0.012077873616563938   -0.0006636377868703389
-0.0028908470173736366   -0.014612174779363406   -0.0006587797773178389
-0.0015874916364356348   -0.012070820648357508   -0.0006334701738737288
-0.002899771140561806   -0.01209966067839582   -0.0006604104875321529
-0.0028908470173736366   -0.014612174779363406   -0.0006587797773178389
-0.0016908387606340205   -0.014616296005743134   -0.0006329312766056569
-0.0015874916364356348   -0.012070820648357508   -0.0006334701738737288
-0.001670877435594035   -0.014629801976687446   -0.0006277788835132182
-0.002899771140561806   -0.01209966067839582   -0.0006604104875321529
-0.0015749936212079733   -0.012084466973412535   -0.0006254279655417815
-0.001670877435594035   -0.014629801976687446   -0.0006277788835132182
-0.0015874916364356348   -0.012070820648357508   -0.0006334701738737288
-0.002899771140561806   -0.01209966067839582   -0.0006604104875321529
-0.001670877435594035   -0.014629801976687446   -0.0006277788835132182
-0.002867784428555631   -0.014632980902815082   -0.0006650342996516235
-0.0028908470173736366   -0.014612174779363406   -0.0006587797773178389
-0.002899771140561806   -0.01209966067839582   -0.0006604104875321529
-0.001670877435594035   -0.014629801976687446   -0.0006277788835132182
-0.0028908470173736366   -0.014612174779363406   -0.0006587797773178389
-0.0015874916364356348   -0.012070820648357508   -0.0006334701738737288
-0.002899771140561806   -0.01209966067839582   -0.0006604104875321529
-0.002867784428555631   -0.014632980902815082   -0.0006650342996516235
-0.0015749936212079733   -0.012084466973412535   -0.0006254279655417815
-0.0028833195975094196   -0.012125239499724928   -0.0006597793356284189
-0.002867784428555631   -0.014632980902815082   -0.0006650342996516235
-0.001670877435594035   -0.014629801976687446   -0.0006277788835132182
-0.0015749936212079733   -0.012084466973412535   -0.0006254279655417815
-0.0016503613372243352   -0.014649551941801234   -0.0006254140833246855
-0.0028833195975094196   -0.012125239499724928   -0.0006597793356284189
-0.0015615755868915874   -0.01210071189218373   -0.0006201354986676655
-0.0016503613372243352   -0.014649551941801234   -0.0006254140833246855
-0.0015749936212079733   -0.012084466973412535   -0.0006254279655417815
-0.0028833195975094196   -0.012125239499724928   -0.0006597793356284189
-0.0016503613372243352   -0.014649551941801234   -0.0006254140833246855
-0.002843108527073872   -0.01466141131273996   -0.000674042969391042
-0.002867784428555631   -0.014632980902815082   -0.0006650342996516235
-0.0028833195975094196   -0.012125239499724928   -0.0006597793356284189
-0.0016503613372243352   -0.014649551941801234   -0.0006254140833246855
-0.002867784428555631   -0.014632980902815082   -0.0006650342996516235
-0.0015749936212079733   -0.012084466973412535   -0.0006254279655417815
-0.0015986621898053054   -0.012059730003470787   -0.000644169349841782
-0.0017094263821379589   -0.01460887222200726   -0.0006407346989980873
-0.0003133015068689157   -0.012052495220815992   -0.0006341760143450491
-0.0015874916364356348   -0.012070820648357508   -0.0006334701738737288
-0.0017094263821379589   -0.01460887222200726   -0.0006407346989980873
-0.000546862116644255   -0.014599768672315105   -0.0006388098882171032
-0.0003133015068689157   -0.012052495220815992   -0.0006341760143450491
-0.0005263179131923208   -0.014599700508421458   -0.0006200243668917732
-0.0015874916364356348   -0.012070820648357508   -0.0006334701738737288
-0.00030020603333495965   -0.012054838397959487   -0.0006188989455902549
-0.0005263179131923208   -0.014599700508421458   -0.0006200243668917732
-0.0003133015068689157   -0.012052495220815992   -0.0006341760143450491
-0.0015874916364356348   -0.012070820648357508   -0.0006334701738737288
-0.0005263179131923208   -0.014599700508421458   -0.0006200243668917732
-0.0016908387606340205   -0.014616296005743134   -0.0006329312766056569
-0.0017094263821379589   -0.01460887222200726   -0.0006407346989980873
-0.0015874916364356348   -0.012070820648357508   -0.0006334701738737288
-0.0005263179131923208   -0.014599700508421458   -0.0006200243668917732
-0.0017094263821379589   -0.01460887222200726   -0.0006407346989980873
-0.0003133015068689157   -0.012052495220815992   -0.0006341760143450491
-0.0015874916364356348   -0.012070820648357508   -0.0006334701738737288
-0.0016908387606340205   -0.014616296005743134   -0.0006329312766056569
-0.00030020603333495965   -0.012054838397959487   -0.0006188989455902549
-0.0015749936212079733   -0.012084466973412535   -0.0006254279655417815
-0.0016908387606340205   -0.014616296005743134   -0.0006329312766056569
-0.0005263179131923208   -0.014599700508421458   -0.0006200243668917732
-0.00030020603333495965   -0.012054838397959487   -0.0006188989455902549
-0.0005062892162782052   -0.014605295446119772   -0.0006039011019214695
-0.0015749936212079733   -0.012084466973412535   -0.0006254279655417815
-0.0002877756593492465   -0.012059552535323016   -0.0006062655075736508
-0.0005062892162782052   -0.014605295446119772   -0.0006039011019214695
-0.00030020603333495965   -0.012054838397959487   -0.0006188989455902549
-0.0015749936212079733   -0.012084466973412535   -0.0006254279655417815
-0.0005062892162782052   -0.014605295446119772   -0.0006039011019214695
-0.001670877435594035   -0.014629801976687446   -0.0006277788835132182
-0.0016908387606340205   -0.014616296005743134   -0.0006329312766056569
-0.0015749936212079733   -0.012084466973412535   -0.0006254279655417815
-0.0005062892162782052   -0.014605295446119772   -0.0006039011019214695
-0.0016908387606340205   -0.014616296005743134   -0.0006329312766056569
-0.00030020603333495965   -0.012054838397959487   -0.0006188989455902549
-0.0015749936212079733   -0.012084466973412535   -0.0006254279655417815
-0.001670877435594035   -0.014629801976687446   -0.0006277788835132182
-0.0002877756593492465   -0.012059552535323016   -0.0006062655075736508
-0.0015615755868915874   -0.01210071189218373   -0.0006201354986676655
-0.001670877435594035   -0.014629801976687446   -0.0006277788835132182
-0.0005062892162782052   -0.014605295446119772   -0.0006039011019214695
-0.0002877756593492465   -0.012059552535323016   -0.0006062655075736508
-0.0004883521856454215   -0.014616995298987322   -0.0005905305273022529
-0.0015615755868915874   -0.01210071189218373   -0.0006201354986676655
-0.000277078382350945   -0.012066737973782769   -0.0005963650661263574
-0.0004883521856454215   -0.014616995298987322   -0.0005905305273022529
-0.0002877756593492465   -0.012059552535323016   -0.0006062655075736508
-0.0015615755868915874   -0.01210071189218373   -0.0006201354986676655
-0.0004883521856454215   -0.014616995298987322   -0.0005905305273022529
-0.0016503613372243352   -0.014649551941801234   -0.0006254140833246855
-0.001670877435594035   -0.014629801976687446   -0.0006277788835132182
-0.0015615755868915874   -0.01210071189218373   -0.0006201354986676655
-0.0004883521856454215   -0.014616995298987322   -0.0005905305273022529
-0.001670877435594035   -0.014629801976687446   -0.0006277788835132182
-0.0002877756593492465   -0.012059552535323016   -0.0006062655075736508
-0.0003133015068689157   -0.012052495220815992   -0.0006341760143450491
-0.000546862116644255   -0.014599768672315105   -0.0006388098882171032
0.0010100784920603274   -0.012036517195062409   -0.0006400716303853832
-0.00030020603333495965   -0.012054838397959487   -0.0006188989455902549
-0.000546862116644255   -0.014599768672315105   -0.0006388098882171032
0.0006545140164916742   -0.014570882185034146   -0.0006504130147340995
0.0010100784920603274   -0.012036517195062409   -0.0006400716303853832
0.0006796595150799397   -0.014562813437229111   -0.0006207246083347498
-0.00030020603333495965   -0.012054838397959487   -0.0006188989455902549
0.001026660505940617   -0.012030058099011712   -0.0006202761630098298
0.0006796595150799397   -0.014562813437229111   -0.0006207246083347498
0.0010100784920603274   -0.012036517195062409   -0.0006400716303853832
-0.00030020603333495965   -0.012054838397959487   -0.0006188989455902549
0.0006796595150799397   -0.014562813437229111   -0.0006207246083347498
-0.0005263179131923208   -0.014599700508421458   -0.0006200243668917732
-0.000546862116644255   -0.014599768672315105   -0.0006388098882171032
-0.00030020603333495965   -0.012054838397959487   -0.0006188989455902549
0.0006796595150799397   -0.014562813437229111   -0.0006207246083347498
-0.000546862116644255   -0.014599768672315105   -0.0006388098882171032
0.0010100784920603274   -0.012036517195062409   -0.0006400716303853832
-0.00030020603333495965   -0.012054838397959487   -0.0006188989455902549
-0.0005263179131923208   -0.014599700508421458   -0.0006200243668917732
0.001026660505940617   -0.012030058099011712   -0.0006202761630098298
-0.0002877756593492465   -0.012059552535323016   -0.0006062655075736508
-0.0005263179131923208   -0.014599700508421458   -0.0006200243668917732
0.0006796595150799397   -0.014562813437229111   -0.0006207246083347498
0.001026660505940617   -0.012030058099011712   -0.0006202761630098298
0.0007055351102688246   -0.0145612264445555   -0.0005938625391693815
-0.0002877756593492465   -0.012059552535323016   -0.0006062655075736508
0.001042135708607582   -0.012026682620713363   -0.0006031129427941555
0.0007055351102688246   -0.0145612264445555   -0.0005938625391693815
0.001026660505940617   -0.012030058099011712   -0.0006202761630098298
-0.0002877756593492465   -0.012059552535323016   -0.0006062655075736508
0.0007055351102688246   -0.0145612264445555   -0.0005938625391693815
-0.0005062892162782052   -0.014605295446119772   -0.0006039011019214695
-0.0005263179131923208   -0.014599700508421458   -0.0006200243668917732
-0.0002877756593492465   -0.012059552535323016   -0.0006062655075736508
0.0007055351102688246   -0.0145612264445555   -0.0005938625391693815
-0.0005263179131923208   -0.014599700508421458   -0.0006200243668917732
0.001026660505940617   -0.012030058099011712   -0.0006202761630098298
-0.0002877756593492465   -0.012059552535323016   -0.0006062655075736508
-0.0005062892162782052   -0.014605295446119772   -0.0006039011019214695
0.001042135708607582   -0.012026682620713363   -0.0006031129427941555
-0.000277078382350945   -0.012066737973782769   -0.0005963650661263574
-0.0005062892162782052   -0.014605295446119772   -0.0006039011019214695
0.0007055351102688246   -0.0145612264445555   -0.0005938625391693815
0.001042135708607582   -0.012026682620713363   -0.0006031129427941555
0.0007229033760521437   -0.01456494450326484   -0.0005694520695909281
-0.000277078382350945   -0.012066737973782769   -0.0005963650661263574
0.0010508770350313422   -0.012024850237420184   -0.0005884100516062838
0.0007229033760521437   -0.01456494450326484   -0.0005694520695909281
0.001042135708607582   -0.012026682620713363   -0.0006031129427941555
-0.000277078382350945   -0.012066737973782769   -0.0005963650661263574
0.0007229033760521437   -0.01456494450326484   -0.0005694520695909281
-0.0004883521856454215   -0.014616995298987322   -0.0005905305273022529
-0.0005062892162782052   -0.014605295446119772   -0.0006039011019214695
-0.000277078382350945   -0.012066737973782769   -0.0005963650661263574
0.0007229033760521437   -0.01456494450326484   -0.0005694520695909281
-0.0005062892162782052   -0.014605295446119772   -0.0006039011019214695
0.001042135708607582   -0.012026682620713363   -0.0006031129427941555
0.0010100784920603274   -0.012036517195062409   -0.0006400716303853832
0.0006545140164916742   -0.014570882185034146   -0.0006504130147340995
0.002425042193075722   -0.012009478370110037   -0.0006628333289501098
0.001026660505940617   -0.012030058099011712   -0.0006202761630098298
0.0006545140164916742   -0.014570882185034146   -0.0006504130147340995
0.001929700885081058   -0.014521142723573268   -0.0006795048387871678
0.002425042193075722   -0.012009478370110037   -0.0006628333289501098
0.00199670370074038   -0.01450472389841147   -0.0006361667102587484
0.001026660505940617   -0.012030058099011712   -0.0006202761630098298
0.002467591592862148   -0.011994996794638545   -0.0006366351014859932
0.00199670370074038   -0.01450472389841147   -0.0006361667102587484
0.002425042193075722   -0.012009478370110037   -0.0006628333289501098
0.001026660505940617   -0.012030058099011712   -0.0006202761630098298
0.00199670370074038   -0.01450472389841147   -0.0006361667102587484
0.0006796595150799397   -0.014562813437229111   -0.0006207246083347498
0.0006545140164916742   -0.014570882185034146   -0.0006504130147340995
0.001026660505940617   -0.012030058099011712   -0.0006202761630098298
0.00199670370074038   -0.01450472389841147   -0.0006361667102587484
0.0006545140164916742   -0.014570882185034146   -0.0006504130147340995
0.002425042193075722   -0.012009478370110037   -0.0006628333289501098
0.001026660505940617   -0.012030058099011712   -0.0006202761630098298
0.0006796595150799397   -0.014562813437229111   -0.0006207246083347498
0.002467591592862148   -0.011994996794638545   -0.0006366351014859932
0.001042135708607582   -0.012026682620713363   -0.0006031129427941555
0.0006796595150799397   -0.014562813437229111   -0.0006207246083347498
0.00199670370074038   -0.01450472389841147   -0.0006361667102587484
0.002467591592862148   -0.011994996794638545   -0.0006366351014859932
0.00204652248142679   -0.014500130589104128   -0.000596601017527073
0.001042135708607582   -0.012026682620713363   -0.0006031129427941555
0.002497205501180079   -0.01198795192084186   -0.0006142011504843857
0.00204652248142679   -0.014500130589104128   -0.000596601017527073
0.002467591592862148   -0.011994996794638545   -0.0006366351014859932
0.001042135708607582   -0.012026682620713363   -0.0006031129427941555
0.00204652248142679   -0.014500130589104128   -0.000596601017527073
0.0007055351102688246   -0.0145612264445555   -0.0005938625391693815
0.0006796595150799397   -0.014562813437229111   -0.0006207246083347498
0.001042135708607582   -0.012026682620713363   -0.0006031129427941555
0.00204652248142679   -0.014500130589104128   -0.000596601017527073
0.0006796595150799397   -0.014562813437229111   -0.0006207246083347498
0.002467591592862148   -0.011994996794638545   -0.0006366351014859932
0.001042135708607582   -0.012026682620713363   -0.0006031129427941555
0.0007055351102688246   -0.0145612264445555   -0.0005938625391693815
0.002497205501180079   -0.01198795192084186   -0.0006142011504843857
0.0010508770350313422   -0.012024850237420184   -0.0005884100516062838
0.0007055351102688246   -0.0145612264445555   -0.0005938625391693815
0.00204652248142679   -0.014500130589104128   -0.000596601017527073
0.002497205501180079   -0.01198795192084186   -0.0006142011504843857
0.0020973995978495205   -0.014500163349995442   -0.0005609897883431045
0.0010508770350313422   -0.012024850237420184   -0.0005884100516062838
0.0025239971687886073   -0.011980551353635235   -0.0005956916020061179
0.0020973995978495205   -0.014500163349995442   -0.0005609897883431045
0.002497205501180079   -0.01198795192084186   -0.0006142011504843857
0.0010508770350313422   -0.012024850237420184   -0.0005884100516062838
0.0020973995978495205   -0.014500163349995442   -0.0005609897883431045
0.0007229033760521437   -0.01456494450326484   -0.0005694520695909281
0.0007055351102688246   -0.0145612264445555   -0.0005938625391693815
0.0010508770350313422   -0.012024850237420184   -0.0005884100516062838
0.0020973995978495205   -0.014500163349995442   -0.0005609897883431045
0.0007055351102688246   -0.0145612264445555   -0.0005938625391693815
0.002497205501180079   -0.01198795192084186   -0.0006142011504843857
-0.0042430965120624125   -0.014568824259457802   -0.0006779337913743154
-0.003873754033126599   -0.01678953083094859   -0.0006331690022716844
-0.002907995485771528   -0.014597713185727414   -0.0006552110590167177
-0.004212083328525429   -0.014588367239607564   -0.0006949379619400744
-0.003873754033126599   -0.01678953083094859   -0.0006331690022716844
-0.002751852629900446   -0.016841065174783506   -0.0006297101805007063
-0.002907995485771528   -0.014597713185727414   -0.0006552110590167177
-0.0027243070330215326   -0.016848480373001126   -0.0006419798449239026
-0.004212083328525429   -0.014588367239607564   -0.0006949379619400744
-0.0028908470173736366   -0.014612174779363406   -0.0006587797773178389
-0.0027243070330215326   -0.016848480373001126   -0.0006419798449239026
-0.002907995485771528   -0.014597713185727414   -0.0006552110590167177
-0.004212083328525429   -0.014588367239607564   -0.0006949379619400744
-0.0027243070330215326   -0.016848480373001126   -0.0006419798449239026
-0.003815944348288586   -0.016800486874833803   -0.0006677194731230678
-0.003873754033126599   -0.01678953083094859   -0.0006331690022716844
-0.004212083328525429   -0.014588367239607564   -0.0006949379619400744
-0.0027243070330215326   -0.016848480373001126   -0.0006419798449239026
-0.003873754033126599   -0.01678953083094859   -0.0006331690022716844
-0.002907995485771528   -0.014597713185727414   -0.0006552110590167177
-0.004212083328525429   -0.014588367239607564   -0.0006949379619400744
-0.003815944348288586   -0.016800486874833803   -0.0006677194731230678
-0.0028908470173736366   -0.014612174779363406   -0.0006587797773178389
-0.004177013507551976   -0.014612626198767858   -0.0007161603588576553
-0.003815944348288586   -0.016800486874833803   -0.0006677194731230678
-0.0027243070330215326   -0.016848480373001126   -0.0006419798449239026
-0.0028908470173736366   -0.014612174779363406   -0.0006587797773178389
-0.002689690657964657   -0.016866440158725102   -0.0006569437248744079
-0.004177013507551976   -0.014612626198767858   -0.0007161603588576553
-0.002867784428555631   -0.014632980902815082   -0.0006650342996516235
-0.002689690657964657   -0.016866440158725102   -0.0006569437248744079
-0.0028908470173736366   -0.014612174779363406   -0.0006587797773178389
-0.004177013507551976   -0.014612626198767858   -0.0007161603588576553
-0.002689690657964657   -0.016866440158725102   -0.0006569437248744079
-0.0037585095164131763   -0.016821572517085062   -0.0007066540507872752
-0.003815944348288586   -0.016800486874833803   -0.0006677194731230678
-0.004177013507551976   -0.014612626198767858   -0.0007161603588576553
-0.002689690657964657   -0.016866440158725102   -0.0006569437248744079
-0.003815944348288586   -0.016800486874833803   -0.0006677194731230678
-0.0028908470173736366   -0.014612174779363406   -0.0006587797773178389
-0.004177013507551976   -0.014612626198767858   -0.0007161603588576553
-0.0037585095164131763   -0.016821572517085062   -0.0007066540507872752
-0.002867784428555631   -0.014632980902815082   -0.0006650342996516235
-0.004129497124162844   -0.01464969328653824   -0.0007416955679029569
-0.0037585095164131763   -0.016821572517085062   -0.0007066540507872752
-0.002689690657964657   -0.016866440158725102   -0.0006569437248744079
-0.002867784428555631   -0.014632980902815082   -0.0006650342996516235
-0.0026555787580283124   -0.01689596856396045   -0.000674575838844346
-0.004129497124162844   -0.01464969328653824   -0.0007416955679029569
-0.002843108527073872   -0.01466141131273996   -0.000674042969391042
-0.0026555787580283124   -0.01689596856396045   -0.000674575838844346
-0.002867784428555631   -0.014632980902815082   -0.0006650342996516235
-0.004129497124162844   -0.01464969328653824   -0.0007416955679029569
-0.0026555787580283124   -0.01689596856396045   -0.000674575838844346
-0.00368500416235213   -0.016860893094778923   -0.000749909994548732
-0.0037585095164131763   -0.016821572517085062   -0.0007066540507872752
-0.004129497124162844   -0.01464969328653824   -0.0007416955679029569
-0.0026555787580283124   -0.01689596856396045   -0.000674575838844346
-0.0037585095164131763   -0.016821572517085062   -0.0007066540507872752
-0.002867784428555631   -0.014632980902815082   -0.0006650342996516235
-0.002907995485771528   -0.014597713185727414   -0.0006552110590167177
-0.002751852629900446   -0.016841065174783506   -0.0006297101805007063
-0.0017094263821379589   -0.01460887222200726   -0.0006407346989980873
-0.0028908470173736366   -0.014612174779363406   -0.0006587797773178389
-0.002751852629900446   -0.016841065174783506   -0.0006297101805007063
-0.0017776140282195886   -0.01686476872207271   -0.0006284709256287618
-0.0017094263821379589   -0.01460887222200726   -0.0006407346989980873
-0.0017494342628970717   -0.016867132809225478   -0.0006228731673138156
-0.0028908470173736366   -0.014612174779363406   -0.0006587797773178389
-0.0016908387606340205   -0.014616296005743134   -0.0006329312766056569
-0.0017494342628970717   -0.016867132809225478   -0.0006228731673138156
-0.0017094263821379589   -0.01460887222200726   -0.0006407346989980873
-0.0028908470173736366   -0.014612174779363406   -0.0006587797773178389
-0.0017494342628970717   -0.016867132809225478   -0.0006228731673138156
-0.0027243070330215326   -0.016848480373001126   -0.0006419798449239026
-0.002751852629900446   -0.016841065174783506   -0.0006297101805007063
-0.0028908470173736366   -0.014612174779363406   -0.0006587797773178389
-0.0017494342628970717   -0.016867132809225478   -0.0006228731673138156
-0.002751852629900446   -0.016841065174783506   -0.0006297101805007063
-0.0017094263821379589   -0.01460887222200726   -0.0006407346989980873
-0.0028908470173736366   -0.014612174779363406   -0.0006587797773178389
-0.0027243070330215326   -0.016848480373001126   -0.0006419798449239026
-0.0016908387606340205   -0.014616296005743134   -0.0006329312766056569
-0.002867784428555631   -0.014632980902815082   -0.0006650342996516235
-0.0027243070330215326   -0.016848480373001126   -0.0006419798449239026
-0.0017494342628970717   -0.016867132809225478   -0.0006228731673138156
-0.0016908387606340205   -0.014616296005743134   -0.0006329312766056569
-0.0017203173772061828   -0.016878930701397024   -0.0006198893972881334
-0.002867784428555631   -0.014632980902815082   -0.0006650342996516235
-0.001670877435594035   -0.014629801976687446   -0.0006277788835132182
-0.0017203173772061828   -0.016878930701397024   -0.0006198893972881334
-0.0016908387606340205   -0.014616296005743134   -0.0006329312766056569
-0.002867784428555631   -0.014632980902815082   -0.0006650342996516235
-0.0017203173772061828   -0.016878930701397024   -0.0006198893972881334
-0.002689690657964657   -0.016866440158725102   -0.0006569437248744079
-0.0027243070330215326   -0.016848480373001126   -0.0006419798449239026
-0.002867784428555631   -0.014632980902815082   -0.0006650342996516235
-0.0017203173772061828   -0.016878930701397024   -0.0006198893972881334
-0.0027243070330215326   -0.016848480373001126   -0.0006419798449239026
-0.0016908387606340205   -0.014616296005743134   -0.0006329312766056569
-0.002867784428555631   -0.014632980902815082   -0.0006650342996516235
-0.002689690657964657   -0.016866440158725102   -0.0006569437248744079
-0.001670877435594035   -0.014629801976687446   -0.0006277788835132182
-0.002843108527073872   -0.01466141131273996   -0.000674042969391042
-0.002689690657964657   -0.016866440158725102   -0.0006569437248744079
-0.0017203173772061828   -0.016878930701397024   -0.0006198893972881334
-0.001670877435594035   -0.014629801976687446   -0.0006277788835132182
-0.0016912310171543772   -0.01690067744912756   -0.000619499252807438
-0.002843108527073872   -0.01466141131273996   -0.000674042969391042
-0.0016503613372243352   -0.014649551941801234   -0.0006254140833246855
-0.0016912310171543772   -0.01690067744912756   -0.000619499252807438
-0.001670877435594035   -0.014629801976687446   -0.0006277788835132182
-0.002843108527073872   -0.01466141131273996   -0.000674042969391042
-0.0016912310171543772   -0.01690067744912756   -0.000619499252807438
-0.0026555787580283124   -0.01689596856396045   -0.000674575838844346
-0.002689690657964657   -0.016866440158725102   -0.0006569437248744079
-0.002843108527073872   -0.01466141131273996   -0.000674042969391042
-0.0016912310171543772   -0.01690067744912756   -0.000619499252807438
-0.002689690657964657   -0.016866440158725102   -0.0006569437248744079
-0.001670877435594035   -0.014629801976687446   -0.0006277788835132182
-0.0017094263821379589   -0.01460887222200726   -0.0006407346989980873
-0.0017776140282195886   -0.01686476872207271   -0.0006284709256287618
-0.000546862116644255   -0.014599768672315105   -0.0006388098882171032
-0.0016908387606340205   -0.014616296005743134   -0.0006329312766056569
-0.0017776140282195886   -0.01686476872207271   -0.0006284709256287618
-0.0008354234260190177   -0.01685960428076444   -0.0006358035151696481
-0.000546862116644255   -0.014599768672315105   -0.0006388098882171032
-0.0008045653527545356   -0.016856262940168586   -0.0006129563877348571
-0.0016908387606340205   -0.014616296005743134   -0.0006329312766056569
-0.0005263179131923208   -0.014599700508421458   -0.0006200243668917732
-0.0008045653527545356   -0.016856262940168586   -0.0006129563877348571
-0.000546862116644255   -0.014599768672315105   -0.0006388098882171032
-0.0016908387606340205   -0.014616296005743134   -0.0006329312766056569
-0.0008045653527545356   -0.016856262940168586   -0.0006129563877348571
-0.0017494342628970717   -0.016867132809225478   -0.0006228731673138156
-0.0017776140282195886   -0.01686476872207271   -0.0006284709256287618
-0.0016908387606340205   -0.014616296005743134   -0.0006329312766056569
-0.0008045653527545356   -0.016856262940168586   -0.0006129563877348571
-0.0017776140282195886   -0.01686476872207271   -0.0006284709256287618
-0.000546862116644255   -0.014599768672315105   -0.0006388098882171032
-0.0016908387606340205   -0.014616296005743134   -0.0006329312766056569
-0.0017494342628970717   -0.016867132809225478   -0.0006228731673138156
-0.0005263179131923208   -0.014599700508421458   -0.0006200243668917732
-0.001670877435594035   -0.014629801976687446   -0.0006277788835132182
-0.0017494342628970717   -0.016867132809225478   -0.0006228731673138156
-0.0008045653527545356   -0.016856262940168586   -0.0006129563877348571
-0.0005263179131923208   -0.014599700508421458   -0.0006200243668917732
-0.0007745699517037769   -0.016861500985429725   -0.000592897526982901
-0.001670877435594035   -0.014629801976687446   -0.0006277788835132182
-0.0005062892162782052   -0.014605295446119772   -0.0006039011019214695
-0.0007745699517037769   -0.016861500985429725   -0.000592897526982901
-0.0005263179131923208   -0.014599700508421458   -0.0006200243668917732
-0.001670877435594035   -0.014629801976687446   -0.0006277788835132182
-0.0007745699517037769   -0.016861500985429725   -0.000592897526982901
-0.0017203173772061828   -0.016878930701397024   -0.0006198893972881334
-0.0017494342628970717   -0.016867132809225478   -0.0006228731673138156
-0.001670877435594035   -0.014629801976687446   -0.0006277788835132182
-0.0007745699517037769   -0.016861500985429725   -0.000592897526982901
-0.0017494342628970717   -0.016867132809225478   -0.0006228731673138156
-0.0005263179131923208   -0.014599700508421458   -0.0006200243668917732
-0.001670877435594035   -0.014629801976687446   -0.0006277788835132182
-0.0017203173772061828   -0.016878930701397024   -0.0006198893972881334
-0.0005062892162782052   -0.014605295446119772   -0.0006039011019214695
-0.0016503613372243352   -0.014649551941801234   -0.0006254140833246855
-0.0017203173772061828   -0.016878930701397024   -0.0006198893972881334
-0.0007745699517037769   -0.016861500985429725   -0.000592897526982901
-0.0005062892162782052   -0.014605295446119772   -0.0006039011019214695
-0.0007474263722757349   -0.016876477277383572   -0.000575392397942164
-0.0016503613372243352   -0.014649551941801234   -0.0006254140833246855
-0.0004883521856454215   -0.014616995298987322   -0.0005905305273022529
-0.0007474263722757349   -0.016876477277383572   -0.000575392397942164
-0.0005062892162782052   -0.014605295446119772   -0.0006039011019214695
-0.0016503613372243352   -0.014649551941801234   -0.0006254140833246855
-0.0007474263722757349   -0.016876477277383572   -0.000575392397942164
-0.0016912310171543772   -0.01690067744912756   -0.000619499252807438
-0.0017203173772061828   -0.016878930701397024   -0.0006198893972881334
-0.0016503613372243352   -0.014649551941801234   -0.0006254140833246855
-0.0007474263722757349   -0.016876477277383572   -0.000575392397942164
-0.0017203173772061828   -0.016878930701397024   -0.0006198893972881334
-0.0005062892162782052   -0.014605295446119772   -0.0006039011019214695
-0.000546862116644255   -0.014599768672315105   -0.0006388098882171032
-0.0008354234260190177   -0.01685960428076444   -0.0006358035151696481
0.0006545140164916742   -0.014570882185034146   -0.0006504130147340995
-0.0005263179131923208   -0.014599700508421458   -0.0006200243668917732
-0.0008354234260190177   -0.01685960428076444   -0.0006358035151696481
0.00014884400591769862   -0.0168245218792582   -0.0006531832466480298
0.0006545140164916742   -0.014570882185034146   -0.0006504130147340995
0.00018647258293419286   -0.016813994365171336   -0.0006131203490090517
-0.0005263179131923208   -0.014599700508421458   -0.0006200243668917732
0.0006796595150799397   -0.014562813437229111   -0.0006207246083347498
0.00018647258293419286   -0.016813994365171336   -0.0006131203490090517
0.0006545140164916742   -0.014570882185034146   -0.0006504130147340995
-0.0005263179131923208   -0.014599700508421458   -0.0006200243668917732
0.00018647258293419286   -0.016813994365171336   -0.0006131203490090517
-0.0008045653527545356   -0.016856262940168586   -0.0006129563877348571
-0.0008354234260190177   -0.01685960428076444   -0.0006358035151696481
-0.0005263179131923208   -0.014599700508421458   -0.0006200243668917732
0.00018647258293419286   -0.016813994365171336   -0.0006131203490090517
-0.0008354234260190177   -0.01685960428076444   -0.0006358035151696481
0.0006545140164916742   -0.014570882185034146   -0.0006504130147340995
-0.0005263179131923208   -0.014599700508421458   -0.0006200243668917732
-0.0008045653527545356   -0.016856262940168586   -0.0006129563877348571
0.0006796595150799397   -0.014562813437229111   -0.0006207246083347498
-0.0005062892162782052   -0.014605295446119772   -0.0006039011019214695
-0.0008045653527545356   -0.016856262940168586   -0.0006129563877348571
0.00018647258293419286   -0.016813994365171336   -0.0006131203490090517
0.0006796595150799397   -0.014562813437229111   -0.0006207246083347498
0.00022627518681998213   -0.01681305265313132   -0.0005765797833003206
-0.0005062892162782052   -0.014605295446119772   -0.0006039011019214695
0.0007055351102688246   -0.0145612264445555   -0.0005938625391693815
0.00022627518681998213   -0.01681305265313132   -0.0005765797833003206
0.0006796595150799397   -0.014562813437229111   -0.0006207246083347498
-0.0005062892162782052   -0.014605295446119772   -0.0006039011019214695
0.00022627518681998213   -0.01681305265313132   -0.0005765797833003206
-0.0007745699517037769   -0.016861500985429725   -0.000592897526982901
-0.0008045653527545356   -0.016856262940168586   -0.0006129563877348571
-0.0005062892162782052   -0.014605295446119772   -0.0006039011019214695
0.00022627518681998213   -0.01681305265313132   -0.0005765797833003206
-0.0008045653527545356   -0.016856262940168586   -0.0006129563877348571
0.0006796595150799397   -0.014562813437229111   -0.0006207246083347498
-0.0005062892162782052   -0.014605295446119772   -0.0006039011019214695
-0.0007745699517037769   -0.016861500985429725   -0.000592897526982901
0.0007055351102688246   -0.0145612264445555   -0.0005938625391693815
-0.0004883521856454215   -0.014616995298987322   -0.0005905305273022529
-0.0007745699517037769   -0.016861500985429725   -0.000592897526982901
0.00022627518681998213   -0.01681305265313132   -0.0005765797833003206
0.0007055351102688246   -0.0145612264445555   -0.0005938625391693815
0.00025538180438179706   -0.016821239098212523   -0.0005424588446888474
-0.0004883521856454215   -0.014616995298987322   -0.0005905305273022529
0.0007229033760521437   -0.01456494450326484   -0.0005694520695909281
0.00025538180438179706   -0.016821239098212523   -0.0005424588446888474
0.0007055351102688246   -0.0145612264445555   -0.0005938625391693815
-0.0004883521856454215   -0.014616995298987322   -0.0005905305273022529
0.00025538180438179706   -0.016821239098212523   -0.0005424588446888474
-0.0007474263722757349   -0.016876477277383572   -0.000575392397942164
-0.0007745699517037769   -0.016861500985429725   -0.000592897526982901
-0.0004883521856454215   -0.014616995298987322   -0.0005905305273022529
0.00025538180438179706   -0.016821239098212523   -0.0005424588446888474
-0.0007745699517037769   -0.016861500985429725   -0.000592897526982901
0.0007055351102688246   -0.0145612264445555   -0.0005938625391693815
0.0006545140164916742   -0.014570882185034146   -0.0006504130147340995
0.00014884400591769862   -0.0168245218792582   -0.0006531832466480298
0.001929700885081058   -0.014521142723573268   -0.0006795048387871678
0.0006796595150799397   -0.014562813437229111   -0.0006207246083347498
0.00014884400591769862   -0.0168245218792582   -0.0006531832466480298
0.001194227870515252   -0.016756258148640464   -0.0006896299178274456
0.001929700885081058   -0.014521142723573268   -0.0006795048387871678
0.0012906986493434653   -0.016736173718654386   -0.0006282479613669645
0.0006796595150799397   -0.014562813437229111   -0.0006207246083347498
0.00199670370074038   -0.01450472389841147   -0.0006361667102587484
0.0012906986493434653   -0.016736173718654386   -0.0006282479613669645
0.001929700885081058   -0.014521142723573268   -0.0006795048387871678
0.0006796595150799397   -0.014562813437229111   -0.0006207246083347498
0.0012906986493434653   -0.016736173718654386   -0.0006282479613669645
0.00018647258293419286   -0.016813994365171336   -0.0006131203490090517
0.00014884400591769862   -0.0168245218792582   -0.0006531832466480298
0.0006796595150799397   -0.014562813437229111   -0.0006207246083347498
0.0012906986493434653   -0.016736173718654386   -0.0006282479613669645
0.00014884400591769862   -0.0168245218792582   -0.0006531832466480298
0.001929700885081058   -0.014521142723573268   -0.0006795048387871678
0.0006796595150799397   -0.014562813437229111   -0.0006207246083347498
0.00018647258293419286   -0.016813994365171336   -0.0006131203490090517
0.00199670370074038   -0.01450472389841147   -0.0006361667102587484
0.0007055351102688246   -0.0145612264445555   -0.0005938625391693815
0.00018647258293419286   -0.016813994365171336   -0.0006131203490090517
0.0012906986493434653   -0.016736173718654386   -0.0006282479613669645
0.00199670370074038   -0.01450472389841147   -0.0006361667102587484
0.0013647503812356239   -0.016732691426413374   -0.0005712388555966443
0.0007055351102688246   -0.0145612264445555   -0.0005938625391693815
0.00204652248142679   -0.014500130589104128   -0.000596601017527073
0.0013647503812356239   -0.016732691426413374   -0.0005712388555966443
0.00199670370074038   -0.01450472389841147   -0.0006361667102587484
0.0007055351102688246   -0.0145612264445555   -0.0005938625391693815
0.0013647503812356239   -0.016732691426413374   -0.0005712388555966443
0.00022627518681998213   -0.01681305265313132   -0.0005765797833003206
0.00018647258293419286   -0.016813994365171336   -0.0006131203490090517
0.0007055351102688246   -0.0145612264445555   -0.0005938625391693815
0.0013647503812356239   -0.016732691426413374   -0.0005712388555966443
0.00018647258293419286   -0.016813994365171336   -0.0006131203490090517
0.00199670370074038   -0.01450472389841147   -0.0006361667102587484
0.0007055351102688246   -0.0145612264445555   -0.0005938625391693815
0.00022627518681998213   -0.01681305265313132   -0.0005765797833003206
0.00204652248142679   -0.014500130589104128   -0.000596601017527073
0.0007229033760521437   -0.01456494450326484   -0.0005694520695909281
0.00022627518681998213   -0.01681305265313132   -0.0005765797833003206
0.0013647503812356239   -0.016732691426413374   -0.0005712388555966443
0.00204652248142679   -0.014500130589104128   -0.000596601017527073
0.0014419720725552144   -0.016738833130928023   -0.0005190593767017481
0.0007229033760521437   -0.01456494450326484   -0.0005694520695909281
0.0020973995978495205   -0.014500163349995442   -0.0005609897883431045
0.0014419720725552144   -0.016738833130928023   -0.0005190593767017481
0.00204652248142679   -0.014500130589104128   -0.000596601017527073
0.0007229033760521437   -0.01456494450326484   -0.0005694520695909281
0.0014419720725552144   -0.016738833130928023   -0.0005190593767017481
0.00025538180438179706   -0.016821239098212523   -0.0005424588446888474
0.00022627518681998213   -0.01681305265313132   -0.0005765797833003206
0.0007229033760521437   -0.01456494450326484   -0.0005694520695909281
0.0014419720725552144   -0.016738833130928023   -0.0005190593767017481
0.00022627518681998213   -0.01681305265313132   -0.0005765797833003206
0.00204652248142679   -0.014500130589104128   -0.000596601017527073
-0.003873754033126599   -0.01678953083094859   -0.0006331690022716844
-0.0032547970845566636   -0.018529485779631788   -0.000575293113950977
-0.002751852629900446   -0.016841065174783506   -0.0006297101805007063
-0.003815944348288586   -0.016800486874833803   -0.0006677194731230678
-0.0032547970845566636   -0.018529485779631788   -0.000575293113950977
-0.0024551727893307555   -0.01860514236361471   -0.0005978479594418387
-0.002751852629900446   -0.016841065174783506   -0.0006297101805007063
-0.00241614892231749   -0.01860146877224816   -0.0006166948177745204
-0.003815944348288586   -0.016800486874833803   -0.0006677194731230678
-0.0027243070330215326   -0.016848480373001126   -0.0006419798449239026
-0.00241614892231749   -0.01860146877224816   -0.0006166948177745204
-0.002751852629900446   -0.016841065174783506   -0.0006297101805007063
-0.003815944348288586   -0.016800486874833803   -0.0006677194731230678
-0.00241614892231749   -0.01860146877224816   -0.0006166948177745204
-0.0031697043862401624   -0.01852750236633897   -0.0006260666812115785
-0.0032547970845566636   -0.018529485779631788   -0.000575293113950977
-0.003815944348288586   -0.016800486874833803   -0.0006677194731230678
-0.00241614892231749   -0.01860146877224816   -0.0006166948177745204
-0.0032547970845566636   -0.018529485779631788   -0.000575293113950977
-0.002751852629900446   -0.016841065174783506   -0.0006297101805007063
-0.003815944348288586   -0.016800486874833803   -0.0006677194731230678
-0.0031697043862401624   -0.01852750236633897   -0.0006260666812115785
-0.0027243070330215326   -0.016848480373001126   -0.0006419798449239026
-0.0037585095164131763   -0.016821572517085062   -0.0007066540507872752
-0.0031697043862401624   -0.01852750236633897   -0.0006260666812115785
-0.00241614892231749   -0.01860146877224816   -0.0006166948177745204
-0.0027243070330215326   -0.016848480373001126   -0.0006419798449239026
-0.0023700968810211388   -0.018612750745788748   -0.0006382654870368624
-0.0037585095164131763   -0.016821572517085062   -0.0007066540507872752
-0.002689690657964657   -0.016866440158725102   -0.0006569437248744079
-0.0023700968810211388   -0.018612750745788748   -0.0006382654870368624
-0.0027243070330215326   -0.016848480373001126   -0.0006419798449239026
-0.0037585095164131763   -0.016821572517085062   -0.0007066540507872752
-0.0023700968810211388   -0.018612750745788748   -0.0006382654870368624
-0.003091425117257527   -0.018541378057708842   -0.0006806877566303878
-0.0031697043862401624   -0.01852750236633897   -0.0006260666812115785
-0.0037585095164131763   -0.016821572517085062   -0.0007066540507872752
-0.0023700968810211388   -0.018612750745788748   -0.0006382654870368624
-0.0031697043862401624   -0.01852750236633897   -0.0006260666812115785
-0.0027243070330215326   -0.016848480373001126   -0.0006419798449239026
-0.0037585095164131763   -0.016821572517085062   -0.0007066540507872752
-0.003091425117257527   -0.018541378057708842   -0.0006806877566303878
-0.002689690657964657   -0.016866440158725102   -0.0006569437248744079
-0.00368500416235213   -0.016860893094778923   -0.000749909994548732
-0.003091425117257527   -0.018541378057708842   -0.0006806877566303878
-0.0023700968810211388   -0.018612750745788748   -0.0006382654870368624
-0.002689690657964657   -0.016866440158725102   -0.0006569437248744079
-0.002328327138645945   -0.0186392686825698   -0.0006623889517345332
-0.00368500416235213   -0.016860893094778923   -0.000749909994548732
-0.0026555787580283124   -0.01689596856396045   -0.000674575838844346
-0.002328327138645945   -0.0186392686825698   -0.0006623889517345332
-0.002689690657964657   -0.016866440158725102   -0.0006569437248744079
-0.00368500416235213   -0.016860893094778923   -0.000749909994548732
-0.002328327138645945   -0.0186392686825698   -0.0006623889517345332
-0.002995842143285258   -0.018577919059420626   -0.0007389473695283398
-0.003091425117257527   -0.018541378057708842   -0.0006806877566303878
-0.00368500416235213   -0.016860893094778923   -0.000749909994548732
-0.002328327138645945   -0.0186392686825698   -0.0006623889517345332
-0.003091425117257527   -0.018541378057708842   -0.0006806877566303878
-0.002689690657964657   -0.016866440158725102   -0.0006569437248744079
-0.002751852629900446   -0.016841065174783506   -0.0006297101805007063
-0.0024551727893307555   -0.01860514236361471   -0.0005978479594418387
-0.0017776140282195886   -0.01686476872207271   -0.0006284709256287618
-0.0027243070330215326   -0.016848480373001126   -0.0006419798449239026
-0.0024551727893307555   -0.01860514236361471   -0.0005978479594418387
-0.0017984507336398438   -0.018653131446776296   -0.0006155354559528317
-0.0017776140282195886   -0.01686476872207271   -0.0006284709256287618
-0.001758551446620895   -0.018647015646843526   -0.0006097964212433644
-0.0027243070330215326   -0.016848480373001126   -0.0006419798449239026
-0.0017494342628970717   -0.016867132809225478   -0.0006228731673138156
-0.001758551446620895   -0.018647015646843526   -0.0006097964212433644
-0.0017776140282195886   -0.01686476872207271   -0.0006284709256287618
-0.0027243070330215326   -0.016848480373001126   -0.0006419798449239026
-0.001758551446620895   -0.018647015646843526   -0.0006097964212433644
-0.00241614892231749   -0.01860146877224816   -0.0006166948177745204
-0.0024551727893307555   -0.01860514236361471   -0.0005978479594418387
-0.0027243070330215326   -0.016848480373001126   -0.0006419798449239026
-0.001758551446620895   -0.018647015646843526   -0.0006097964212433644
-0.0024551727893307555   -0.01860514236361471   -0.0005978479594418387
-0.0017776140282195886   -0.01686476872207271   -0.0006284709256287618
-0.0027243070330215326   -0.016848480373001126   -0.0006419798449239026
-0.00241614892231749   -0.01860146877224816   -0.0006166948177745204
-0.0017494342628970717   -0.016867132809225478   -0.0006228731673138156
-0.002689690657964657   -0.016866440158725102   -0.0006569437248744079
-0.00241614892231749   -0.01860146877224816   -0.0006166948177745204
-0.001758551446620895   -0.018647015646843526   -0.0006097964212433644
-0.0017494342628970717   -0.016867132809225478   -0.0006228731673138156
-0.0017191247911542125   -0.018653857013526898   -0.0006067134791393246
-0.002689690657964657   -0.016866440158725102   -0.0006569437248744079
-0.0017203173772061828   -0.016878930701397024   -0.0006198893972881334
-0.0017191247911542125   -0.018653857013526898   -0.0006067134791393246
-0.0017494342628970717   -0.016867132809225478   -0.0006228731673138156
-0.002689690657964657   -0.016866440158725102   -0.0006569437248744079
-0.0017191247911542125   -0.018653857013526898   -0.0006067134791393246
-0.0023700968810211388   -0.018612750745788748   -0.0006382654870368624
-0.00241614892231749   -0.01860146877224816   -0.0006166948177745204
-0.002689690657964657   -0.016866440158725102   -0.0006569437248744079
-0.0017191247911542125   -0.018653857013526898   -0.0006067134791393246
-0.00241614892231749   -0.01860146877224816   -0.0006166948177745204
-0.0017494342628970717   -0.016867132809225478   -0.0006228731673138156
-0.002689690657964657   -0.016866440158725102   -0.0006569437248744079
-0.0023700968810211388   -0.018612750745788748   -0.0006382654870368624
-0.0017203173772061828   -0.016878930701397024   -0.0006198893972881334
-0.0026555787580283124   -0.01689596856396045   -0.000674575838844346
-0.0023700968810211388   -0.018612750745788748   -0.0006382654870368624
-0.0017191247911542125   -0.018653857013526898   -0.0006067134791393246
-0.0017203173772061828   -0.016878930701397024   -0.0006198893972881334
-0.0016827528780798437   -0.018674048715166997   -0.0006068273912624465
-0.0026555787580283124   -0.01689596856396045   -0.000674575838844346
-0.0016912310171543772   -0.01690067744912756   -0.000619499252807438
-0.0016827528780798437   -0.018674048715166997   -0.0006068273912624465
-0.0017203173772061828   -0.016878930701397024   -0.0006198893972881334
-0.0026555787580283124   -0.01689596856396045   -0.000674575838844346
-0.0016827528780798437   -0.018674048715166997   -0.0006068273912624465
-0.002328327138645945   -0.0186392686825698   -0.0006623889517345332
-0.0023700968810211388   -0.018612750745788748   -0.0006382654870368624
-0.0026555787580283124   -0.01689596856396045   -0.000674575838844346
-0.0016827528780798437   -0.018674048715166997   -0.0006068273912624465
-0.0023700968810211388   -0.018612750745788748   -0.0006382654870368624
-0.0017203173772061828   -0.016878930701397024   -0.0006198893972881334
-0.0017776140282195886   -0.01686476872207271   -0.0006284709256287618
-0.0017984507336398438   -0.018653131446776296   -0.0006155354559528317
-0.0008354234260190177   -0.01685960428076444   -0.0006358035151696481
-0.0017494342628970717   -0.016867132809225478   -0.0006228731673138156
-0.0017984507336398438   -0.018653131446776296   -0.0006155354559528317
-0.0011690946188023816   -0.018676717300124122   -0.0006367934984026809
-0.0008354234260190177   -0.01685960428076444   -0.0006358035151696481
-0.0011241519489745713   -0.018667678615208676   -0.0006078052596121456
-0.0017494342628970717   -0.016867132809225478   -0.0006228731673138156
-0.0008045653527545356   -0.016856262940168586   -0.0006129563877348571
-0.0011241519489745713   -0.018667678615208676   -0.0006078052596121456
-0.0008354234260190177   -0.01685960428076444   -0.0006358035151696481
-0.0017494342628970717   -0.016867132809225478   -0.0006228731673138156
-0.0011241519489745713   -0.018667678615208676   -0.0006078052596121456
-0.001758551446620895   -0.018647015646843526   -0.0006097964212433644
-0.0017984507336398438   -0.018653131446776296   -0.0006155354559528317
-0.0017494342628970717   -0.016867132809225478   -0.0006228731673138156
-0.0011241519489745713   -0.018667678615208676   -0.0006078052596121456
-0.0017984507336398438   -0.018653131446776296   -0.0006155354559528317
-0.0008354234260190177   -0.01685960428076444   -0.0006358035151696481
-0.0017494342628970717   -0.016867132809225478   -0.0006228731673138156
-0.001758551446620895   -0.018647015646843526   -0.0006097964212433644
-0.0008045653527545356   -0.016856262940168586   -0.0006129563877348571
-0.0017203173772061828   -0.016878930701397024   -0.0006198893972881334
-0.001758551446620895   -0.018647015646843526   -0.0006097964212433644
-0.0011241519489745713   -0.018667678615208676   -0.0006078052596121456
-0.0008045653527545356   -0.016856262940168586   -0.0006129563877348571
-0.0010812374821871555   -0.01867012272725555   -0.0005812030754749633
-0.0017203173772061828   -0.016878930701397024   -0.0006198893972881334
-0.0007745699517037769   -0.016861500985429725   -0.000592897526982901
-0.0010812374821871555   -0.01867012272725555   -0.0005812030754749633
-0.0008045653527545356   -0.016856262940168586   -0.0006129563877348571
-0.0017203173772061828   -0.016878930701397024   -0.0006198893972881334
-0.0010812374821871555   -0.01867012272725555   -0.0005812030754749633
-0.0017191247911542125   -0.018653857013526898   -0.0006067134791393246
-0.001758551446620895   -0.018647015646843526   -0.0006097964212433644
-0.0017203173772061828   -0.016878930701397024   -0.0006198893972881334
-0.0010812374821871555   -0.01867012272725555   -0.0005812030754749633
-0.001758551446620895   -0.018647015646843526   -0.0006097964212433644
-0.0008045653527545356   -0.016856262940168586   -0.0006129563877348571
-0.0017203173772061828   -0.016878930701397024   -0.0006198893972881334
-0.0017191247911542125   -0.018653857013526898   -0.0006067134791393246
-0.0007745699517037769   -0.016861500985429725   -0.000592897526982901
-0.0016912310171543772   -0.01690067744912756   -0.000619499252807438
-0.0017191247911542125   -0.018653857013526898   -0.0006067134791393246
-0.0010812374821871555   -0.01867012272725555   -0.0005812030754749633
-0.0007745699517037769   -0.016861500985429725   -0.000592897526982901
-0.0010454047435759458   -0.018686122951723817   -0.0005583896552598172
-0.0016912310171543772   -0.01690067744912756   -0.000619499252807438
-0.0007474263722757349   -0.016876477277383572   -0.000575392397942164
-0.0010454047435759458   -0.018686122951723817   -0.0005583896552598172
-0.0007745699517037769   -0.016861500985429725   -0.000592897526982901
-0.0016912310171543772   -0.01690067744912756   -0.000619499252807438
-0.0010454047435759458   -0.018686122951723817   -0.0005583896552598172
-0.0016827528780798437   -0.018674048715166997   -0.0006068273912624465
-0.0017191247911542125   -0.018653857013526898   -0.0006067134791393246
-0.0016912310171543772   -0.01690067744912756   -0.000619499252807438
-0.0010454047435759458   -0.018686122951723817   -0.0005583896552598172
-0.0017191247911542125   -0.018653857013526898   -0.0006067134791393246
-0.0007745699517037769   -0.016861500985429725   -0.000592897526982901
-0.0008354234260190177   -0.01685960428076444   -0.0006358035151696481
-0.0011690946188023816   -0.018676717300124122   -0.0006367934984026809
0.00014884400591769862   -0.0168245218792582   -0.0006531832466480298
-0.0008045653527545356   -0.016856262940168586   -0.0006129563877348571
-0.0011690946188023816   -0.018676717300124122   -0.0006367934984026809
-0.0005023792625400242   -0.01866727078510164   -0.0006621376473590418
0.00014884400591769862   -0.0168245218792582   -0.0006531832466480298
-0.0004446711239511653   -0.018653042044714414   -0.0006108184035889118
-0.0008045653527545356   -0.016856262940168586   -0.0006129563877348571
0.00018647258293419286   -0.016813994365171336   -0.0006131203490090517
-0.0004446711239511653   -0.018653042044714414   -0.0006108184035889118
0.00014884400591769862   -0.0168245218792582   -0.0006531832466480298
-0.0008045653527545356   -0.016856262940168586   -0.0006129563877348571
-0.0004446711239511653   -0.018653042044714414   -0.0006108184035889118
-0.0011241519489745713   -0.018667678615208676   -0.0006078052596121456
-0.0011690946188023816   -0.018676717300124122   -0.0006367934984026809
-0.0008045653527545356   -0.016856262940168586   -0.0006129563877348571
-0.0004446711239511653   -0.018653042044714414   -0.0006108184035889118
-0.0011690946188023816   -0.018676717300124122   -0.0006367934984026809
0.00014884400591769862   -0.0168245218792582   -0.0006531832466480298
-0.0008045653527545356   -0.016856262940168586   -0.0006129563877348571
-0.0011241519489745713   -0.018667678615208676   -0.0006078052596121456
0.00018647258293419286   -0.016813994365171336   -0.0006131203490090517
-0.0007745699517037769   -0.016861500985429725   -0.000592897526982901
-0.0011241519489745713   -0.018667678615208676   -0.0006078052596121456
-0.0004446711239511653   -0.018653042044714414   -0.0006108184035889118
0.00018647258293419286   -0.016813994365171336   -0.0006131203490090517
-0.00038533741518391923   -0.01865073079128584   -0.0005620288529125609
-0.0007745699517037769   -0.016861500985429725   -0.000592897526982901
0.00022627518681998213   -0.01681305265313132   -0.0005765797833003206
-0.00038533741518391923   -0.01865073079128584   -0.0005620288529125609
0.00018647258293419286   -0.016813994365171336   -0.0006131203490090517
-0.0007745699517037769   -0.016861500985429725   -0.000592897526982901
-0.00038533741518391923   -0.01865073079128584   -0.0005620288529125609
-0.0010812374821871555   -0.01867012272725555   -0.0005812030754749633
-0.0011241519489745713   -0.018667678615208676   -0.0006078052596121456
-0.0007745699517037769   -0.016861500985429725   -0.000592897526982901
-0.00038533741518391923   -0.01865073079128584   -0.0005620288529125609
-0.0011241519489745713   -0.018667678615208676   -0.0006078052596121456
0.00018647258293419286   -0.016813994365171336   -0.0006131203490090517
-0.0007745699517037769   -0.016861500985429725   -0.000592897526982901
-0.0010812374821871555   -0.01867012272725555   -0.0005812030754749633
0.00022627518681998213   -0.01681305265313132   -0.0005765797833003206
-0.0007474263722757349   -0.016876477277383572   -0.000575392397942164
-0.0010812374821871555   -0.01867012272725555   -0.0005812030754749633
-0.00038533741518391923   -0.01865073079128584   -0.0005620288529125609
0.00022627518681998213   -0.01681305265313132   -0.0005765797833003206
-0.0003415899853392347   -0.018662756489840535   -0.0005175471466693105
-0.0007474263722757349   -0.016876477277383572   -0.000575392397942164
0.00025538180438179706   -0.016821239098212523   -0.0005424588446888474
-0.0003415899853392347   -0.018662756489840535   -0.0005175471466693105
0.00022627518681998213   -0.01681305265313132   -0.0005765797833003206
-0.0007474263722757349   -0.016876477277383572   -0.000575392397942164
-0.0003415899853392347   -0.018662756489840535   -0.0005175471466693105
-0.0010454047435759458   -0.018686122951723817   -0.0005583896552598172
-0.0010812374821871555   -0.01867012272725555   -0.0005812030754749633
-0.0007474263722757349   -0.016876477277383572   -0.000575392397942164
-0.0003415899853392347   -0.018662756489840535   -0.0005175471466693105
-0.0010812374821871555   -0.01867012272725555   -0.0005812030754749633
0.00022627518681998213   -0.01681305265313132   -0.0005765797833003206
0.00014884400591769862   -0.0168245218792582   -0.0006531832466480298
-0.0005023792625400242   -0.01866727078510164   -0.0006621376473590418
0.001194227870515252   -0.016756258148640464   -0.0006896299178274456
0.00018647258293419286   -0.016813994365171336   -0.0006131203490090517
-0.0005023792625400242   -0.01866727078510164   -0.0006621376473590418
0.00021019333075080756   -0.01860215306912692   -0.0007130235761735777
0.001194227870515252   -0.016756258148640464   -0.0006896299178274456
0.0003472371762400503   -0.018571525908477125   -0.0006292543677042286
0.00018647258293419286   -0.016813994365171336   -0.0006131203490090517
0.0012906986493434653   -0.016736173718654386   -0.0006282479613669645
0.0003472371762400503   -0.018571525908477125   -0.0006292543677042286
0.001194227870515252   -0.016756258148640464   -0.0006896299178274456
0.00018647258293419286   -0.016813994365171336   -0.0006131203490090517
0.0003472371762400503   -0.018571525908477125   -0.0006292543677042286
-0.0004446711239511653   -0.018653042044714414   -0.0006108184035889118
-0.0005023792625400242   -0.01866727078510164   -0.0006621376473590418
0.00018647258293419286   -0.016813994365171336   -0.0006131203490090517
0.0003472371762400503   -0.018571525908477125   -0.0006292543677042286
-0.0005023792625400242   -0.01866727078510164   -0.0006621376473590418
0.001194227870515252   -0.016756258148640464   -0.0006896299178274456
0.00018647258293419286   -0.016813994365171336   -0.0006131203490090517
-0.0004446711239511653   -0.018653042044714414   -0.0006108184035889118
0.0012906986493434653   -0.016736173718654386   -0.0006282479613669645
0.00022627518681998213   -0.01681305265313132   -0.0005765797833003206
-0.0004446711239511653   -0.018653042044714414   -0.0006108184035889118
0.0003472371762400503   -0.018571525908477125   -0.0006292543677042286
0.0012906986493434653   -0.016736173718654386   -0.0006282479613669645
0.0004547946999733295   -0.018565487659384653   -0.0005503864873330971
0.00022627518681998213   -0.01681305265313132   -0.0005765797833003206
0.0013647503812356239   -0.016732691426413374   -0.0005712388555966443
0.0004547946999733295   -0.018565487659384653   -0.0005503864873330971
0.0012906986493434653   -0.016736173718654386   -0.0006282479613669645
0.00022627518681998213   -0.01681305265313132   -0.0005765797833003206
0.0004547946999733295   -0.018565487659384653   -0.0005503864873330971
-0.00038533741518391923   -0.01865073079128584   -0.0005620288529125609
-0.0004446711239511653   -0.018653042044714414   -0.0006108184035889118
0.00022627518681998213   -0.01681305265313132   -0.0005765797833003206
0.0004547946999733295   -0.018565487659384653   -0.0005503864873330971
-0.0004446711239511653   -0.018653042044714414   -0.0006108184035889118
0.0012906986493434653   -0.016736173718654386   -0.0006282479613669645
0.00022627518681998213   -0.01681305265313132   -0.0005765797833003206
-0.00038533741518391923   -0.01865073079128584   -0.0005620288529125609
0.0013647503812356239   -0.016732691426413374   -0.0005712388555966443
0.00025538180438179706   -0.016821239098212523   -0.0005424588446888474
-0.00038533741518391923   -0.01865073079128584   -0.0005620288529125609
0.0004547946999733295   -0.018565487659384653   -0.0005503864873330971
0.0013647503812356239   -0.016732691426413374   -0.0005712388555966443
0.0005672128039624952   -0.01857138756666122   -0.00047810054469504804
0.00025538180438179706   -0.016821239098212523   -0.0005424588446888474
0.0014419720725552144   -0.016738833130928023   -0.0005190593767017481
0.0005672128039624952   -0.01857138756666122   -0.00047810054469504804
0.0013647503812356239   -0.016732691426413374   -0.0005712388555966443
0.00025538180438179706   -0.016821239098212523   -0.0005424588446888474
0.0005672128039624952   -0.01857138756666122   -0.00047810054469504804
-0.0003415899853392347   -0.018662756489840535   -0.0005175471466693105
-0.00038533741518391923   -0.01865073079128584   -0.0005620288529125609
0.00025538180438179706   -0.016821239098212523   -0.0005424588446888474
0.0005672128039624952   -0.01857138756666122   -0.00047810054469504804
-0.00038533741518391923   -0.01865073079128584   -0.0005620288529125609
0.0013647503812356239   -0.016732691426413374   -0.0005712388555966443
-0.0032547970845566636   -0.018529485779631788   -0.000575293113950977
-0.0024099858852726255   -0.019568323638045813   -0.00050701230577773
-0.0024551727893307555   -0.01860514236361471   -0.0005978479594418387
-0.0031697043862401624   -0.01852750236633897   -0.0006260666812115785
-0.0024099858852726255   -0.019568323638045813   -0.00050701230577773
-0.002032240220017043   -0.019663495240323833   -0.0005634848639203998
-0.0024551727893307555   -0.01860514236361471   -0.0005978479594418387
-0.0019834548110965367   -0.019645211138186586   -0.0005837231537010571
-0.0031697043862401624   -0.01852750236633897   -0.0006260666812115785
-0.00241614892231749   -0.01860146877224816   -0.0006166948177745204
-0.0019834548110965367   -0.019645211138186586   -0.0005837231537010571
-0.0024551727893307555   -0.01860514236361471   -0.0005978479594418387
-0.0031697043862401624   -0.01852750236633897   -0.0006260666812115785
-0.0019834548110965367   -0.019645211138186586   -0.0005837231537010571
-0.0023045831055707408   -0.019547655209136747   -0.000567798542578894
-0.0024099858852726255   -0.019568323638045813   -0.00050701230577773
-0.0031697043862401624   -0.01852750236633897   -0.0006260666812115785
-0.0019834548110965367   -0.019645211138186586   -0.0005837231537010571
-0.0024099858852726255   -0.019568323638045813   -0.00050701230577773
-0.0024551727893307555   -0.01860514236361471   -0.0005978479594418387
-0.0031697043862401624   -0.01852750236633897   -0.0006260666812115785
-0.0023045831055707408   -0.019547655209136747   -0.000567798542578894
-0.00241614892231749   -0.01860146877224816   -0.0006166948177745204
-0.003091425117257527   -0.018541378057708842   -0.0006806877566303878
-0.0023045831055707408   -0.019547655209136747   -0.000567798542578894
-0.0019834548110965367   -0.019645211138186586   -0.0005837231537010571
-0.00241614892231749   -0.01860146877224816   -0.0006166948177745204
-0.0019291652876916884   -0.019646808244352113   -0.0006041786095778622
-0.003091425117257527   -0.018541378057708842   -0.0006806877566303878
-0.0023700968810211388   -0.018612750745788748   -0.0006382654870368624
-0.0019291652876916884   -0.019646808244352113   -0.0006041786095778622
-0.00241614892231749   -0.01860146877224816   -0.0006166948177745204
-0.003091425117257527   -0.018541378057708842   -0.0006806877566303878
-0.0019291652876916884   -0.019646808244352113   -0.0006041786095778622
-0.0022137046074080548   -0.019550203079927907   -0.0006284118109757067
-0.0023045831055707408   -0.019547655209136747   -0.000567798542578894
-0.003091425117257527   -0.018541378057708842   -0.0006806877566303878
-0.0019291652876916884   -0.019646808244352113   -0.0006041786095778622
-0.0023045831055707408   -0.019547655209136747   -0.000567798542578894
-0.00241614892231749   -0.01860146877224816   -0.0006166948177745204
-0.003091425117257527   -0.018541378057708842   -0.0006806877566303878
-0.0022137046074080548   -0.019550203079927907   -0.0006284118109757067
-0.0023700968810211388   -0.018612750745788748   -0.0006382654870368624
-0.002995842143285258   -0.018577919059420626   -0.0007389473695283398
-0.0022137046074080548   -0.019550203079927907   -0.0006284118109757067
-0.0019291652876916884   -0.019646808244352113   -0.0006041786095778622
-0.0023700968810211388   -0.018612750745788748   -0.0006382654870368624
-0.001878873343662582   -0.019668411340246657   -0.0006249352460841995
-0.002995842143285258   -0.018577919059420626   -0.0007389473695283398
-0.002328327138645945   -0.0186392686825698   -0.0006623889517345332
-0.001878873343662582   -0.019668411340246657   -0.0006249352460841995
-0.0023700968810211388   -0.018612750745788748   -0.0006382654870368624
-0.002995842143285258   -0.018577919059420626   -0.0007389473695283398
-0.001878873343662582   -0.019668411340246657   -0.0006249352460841995
-0.002105708872103642   -0.01957737501694724   -0.0006903112378327747
-0.0022137046074080548   -0.019550203079927907   -0.0006284118109757067
-0.002995842143285258   -0.018577919059420626   -0.0007389473695283398
-0.001878873343662582   -0.019668411340246657   -0.0006249352460841995
-0.0022137046074080548   -0.019550203079927907   -0.0006284118109757067
-0.0023700968810211388   -0.018612750745788748   -0.0006382654870368624
-0.0024551727893307555   -0.01860514236361471   -0.0005978479594418387
-0.002032240220017043   -0.019663495240323833   -0.0005634848639203998
-0.0017984507336398438   -0.018653131446776296   -0.0006155354559528317
-0.00241614892231749   -0.01860146877224816   -0.0006166948177745204
-0.002032240220017043   -0.019663495240323833   -0.0005634848639203998
-0.0017528761988346673   -0.019756480327368212   -0.0006132189503936825
-0.0017984507336398438   -0.018653131446776296   -0.0006155354559528317
-0.0017016544831800805   -0.0197375858687357   -0.0005997705443869565
-0.00241614892231749   -0.01860146877224816   -0.0006166948177745204
-0.001758551446620895   -0.018647015646843526   -0.0006097964212433644
-0.0017016544831800805   -0.0197375858687357   -0.0005997705443869565
-0.0017984507336398438   -0.018653131446776296   -0.0006155354559528317
-0.00241614892231749   -0.01860146877224816   -0.0006166948177745204
-0.0017016544831800805   -0.0197375858687357   -0.0005997705443869565
-0.0019834548110965367   -0.019645211138186586   -0.0005837231537010571
-0.002032240220017043   -0.019663495240323833   -0.0005634848639203998
-0.00241614892231749   -0.01860146877224816   -0.0006166948177745204
-0.0017016544831800805   -0.0197375858687357   -0.0005997705443869565
-0.002032240220017043   -0.019663495240323833   -0.0005634848639203998
-0.0017984507336398438   -0.018653131446776296   -0.0006155354559528317
-0.00241614892231749   -0.01860146877224816   -0.0006166948177745204
-0.0019834548110965367   -0.019645211138186586   -0.0005837231537010571
-0.001758551446620895   -0.018647015646843526   -0.0006097964212433644
-0.0023700968810211388   -0.018612750745788748   -0.0006382654870368624
-0.0019834548110965367   -0.019645211138186586   -0.0005837231537010571
-0.0017016544831800805   -0.0197375858687357   -0.0005997705443869565
-0.001758551446620895   -0.018647015646843526   -0.0006097964212433644
-0.0016520143366063355   -0.01973776336818261   -0.0005861725523288671
-0.0023700968810211388   -0.018612750745788748   -0.0006382654870368624
-0.0017191247911542125   -0.018653857013526898   -0.0006067134791393246
-0.0016520143366063355   -0.01973776336818261   -0.0005861725523288671
-0.001758551446620895   -0.018647015646843526   -0.0006097964212433644
-0.0023700968810211388   -0.018612750745788748   -0.0006382654870368624
-0.0016520143366063355   -0.01973776336818261   -0.0005861725523288671
-0.0019291652876916884   -0.019646808244352113   -0.0006041786095778622
-0.0019834548110965367   -0.019645211138186586   -0.0005837231537010571
-0.0023700968810211388   -0.018612750745788748   -0.0006382654870368624
-0.0016520143366063355   -0.01973776336818261   -0.0005861725523288671
-0.0019834548110965367   -0.019645211138186586   -0.0005837231537010571
-0.001758551446620895   -0.018647015646843526   -0.0006097964212433644
-0.0023700968810211388   -0.018612750745788748   -0.0006382654870368624
-0.0019291652876916884   -0.019646808244352113   -0.0006041786095778622
-0.0017191247911542125   -0.018653857013526898   -0.0006067134791393246
-0.002328327138645945   -0.0186392686825698   -0.0006623889517345332
-0.0019291652876916884   -0.019646808244352113   -0.0006041786095778622
-0.0016520143366063355   -0.01973776336818261   -0.0005861725523288671
-0.0017191247911542125   -0.018653857013526898   -0.0006067134791393246
-0.0016003529148016441   -0.01975664676161118   -0.0005731547777345237
-0.002328327138645945   -0.0186392686825698   -0.0006623889517345332
-0.0016827528780798437   -0.018674048715166997   -0.0006068273912624465
-0.0016003529148016441   -0.01975664676161118   -0.0005731547777345237
-0.0017191247911542125   -0.018653857013526898   -0.0006067134791393246
-0.002328327138645945   -0.0186392686825698   -0.0006623889517345332
-0.0016003529148016441   -0.01975664676161118   -0.0005731547777345237
-0.001878873343662582   -0.019668411340246657   -0.0006249352460841995
-0.0019291652876916884   -0.019646808244352113   -0.0006041786095778622
-0.002328327138645945   -0.0186392686825698   -0.0006623889517345332
-0.0016003529148016441   -0.01975664676161118   -0.0005731547777345237
-0.0019291652876916884   -0.019646808244352113   -0.0006041786095778622
-0.0017191247911542125   -0.018653857013526898   -0.0006067134791393246
-0.0017984507336398438   -0.018653131446776296   -0.0006155354559528317
-0.0017528761988346673   -0.019756480327368212   -0.0006132189503936825
-0.0011690946188023816   -0.018676717300124122   -0.0006367934984026809
-0.001758551446620895   -0.018647015646843526   -0.0006097964212433644
-0.0017528761988346673   -0.019756480327368212   -0.0006132189503936825
-0.0014967842016197623   -0.01986601117676563   -0.0006683510982860071
-0.0011690946188023816   -0.018676717300124122   -0.0006367934984026809
-0.0014341545563408271   -0.01984933496383312   -0.0006193805930619648
-0.001758551446620895   -0.018647015646843526   -0.0006097964212433644
-0.0011241519489745713   -0.018667678615208676   -0.0006078052596121456
-0.0014341545563408271   -0.01984933496383312   -0.0006193805930619648
-0.0011690946188023816   -0.018676717300124122   -0.0006367934984026809
-0.001758551446620895   -0.018647015646843526   -0.0006097964212433644
-0.0014341545563408271   -0.01984933496383312   -0.0006193805930619648
-0.0017016544831800805   -0.0197375858687357   -0.0005997705443869565
-0.0017528761988346673   -0.019756480327368212   -0.0006132189503936825
-0.001758551446620895   -0.018647015646843526   -0.0006097964212433644
-0.0014341545563408271   -0.01984933496383312   -0.0006193805930619648
-0.0017528761988346673   -0.019756480327368212   -0.0006132189503936825
-0.0011690946188023816   -0.018676717300124122   -0.0006367934984026809
-0.001758551446620895   -0.018647015646843526   -0.0006097964212433644
-0.0017016544831800805   -0.0197375858687357   -0.0005997705443869565
-0.0011241519489745713   -0.018667678615208676   -0.0006078052596121456
-0.0017191247911542125   -0.018653857013526898   -0.0006067134791393246
-0.0017016544831800805   -0.0197375858687357   -0.0005997705443869565
-0.0014341545563408271   -0.01984933496383312   -0.0006193805930619648
-0.0011241519489745713   -0.018667678615208676   -0.0006078052596121456
-0.0013759413303192523   -0.019848743496571324   -0.0005704672070565951
-0.0017191247911542125   -0.018653857013526898   -0.0006067134791393246
-0.0010812374821871555   -0.01867012272725555   -0.0005812030754749633
-0.0013759413303192523   -0.019848743496571324   -0.0005704672070565951
-0.0011241519489745713   -0.018667678615208676   -0.0006078052596121456
-0.0017191247911542125   -0.018653857013526898   -0.0006067134791393246
-0.0013759413303192523   -0.019848743496571324   -0.0005704672070565951
-0.0016520143366063355   -0.01973776336818261   -0.0005861725523288671
-0.0017016544831800805   -0.0197375858687357   -0.0005997705443869565
-0.0017191247911542125   -0.018653857013526898   -0.0006067134791393246
-0.0013759413303192523   -0.019848743496571324   -0.0005704672070565951
-0.0017016544831800805   -0.0197375858687357   -0.0005997705443869565
-0.0011241519489745713   -0.018667678615208676   -0.0006078052596121456
-0.0017191247911542125   -0.018653857013526898   -0.0006067134791393246
-0.0016520143366063355   -0.01973776336818261   -0.0005861725523288671
-0.0010812374821871555   -0.01867012272725555   -0.0005812030754749633
-0.0016827528780798437   -0.018674048715166997   -0.0006068273912624465
-0.0016520143366063355   -0.01973776336818261   -0.0005861725523288671
-0.0013759413303192523   -0.019848743496571324   -0.0005704672070565951
-0.0010812374821871555   -0.01867012272725555   -0.0005812030754749633
-0.0013136766158896734   -0.01986344698234343   -0.0005216288561510565
-0.0016827528780798437   -0.018674048715166997   -0.0006068273912624465
-0.0010454047435759458   -0.018686122951723817   -0.0005583896552598172
-0.0013136766158896734   -0.01986344698234343   -0.0005216288561510565
-0.0010812374821871555   -0.01867012272725555   -0.0005812030754749633
-0.0016827528780798437   -0.018674048715166997   -0.0006068273912624465
-0.0013136766158896734   -0.01986344698234343   -0.0005216288561510565
-0.0016003529148016441   -0.01975664676161118   -0.0005731547777345237
-0.0016520143366063355   -0.01973776336818261   -0.0005861725523288671
-0.0016827528780798437   -0.018674048715166997   -0.0006068273912624465
-0.0013136766158896734   -0.01986344698234343   -0.0005216288561510565
-0.0016520143366063355   -0.01973776336818261   -0.0005861725523288671
-0.0010812374821871555   -0.01867012272725555   -0.0005812030754749633
-0.0011690946188023816   -0.018676717300124122   -0.0006367934984026809
-0.0014967842016197623   -0.01986601117676563   -0.0006683510982860071
-0.0005023792625400242   -0.01866727078510164   -0.0006621376473590418
-0.0011241519489745713   -0.018667678615208676   -0.0006078052596121456
-0.0014967842016197623   -0.01986601117676563   -0.0006683510982860071
-0.0012447381969492703   -0.02   -0.0007121115494333147
-0.0005023792625400242   -0.01866727078510164   -0.0006621376473590418
-0.0011655680091446062   -0.02   -0.0006366253295066981
-0.0011241519489745713   -0.018667678615208676   -0.0006078052596121456
-0.0004446711239511653   -0.018653042044714414   -0.0006108184035889118
-0.0011655680091446062   -0.02   -0.0006366253295066981
-0.0005023792625400242   -0.01866727078510164   -0.0006621376473590418
-0.0011241519489745713   -0.018667678615208676   -0.0006078052596121456
-0.0011655680091446062   -0.02   -0.0006366253295066981
-0.0014341545563408271   -0.01984933496383312   -0.0006193805930619648
-0.0014967842016197623   -0.01986601117676563   -0.0006683510982860071
-0.0011241519489745713   -0.018667678615208676   -0.0006078052596121456
-0.0011655680091446062   -0.02   -0.0006366253295066981
-0.0014967842016197623   -0.01986601117676563   -0.0006683510982860071
-0.0005023792625400242   -0.01866727078510164   -0.0006621376473590418
-0.0011241519489745713   -0.018667678615208676   -0.0006078052596121456
-0.0014341545563408271   -0.01984933496383312   -0.0006193805930619648
-0.0004446711239511653   -0.018653042044714414   -0.0006108184035889118
-0.0010812374821871555   -0.01867012272725555   -0.0005812030754749633
-0.0014341545563408271   -0.01984933496383312   -0.0006193805930619648
-0.0011655680091446062   -0.02   -0.0006366253295066981
-0.0004446711239511653   -0.018653042044714414   -0.0006108184035889118
-0.0010856987880762665   -0.02   -0.0005602548731809234
-0.0010812374821871555   -0.01867012272725555   -0.0005812030754749633
-0.00038533741518391923   -0.01865073079128584   -0.0005620288529125609
-0.0010856987880762665   -0.02   -0.0005602548731809234
-0.0004446711239511653   -0.018653042044714414   -0.0006108184035889118
-0.0010812374821871555   -0.01867012272725555   -0.0005812030754749633
-0.0010856987880762665   -0.02   -0.0005602548731809234
-0.0013759413303192523   -0.019848743496571324   -0.0005704672070565951
-0.0014341545563408271   -0.01984933496383312   -0.0006193805930619648
-0.0010812374821871555   -0.01867012272725555   -0.0005812030754749633
-0.0010856987880762665   -0.02   -0.0005602548731809234
-0.0014341545563408271   -0.01984933496383312   -0.0006193805930619648
-0.0004446711239511653   -0.018653042044714414   -0.0006108184035889118
-0.0010812374821871555   -0.01867012272725555   -0.0005812030754749633
-0.0013759413303192523   -0.019848743496571324   -0.0005704672070565951
-0.00038533741518391923   -0.01865073079128584   -0.0005620288529125609
-0.0010454047435759458   -0.018686122951723817   -0.0005583896552598172
-0.0013759413303192523   -0.019848743496571324   -0.0005704672070565951
-0.0010856987880762665   -0.02   -0.0005602548731809234
-0.00038533741518391923   -0.01865073079128584   -0.0005620288529125609
-0.0010080295134870523   -0.02   -0.00048492183520767394
-0.0010454047435759458   -0.018686122951723817   -0.0005583896552598172
-0.0003415899853392347   -0.018662756489840535   -0.0005175471466693105
-0.0010080295134870523   -0.02   -0.00048492183520767394
-0.00038533741518391923   -0.01865073079128584   -0.0005620288529125609
-0.0010454047435759458   -0.018686122951723817   -0.0005583896552598172
-0.0010080295134870523   -0.02   -0.00048492183520767394
-0.0013136766158896734   -0.01986344698234343   -0.0005216288561510565
-0.0013759413303192523   -0.019848743496571324   -0.0005704672070565951
-0.0010454047435759458   -0.018686122951723817   -0.0005583896552598172
-0.0010080295134870523   -0.02   -0.00048492183520767394
-0.0013759413303192523   -0.019848743496571324   -0.0005704672070565951
-0.00038533741518391923   -0.01865073079128584   -0.0005620288529125609
-0.0005023792625400242   -0.01866727078510164   -0.0006621376473590418
-0.0012447381969492703   -0.02   -0.0007121115494333147
0.00021019333075080756   -0.01860215306912692   -0.0007130235761735777
-0.0004446711239511653   -0.018653042044714414   -0.0006108184035889118
-0.0012447381969492703   -0.02   -0.0007121115494333147
-0.0010583819271097617   -0.02   -0.0007650996020062276
0.00021019333075080756   -0.01860215306912692   -0.0007130235761735777
-0.0008902462753698272   -0.02   -0.0006553101861495436
-0.0004446711239511653   -0.018653042044714414   -0.0006108184035889118
0.0003472371762400503   -0.018571525908477125   -0.0006292543677042286
-0.0008902462753698272   -0.02   -0.0006553101861495436
0.00021019333075080756   -0.01860215306912692   -0.0007130235761735777
-0.0004446711239511653   -0.018653042044714414   -0.0006108184035889118
-0.0008902462753698272   -0.02   -0.0006553101861495436
-0.0011655680091446062   -0.02   -0.0006366253295066981
-0.0012447381969492703   -0.02   -0.0007121115494333147
-0.0004446711239511653   -0.018653042044714414   -0.0006108184035889118
-0.0008902462753698272   -0.02   -0.0006553101861495436
-0.0012447381969492703   -0.02   -0.0007121115494333147
0.00021019333075080756   -0.01860215306912692   -0.0007130235761735777
-0.0004446711239511653   -0.018653042044714414   -0.0006108184035889118
-0.0011655680091446062   -0.02   -0.0006366253295066981
0.0003472371762400503   -0.018571525908477125   -0.0006292543677042286
-0.00038533741518391923   -0.01865073079128584   -0.0005620288529125609
-0.0011655680091446062   -0.02   -0.0006366253295066981
-0.0008902462753698272   -0.02   -0.0006553101861495436
0.0003472371762400503   -0.018571525908477125   -0.0006292543677042286
-0.0007561869307561147   -0.02   -0.0005503158980679847
-0.00038533741518391923   -0.01865073079128584   -0.0005620288529125609
0.0004547946999733295   -0.018565487659384653   -0.0005503864873330971
-0.0007561869307561147   -0.02   -0.0005503158980679847
0.0003472371762400503   -0.018571525908477125   -0.0006292543677042286
-0.00038533741518391923   -0.01865073079128584   -0.0005620288529125609
-0.0007561869307561147   -0.02   -0.0005503158980679847
-0.0010856987880762665   -0.02   -0.0005602548731809234
-0.0011655680091446062   -0.02   -0.0006366253295066981
-0.00038533741518391923   -0.01865073079128584   -0.0005620288529125609
-0.0007561869307561147   -0.02   -0.0005503158980679847
-0.0011655680091446062   -0.02   -0.0006366253295066981
0.0003472371762400503   -0.018571525908477125   -0.0006292543677042286
-0.00038533741518391923   -0.01865073079128584   -0.0005620288529125609
-0.0010856987880762665   -0.02   -0.0005602548731809234
0.0004547946999733295   -0.018565487659384653   -0.0005503864873330971
-0.0003415899853392347   -0.018662756489840535   -0.0005175471466693105
-0.0010856987880762665   -0.02   -0.0005602548731809234
-0.0007561869307561147   -0.02   -0.0005503158980679847
0.0004547946999733295   -0.018565487659384653   -0.0005503864873330971
-0.0005906884386503324   -0.02   -0.0004412913943757432
-0.0003415899853392347   -0.018662756489840535   -0.0005175471466693105
0.0005672128039624952   -0.01857138756666122   -0.00047810054469504804
-0.0005906884386503324   -0.02   -0.0004412913943757432
0.0004547946999733295   -0.018565487659384653   -0.0005503864873330971
-0.0003415899853392347   -0.018662756489840535   -0.0005175471466693105
-0.0005906884386503324   -0.02   -0.0004412913943757432
-0.0010080295134870523   -0.02   -0.00048492183520767394
-0.0010856987880762665   -0.02   -0.0005602548731809234
-0.0003415899853392347   -0.018662756489840535   -0.0005175471466693105
-0.0005906884386503324   -0.02   -0.0004412913943757432
-0.0010856987880762665   -0.02   -0.0005602548731809234
0.0004547946999733295   -0.018565487659384653   -0.0005503864873330971
-0.0024099858852726255   -0.019568323638045813   -0.00050701230577773
-0.0014754827319774877   -0.019643467039548678   -0.0004344504349076395
-0.002032240220017043   -0.019663495240323833   -0.0005634848639203998
-0.0023045831055707408   -0.019547655209136747   -0.000567798542578894
-0.0014754827319774877   -0.019643467039548678   -0.0004344504349076395
-0.0015495823941494191   -0.019717821088313967   -0.0005072340737412867
-0.002032240220017043   -0.019663495240323833   -0.0005634848639203998
-0.0015124918312694742   -0.019692735009258906   -0.0005344959214734122
-0.0023045831055707408   -0.019547655209136747   -0.000567798542578894
-0.0019834548110965367   -0.019645211138186586   -0.0005837231537010571
-0.0015124918312694742   -0.019692735009258906   -0.0005344959214734122
-0.002032240220017043   -0.019663495240323833   -0.0005634848639203998
-0.0023045831055707408   -0.019547655209136747   -0.000567798542578894
-0.0015124918312694742   -0.019692735009258906   -0.0005344959214734122
-0.0013794545468858819   -0.019611175579436216   -0.0004983901198488097
-0.0014754827319774877   -0.019643467039548678   -0.0004344504349076395
-0.0023045831055707408   -0.019547655209136747   -0.000567798542578894
-0.0015124918312694742   -0.019692735009258906   -0.0005344959214734122
-0.0014754827319774877   -0.019643467039548678   -0.0004344504349076395
-0.002032240220017043   -0.019663495240323833   -0.0005634848639203998
-0.0023045831055707408   -0.019547655209136747   -0.000567798542578894
-0.0013794545468858819   -0.019611175579436216   -0.0004983901198488097
-0.0019834548110965367   -0.019645211138186586   -0.0005837231537010571
-0.0022137046074080548   -0.019550203079927907   -0.0006284118109757067
-0.0013794545468858819   -0.019611175579436216   -0.0004983901198488097
-0.0015124918312694742   -0.019692735009258906   -0.0005344959214734122
-0.0019834548110965367   -0.019645211138186586   -0.0005837231537010571
-0.0014688237140774642   -0.019684176558721816   -0.0005597598935948518
-0.0022137046074080548   -0.019550203079927907   -0.0006284118109757067
-0.0019291652876916884   -0.019646808244352113   -0.0006041786095778622
-0.0014688237140774642   -0.019684176558721816   -0.0005597598935948518
-0.0019834548110965367   -0.019645211138186586   -0.0005837231537010571
-0.0022137046074080548   -0.019550203079927907   -0.0006284118109757067
-0.0014688237140774642   -0.019684176558721816   -0.0005597598935948518
-0.0012995793367856039   -0.01960203119477951   -0.0005598568497022699
-0.0013794545468858819   -0.019611175579436216   -0.0004983901198488097
-0.0022137046074080548   -0.019550203079927907   -0.0006284118109757067
-0.0014688237140774642   -0.019684176558721816   -0.0005597598935948518
-0.0013794545468858819   -0.019611175579436216   -0.0004983901198488097
-0.0019834548110965367   -0.019645211138186586   -0.0005837231537010571
-0.0022137046074080548   -0.019550203079927907   -0.0006284118109757067
-0.0012995793367856039   -0.01960203119477951   -0.0005598568497022699
-0.0019291652876916884   -0.019646808244352113   -0.0006041786095778622
-0.002105708872103642   -0.01957737501694724   -0.0006903112378327747
-0.0012995793367856039   -0.01960203119477951   -0.0005598568497022699
-0.0014688237140774642   -0.019684176558721816   -0.0005597598935948518
-0.0019291652876916884   -0.019646808244352113   -0.0006041786095778622
-0.001431512839572915   -0.019692301346036754   -0.0005829056895393589
-0.002105708872103642   -0.01957737501694724   -0.0006903112378327747
-0.001878873343662582   -0.019668411340246657   -0.0006249352460841995
-0.001431512839572915   -0.019692301346036754   -0.0005829056895393589
-0.0019291652876916884   -0.019646808244352113   -0.0006041786095778622
-0.002105708872103642   -0.01957737501694724   -0.0006903112378327747
-0.001431512839572915   -0.019692301346036754   -0.0005829056895393589
-0.0012088386291193162   -0.019612132160859636   -0.0006186018619835053
-0.0012995793367856039   -0.01960203119477951   -0.0005598568497022699
-0.002105708872103642   -0.01957737501694724   -0.0006903112378327747
-0.001431512839572915   -0.019692301346036754   -0.0005829056895393589
-0.0012995793367856039   -0.01960203119477951   -0.0005598568497022699
-0.0019291652876916884   -0.019646808244352113   -0.0006041786095778622
-0.002032240220017043   -0.019663495240323833   -0.0005634848639203998
-0.0015495823941494191   -0.019717821088313967   -0.0005072340737412867
-0.0017528761988346673   -0.019756480327368212   -0.0006132189503936825
-0.0019834548110965367   -0.019645211138186586   -0.0005837231537010571
-0.0015495823941494191   -0.019717821088313967   -0.0005072340737412867
-0.0016562737578054783   -0.019762629882471194   -0.0005652534531743278
-0.0017528761988346673   -0.019756480327368212   -0.0006132189503936825
-0.0016235507586107724   -0.01974017971906502   -0.000565803297758815
-0.0019834548110965367   -0.019645211138186586   -0.0005837231537010571
-0.0017016544831800805   -0.0197375858687357   -0.0005997705443869565
-0.0016235507586107724   -0.01974017971906502   -0.000565803297758815
-0.0017528761988346673   -0.019756480327368212   -0.0006132189503936825
-0.0019834548110965367   -0.019645211138186586   -0.0005837231537010571
-0.0016235507586107724   -0.01974017971906502   -0.000565803297758815
-0.0015124918312694742   -0.019692735009258906   -0.0005344959214734122
-0.0015495823941494191   -0.019717821088313967   -0.0005072340737412867
-0.0019834548110965367   -0.019645211138186586   -0.0005837231537010571
-0.0016235507586107724   -0.01974017971906502   -0.000565803297758815
-0.0015495823941494191   -0.019717821088313967   -0.0005072340737412867
-0.0017528761988346673   -0.019756480327368212   -0.0006132189503936825
-0.0019834548110965367   -0.019645211138186586   -0.0005837231537010571
-0.0015124918312694742   -0.019692735009258906   -0.0005344959214734122
-0.0017016544831800805   -0.0197375858687357   -0.0005997705443869565
-0.0019291652876916884   -0.019646808244352113   -0.0006041786095778622
-0.0015124918312694742   -0.019692735009258906   -0.0005344959214734122
-0.0016235507586107724   -0.01974017971906502   -0.000565803297758815
-0.0017016544831800805   -0.0197375858687357   -0.0005997705443869565
-0.0015871706328007666   -0.019732690506276504   -0.0005637644631043577
-0.0019291652876916884   -0.019646808244352113   -0.0006041786095778622
-0.0016520143366063355   -0.01973776336818261   -0.0005861725523288671
-0.0015871706328007666   -0.019732690506276504   -0.0005637644631043577
-0.0017016544831800805   -0.0197375858687357   -0.0005997705443869565
-0.0019291652876916884   -0.019646808244352113   -0.0006041786095778622
-0.0015871706328007666   -0.019732690506276504   -0.0005637644631043577
-0.0014688237140774642   -0.019684176558721816   -0.0005597598935948518
-0.0015124918312694742   -0.019692735009258906   -0.0005344959214734122
-0.0019291652876916884   -0.019646808244352113   -0.0006041786095778622
-0.0015871706328007666   -0.019732690506276504   -0.0005637644631043577
-0.0015124918312694742   -0.019692735009258906   -0.0005344959214734122
-0.0017016544831800805   -0.0197375858687357   -0.0005997705443869565
-0.0019291652876916884   -0.019646808244352113   -0.0006041786095778622
-0.0014688237140774642   -0.019684176558721816   -0.0005597598935948518
-0.0016520143366063355   -0.01973776336818261   -0.0005861725523288671
-0.001878873343662582   -0.019668411340246657   -0.0006249352460841995
-0.0014688237140774642   -0.019684176558721816   -0.0005597598935948518
-0.0015871706328007666   -0.019732690506276504   -0.0005637644631043577
-0.0016520143366063355   -0.01973776336818261   -0.0005861725523288671
-0.0015502315301510958   -0.019739538240401987   -0.0005596916649335436
-0.001878873343662582   -0.019668411340246657   -0.0006249352460841995
-0.0016003529148016441   -0.01975664676161118   -0.0005731547777345237
-0.0015502315301510958   -0.019739538240401987   -0.0005596916649335436
-0.0016520143366063355   -0.01973776336818261   -0.0005861725523288671
-0.001878873343662582   -0.019668411340246657   -0.0006249352460841995
-0.0015502315301510958   -0.019739538240401987   -0.0005596916649335436
-0.001431512839572915   -0.019692301346036754   -0.0005829056895393589
-0.0014688237140774642   -0.019684176558721816   -0.0005597598935948518
-0.001878873343662582   -0.019668411340246657   -0.0006249352460841995
-0.0015502315301510958   -0.019739538240401987   -0.0005596916649335436
-0.0014688237140774642   -0.019684176558721816   -0.0005597598935948518
-0.0016520143366063355   -0.01973776336818261   -0.0005861725523288671
-0.0017528761988346673   -0.019756480327368212   -0.0006132189503936825
-0.0016562737578054783   -0.019762629882471194   -0.0005652534531743278
-0.0014967842016197623   -0.01986601117676563   -0.0006683510982860071
-0.0017016544831800805   -0.0197375858687357   -0.0005997705443869565
-0.0016562737578054783   -0.019762629882471194   -0.0005652534531743278
-0.0017714810909432908   -0.019779672231067146   -0.0006225443503851112
-0.0014967842016197623   -0.01986601117676563   -0.0006683510982860071
-0.0017375769960637556   -0.01975811832630381   -0.0005973931058956799
-0.0017016544831800805   -0.0197375858687357   -0.0005997705443869565
-0.0014341545563408271   -0.01984933496383312   -0.0006193805930619648
-0.0017375769960637556   -0.01975811832630381   -0.0005973931058956799
-0.0014967842016197623   -0.01986601117676563   -0.0006683510982860071
-0.0017016544831800805   -0.0197375858687357   -0.0005997705443869565
-0.0017375769960637556   -0.01975811832630381   -0.0005973931058956799
-0.0016235507586107724   -0.01974017971906502   -0.000565803297758815
-0.0016562737578054783   -0.019762629882471194   -0.0005652534531743278
-0.0017016544831800805   -0.0197375858687357   -0.0005997705443869565
-0.0017375769960637556   -0.01975811832630381   -0.0005973931058956799
-0.0016562737578054783   -0.019762629882471194   -0.0005652534531743278
-0.0014967842016197623   -0.01986601117676563   -0.0006683510982860071
-0.0017016544831800805   -0.0197375858687357   -0.0005997705443869565
-0.0016235507586107724   -0.01974017971906502   -0.000565803297758815
-0.0014341545563408271   -0.01984933496383312   -0.0006193805930619648
-0.0016520143366063355   -0.01973776336818261   -0.0005861725523288671
-0.0016235507586107724   -0.01974017971906502   -0.000565803297758815
-0.0017375769960637556   -0.01975811832630381   -0.0005973931058956799
-0.0014341545563408271   -0.01984933496383312   -0.0006193805930619648
-0.0016970344908096248   -0.01975175463096508   -0.0005690849109327317
-0.0016520143366063355   -0.01973776336818261   -0.0005861725523288671
-0.0013759413303192523   -0.019848743496571324   -0.0005704672070565951
-0.0016970344908096248   -0.01975175463096508   -0.0005690849109327317
-0.0014341545563408271   -0.01984933496383312   -0.0006193805930619648
-0.0016520143366063355   -0.01973776336818261   -0.0005861725523288671
-0.0016970344908096248   -0.01975175463096508   -0.0005690849109327317
-0.0015871706328007666   -0.019732690506276504   -0.0005637644631043577
-0.0016235507586107724   -0.01974017971906502   -0.000565803297758815
-0.0016520143366063355   -0.01973776336818261   -0.0005861725523288671
-0.0016970344908096248   -0.01975175463096508   -0.0005690849109327317
-0.0016235507586107724   -0.01974017971906502   -0.000565803297758815
-0.0014341545563408271   -0.01984933496383312   -0.0006193805930619648
-0.0016520143366063355   -0.01973776336818261   -0.0005861725523288671
-0.0015871706328007666   -0.019732690506276504   -0.0005637644631043577
-0.0013759413303192523   -0.019848743496571324   -0.0005704672070565951
-0.0016003529148016441   -0.01975664676161118   -0.0005731547777345237
-0.0015871706328007666   -0.019732690506276504   -0.0005637644631043577
-0.0016970344908096248   -0.01975175463096508   -0.0005690849109327317
-0.0013759413303192523   -0.019848743496571324   -0.0005704672070565951
-0.001655418129955408   -0.019758342419068698   -0.0005390079881854567
-0.0016003529148016441   -0.01975664676161118   -0.0005731547777345237
-0.0013136766158896734   -0.01986344698234343   -0.0005216288561510565
-0.001655418129955408   -0.019758342419068698   -0.0005390079881854567
-0.0013759413303192523   -0.019848743496571324   -0.0005704672070565951
-0.0016003529148016441   -0.01975664676161118   -0.0005731547777345237
-0.001655418129955408   -0.019758342419068698   -0.0005390079881854567
-0.0015502315301510958   -0.019739538240401987   -0.0005596916649335436
-0.0015871706328007666   -0.019732690506276504   -0.0005637644631043577
-0.0016003529148016441   -0.01975664676161118   -0.0005731547777345237
-0.001655418129955408   -0.019758342419068698   -0.0005390079881854567
-0.0015871706328007666   -0.019732690506276504   -0.0005637644631043577
-0.0013759413303192523   -0.019848743496571324   -0.0005704672070565951
-0.0014967842016197623   -0.01986601117676563   -0.0006683510982860071
-0.0017714810909432908   -0.019779672231067146   -0.0006225443503851112
-0.0012447381969492703   -0.02   -0.0007121115494333147
-0.0014341545563408271   -0.01984933496383312   -0.0006193805930619648
-0.0017714810909432908   -0.019779672231067146   -0.0006225443503851112
-0.0019388781187035507   -0.019756202276554048   -0.0006774636658793983
-0.0012447381969492703   -0.02   -0.0007121115494333147
-0.001894649629765887   -0.01973558238795924   -0.0006277306685012453
-0.0014341545563408271   -0.01984933496383312   -0.0006193805930619648
-0.0011655680091446062   -0.02   -0.0006366253295066981
-0.001894649629765887   -0.01973558238795924   -0.0006277306685012453
-0.0012447381969492703   -0.02   -0.0007121115494333147
-0.0014341545563408271   -0.01984933496383312   -0.0006193805930619648
-0.001894649629765887   -0.01973558238795924   -0.0006277306685012453
-0.0017375769960637556   -0.01975811832630381   -0.0005973931058956799
-0.0017714810909432908   -0.019779672231067146   -0.0006225443503851112
-0.0014341545563408271   -0.01984933496383312   -0.0006193805930619648
-0.001894649629765887   -0.01973558238795924   -0.0006277306685012453
-0.0017714810909432908   -0.019779672231067146   -0.0006225443503851112
-0.0012447381969492703   -0.02   -0.0007121115494333147
-0.0014341545563408271   -0.01984933496383312   -0.0006193805930619648
-0.0017375769960637556   -0.01975811832630381   -0.0005973931058956799
-0.0011655680091446062   -0.02   -0.0006366253295066981
-0.0013759413303192523   -0.019848743496571324   -0.0005704672070565951
-0.0017375769960637556   -0.01975811832630381   -0.0005973931058956799
-0.001894649629765887   -0.01973558238795924   -0.0006277306685012453
-0.0011655680091446062   -0.02   -0.0006366253295066981
-0.0018359936406176821   -0.019731264635901424   -0.0005744365491999534
-0.0013759413303192523   -0.019848743496571324   -0.0005704672070565951
-0.0010856987880762665   -0.02   -0.0005602548731809234
-0.0018359936406176821   -0.019731264635901424   -0.0005744365491999534
-0.0011655680091446062   -0.02   -0.0006366253295066981
-0.0013759413303192523   -0.019848743496571324   -0.0005704672070565951
-0.0018359936406176821   -0.019731264635901424   -0.0005744365491999534
-0.0016970344908096248   -0.01975175463096508   -0.0005690849109327317
-0.0017375769960637556   -0.01975811832630381   -0.0005973931058956799
-0.0013759413303192523   -0.019848743496571324   -0.0005704672070565951
-0.0018359936406176821   -0.019731264635901424   -0.0005744365491999534
-0.0017375769960637556   -0.01975811832630381   -0.0005973931058956799
-0.0011655680091446062   -0.02   -0.0006366253295066981
-0.0013759413303192523   -0.019848743496571324   -0.0005704672070565951
-0.0016970344908096248   -0.01975175463096508   -0.0005690849109327317
-0.0010856987880762665   -0.02   -0.0005602548731809234
-0.0013136766158896734   -0.01986344698234343   -0.0005216288561510565
-0.0016970344908096248   -0.01975175463096508   -0.0005690849109327317
-0.0018359936406176821   -0.019731264635901424   -0.0005744365491999534
-0.0010856987880762665   -0.02   -0.0005602548731809234
-0.0017812777432992183   -0.019740210994826982   -0.0005191860648956063
-0.0013136766158896734   -0.01986344698234343   -0.0005216288561510565
-0.0010080295134870523   -0.02   -0.00048492183520767394
-0.0017812777432992183   -0.019740210994826982   -0.0005191860648956063
-0.0010856987880762665   -0.02   -0.0005602548731809234
-0.0013136766158896734   -0.01986344698234343   -0.0005216288561510565
-0.0017812777432992183   -0.019740210994826982   -0.0005191860648956063
-0.001655418129955408   -0.019758342419068698   -0.0005390079881854567
-0.0016970344908096248   -0.01975175463096508   -0.0005690849109327317
-0.0013136766158896734   -0.01986344698234343   -0.0005216288561510565
-0.0017812777432992183   -0.019740210994826982   -0.0005191860648956063
-0.0016970344908096248   -0.01975175463096508   -0.0005690849109327317
-0.0010856987880762665   -0.02   -0.0005602548731809234
-0.0012447381969492703   -0.02   -0.0007121115494333147
-0.0019388781187035507   -0.019756202276554048   -0.0006774636658793983
-0.0010583819271097617   -0.02   -0.0007650996020062276
-0.0011655680091446062   -0.02   -0.0006366253295066981
-0.0019388781187035507   -0.019756202276554048   -0.0006774636658793983
-0.0022708989850298124   -0.019660120432550228   -0.0007366267090009659
-0.0010583819271097617   -0.02   -0.0007650996020062276
-0.002150154053857732   -0.01964227620144996   -0.0006550980913960206
-0.0011655680091446062   -0.02   -0.0006366253295066981
-0.0008902462753698272   -0.02   -0.0006553101861495436
-0.002150154053857732   -0.01964227620144996   -0.0006550980913960206
-0.0010583819271097617   -0.02   -0.0007650996020062276
-0.0011655680091446062   -0.02   -0.0006366253295066981
-0.002150154053857732   -0.01964227620144996   -0.0006550980913960206
-0.001894649629765887   -0.01973558238795924   -0.0006277306685012453
-0.0019388781187035507   -0.019756202276554048   -0.0006774636658793983
-0.0011655680091446062   -0.02   -0.0006366253295066981
-0.002150154053857732   -0.01964227620144996   -0.0006550980913960206
-0.0019388781187035507   -0.019756202276554048   -0.0006774636658793983
-0.0010583819271097617   -0.02   -0.0007650996020062276
-0.0011655680091446062   -0.02   -0.0006366253295066981
-0.001894649629765887   -0.01973558238795924   -0.0006277306685012453
-0.0008902462753698272   -0.02   -0.0006553101861495436
-0.0010856987880762665   -0.02   -0.0005602548731809234
-0.001894649629765887   -0.01973558238795924   -0.0006277306685012453
-0.002150154053857732   -0.01964227620144996   -0.0006550980913960206
-0.0008902462753698272   -0.02   -0.0006553101861495436
-0.002039864159202478   -0.01964013893735396   -0.000568372755410987
-0.0010856987880762665   -0.02   -0.0005602548731809234
-0.0007561869307561147   -0.02   -0.0005503158980679847
-0.002039864159202478   -0.01964013893735396   -0.000568372755410987
-0.0008902462753698272   -0.02   -0.0006553101861495436
-0.0010856987880762665   -0.02   -0.0005602548731809234
-0.002039864159202478   -0.01964013893735396   -0.000568372755410987
-0.0018359936406176821   -0.019731264635901424   -0.0005744365491999534
-0.001894649629765887   -0.01973558238795924   -0.0006277306685012453
-0.0010856987880762665   -0.02   -0.0005602548731809234
-0.002039864159202478   -0.01964013893735396   -0.000568372755410987
-0.001894649629765887   -0.01973558238795924   -0.0006277306685012453
-0.0008902462753698272   -0.02   -0.0006553101861495436
-0.0010856987880762665   -0.02   -0.0005602548731809234
-0.0018359936406176821   -0.019731264635901424   -0.0005744365491999534
-0.0007561869307561147   -0.02   -0.0005503158980679847
-0.0010080295134870523   -0.02   -0.00048492183520767394
-0.0018359936406176821   -0.019731264635901424   -0.0005744365491999534
-0.002039864159202478   -0.01964013893735396   -0.000568372755410987
-0.0007561869307561147   -0.02   -0.0005503158980679847
-0.0019004590032018372   -0.019663431474939066   -0.00047792671230905125
-0.0010080295134870523   -0.02   -0.00048492183520767394
-0.0005906884386503324   -0.02   -0.0004412913943757432
-0.0019004590032018372   -0.019663431474939066   -0.00047792671230905125
-0.0007561869307561147   -0.02   -0.0005503158980679847
-0.0010080295134870523   -0.02   -0.00048492183520767394
-0.0019004590032018372   -0.019663431474939066   -0.00047792671230905125
-0.0017812777432992183   -0.019740210994826982   -0.0005191860648956063
-0.0018359936406176821   -0.019731264635901424   -0.0005744365491999534
-0.0010080295134870523   -0.02   -0.00048492183520767394
-0.0019004590032018372   -0.019663431474939066   -0.00047792671230905125
-0.0018359936406176821   -0.019731264635901424   -0.0005744365491999534
-0.0007561869307561147   -0.02   -0.0005503158980679847
-0.0014754827319774877   -0.019643467039548678   -0.0004344504349076395
-0.0006461475956781325   -0.018937653937325154   -0.00037409738420744455
-0.0015495823941494191   -0.019717821088313967   -0.0005072340737412867
-0.0013794545468858819   -0.019611175579436216   -0.0004983901198488097
-0.0006461475956781325   -0.018937653937325154   -0.00037409738420744455
-0.0011316797831466905   -0.01899456682254812   -0.00045162206127621625
-0.0015495823941494191   -0.019717821088313967   -0.0005072340737412867
-0.0011051862715147015   -0.01896415640844959   -0.00047612032718447365
-0.0013794545468858819   -0.019611175579436216   -0.0004983901198488097
-0.0015124918312694742   -0.019692735009258906   -0.0005344959214734122
-0.0011051862715147015   -0.01896415640844959   -0.00047612032718447365
-0.0015495823941494191   -0.019717821088313967   -0.0005072340737412867
-0.0013794545468858819   -0.019611175579436216   -0.0004983901198488097
-0.0011051862715147015   -0.01896415640844959   -0.00047612032718447365
-0.0005688501603935845   -0.018899875689204277   -0.00042988577788485556
-0.0006461475956781325   -0.018937653937325154   -0.00037409738420744455
-0.0013794545468858819   -0.019611175579436216   -0.0004983901198488097
-0.0011051862715147015   -0.01896415640844959   -0.00047612032718447365
-0.0006461475956781325   -0.018937653937325154   -0.00037409738420744455
-0.0015495823941494191   -0.019717821088313967   -0.0005072340737412867
-0.0013794545468858819   -0.019611175579436216   -0.0004983901198488097
-0.0005688501603935845   -0.018899875689204277   -0.00042988577788485556
-0.0015124918312694742   -0.019692735009258906   -0.0005344959214734122
-0.0012995793367856039   -0.01960203119477951   -0.0005598568497022699
-0.0005688501603935845   -0.018899875689204277   -0.00042988577788485556
-0.0011051862715147015   -0.01896415640844959   -0.00047612032718447365
-0.0015124918312694742   -0.019692735009258906   -0.0005344959214734122
-0.00107516467961279   -0.01894802906676313   -0.0004985150250525031
-0.0012995793367856039   -0.01960203119477951   -0.0005598568497022699
-0.0014688237140774642   -0.019684176558721816   -0.0005597598935948518
-0.00107516467961279   -0.01894802906676313   -0.0004985150250525031
-0.0015124918312694742   -0.019692735009258906   -0.0005344959214734122
-0.0012995793367856039   -0.01960203119477951   -0.0005598568497022699
-0.00107516467961279   -0.01894802906676313   -0.0004985150250525031
-0.0005080068979015732   -0.018882706963345677   -0.00048256244122238135
-0.0005688501603935845   -0.018899875689204277   -0.00042988577788485556
-0.0012995793367856039   -0.01960203119477951   -0.0005598568497022699
-0.00107516467961279   -0.01894802906676313   -0.0004985150250525031
-0.0005688501603935845   -0.018899875689204277   -0.00042988577788485556
-0.0015124918312694742   -0.019692735009258906   -0.0005344959214734122
-0.0012995793367856039   -0.01960203119477951   -0.0005598568497022699
-0.0005080068979015732   -0.018882706963345677   -0.00048256244122238135
-0.0014688237140774642   -0.019684176558721816   -0.0005597598935948518
-0.0012088386291193162   -0.019612132160859636   -0.0006186018619835053
-0.0005080068979015732   -0.018882706963345677   -0.00048256244122238135
-0.00107516467961279   -0.01894802906676313   -0.0004985150250525031
-0.0014688237140774642   -0.019684176558721816   -0.0005597598935948518
-0.0010522041132962601   -0.01894572510632512   -0.0005188799713078944
-0.0012088386291193162   -0.019612132160859636   -0.0006186018619835053
-0.001431512839572915   -0.019692301346036754   -0.0005829056895393589
-0.0010522041132962601   -0.01894572510632512   -0.0005188799713078944
-0.0014688237140774642   -0.019684176558721816   -0.0005597598935948518
-0.0012088386291193162   -0.019612132160859636   -0.0006186018619835053
-0.0010522041132962601   -0.01894572510632512   -0.0005188799713078944
-0.00044111726623728416   -0.018881055101912025   -0.00053200422270527
-0.0005080068979015732   -0.018882706963345677   -0.00048256244122238135
-0.0012088386291193162   -0.019612132160859636   -0.0006186018619835053
-0.0010522041132962601   -0.01894572510632512   -0.0005188799713078944
-0.0005080068979015732   -0.018882706963345677   -0.00048256244122238135
-0.0014688237140774642   -0.019684176558721816   -0.0005597598935948518
-0.0015495823941494191   -0.019717821088313967   -0.0005072340737412867
-0.0011316797831466905   -0.01899456682254812   -0.00045162206127621625
-0.0016562737578054783   -0.019762629882471194   -0.0005652534531743278
-0.0015124918312694742   -0.019692735009258906   -0.0005344959214734122
-0.0011316797831466905   -0.01899456682254812   -0.00045162206127621625
-0.0016141869147105452   -0.019014356896010186   -0.0005145419415155179
-0.0016562737578054783   -0.019762629882471194   -0.0005652534531743278
-0.0015920346572185458   -0.018987853311591252   -0.0005157155635578676
-0.0015124918312694742   -0.019692735009258906   -0.0005344959214734122
-0.0016235507586107724   -0.01974017971906502   -0.000565803297758815
-0.0015920346572185458   -0.018987853311591252   -0.0005157155635578676
-0.0016562737578054783   -0.019762629882471194   -0.0005652534531743278
-0.0015124918312694742   -0.019692735009258906   -0.0005344959214734122
-0.0015920346572185458   -0.018987853311591252   -0.0005157155635578676
-0.0011051862715147015   -0.01896415640844959   -0.00047612032718447365
-0.0011316797831466905   -0.01899456682254812   -0.00045162206127621625
-0.0015124918312694742   -0.019692735009258906   -0.0005344959214734122
-0.0015920346572185458   -0.018987853311591252   -0.0005157155635578676
-0.0011316797831466905   -0.01899456682254812   -0.00045162206127621625
-0.0016562737578054783   -0.019762629882471194   -0.0005652534531743278
-0.0015124918312694742   -0.019692735009258906   -0.0005344959214734122
-0.0011051862715147015   -0.01896415640844959   -0.00047612032718447365
-0.0016235507586107724   -0.01974017971906502   -0.000565803297758815
-0.0014688237140774642   -0.019684176558721816   -0.0005597598935948518
-0.0011051862715147015   -0.01896415640844959   -0.00047612032718447365
-0.0015920346572185458   -0.018987853311591252   -0.0005157155635578676
-0.0016235507586107724   -0.01974017971906502   -0.000565803297758815
-0.001569101305866224   -0.018974215660473078   -0.000514938175860803
-0.0014688237140774642   -0.019684176558721816   -0.0005597598935948518
-0.0015871706328007666   -0.019732690506276504   -0.0005637644631043577
-0.001569101305866224   -0.018974215660473078   -0.000514938175860803
-0.0016235507586107724   -0.01974017971906502   -0.000565803297758815
-0.0014688237140774642   -0.019684176558721816   -0.0005597598935948518
-0.001569101305866224   -0.018974215660473078   -0.000514938175860803
-0.00107516467961279   -0.01894802906676313   -0.0004985150250525031
-0.0011051862715147015   -0.01896415640844959   -0.00047612032718447365
-0.0014688237140774642   -0.019684176558721816   -0.0005597598935948518
-0.001569101305866224   -0.018974215660473078   -0.000514938175860803
-0.0011051862715147015   -0.01896415640844959   -0.00047612032718447365
-0.0016235507586107724   -0.01974017971906502   -0.000565803297758815
-0.0014688237140774642   -0.019684176558721816   -0.0005597598935948518
-0.00107516467961279   -0.01894802906676313   -0.0004985150250525031
-0.0015871706328007666   -0.019732690506276504   -0.0005637644631043577
-0.001431512839572915   -0.019692301346036754   -0.0005829056895393589
-0.00107516467961279   -0.01894802906676313   -0.0004985150250525031
-0.001569101305866224   -0.018974215660473078   -0.000514938175860803
-0.0015871706328007666   -0.019732690506276504   -0.0005637644631043577
-0.0015470113283657357   -0.018972873171723397   -0.000512204575187782
-0.001431512839572915   -0.019692301346036754   -0.0005829056895393589
-0.0015502315301510958   -0.019739538240401987   -0.0005596916649335436
-0.0015470113283657357   -0.018972873171723397   -0.000512204575187782
-0.0015871706328007666   -0.019732690506276504   -0.0005637644631043577
-0.001431512839572915   -0.019692301346036754   -0.0005829056895393589
-0.0015470113283657357   -0.018972873171723397   -0.000512204575187782
-0.0010522041132962601   -0.01894572510632512   -0.0005188799713078944
-0.00107516467961279   -0.01894802906676313   -0.0004985150250525031
-0.001431512839572915   -0.019692301346036754   -0.0005829056895393589
-0.0015470113283657357   -0.018972873171723397   -0.000512204575187782
-0.00107516467961279   -0.01894802906676313   -0.0004985150250525031
-0.0015871706328007666   -0.019732690506276504   -0.0005637644631043577
-0.0016562737578054783   -0.019762629882471194   -0.0005652534531743278
-0.0016141869147105452   -0.019014356896010186   -0.0005145419415155179
-0.0017714810909432908   -0.019779672231067146   -0.0006225443503851112
-0.0016235507586107724   -0.01974017971906502   -0.000565803297758815
-0.0016141869147105452   -0.019014356896010186   -0.0005145419415155179
-0.002093837523797051   -0.01899613624265694   -0.0005735075486901496
-0.0017714810909432908   -0.019779672231067146   -0.0006225443503851112
-0.002071861524896533   -0.018972527476568867   -0.0005522872763153647
-0.0016235507586107724   -0.01974017971906502   -0.000565803297758815
-0.0017375769960637556   -0.01975811832630381   -0.0005973931058956799
-0.002071861524896533   -0.018972527476568867   -0.0005522872763153647
-0.0017714810909432908   -0.019779672231067146   -0.0006225443503851112
-0.0016235507586107724   -0.01974017971906502   -0.000565803297758815
-0.002071861524896533   -0.018972527476568867   -0.0005522872763153647
-0.0015920346572185458   -0.018987853311591252   -0.0005157155635578676
-0.0016141869147105452   -0.019014356896010186   -0.0005145419415155179
-0.0016235507586107724   -0.01974017971906502   -0.000565803297758815
-0.002071861524896533   -0.018972527476568867   -0.0005522872763153647
-0.0016141869147105452   -0.019014356896010186   -0.0005145419415155179
-0.0017714810909432908   -0.019779672231067146   -0.0006225443503851112
-0.0016235507586107724   -0.01974017971906502   -0.000565803297758815
-0.0015920346572185458   -0.018987853311591252   -0.0005157155635578676
-0.0017375769960637556   -0.01975811832630381   -0.0005973931058956799
-0.0015871706328007666   -0.019732690506276504   -0.0005637644631043577
-0.0015920346572185458   -0.018987853311591252   -0.0005157155635578676
-0.002071861524896533   -0.018972527476568867   -0.0005522872763153647
-0.0017375769960637556   -0.01975811832630381   -0.0005973931058956799
-0.0020472038888684017   -0.018961583792558318   -0.0005291508214220839
-0.0015871706328007666   -0.019732690506276504   -0.0005637644631043577
-0.0016970344908096248   -0.01975175463096508   -0.0005690849109327317
-0.0020472038888684017   -0.018961583792558318   -0.0005291508214220839
-0.0017375769960637556   -0.01975811832630381   -0.0005973931058956799
-0.0015871706328007666   -0.019732690506276504   -0.0005637644631043577
-0.0020472038888684017   -0.018961583792558318   -0.0005291508214220839
-0.001569101305866224   -0.018974215660473078   -0.000514938175860803
-0.0015920346572185458   -0.018987853311591252   -0.0005157155635578676
-0.0015871706328007666   -0.019732690506276504   -0.0005637644631043577
-0.0020472038888684017   -0.018961583792558318   -0.0005291508214220839
-0.0015920346572185458   -0.018987853311591252   -0.0005157155635578676
-0.0017375769960637556   -0.01975811832630381   -0.0005973931058956799
-0.0015871706328007666   -0.019732690506276504   -0.0005637644631043577
-0.001569101305866224   -0.018974215660473078   -0.000514938175860803
-0.0016970344908096248   -0.01975175463096508   -0.0005690849109327317
-0.0015502315301510958   -0.019739538240401987   -0.0005596916649335436
-0.001569101305866224   -0.018974215660473078   -0.000514938175860803
-0.0020472038888684017   -0.018961583792558318   -0.0005291508214220839
-0.0016970344908096248   -0.01975175463096508   -0.0005690849109327317
-0.002022509008608561   -0.018962158060378154   -0.0005038658067637274
-0.0015502315301510958   -0.019739538240401987   -0.0005596916649335436
-0.001655418129955408   -0.019758342419068698   -0.0005390079881854567
-0.002022509008608561   -0.018962158060378154   -0.0005038658067637274
-0.0016970344908096248   -0.01975175463096508   -0.0005690849109327317
-0.0015502315301510958   -0.019739538240401987   -0.0005596916649335436
-0.002022509008608561   -0.018962158060378154   -0.0005038658067637274
-0.0015470113283657357   -0.018972873171723397   -0.000512204575187782
-0.001569101305866224   -0.018974215660473078   -0.000514938175860803
-0.0015502315301510958   -0.019739538240401987   -0.0005596916649335436
-0.002022509008608561   -0.018962158060378154   -0.0005038658067637274
-0.001569101305866224   -0.018974215660473078   -0.000514938175860803
-0.0016970344908096248   -0.01975175463096508   -0.0005690849109327317
-0.0017714810909432908   -0.019779672231067146   -0.0006225443503851112
-0.002093837523797051   -0.01899613624265694   -0.0005735075486901496
-0.0019388781187035507   -0.019756202276554048   -0.0006774636658793983
-0.0017375769960637556   -0.01975811832630381   -0.0005973931058956799
-0.002093837523797051   -0.01899613624265694   -0.0005735075486901496
-0.002619498802506839   -0.018937604146755414   -0.0006279230579652283
-0.0019388781187035507   -0.019756202276554048   -0.0006774636658793983
-0.002592416262794669   -0.01891684442327408   -0.000584738564352925
-0.0017375769960637556   -0.01975811832630381   -0.0005973931058956799
-0.001894649629765887   -0.01973558238795924   -0.0006277306685012453
-0.002592416262794669   -0.01891684442327408   -0.000584738564352925
-0.0019388781187035507   -0.019756202276554048   -0.0006774636658793983
-0.0017375769960637556   -0.01975811832630381   -0.0005973931058956799
-0.002592416262794669   -0.01891684442327408   -0.000584738564352925
-0.002071861524896533   -0.018972527476568867   -0.0005522872763153647
-0.002093837523797051   -0.01899613624265694   -0.0005735075486901496
-0.0017375769960637556   -0.01975811832630381   -0.0005973931058956799
-0.002592416262794669   -0.01891684442327408   -0.000584738564352925
-0.002093837523797051   -0.01899613624265694   -0.0005735075486901496
-0.0019388781187035507   -0.019756202276554048   -0.0006774636658793983
-0.0017375769960637556   -0.01975811832630381   -0.0005973931058956799
-0.002071861524896533   -0.018972527476568867   -0.0005522872763153647
-0.001894649629765887   -0.01973558238795924   -0.0006277306685012453
-0.0016970344908096248   -0.01975175463096508   -0.0005690849109327317
-0.002071861524896533   -0.018972527476568867   -0.0005522872763153647
-0.002592416262794669   -0.01891684442327408   -0.000584738564352925
-0.001894649629765887   -0.01973558238795924   -0.0006277306685012453
-0.002554850486337787   -0.018908584423878258   -0.000539796770536881
-0.0016970344908096248   -0.01975175463096508   -0.0005690849109327317
-0.0018359936406176821   -0.019731264635901424   -0.0005744365491999534
-0.002554850486337787   -0.018908584423878258   -0.000539796770536881
-0.001894649629765887   -0.01973558238795924   -0.0006277306685012453
-0.0016970344908096248   -0.01975175463096508   -0.0005690849109327317
-0.002554850486337787   -0.018908584423878258   -0.000539796770536881
-0.0020472038888684017   -0.018961583792558318   -0.0005291508214220839
-0.002071861524896533   -0.018972527476568867   -0.0005522872763153647
-0.0016970344908096248   -0.01975175463096508   -0.0005690849109327317
-0.002554850486337787   -0.018908584423878258   -0.000539796770536881
-0.002071861524896533   -0.018972527476568867   -0.0005522872763153647
-0.001894649629765887   -0.01973558238795924   -0.0006277306685012453
-0.0016970344908096248   -0.01975175463096508   -0.0005690849109327317
-0.0020472038888684017   -0.018961583792558318   -0.0005291508214220839
-0.0018359936406176821   -0.019731264635901424   -0.0005744365491999534
-0.001655418129955408   -0.019758342419068698   -0.0005390079881854567
-0.0020472038888684017   -0.018961583792558318   -0.0005291508214220839
-0.002554850486337787   -0.018908584423878258   -0.000539796770536881
-0.0018359936406176821   -0.019731264635901424   -0.0005744365491999534
-0.002522362339771989   -0.01891282201767614   -0.0004918936855281062
-0.001655418129955408   -0.019758342419068698   -0.0005390079881854567
-0.0017812777432992183   -0.019740210994826982   -0.0005191860648956063
-0.002522362339771989   -0.01891282201767614   -0.0004918936855281062
-0.0018359936406176821   -0.019731264635901424   -0.0005744365491999534
-0.001655418129955408   -0.019758342419068698   -0.0005390079881854567
-0.002522362339771989   -0.01891282201767614   -0.0004918936855281062
-0.002022509008608561   -0.018962158060378154   -0.0005038658067637274
-0.0020472038888684017   -0.018961583792558318   -0.0005291508214220839
-0.001655418129955408   -0.019758342419068698   -0.0005390079881854567
-0.002522362339771989   -0.01891282201767614   -0.0004918936855281062
-0.0020472038888684017   -0.018961583792558318   -0.0005291508214220839
-0.0018359936406176821   -0.019731264635901424   -0.0005744365491999534
-0.0019388781187035507   -0.019756202276554048   -0.0006774636658793983
-0.002619498802506839   -0.018937604146755414   -0.0006279230579652283
-0.0022708989850298124   -0.019660120432550228   -0.0007366267090009659
-0.001894649629765887   -0.01973558238795924   -0.0006277306685012453
-0.002619498802506839   -0.018937604146755414   -0.0006279230579652283
-0.003296152364876553   -0.018842409704683954   -0.0006809201962770882
-0.0022708989850298124   -0.019660120432550228   -0.0007366267090009659
-0.003206316584647547   -0.018819577501608415   -0.0006126572152473857
-0.001894649629765887   -0.01973558238795924   -0.0006277306685012453
-0.002150154053857732   -0.01964227620144996   -0.0006550980913960206
-0.003206316584647547   -0.018819577501608415   -0.0006126572152473857
-0.0022708989850298124   -0.019660120432550228   -0.0007366267090009659
-0.001894649629765887   -0.01973558238795924   -0.0006277306685012453
-0.003206316584647547   -0.018819577501608415   -0.0006126572152473857
-0.002592416262794669   -0.01891684442327408   -0.000584738564352925
-0.002619498802506839   -0.018937604146755414   -0.0006279230579652283
-0.001894649629765887   -0.01973558238795924   -0.0006277306685012453
-0.003206316584647547   -0.018819577501608415   -0.0006126572152473857
-0.002619498802506839   -0.018937604146755414   -0.0006279230579652283
-0.0022708989850298124   -0.019660120432550228   -0.0007366267090009659
-0.001894649629765887   -0.01973558238795924   -0.0006277306685012453
-0.002592416262794669   -0.01891684442327408   -0.000584738564352925
-0.002150154053857732   -0.01964227620144996   -0.0006550980913960206
-0.0018359936406176821   -0.019731264635901424   -0.0005744365491999534
-0.002592416262794669   -0.01891684442327408   -0.000584738564352925
-0.003206316584647547   -0.018819577501608415   -0.0006126572152473857
-0.002150154053857732   -0.01964227620144996   -0.0006550980913960206
-0.003126328524655474   -0.018811937387174113   -0.0005406687354334082
-0.0018359936406176821   -0.019731264635901424   -0.0005744365491999534
-0.002039864159202478   -0.01964013893735396   -0.000568372755410987
-0.003126328524655474   -0.018811937387174113   -0.0005406687354334082
-0.002150154053857732   -0.01964227620144996   -0.0006550980913960206
-0.0018359936406176821   -0.019731264635901424   -0.0005744365491999534
-0.003126328524655474   -0.018811937387174113   -0.0005406687354334082
-0.002554850486337787   -0.018908584423878258   -0.000539796770536881
-0.002592416262794669   -0.01891684442327408   -0.000584738564352925
-0.0018359936406176821   -0.019731264635901424   -0.0005744365491999534
-0.003126328524655474   -0.018811937387174113   -0.0005406687354334082
-0.002592416262794669   -0.01891684442327408   -0.000584738564352925
-0.002150154053857732   -0.01964227620144996   -0.0006550980913960206
-0.0018359936406176821   -0.019731264635901424   -0.0005744365491999534
-0.002554850486337787   -0.018908584423878258   -0.000539796770536881
-0.002039864159202478   -0.01964013893735396   -0.000568372755410987
-0.0017812777432992183   -0.019740210994826982   -0.0005191860648956063
-0.002554850486337787   -0.018908584423878258   -0.000539796770536881
-0.003126328524655474   -0.018811937387174113   -0.0005406687354334082
-0.002039864159202478   -0.01964013893735396   -0.000568372755410987
-0.003022728943954685   -0.018823605712898137   -0.0004656176482081664
-0.0017812777432992183   -0.019740210994826982   -0.0005191860648956063
-0.0019004590032018372   -0.019663431474939066   -0.00047792671230905125
-0.003022728943954685   -0.018823605712898137   -0.0004656176482081664
-0.002039864159202478   -0.01964013893735396   -0.000568372755410987
-0.0017812777432992183   -0.019740210994826982   -0.0005191860648956063
-0.003022728943954685   -0.018823605712898137   -0.0004656176482081664
-0.002522362339771989   -0.01891282201767614   -0.0004918936855281062
-0.002554850486337787   -0.018908584423878258   -0.000539796770536881
-0.0017812777432992183   -0.019740210994826982   -0.0005191860648956063
-0.003022728943954685   -0.018823605712898137   -0.0004656176482081664
-0.002554850486337787   -0.018908584423878258   -0.000539796770536881
-0.002039864159202478   -0.01964013893735396   -0.000568372755410987
-0.0006461475956781325   -0.018937653937325154   -0.00037409738420744455
3.458948747925727e-05   -0.01760981635909665   -0.0003083448057840824
-0.0011316797831466905   -0.01899456682254812   -0.00045162206127621625
-0.0005688501603935845   -0.018899875689204277   -0.00042988577788485556
3.458948747925727e-05   -0.01760981635909665   -0.0003083448057840824
-0.0007959067012030715   -0.017652190059020457   -0.00038465187325401523
-0.0011316797831466905   -0.01899456682254812   -0.00045162206127621625
-0.0007816435116613517   -0.017620274574980464   -0.0004043213038526234
-0.0005688501603935845   -0.018899875689204277   -0.00042988577788485556
-0.0011051862715147015   -0.01896415640844959   -0.00047612032718447365
-0.0007816435116613517   -0.017620274574980464   -0.0004043213038526234
-0.0011316797831466905   -0.01899456682254812   -0.00045162206127621625
-0.0005688501603935845   -0.018899875689204277   -0.00042988577788485556
-0.0007816435116613517   -0.017620274574980464   -0.0004043213038526234
8.945397993884262e-05   -0.017571310032902666   -0.00035334735127479273
3.458948747925727e-05   -0.01760981635909665   -0.0003083448057840824
-0.0005688501603935845   -0.018899875689204277   -0.00042988577788485556
-0.0007816435116613517   -0.017620274574980464   -0.0004043213038526234
3.458948747925727e-05   -0.01760981635909665   -0.0003083448057840824
-0.0011316797831466905   -0.01899456682254812   -0.00045162206127621625
-0.0005688501603935845   -0.018899875689204277   -0.00042988577788485556
8.945397993884262e-05   -0.017571310032902666   -0.00035334735127479273
-0.0011051862715147015   -0.01896415640844959   -0.00047612032718447365
-0.0005080068979015732   -0.018882706963345677   -0.00048256244122238135
8.945397993884262e-05   -0.017571310032902666   -0.00035334735127479273
-0.0007816435116613517   -0.017620274574980464   -0.0004043213038526234
-0.0011051862715147015   -0.01896415640844959   -0.00047612032718447365
-0.000765248576515629   -0.017600151912100202   -0.00042181008469353734
-0.0005080068979015732   -0.018882706963345677   -0.00048256244122238135
-0.00107516467961279   -0.01894802906676313   -0.0004985150250525031
-0.000765248576515629   -0.017600151912100202   -0.00042181008469353734
-0.0011051862715147015   -0.01896415640844959   -0.00047612032718447365
-0.0005080068979015732   -0.018882706963345677   -0.00048256244122238135
-0.000765248576515629   -0.017600151912100202   -0.00042181008469353734
0.0001299074554674429   -0.017549899837939628   -0.00039529686257493667
8.945397993884262e-05   -0.017571310032902666   -0.00035334735127479273
-0.0005080068979015732   -0.018882706963345677   -0.00048256244122238135
-0.000765248576515629   -0.017600151912100202   -0.00042181008469353734
8.945397993884262e-05   -0.017571310032902666   -0.00035334735127479273
-0.0011051862715147015   -0.01896415640844959   -0.00047612032718447365
-0.0005080068979015732   -0.018882706963345677   -0.00048256244122238135
0.0001299074554674429   -0.017549899837939628   -0.00039529686257493667
-0.00107516467961279   -0.01894802906676313   -0.0004985150250525031
-0.00044111726623728416   -0.018881055101912025   -0.00053200422270527
0.0001299074554674429   -0.017549899837939628   -0.00039529686257493667
-0.000765248576515629   -0.017600151912100202   -0.00042181008469353734
-0.00107516467961279   -0.01894802906676313   -0.0004985150250525031
-0.0007554281542980847   -0.017591201419228045   -0.00043733456976641444
-0.00044111726623728416   -0.018881055101912025   -0.00053200422270527
-0.0010522041132962601   -0.01894572510632512   -0.0005188799713078944
-0.0007554281542980847   -0.017591201419228045   -0.00043733456976641444
-0.00107516467961279   -0.01894802906676313   -0.0004985150250525031
-0.00044111726623728416   -0.018881055101912025   -0.00053200422270527
-0.0007554281542980847   -0.017591201419228045   -0.00043733456976641444
0.00017363225423529894   -0.017540615102790827   -0.0004341853034300649
0.0001299074554674429   -0.017549899837939628   -0.00039529686257493667
-0.00044111726623728416   -0.018881055101912025   -0.00053200422270527
-0.0007554281542980847   -0.017591201419228045   -0.00043733456976641444
0.0001299074554674429   -0.017549899837939628   -0.00039529686257493667
-0.00107516467961279   -0.01894802906676313   -0.0004985150250525031
-0.0011316797831466905   -0.01899456682254812   -0.00045162206127621625
-0.0007959067012030715   -0.017652190059020457   -0.00038465187325401523
-0.0016141869147105452   -0.019014356896010186   -0.0005145419415155179
-0.0011051862715147015   -0.01896415640844959   -0.00047612032718447365
-0.0007959067012030715   -0.017652190059020457   -0.00038465187325401523
-0.001602277093386422   -0.01766036834425615   -0.0004470718346394561
-0.0016141869147105452   -0.019014356896010186   -0.0005145419415155179
-0.001591904080682457   -0.017633079619881597   -0.00044744885222198854
-0.0011051862715147015   -0.01896415640844959   -0.00047612032718447365
-0.0015920346572185458   -0.018987853311591252   -0.0005157155635578676
-0.001591904080682457   -0.017633079619881597   -0.00044744885222198854
-0.0016141869147105452   -0.019014356896010186   -0.0005145419415155179
-0.0011051862715147015   -0.01896415640844959   -0.00047612032718447365
-0.001591904080682457   -0.017633079619881597   -0.00044744885222198854
-0.0007816435116613517   -0.017620274574980464   -0.0004043213038526234
-0.0007959067012030715   -0.017652190059020457   -0.00038465187325401523
-0.0011051862715147015   -0.01896415640844959   -0.00047612032718447365
-0.001591904080682457   -0.017633079619881597   -0.00044744885222198854
-0.0007959067012030715   -0.017652190059020457   -0.00038465187325401523
-0.0016141869147105452   -0.019014356896010186   -0.0005145419415155179
-0.0011051862715147015   -0.01896415640844959   -0.00047612032718447365
-0.0007816435116613517   -0.017620274574980464   -0.0004043213038526234
-0.0015920346572185458   -0.018987853311591252   -0.0005157155635578676
-0.00107516467961279   -0.01894802906676313   -0.0004985150250525031
-0.0007816435116613517   -0.017620274574980464   -0.0004043213038526234
-0.001591904080682457   -0.017633079619881597   -0.00044744885222198854
-0.0015920346572185458   -0.018987853311591252   -0.0005157155635578676
-0.0015812173571919225   -0.0176163349126539   -0.0004457303523673573
-0.00107516467961279   -0.01894802906676313   -0.0004985150250525031
-0.001569101305866224   -0.018974215660473078   -0.000514938175860803
-0.0015812173571919225   -0.0176163349126539   -0.0004457303523673573
-0.0015920346572185458   -0.018987853311591252   -0.0005157155635578676
-0.00107516467961279   -0.01894802906676313   -0.0004985150250525031
-0.0015812173571919225   -0.0176163349126539   -0.0004457303523673573
-0.000765248576515629   -0.017600151912100202   -0.00042181008469353734
-0.0007816435116613517   -0.017620274574980464   -0.0004043213038526234
-0.00107516467961279   -0.01894802906676313   -0.0004985150250525031
-0.0015812173571919225   -0.0176163349126539   -0.0004457303523673573
-0.0007816435116613517   -0.017620274574980464   -0.0004043213038526234
-0.0015920346572185458   -0.018987853311591252   -0.0005157155635578676
-0.00107516467961279   -0.01894802906676313   -0.0004985150250525031
-0.000765248576515629   -0.017600151912100202   -0.00042181008469353734
-0.001569101305866224   -0.018974215660473078   -0.000514938175860803
-0.0010522041132962601   -0.01894572510632512   -0.0005188799713078944
-0.000765248576515629   -0.017600151912100202   -0.00042181008469353734
-0.0015812173571919225   -0.0176163349126539   -0.0004457303523673573
-0.001569101305866224   -0.018974215660473078   -0.000514938175860803
-0.0015718780615407513   -0.01760997814501844   -0.0004420655672729352
-0.0010522041132962601   -0.01894572510632512   -0.0005188799713078944
-0.0015470113283657357   -0.018972873171723397   -0.000512204575187782
-0.0015718780615407513   -0.01760997814501844   -0.0004420655672729352
-0.001569101305866224   -0.018974215660473078   -0.000514938175860803
-0.0010522041132962601   -0.01894572510632512   -0.0005188799713078944
-0.0015718780615407513   -0.01760997814501844   -0.0004420655672729352
-0.0007554281542980847   -0.017591201419228045   -0.00043733456976641444
-0.000765248576515629   -0.017600151912100202   -0.00042181008469353734
-0.0010522041132962601   -0.01894572510632512   -0.0005188799713078944
-0.0015718780615407513   -0.01760997814501844   -0.0004420655672729352
-0.000765248576515629   -0.017600151912100202   -0.00042181008469353734
-0.001569101305866224   -0.018974215660473078   -0.000514938175860803
-0.0016141869147105452   -0.019014356896010186   -0.0005145419415155179
-0.001602277093386422   -0.01766036834425615   -0.0004470718346394561
-0.002093837523797051   -0.01899613624265694   -0.0005735075486901496
-0.0015920346572185458   -0.018987853311591252   -0.0005157155635578676
-0.001602277093386422   -0.01766036834425615   -0.0004470718346394561
-0.0023965984219021037   -0.017634396069810945   -0.0005033703792402825
-0.002093837523797051   -0.01899613624265694   -0.0005735075486901496
-0.0023869524801999596   -0.01761088927197387   -0.0004849122383113492
-0.0015920346572185458   -0.018987853311591252   -0.0005157155635578676
-0.002071861524896533   -0.018972527476568867   -0.0005522872763153647
-0.0023869524801999596   -0.01761088927197387   -0.0004849122383113492
-0.002093837523797051   -0.01899613624265694   -0.0005735075486901496
-0.0015920346572185458   -0.018987853311591252   -0.0005157155635578676
-0.0023869524801999596   -0.01761088927197387   -0.0004849122383113492
-0.001591904080682457   -0.017633079619881597   -0.00044744885222198854
-0.001602277093386422   -0.01766036834425615   -0.0004470718346394561
-0.0015920346572185458   -0.018987853311591252   -0.0005157155635578676
-0.0023869524801999596   -0.01761088927197387   -0.0004849122383113492
-0.001602277093386422   -0.01766036834425615   -0.0004470718346394561
-0.002093837523797051   -0.01899613624265694   -0.0005735075486901496
-0.0015920346572185458   -0.018987853311591252   -0.0005157155635578676
-0.001591904080682457   -0.017633079619881597   -0.00044744885222198854
-0.002071861524896533   -0.018972527476568867   -0.0005522872763153647
-0.001569101305866224   -0.018974215660473078   -0.000514938175860803
-0.001591904080682457   -0.017633079619881597   -0.00044744885222198854
-0.0023869524801999596   -0.01761088927197387   -0.0004849122383113492
-0.002071861524896533   -0.018972527476568867   -0.0005522872763153647
-0.002375284963401002   -0.017597813731311085   -0.00046440943974088465
-0.001569101305866224   -0.018974215660473078   -0.000514938175860803
-0.0020472038888684017   -0.018961583792558318   -0.0005291508214220839
-0.002375284963401002   -0.017597813731311085   -0.00046440943974088465
-0.002071861524896533   -0.018972527476568867   -0.0005522872763153647
-0.001569101305866224   -0.018974215660473078   -0.000514938175860803
-0.002375284963401002   -0.017597813731311085   -0.00046440943974088465
-0.0015812173571919225   -0.0176163349126539   -0.0004457303523673573
-0.001591904080682457   -0.017633079619881597   -0.00044744885222198854
-0.001569101305866224   -0.018974215660473078   -0.000514938175860803
-0.002375284963401002   -0.017597813731311085   -0.00046440943974088465
-0.001591904080682457   -0.017633079619881597   -0.00044744885222198854
-0.002071861524896533   -0.018972527476568867   -0.0005522872763153647
-0.001569101305866224   -0.018974215660473078   -0.000514938175860803
-0.0015812173571919225   -0.0176163349126539   -0.0004457303523673573
-0.0020472038888684017   -0.018961583792558318   -0.0005291508214220839
-0.0015470113283657357   -0.018972873171723397   -0.000512204575187782
-0.0015812173571919225   -0.0176163349126539   -0.0004457303523673573
-0.002375284963401002   -0.017597813731311085   -0.00046440943974088465
-0.0020472038888684017   -0.018961583792558318   -0.0005291508214220839
-0.0023639776329382792   -0.01759471867836098   -0.00044192363352179296
-0.0015470113283657357   -0.018972873171723397   -0.000512204575187782
-0.002022509008608561   -0.018962158060378154   -0.0005038658067637274
-0.0023639776329382792   -0.01759471867836098   -0.00044192363352179296
-0.0020472038888684017   -0.018961583792558318   -0.0005291508214220839
-0.0015470113283657357   -0.018972873171723397   -0.000512204575187782
-0.0023639776329382792   -0.01759471867836098   -0.00044192363352179296
-0.0015718780615407513   -0.01760997814501844   -0.0004420655672729352
-0.0015812173571919225   -0.0176163349126539   -0.0004457303523673573
-0.0015470113283657357   -0.018972873171723397   -0.000512204575187782
-0.0023639776329382792   -0.01759471867836098   -0.00044192363352179296
-0.0015812173571919225   -0.0176163349126539   -0.0004457303523673573
-0.0020472038888684017   -0.018961583792558318   -0.0005291508214220839
-0.002093837523797051   -0.01899613624265694   -0.0005735075486901496
-0.0023965984219021037   -0.017634396069810945   -0.0005033703792402825
-0.002619498802506839   -0.018937604146755414   -0.0006279230579652283
-0.002071861524896533   -0.018972527476568867   -0.0005522872763153647
-0.0023965984219021037   -0.017634396069810945   -0.0005033703792402825
-0.003228178991824381   -0.017575106861968174   -0.0005534442667655177
-0.002619498802506839   -0.018937604146755414   -0.0006279230579652283
-0.003215396009860564   -0.01755515088217351   -0.0005160977295529601
-0.002071861524896533   -0.018972527476568867   -0.0005522872763153647
-0.002592416262794669   -0.01891684442327408   -0.000584738564352925
-0.003215396009860564   -0.01755515088217351   -0.0005160977295529601
-0.002619498802506839   -0.018937604146755414   -0.0006279230579652283
-0.002071861524896533   -0.018972527476568867   -0.0005522872763153647
-0.003215396009860564   -0.01755515088217351   -0.0005160977295529601
-0.0023869524801999596   -0.01761088927197387   -0.0004849122383113492
-0.0023965984219021037   -0.017634396069810945   -0.0005033703792402825
-0.002071861524896533   -0.018972527476568867   -0.0005522872763153647
-0.003215396009860564   -0.01755515088217351   -0.0005160977295529601
-0.0023965984219021037   -0.017634396069810945   -0.0005033703792402825
-0.002619498802506839   -0.018937604146755414   -0.0006279230579652283
-0.002071861524896533   -0.018972527476568867   -0.0005522872763153647
-0.0023869524801999596   -0.01761088927197387   -0.0004849122383113492
-0.002592416262794669   -0.01891684442327408   -0.000584738564352925
-0.0020472038888684017   -0.018961583792558318   -0.0005291508214220839
-0.0023869524801999596   -0.01761088927197387   -0.0004849122383113492
-0.003215396009860564   -0.01755515088217351   -0.0005160977295529601
-0.002592416262794669   -0.01891684442327408   -0.000584738564352925
-0.0031936226081953544   -0.017545400956179808   -0.00047702933136959194
-0.0020472038888684017   -0.018961583792558318   -0.0005291508214220839
-0.002554850486337787   -0.018908584423878258   -0.000539796770536881
-0.0031936226081953544   -0.017545400956179808   -0.00047702933136959194
-0.002592416262794669   -0.01891684442327408   -0.000584738564352925
-0.0020472038888684017   -0.018961583792558318   -0.0005291508214220839
-0.0031936226081953544   -0.017545400956179808   -0.00047702933136959194
-0.002375284963401002   -0.017597813731311085   -0.00046440943974088465
-0.0023869524801999596   -0.01761088927197387   -0.0004849122383113492
-0.0020472038888684017   -0.018961583792558318   -0.0005291508214220839
-0.0031936226081953544   -0.017545400956179808   -0.00047702933136959194
-0.0023869524801999596   -0.01761088927197387   -0.0004849122383113492
-0.002592416262794669   -0.01891684442327408   -0.000584738564352925
-0.0020472038888684017   -0.018961583792558318   -0.0005291508214220839
-0.002375284963401002   -0.017597813731311085   -0.00046440943974088465
-0.002554850486337787   -0.018908584423878258   -0.000539796770536881
-0.002022509008608561   -0.018962158060378154   -0.0005038658067637274
-0.002375284963401002   -0.017597813731311085   -0.00046440943974088465
-0.0031936226081953544   -0.017545400956179808   -0.00047702933136959194
-0.002554850486337787   -0.018908584423878258   -0.000539796770536881
-0.0031761517925294716   -0.017546414585139607   -0.0004356841258872781
-0.002022509008608561   -0.018962158060378154   -0.0005038658067637274
-0.002522362339771989   -0.01891282201767614   -0.0004918936855281062
-0.0031761517925294716   -0.017546414585139607   -0.0004356841258872781
-0.002554850486337787   -0.018908584423878258   -0.000539796770536881
-0.002022509008608561   -0.018962158060378154   -0.0005038658067637274
-0.0031761517925294716   -0.017546414585139607   -0.0004356841258872781
-0.0023639776329382792   -0.01759471867836098   -0.00044192363352179296
-0.002375284963401002   -0.017597813731311085   -0.00046440943974088465
-0.002022509008608561   -0.018962158060378154   -0.0005038658067637274
-0.0031761517925294716   -0.017546414585139607   -0.0004356841258872781
-0.002375284963401002   -0.017597813731311085   -0.00046440943974088465
-0.002554850486337787   -0.018908584423878258   -0.000539796770536881
-0.002619498802506839   -0.018937604146755414   -0.0006279230579652283
-0.003228178991824381   -0.017575106861968174   -0.0005534442667655177
-0.003296152364876553   -0.018842409704683954   -0.0006809201962770882
-0.002592416262794669   -0.01891684442327408   -0.000584738564352925
-0.003228178991824381   -0.017575106861968174   -0.0005534442667655177
-0.004197567561965607   -0.01748915046738888   -0.0006006696257584706
-0.003296152364876553   -0.018842409704683954   -0.0006809201962770882
-0.0041302745465216445   -0.01746809154269502   -0.0005420875624901971
-0.002592416262794669   -0.01891684442327408   -0.000584738564352925
-0.003206316584647547   -0.018819577501608415   -0.0006126572152473857
-0.0041302745465216445   -0.01746809154269502   -0.0005420875624901971
-0.003296152364876553   -0.018842409704683954   -0.0006809201962770882
-0.002592416262794669   -0.01891684442327408   -0.000584738564352925
-0.0041302745465216445   -0.01746809154269502   -0.0005420875624901971
-0.003215396009860564   -0.01755515088217351   -0.0005160977295529601
-0.003228178991824381   -0.017575106861968174   -0.0005534442667655177
-0.002592416262794669   -0.01891684442327408   -0.000584738564352925
-0.0041302745465216445   -0.01746809154269502   -0.0005420875624901971
-0.003228178991824381   -0.017575106861968174   -0.0005534442667655177
-0.003296152364876553   -0.018842409704683954   -0.0006809201962770882
-0.002592416262794669   -0.01891684442327408   -0.000584738564352925
-0.003215396009860564   -0.01755515088217351   -0.0005160977295529601
-0.003206316584647547   -0.018819577501608415   -0.0006126572152473857
-0.002554850486337787   -0.018908584423878258   -0.000539796770536881
-0.003215396009860564   -0.01755515088217351   -0.0005160977295529601
-0.0041302745465216445   -0.01746809154269502   -0.0005420875624901971
-0.003206316584647547   -0.018819577501608415   -0.0006126572152473857
-0.0040722149057342005   -0.017459246195833285   -0.0004806411819215468
-0.002554850486337787   -0.018908584423878258   -0.000539796770536881
-0.003126328524655474   -0.018811937387174113   -0.0005406687354334082
-0.0040722149057342005   -0.017459246195833285   -0.0004806411819215468
-0.003206316584647547   -0.018819577501608415   -0.0006126572152473857
-0.002554850486337787   -0.018908584423878258   -0.000539796770536881
-0.0040722149057342005   -0.017459246195833285   -0.0004806411819215468
-0.0031936226081953544   -0.017545400956179808   -0.00047702933136959194
-0.003215396009860564   -0.01755515088217351   -0.0005160977295529601
-0.002554850486337787   -0.018908584423878258   -0.000539796770536881
-0.0040722149057342005   -0.017459246195833285   -0.0004806411819215468
-0.003215396009860564   -0.01755515088217351   -0.0005160977295529601
-0.003206316584647547   -0.018819577501608415   -0.0006126572152473857
-0.002554850486337787   -0.018908584423878258   -0.000539796770536881
-0.0031936226081953544   -0.017545400956179808   -0.00047702933136959194
-0.003126328524655474   -0.018811937387174113   -0.0005406687354334082
-0.002522362339771989   -0.01891282201767614   -0.0004918936855281062
-0.0031936226081953544   -0.017545400956179808   -0.00047702933136959194
-0.0040722149057342005   -0.017459246195833285   -0.0004806411819215468
-0.003126328524655474   -0.018811937387174113   -0.0005406687354334082
-0.00399414111769174   -0.01746676679914196   -0.0004167172340776993
-0.002522362339771989   -0.01891282201767614   -0.0004918936855281062
-0.003022728943954685   -0.018823605712898137   -0.0004656176482081664
-0.00399414111769174   -0.01746676679914196   -0.0004167172340776993
-0.003126328524655474   -0.018811937387174113   -0.0005406687354334082
-0.002522362339771989   -0.01891282201767614   -0.0004918936855281062
-0.00399414111769174   -0.01746676679914196   -0.0004167172340776993
-0.0031761517925294716   -0.017546414585139607   -0.0004356841258872781
-0.0031936226081953544   -0.017545400956179808   -0.00047702933136959194
-0.002522362339771989   -0.01891282201767614   -0.0004918936855281062
-0.00399414111769174   -0.01746676679914196   -0.0004167172340776993
-0.0031936226081953544   -0.017545400956179808   -0.00047702933136959194
-0.003126328524655474   -0.018811937387174113   -0.0005406687354334082
3.458948747925727e-05   -0.01760981635909665   -0.0003083448057840824
0.0005590700859823955   -0.015787115699582518   -0.00023458173196178237
-0.0007959067012030715   -0.017652190059020457   -0.00038465187325401523
8.945397993884262e-05   -0.017571310032902666   -0.00035334735127479273
0.0005590700859823955   -0.015787115699582518   -0.00023458173196178237
-0.00054968426695711   -0.01581568959653385   -0.0003075074990299131
-0.0007959067012030715   -0.017652190059020457   -0.00038465187325401523
-0.0005464095769074046   -0.015783935543371014   -0.0003213970863187092
8.945397993884262e-05   -0.017571310032902666   -0.00035334735127479273
-0.0007816435116613517   -0.017620274574980464   -0.0004043213038526234
-0.0005464095769074046   -0.015783935543371014   -0.0003213970863187092
-0.0007959067012030715   -0.017652190059020457   -0.00038465187325401523
8.945397993884262e-05   -0.017571310032902666   -0.00035334735127479273
-0.0005464095769074046   -0.015783935543371014   -0.0003213970863187092
0.0005926207857957676   -0.015749462931139924   -0.0002684232907912617
0.0005590700859823955   -0.015787115699582518   -0.00023458173196178237
8.945397993884262e-05   -0.017571310032902666   -0.00035334735127479273
-0.0005464095769074046   -0.015783935543371014   -0.0003213970863187092
0.0005590700859823955   -0.015787115699582518   -0.00023458173196178237
-0.0007959067012030715   -0.017652190059020457   -0.00038465187325401523
8.945397993884262e-05   -0.017571310032902666   -0.00035334735127479273
0.0005926207857957676   -0.015749462931139924   -0.0002684232907912617
-0.0007816435116613517   -0.017620274574980464   -0.0004043213038526234
0.0001299074554674429   -0.017549899837939628   -0.00039529686257493667
0.0005926207857957676   -0.015749462931139924   -0.0002684232907912617
-0.0005464095769074046   -0.015783935543371014   -0.0003213970863187092
-0.0007816435116613517   -0.017620274574980464   -0.0004043213038526234
-0.0005421950380277107   -0.015761609256809514   -0.0003332667118743894
0.0001299074554674429   -0.017549899837939628   -0.00039529686257493667
-0.000765248576515629   -0.017600151912100202   -0.00042181008469353734
-0.0005421950380277107   -0.015761609256809514   -0.0003332667118743894
-0.0007816435116613517   -0.017620274574980464   -0.0004043213038526234
0.0001299074554674429   -0.017549899837939628   -0.00039529686257493667
-0.0005421950380277107   -0.015761609256809514   -0.0003332667118743894
0.0006143292519653639   -0.0157255918548456   -0.0002994040436275989
0.0005926207857957676   -0.015749462931139924   -0.0002684232907912617
0.0001299074554674429   -0.017549899837939628   -0.00039529686257493667
-0.0005421950380277107   -0.015761609256809514   -0.0003332667118743894
0.0005926207857957676   -0.015749462931139924   -0.0002684232907912617
-0.0007816435116613517   -0.017620274574980464   -0.0004043213038526234
0.0001299074554674429   -0.017549899837939628   -0.00039529686257493667
0.0006143292519653639   -0.0157255918548456   -0.0002994040436275989
-0.000765248576515629   -0.017600151912100202   -0.00042181008469353734
0.00017363225423529894   -0.017540615102790827   -0.0004341853034300649
0.0006143292519653639   -0.0157255918548456   -0.0002994040436275989
-0.0005421950380277107   -0.015761609256809514   -0.0003332667118743894
-0.000765248576515629   -0.017600151912100202   -0.00042181008469353734
-0.0005436507682994448   -0.015747957438282997   -0.00034326266661414013
0.00017363225423529894   -0.017540615102790827   -0.0004341853034300649
-0.0007554281542980847   -0.017591201419228045   -0.00043733456976641444
-0.0005436507682994448   -0.015747957438282997   -0.00034326266661414013
-0.000765248576515629   -0.017600151912100202   -0.00042181008469353734
0.00017363225423529894   -0.017540615102790827   -0.0004341853034300649
-0.0005436507682994448   -0.015747957438282997   -0.00034326266661414013
0.0006370142951980689   -0.015710640369004655   -0.00032758978097264206
0.0006143292519653639   -0.0157255918548456   -0.0002994040436275989
0.00017363225423529894   -0.017540615102790827   -0.0004341853034300649
-0.0005436507682994448   -0.015747957438282997   -0.00034326266661414013
0.0006143292519653639   -0.0157255918548456   -0.0002994040436275989
-0.000765248576515629   -0.017600151912100202   -0.00042181008469353734
-0.0007959067012030715   -0.017652190059020457   -0.00038465187325401523
-0.00054968426695711   -0.01581568959653385   -0.0003075074990299131
-0.001602277093386422   -0.01766036834425615   -0.0004470718346394561
-0.0007816435116613517   -0.017620274574980464   -0.0004043213038526234
-0.00054968426695711   -0.01581568959653385   -0.0003075074990299131
-0.0016190394403364748   -0.015816135953132082   -0.0003670748460575331
-0.001602277093386422   -0.01766036834425615   -0.0004470718346394561
-0.001619026100130797   -0.01578945832704967   -0.0003657476752287263
-0.0007816435116613517   -0.017620274574980464   -0.0004043213038526234
-0.001591904080682457   -0.017633079619881597   -0.00044744885222198854
-0.001619026100130797   -0.01578945832704967   -0.0003657476752287263
-0.001602277093386422   -0.01766036834425615   -0.0004470718346394561
-0.0007816435116613517   -0.017620274574980464   -0.0004043213038526234
-0.001619026100130797   -0.01578945832704967   -0.0003657476752287263
-0.0005464095769074046   -0.015783935543371014   -0.0003213970863187092
-0.00054968426695711   -0.01581568959653385   -0.0003075074990299131
-0.0007816435116613517   -0.017620274574980464   -0.0004043213038526234
-0.001619026100130797   -0.01578945832704967   -0.0003657476752287263
-0.00054968426695711   -0.01581568959653385   -0.0003075074990299131
-0.001602277093386422   -0.01766036834425615   -0.0004470718346394561
-0.0007816435116613517   -0.017620274574980464   -0.0004043213038526234
-0.0005464095769074046   -0.015783935543371014   -0.0003213970863187092
-0.001591904080682457   -0.017633079619881597   -0.00044744885222198854
-0.000765248576515629   -0.017600151912100202   -0.00042181008469353734
-0.0005464095769074046   -0.015783935543371014   -0.0003213970863187092
-0.001619026100130797   -0.01578945832704967   -0.0003657476752287263
-0.001591904080682457   -0.017633079619881597   -0.00044744885222198854
-0.0016189313006999522   -0.01577108155969803   -0.0003624015724581457
-0.000765248576515629   -0.017600151912100202   -0.00042181008469353734
-0.0015812173571919225   -0.0176163349126539   -0.0004457303523673573
-0.0016189313006999522   -0.01577108155969803   -0.0003624015724581457
-0.001591904080682457   -0.017633079619881597   -0.00044744885222198854
-0.000765248576515629   -0.017600151912100202   -0.00042181008469353734
-0.0016189313006999522   -0.01577108155969803   -0.0003624015724581457
-0.0005421950380277107   -0.015761609256809514   -0.0003332667118743894
-0.0005464095769074046   -0.015783935543371014   -0.0003213970863187092
-0.000765248576515629   -0.017600151912100202   -0.00042181008469353734
-0.0016189313006999522   -0.01577108155969803   -0.0003624015724581457
-0.0005464095769074046   -0.015783935543371014   -0.0003213970863187092
-0.001591904080682457   -0.017633079619881597   -0.00044744885222198854
-0.000765248576515629   -0.017600151912100202   -0.00042181008469353734
-0.0005421950380277107   -0.015761609256809514   -0.0003332667118743894
-0.0015812173571919225   -0.0176163349126539   -0.0004457303523673573
-0.0007554281542980847   -0.017591201419228045   -0.00043733456976641444
-0.0005421950380277107   -0.015761609256809514   -0.0003332667118743894
-0.0016189313006999522   -0.01577108155969803   -0.0003624015724581457
-0.0015812173571919225   -0.0176163349126539   -0.0004457303523673573
-0.0016202486402107034   -0.01576102320016494   -0.00035715019354180973
-0.0007554281542980847   -0.017591201419228045   -0.00043733456976641444
-0.0015718780615407513   -0.01760997814501844   -0.0004420655672729352
-0.0016202486402107034   -0.01576102320016494   -0.00035715019354180973
-0.0015812173571919225   -0.0176163349126539   -0.0004457303523673573
-0.0007554281542980847   -0.017591201419228045   -0.00043733456976641444
-0.0016202486402107034   -0.01576102320016494   -0.00035715019354180973
-0.0005436507682994448   -0.015747957438282997   -0.00034326266661414013
-0.0005421950380277107   -0.015761609256809514   -0.0003332667118743894
-0.0007554281542980847   -0.017591201419228045   -0.00043733456976641444
-0.0016202486402107034   -0.01576102320016494   -0.00035715019354180973
-0.0005421950380277107   -0.015761609256809514   -0.0003332667118743894
-0.0015812173571919225   -0.0176163349126539   -0.0004457303523673573
-0.001602277093386422   -0.01766036834425615   -0.0004470718346394561
-0.0016190394403364748   -0.015816135953132082   -0.0003670748460575331
-0.0023965984219021037   -0.017634396069810945   -0.0005033703792402825
-0.001591904080682457   -0.017633079619881597   -0.00044744885222198854
-0.0016190394403364748   -0.015816135953132082   -0.0003670748460575331
-0.002670816302732067   -0.015789286224347873   -0.0004190728788771243
-0.0023965984219021037   -0.017634396069810945   -0.0005033703792402825
-0.0026716149794073084   -0.01576701098222272   -0.00040272021416421584
-0.001591904080682457   -0.017633079619881597   -0.00044744885222198854
-0.0023869524801999596   -0.01761088927197387   -0.0004849122383113492
-0.0026716149794073084   -0.01576701098222272   -0.00040272021416421584
-0.0023965984219021037   -0.017634396069810945   -0.0005033703792402825
-0.001591904080682457   -0.017633079619881597   -0.00044744885222198854
-0.0026716149794073084   -0.01576701098222272   -0.00040272021416421584
-0.001619026100130797   -0.01578945832704967   -0.0003657476752287263
-0.0016190394403364748   -0.015816135953132082   -0.0003670748460575331
-0.001591904080682457   -0.017633079619881597   -0.00044744885222198854
-0.0026716149794073084   -0.01576701098222272   -0.00040272021416421584
-0.0016190394403364748   -0.015816135953132082   -0.0003670748460575331
-0.0023965984219021037   -0.017634396069810945   -0.0005033703792402825
-0.001591904080682457   -0.017633079619881597   -0.00044744885222198854
-0.001619026100130797   -0.01578945832704967   -0.0003657476752287263
-0.0023869524801999596   -0.01761088927197387   -0.0004849122383113492
-0.0015812173571919225   -0.0176163349126539   -0.0004457303523673573
-0.001619026100130797   -0.01578945832704967   -0.0003657476752287263
-0.0026716149794073084   -0.01576701098222272   -0.00040272021416421584
-0.0023869524801999596   -0.01761088927197387   -0.0004849122383113492
-0.002670637035509002   -0.015752964009955607   -0.0003843925094582769
-0.0015812173571919225   -0.0176163349126539   -0.0004457303523673573
-0.002375284963401002   -0.017597813731311085   -0.00046440943974088465
-0.002670637035509002   -0.015752964009955607   -0.0003843925094582769
-0.0023869524801999596   -0.01761088927197387   -0.0004849122383113492
-0.0015812173571919225   -0.0176163349126539   -0.0004457303523673573
-0.002670637035509002   -0.015752964009955607   -0.0003843925094582769
-0.0016189313006999522   -0.01577108155969803   -0.0003624015724581457
-0.001619026100130797   -0.01578945832704967   -0.0003657476752287263
-0.0015812173571919225   -0.0176163349126539   -0.0004457303523673573
-0.002670637035509002   -0.015752964009955607   -0.0003843925094582769
-0.001619026100130797   -0.01578945832704967   -0.0003657476752287263
-0.0023869524801999596   -0.01761088927197387   -0.0004849122383113492
-0.0015812173571919225   -0.0176163349126539   -0.0004457303523673573
-0.0016189313006999522   -0.01577108155969803   -0.0003624015724581457
-0.002375284963401002   -0.017597813731311085   -0.00046440943974088465
-0.0015718780615407513   -0.01760997814501844   -0.0004420655672729352
-0.0016189313006999522   -0.01577108155969803   -0.0003624015724581457
-0.002670637035509002   -0.015752964009955607   -0.0003843925094582769
-0.002375284963401002   -0.017597813731311085   -0.00046440943974088465
-0.002670000516646221   -0.015747009770279822   -0.00036414505300771374
-0.0015718780615407513   -0.01760997814501844   -0.0004420655672729352
-0.0023639776329382792   -0.01759471867836098   -0.00044192363352179296
-0.002670000516646221   -0.015747009770279822   -0.00036414505300771374
-0.002375284963401002   -0.017597813731311085   -0.00046440943974088465
-0.0015718780615407513   -0.01760997814501844   -0.0004420655672729352
-0.002670000516646221   -0.015747009770279822   -0.00036414505300771374
-0.0016202486402107034   -0.01576102320016494   -0.00035715019354180973
-0.0016189313006999522   -0.01577108155969803   -0.0003624015724581457
-0.0015718780615407513   -0.01760997814501844   -0.0004420655672729352
-0.002670000516646221   -0.015747009770279822   -0.00036414505300771374
-0.0016189313006999522   -0.01577108155969803   -0.0003624015724581457
-0.002375284963401002   -0.017597813731311085   -0.00046440943974088465
-0.0023965984219021037   -0.017634396069810945   -0.0005033703792402825
-0.002670816302732067   -0.015789286224347873   -0.0004190728788771243
-0.003228178991824381   -0.017575106861968174   -0.0005534442667655177
-0.0023869524801999596   -0.01761088927197387   -0.0004849122383113492
-0.002670816302732067   -0.015789286224347873   -0.0004190728788771243
-0.0037549920651510442   -0.01573608583889081   -0.00046368499247851703
-0.003228178991824381   -0.017575106861968174   -0.0005534442667655177
-0.003753472418231634   -0.015717976417449278   -0.00043211548932950536
-0.0023869524801999596   -0.01761088927197387   -0.0004849122383113492
-0.003215396009860564   -0.01755515088217351   -0.0005160977295529601
-0.003753472418231634   -0.015717976417449278   -0.00043211548932950536
-0.003228178991824381   -0.017575106861968174   -0.0005534442667655177
-0.0023869524801999596   -0.01761088927197387   -0.0004849122383113492
-0.003753472418231634   -0.015717976417449278   -0.00043211548932950536
-0.0026716149794073084   -0.01576701098222272   -0.00040272021416421584
-0.002670816302732067   -0.015789286224347873   -0.0004190728788771243
-0.0023869524801999596   -0.01761088927197387   -0.0004849122383113492
-0.003753472418231634   -0.015717976417449278   -0.00043211548932950536
-0.002670816302732067   -0.015789286224347873   -0.0004190728788771243
-0.003228178991824381   -0.017575106861968174   -0.0005534442667655177
-0.0023869524801999596   -0.01761088927197387   -0.0004849122383113492
-0.0026716149794073084   -0.01576701098222272   -0.00040272021416421584
-0.003215396009860564   -0.01755515088217351   -0.0005160977295529601
-0.002375284963401002   -0.017597813731311085   -0.00046440943974088465
-0.0026716149794073084   -0.01576701098222272   -0.00040272021416421584
-0.003753472418231634   -0.015717976417449278   -0.00043211548932950536
-0.003215396009860564   -0.01755515088217351   -0.0005160977295529601
-0.003744058615023689   -0.015707857980995454   -0.0003988717975746627
-0.002375284963401002   -0.017597813731311085   -0.00046440943974088465
-0.0031936226081953544   -0.017545400956179808   -0.00047702933136959194
-0.003744058615023689   -0.015707857980995454   -0.0003988717975746627
-0.003215396009860564   -0.01755515088217351   -0.0005160977295529601
-0.002375284963401002   -0.017597813731311085   -0.00046440943974088465
-0.003744058615023689   -0.015707857980995454   -0.0003988717975746627
-0.002670637035509002   -0.015752964009955607   -0.0003843925094582769
-0.0026716149794073084   -0.01576701098222272   -0.00040272021416421584
-0.002375284963401002   -0.017597813731311085   -0.00046440943974088465
-0.003744058615023689   -0.015707857980995454   -0.0003988717975746627
-0.0026716149794073084   -0.01576701098222272   -0.00040272021416421584
-0.003215396009860564   -0.01755515088217351   -0.0005160977295529601
-0.002375284963401002   -0.017597813731311085   -0.00046440943974088465
-0.002670637035509002   -0.015752964009955607   -0.0003843925094582769
-0.0031936226081953544   -0.017545400956179808   -0.00047702933136959194
-0.0023639776329382792   -0.01759471867836098   -0.00044192363352179296
-0.002670637035509002   -0.015752964009955607   -0.0003843925094582769
-0.003744058615023689   -0.015707857980995454   -0.0003988717975746627
-0.0031936226081953544   -0.017545400956179808   -0.00047702933136959194
-0.0037378419804858674   -0.01570652175857253   -0.0003635490569492186
-0.0023639776329382792   -0.01759471867836098   -0.00044192363352179296
-0.0031761517925294716   -0.017546414585139607   -0.0004356841258872781
-0.0037378419804858674   -0.01570652175857253   -0.0003635490569492186
-0.0031936226081953544   -0.017545400956179808   -0.00047702933136959194
-0.0023639776329382792   -0.01759471867836098   -0.00044192363352179296
-0.0037378419804858674   -0.01570652175857253   -0.0003635490569492186
-0.002670000516646221   -0.015747009770279822   -0.00036414505300771374
-0.002670637035509002   -0.015752964009955607   -0.0003843925094582769
-0.0023639776329382792   -0.01759471867836098   -0.00044192363352179296
-0.0037378419804858674   -0.01570652175857253   -0.0003635490569492186
-0.002670637035509002   -0.015752964009955607   -0.0003843925094582769
-0.0031936226081953544   -0.017545400956179808   -0.00047702933136959194
-0.003228178991824381   -0.017575106861968174   -0.0005534442667655177
-0.0037549920651510442   -0.01573608583889081   -0.00046368499247851703
-0.004197567561965607   -0.01748915046738888   -0.0006006696257584706
-0.003215396009860564   -0.01755515088217351   -0.0005160977295529601
-0.0037549920651510442   -0.01573608583889081   -0.00046368499247851703
-0.004966145545055138   -0.015662150253998246   -0.0005042132856186123
-0.004197567561965607   -0.01748915046738888   -0.0006006696257584706
-0.004919188267758433   -0.015644229133464003   -0.0004557389460744278
-0.003215396009860564   -0.01755515088217351   -0.0005160977295529601
-0.0041302745465216445   -0.01746809154269502   -0.0005420875624901971
-0.004919188267758433   -0.015644229133464003   -0.0004557389460744278
-0.004197567561965607   -0.01748915046738888   -0.0006006696257584706
-0.003215396009860564   -0.01755515088217351   -0.0005160977295529601
-0.004919188267758433   -0.015644229133464003   -0.0004557389460744278
-0.003753472418231634   -0.015717976417449278   -0.00043211548932950536
-0.0037549920651510442   -0.01573608583889081   -0.00046368499247851703
-0.003215396009860564   -0.01755515088217351   -0.0005160977295529601
-0.004919188267758433   -0.015644229133464003   -0.0004557389460744278
-0.0037549920651510442   -0.01573608583889081   -0.00046368499247851703
-0.004197567561965607   -0.01748915046738888   -0.0006006696257584706
-0.003215396009860564   -0.01755515088217351   -0.0005160977295529601
-0.003753472418231634   -0.015717976417449278   -0.00043211548932950536
-0.0041302745465216445   -0.01746809154269502   -0.0005420875624901971
-0.0031936226081953544   -0.017545400956179808   -0.00047702933136959194
-0.003753472418231634   -0.015717976417449278   -0.00043211548932950536
-0.004919188267758433   -0.015644229133464003   -0.0004557389460744278
-0.0041302745465216445   -0.01746809154269502   -0.0005420875624901971
-0.004879249342586775   -0.015635553219361942   -0.0004044300156089683
-0.0031936226081953544   -0.017545400956179808   -0.00047702933136959194
-0.0040722149057342005   -0.017459246195833285   -0.0004806411819215468
-0.004879249342586775   -0.015635553219361942   -0.0004044300156089683
-0.0041302745465216445   -0.01746809154269502   -0.0005420875624901971
-0.0031936226081953544   -0.017545400956179808   -0.00047702933136959194
-0.004879249342586775   -0.015635553219361942   -0.0004044300156089683
-0.003744058615023689   -0.015707857980995454   -0.0003988717975746627
-0.003753472418231634   -0.015717976417449278   -0.00043211548932950536
-0.0031936226081953544   -0.017545400956179808   -0.00047702933136959194
-0.004879249342586775   -0.015635553219361942   -0.0004044300156089683
-0.003753472418231634   -0.015717976417449278   -0.00043211548932950536
-0.0041302745465216445   -0.01746809154269502   -0.0005420875624901971
-0.0031936226081953544   -0.017545400956179808   -0.00047702933136959194
-0.003744058615023689   -0.015707857980995454   -0.0003988717975746627
-0.0040722149057342005   -0.017459246195833285   -0.0004806411819215468
-0.0031761517925294716   -0.017546414585139607   -0.0004356841258872781
-0.003744058615023689   -0.015707857980995454   -0.0003988717975746627
-0.004879249342586775   -0.015635553219361942   -0.0004044300156089683
-0.0040722149057342005   -0.017459246195833285   -0.0004806411819215468
-0.004821913864701113   -0.01564072509024707   -0.00035068476909826975
-0.0031761517925294716   -0.017546414585139607   -0.0004356841258872781
-0.00399414111769174   -0.01746676679914196   -0.0004167172340776993
-0.004821913864701113   -0.01564072509024707   -0.00035068476909826975
-0.0040722149057342005   -0.017459246195833285   -0.0004806411819215468
-0.0031761517925294716   -0.017546414585139607   -0.0004356841258872781
-0.004821913864701113   -0.01564072509024707   -0.00035068476909826975
-0.0037378419804858674   -0.01570652175857253   -0.0003635490569492186
-0.003744058615023689   -0.015707857980995454   -0.0003988717975746627
-0.0031761517925294716   -0.017546414585139607   -0.0004356841258872781
-0.004821913864701113   -0.01564072509024707   -0.00035068476909826975
-0.003744058615023689   -0.015707857980995454   -0.0003988717975746627
-0.0040722149057342005   -0.017459246195833285   -0.0004806411819215468
0.0005590700859823955   -0.015787115699582518   -0.00023458173196178237
0.0009277296188741278   -0.0135771972922068   -0.00015661786107410935
-0.00054968426695711   -0.01581568959653385   -0.0003075074990299131
0.0005926207857957676   -0.015749462931139924   -0.0002684232907912617
0.0009277296188741278   -0.0135771972922068   -0.00015661786107410935
-0.0003962543173114497   -0.013591872386946768   -0.00022517350929971466
-0.00054968426695711   -0.01581568959653385   -0.0003075074990299131
-0.00040191022667584574   -0.01356093324645725   -0.00023294456040285125
0.0005926207857957676   -0.015749462931139924   -0.0002684232907912617
-0.0005464095769074046   -0.015783935543371014   -0.0003213970863187092
-0.00040191022667584574   -0.01356093324645725   -0.00023294456040285125
-0.00054968426695711   -0.01581568959653385   -0.0003075074990299131
0.0005926207857957676   -0.015749462931139924   -0.0002684232907912617
-0.00040191022667584574   -0.01356093324645725   -0.00023294456040285125
0.0009421512214488467   -0.0135409129703421   -0.0001793404721780681
0.0009277296188741278   -0.0135771972922068   -0.00015661786107410935
0.0005926207857957676   -0.015749462931139924   -0.0002684232907912617
-0.00040191022667584574   -0.01356093324645725   -0.00023294456040285125
0.0009277296188741278   -0.0135771972922068   -0.00015661786107410935
-0.00054968426695711   -0.01581568959653385   -0.0003075074990299131
0.0005926207857957676   -0.015749462931139924   -0.0002684232907912617
0.0009421512214488467   -0.0135409129703421   -0.0001793404721780681
-0.0005464095769074046   -0.015783935543371014   -0.0003213970863187092
0.0006143292519653639   -0.0157255918548456   -0.0002994040436275989
0.0009421512214488467   -0.0135409129703421   -0.0001793404721780681
-0.00040191022667584574   -0.01356093324645725   -0.00023294456040285125
-0.0005464095769074046   -0.015783935543371014   -0.0003213970863187092
-0.00040778484450506913   -0.01353709262399834   -0.00023888417973253143
0.0006143292519653639   -0.0157255918548456   -0.0002994040436275989
-0.0005421950380277107   -0.015761609256809514   -0.0003332667118743894
-0.00040778484450506913   -0.01353709262399834   -0.00023888417973253143
-0.0005464095769074046   -0.015783935543371014   -0.0003213970863187092
0.0006143292519653639   -0.0157255918548456   -0.0002994040436275989
-0.00040778484450506913   -0.01353709262399834   -0.00023888417973253143
0.0009473783647128332   -0.013515269202629944   -0.00019935425926859295
0.0009421512214488467   -0.0135409129703421   -0.0001793404721780681
0.0006143292519653639   -0.0157255918548456   -0.0002994040436275989
-0.00040778484450506913   -0.01353709262399834   -0.00023888417973253143
0.0009421512214488467   -0.0135409129703421   -0.0001793404721780681
-0.0005464095769074046   -0.015783935543371014   -0.0003213970863187092
0.0006143292519653639   -0.0157255918548456   -0.0002994040436275989
0.0009473783647128332   -0.013515269202629944   -0.00019935425926859295
-0.0005421950380277107   -0.015761609256809514   -0.0003332667118743894
0.0006370142951980689   -0.015710640369004655   -0.00032758978097264206
0.0009473783647128332   -0.013515269202629944   -0.00019935425926859295
-0.00040778484450506913   -0.01353709262399834   -0.00023888417973253143
-0.0005421950380277107   -0.015761609256809514   -0.0003332667118743894
-0.0004183093248844996   -0.013519554905778148   -0.00024305272370625015
0.0006370142951980689   -0.015710640369004655   -0.00032758978097264206
-0.0005436507682994448   -0.015747957438282997   -0.00034326266661414013
-0.0004183093248844996   -0.013519554905778148   -0.00024305272370625015
-0.0005421950380277107   -0.015761609256809514   -0.0003332667118743894
0.0006370142951980689   -0.015710640369004655   -0.00032758978097264206
-0.0004183093248844996   -0.013519554905778148   -0.00024305272370625015
0.0009512676052194204   -0.013495466537591806   -0.00021679095663647372
0.0009473783647128332   -0.013515269202629944   -0.00019935425926859295
0.0006370142951980689   -0.015710640369004655   -0.00032758978097264206
-0.0004183093248844996   -0.013519554905778148   -0.00024305272370625015
0.0009473783647128332   -0.013515269202629944   -0.00019935425926859295
-0.0005421950380277107   -0.015761609256809514   -0.0003332667118743894
-0.00054968426695711   -0.01581568959653385   -0.0003075074990299131
-0.0003962543173114497   -0.013591872386946768   -0.00022517350929971466
-0.0016190394403364748   -0.015816135953132082   -0.0003670748460575331
-0.0005464095769074046   -0.015783935543371014   -0.0003213970863187092
-0.0003962543173114497   -0.013591872386946768   -0.00022517350929971466
-0.00166703273887069   -0.013585161171546638   -0.00028093934104801244
-0.0016190394403364748   -0.015816135953132082   -0.0003670748460575331
-0.001675251060717203   -0.013559567886872275   -0.0002775365556340183
-0.0005464095769074046   -0.015783935543371014   -0.0003213970863187092
-0.001619026100130797   -0.01578945832704967   -0.0003657476752287263
-0.001675251060717203   -0.013559567886872275   -0.0002775365556340183
-0.0016190394403364748   -0.015816135953132082   -0.0003670748460575331
-0.0005464095769074046   -0.015783935543371014   -0.0003213970863187092
-0.001675251060717203   -0.013559567886872275   -0.0002775365556340183
-0.00040191022667584574   -0.01356093324645725   -0.00023294456040285125
-0.0003962543173114497   -0.013591872386946768   -0.00022517350929971466
-0.0005464095769074046   -0.015783935543371014   -0.0003213970863187092
-0.001675251060717203   -0.013559567886872275   -0.0002775365556340183
-0.0003962543173114497   -0.013591872386946768   -0.00022517350929971466
-0.0016190394403364748   -0.015816135953132082   -0.0003670748460575331
-0.0005464095769074046   -0.015783935543371014   -0.0003213970863187092
-0.00040191022667584574   -0.01356093324645725   -0.00023294456040285125
-0.001619026100130797   -0.01578945832704967   -0.0003657476752287263
-0.0005421950380277107   -0.015761609256809514   -0.0003332667118743894
-0.00040191022667584574   -0.01356093324645725   -0.00023294456040285125
-0.001675251060717203   -0.013559567886872275   -0.0002775365556340183
-0.001619026100130797   -0.01578945832704967   -0.0003657476752287263
-0.0016835857559013873   -0.013540052520569971   -0.00027224178052087086
-0.0005421950380277107   -0.015761609256809514   -0.0003332667118743894
-0.0016189313006999522   -0.01577108155969803   -0.0003624015724581457
-0.0016835857559013873   -0.013540052520569971   -0.00027224178052087086
-0.001619026100130797   -0.01578945832704967   -0.0003657476752287263
-0.0005421950380277107   -0.015761609256809514   -0.0003332667118743894
-0.0016835857559013873   -0.013540052520569971   -0.00027224178052087086
-0.00040778484450506913   -0.01353709262399834   -0.00023888417973253143
-0.00040191022667584574   -0.01356093324645725   -0.00023294456040285125
-0.0005421950380277107   -0.015761609256809514   -0.0003332667118743894
-0.0016835857559013873   -0.013540052520569971   -0.00027224178052087086
-0.00040191022667584574   -0.01356093324645725   -0.00023294456040285125
-0.001619026100130797   -0.01578945832704967   -0.0003657476752287263
-0.0005421950380277107   -0.015761609256809514   -0.0003332667118743894
-0.00040778484450506913   -0.01353709262399834   -0.00023888417973253143
-0.0016189313006999522   -0.01577108155969803   -0.0003624015724581457
-0.0005436507682994448   -0.015747957438282997   -0.00034326266661414013
-0.00040778484450506913   -0.01353709262399834   -0.00023888417973253143
-0.0016835857559013873   -0.013540052520569971   -0.00027224178052087086
-0.0016189313006999522   -0.01577108155969803   -0.0003624015724581457
-0.001693271821059977   -0.013526714873873672   -0.0002651545385677156
-0.0005436507682994448   -0.015747957438282997   -0.00034326266661414013
-0.0016202486402107034   -0.01576102320016494   -0.00035715019354180973
-0.001693271821059977   -0.013526714873873672   -0.0002651545385677156
-0.0016189313006999522   -0.01577108155969803   -0.0003624015724581457
-0.0005436507682994448   -0.015747957438282997   -0.00034326266661414013
-0.001693271821059977   -0.013526714873873672   -0.0002651545385677156
-0.0004183093248844996   -0.013519554905778148   -0.00024305272370625015
-0.00040778484450506913   -0.01353709262399834   -0.00023888417973253143
-0.0005436507682994448   -0.015747957438282997   -0.00034326266661414013
-0.001693271821059977   -0.013526714873873672   -0.0002651545385677156
-0.00040778484450506913   -0.01353709262399834   -0.00023888417973253143
-0.0016189313006999522   -0.01577108155969803   -0.0003624015724581457
-0.0016190394403364748   -0.015816135953132082   -0.0003670748460575331
-0.00166703273887069   -0.013585161171546638   -0.00028093934104801244
-0.002670816302732067   -0.015789286224347873   -0.0004190728788771243
-0.001619026100130797   -0.01578945832704967   -0.0003657476752287263
-0.00166703273887069   -0.013585161171546638   -0.00028093934104801244
-0.0029167086346074318   -0.013558571459128803   -0.00032833760221785013
-0.002670816302732067   -0.015789286224347873   -0.0004190728788771243
-0.002925657343535242   -0.013537781248570881   -0.00031383164908058885
-0.001619026100130797   -0.01578945832704967   -0.0003657476752287263
-0.0026716149794073084   -0.01576701098222272   -0.00040272021416421584
-0.002925657343535242   -0.013537781248570881   -0.00031383164908058885
-0.002670816302732067   -0.015789286224347873   -0.0004190728788771243
-0.001619026100130797   -0.01578945832704967   -0.0003657476752287263
-0.002925657343535242   -0.013537781248570881   -0.00031383164908058885
-0.001675251060717203   -0.013559567886872275   -0.0002775365556340183
-0.00166703273887069   -0.013585161171546638   -0.00028093934104801244
-0.001619026100130797   -0.01578945832704967   -0.0003657476752287263
-0.002925657343535242   -0.013537781248570881   -0.00031383164908058885
-0.00166703273887069   -0.013585161171546638   -0.00028093934104801244
-0.002670816302732067   -0.015789286224347873   -0.0004190728788771243
-0.001619026100130797   -0.01578945832704967   -0.0003657476752287263
-0.001675251060717203   -0.013559567886872275   -0.0002775365556340183
-0.0026716149794073084   -0.01576701098222272   -0.00040272021416421584
-0.0016189313006999522   -0.01577108155969803   -0.0003624015724581457
-0.001675251060717203   -0.013559567886872275   -0.0002775365556340183
-0.002925657343535242   -0.013537781248570881   -0.00031383164908058885
-0.0026716149794073084   -0.01576701098222272   -0.00040272021416421584
-0.0029330137950318675   -0.01352301213116041   -0.00029747112983608036
-0.0016189313006999522   -0.01577108155969803   -0.0003624015724581457
-0.002670637035509002   -0.015752964009955607   -0.0003843925094582769
-0.0029330137950318675   -0.01352301213116041   -0.00029747112983608036
-0.0026716149794073084   -0.01576701098222272   -0.00040272021416421584
-0.0016189313006999522   -0.01577108155969803   -0.0003624015724581457
-0.0029330137950318675   -0.01352301213116041   -0.00029747112983608036
-0.0016835857559013873   -0.013540052520569971   -0.00027224178052087086
-0.001675251060717203   -0.013559567886872275   -0.0002775365556340183
-0.0016189313006999522   -0.01577108155969803   -0.0003624015724581457
-0.0029330137950318675   -0.01352301213116041   -0.00029747112983608036
-0.001675251060717203   -0.013559567886872275   -0.0002775365556340183
-0.0026716149794073084   -0.01576701098222272   -0.00040272021416421584
-0.0016189313006999522   -0.01577108155969803   -0.0003624015724581457
-0.0016835857559013873   -0.013540052520569971   -0.00027224178052087086
-0.002670637035509002   -0.015752964009955607   -0.0003843925094582769
-0.0016202486402107034   -0.01576102320016494   -0.00035715019354180973
-0.0016835857559013873   -0.013540052520569971   -0.00027224178052087086
-0.0029330137950318675   -0.01352301213116041   -0.00029747112983608036
-0.002670637035509002   -0.015752964009955607   -0.0003843925094582769
-0.0029406030161475616   -0.013514235969612364   -0.0002793080088949188
-0.0016202486402107034   -0.01576102320016494   -0.00035715019354180973
-0.002670000516646221   -0.015747009770279822   -0.00036414505300771374
-0.0029406030161475616   -0.013514235969612364   -0.0002793080088949188
-0.002670637035509002   -0.015752964009955607   -0.0003843925094582769
-0.0016202486402107034   -0.01576102320016494   -0.00035715019354180973
-0.0029406030161475616   -0.013514235969612364   -0.0002793080088949188
-0.001693271821059977   -0.013526714873873672   -0.0002651545385677156
-0.0016835857559013873   -0.013540052520569971   -0.00027224178052087086
-0.0016202486402107034   -0.01576102320016494   -0.00035715019354180973
-0.0029406030161475616   -0.013514235969612364   -0.0002793080088949188
-0.0016835857559013873   -0.013540052520569971   -0.00027224178052087086
-0.002670637035509002   -0.015752964009955607   -0.0003843925094582769
-0.002670816302732067   -0.015789286224347873   -0.0004190728788771243
-0.0029167086346074318   -0.013558571459128803   -0.00032833760221785013
-0.0037549920651510442   -0.01573608583889081   -0.00046368499247851703
-0.0026716149794073084   -0.01576701098222272   -0.00040272021416421584
-0.0029167086346074318   -0.013558571459128803   -0.00032833760221785013
-0.004196062686893118   -0.013512601202359342   -0.00036761898917576875
-0.0037549920651510442   -0.01573608583889081   -0.00046368499247851703
-0.004203319625755941   -0.013496464890071476   -0.0003418507304703605
-0.0026716149794073084   -0.01576701098222272   -0.00040272021416421584
-0.003753472418231634   -0.015717976417449278   -0.00043211548932950536
-0.004203319625755941   -0.013496464890071476   -0.0003418507304703605
-0.0037549920651510442   -0.01573608583889081   -0.00046368499247851703
-0.0026716149794073084   -0.01576701098222272   -0.00040272021416421584
-0.004203319625755941   -0.013496464890071476   -0.0003418507304703605
-0.002925657343535242   -0.013537781248570881   -0.00031383164908058885
-0.0029167086346074318   -0.013558571459128803   -0.00032833760221785013
-0.0026716149794073084   -0.01576701098222272   -0.00040272021416421584
-0.004203319625755941   -0.013496464890071476   -0.0003418507304703605
-0.0029167086346074318   -0.013558571459128803   -0.00032833760221785013
-0.0037549920651510442   -0.01573608583889081   -0.00046368499247851703
-0.0026716149794073084   -0.01576701098222272   -0.00040272021416421584
-0.002925657343535242   -0.013537781248570881   -0.00031383164908058885
-0.003753472418231634   -0.015717976417449278   -0.00043211548932950536
-0.002670637035509002   -0.015752964009955607   -0.0003843925094582769
-0.002925657343535242   -0.013537781248570881   -0.00031383164908058885
-0.004203319625755941   -0.013496464890071476   -0.0003418507304703605
-0.003753472418231634   -0.015717976417449278   -0.00043211548932950536
-0.004203751691713746   -0.013486042546603877   -0.0003144831722756685
-0.002670637035509002   -0.015752964009955607   -0.0003843925094582769
-0.003744058615023689   -0.015707857980995454   -0.0003988717975746627
-0.004203751691713746   -0.013486042546603877   -0.0003144831722756685
-0.003753472418231634   -0.015717976417449278   -0.00043211548932950536
-0.002670637035509002   -0.015752964009955607   -0.0003843925094582769
-0.004203751691713746   -0.013486042546603877   -0.0003144831722756685
-0.0029330137950318675   -0.01352301213116041   -0.00029747112983608036
-0.002925657343535242   -0.013537781248570881   -0.00031383164908058885
-0.002670637035509002   -0.015752964009955607   -0.0003843925094582769
-0.004203751691713746   -0.013486042546603877   -0.0003144831722756685
-0.002925657343535242   -0.013537781248570881   -0.00031383164908058885
-0.003753472418231634   -0.015717976417449278   -0.00043211548932950536
-0.002670637035509002   -0.015752964009955607   -0.0003843925094582769
-0.0029330137950318675   -0.01352301213116041   -0.00029747112983608036
-0.003744058615023689   -0.015707857980995454   -0.0003988717975746627
-0.002670000516646221   -0.015747009770279822   -0.00036414505300771374
-0.0029330137950318675   -0.01352301213116041   -0.00029747112983608036
-0.004203751691713746   -0.013486042546603877   -0.0003144831722756685
-0.003744058615023689   -0.015707857980995454   -0.0003988717975746627
-0.00420623860425544   -0.013482165494657744   -0.00028517335390291506
-0.002670000516646221   -0.015747009770279822   -0.00036414505300771374
-0.0037378419804858674   -0.01570652175857253   -0.0003635490569492186
-0.00420623860425544   -0.013482165494657744   -0.00028517335390291506
-0.003744058615023689   -0.015707857980995454   -0.0003988717975746627
-0.002670000516646221   -0.015747009770279822   -0.00036414505300771374
-0.00420623860425544   -0.013482165494657744   -0.00028517335390291506
-0.0029406030161475616   -0.013514235969612364   -0.0002793080088949188
-0.0029330137950318675   -0.01352301213116041   -0.00029747112983608036
-0.002670000516646221   -0.015747009770279822   -0.00036414505300771374
-0.00420623860425544   -0.013482165494657744   -0.00028517335390291506
-0.0029330137950318675   -0.01352301213116041   -0.00029747112983608036
-0.003744058615023689   -0.015707857980995454   -0.0003988717975746627
-0.0037549920651510442   -0.01573608583889081   -0.00046368499247851703
-0.004196062686893118   -0.013512601202359342   -0.00036761898917576875
-0.004966145545055138   -0.015662150253998246   -0.0005042132856186123
-0.003753472418231634   -0.015717976417449278   -0.00043211548932950536
-0.004196062686893118   -0.013512601202359342   -0.00036761898917576875
-0.005592020742752816   -0.01345170973944889   -0.00040120740792700066
-0.004966145545055138   -0.015662150253998246   -0.0005042132856186123
-0.0055635438440580715   -0.013436963025501722   -0.00036334593803716877
-0.003753472418231634   -0.015717976417449278   -0.00043211548932950536
-0.004919188267758433   -0.015644229133464003   -0.0004557389460744278
-0.0055635438440580715   -0.013436963025501722   -0.00036334593803716877
-0.004966145545055138   -0.015662150253998246   -0.0005042132856186123
-0.003753472418231634   -0.015717976417449278   -0.00043211548932950536
-0.0055635438440580715   -0.013436963025501722   -0.00036334593803716877
-0.004203319625755941   -0.013496464890071476   -0.0003418507304703605
-0.004196062686893118   -0.013512601202359342   -0.00036761898917576875
-0.003753472418231634   -0.015717976417449278   -0.00043211548932950536
-0.0055635438440580715   -0.013436963025501722   -0.00036334593803716877
-0.004196062686893118   -0.013512601202359342   -0.00036761898917576875
-0.004966145545055138   -0.015662150253998246   -0.0005042132856186123
-0.003753472418231634   -0.015717976417449278   -0.00043211548932950536
-0.004203319625755941   -0.013496464890071476   -0.0003418507304703605
-0.004919188267758433   -0.015644229133464003   -0.0004557389460744278
-0.003744058615023689   -0.015707857980995454   -0.0003988717975746627
-0.004203319625755941   -0.013496464890071476   -0.0003418507304703605
-0.0055635438440580715   -0.013436963025501722   -0.00036334593803716877
-0.004919188267758433   -0.015644229133464003   -0.0004557389460744278
-0.005539642365693937   -0.013428392450876101   -0.00032268002097843144
-0.003744058615023689   -0.015707857980995454   -0.0003988717975746627
-0.004879249342586775   -0.015635553219361942   -0.0004044300156089683
-0.005539642365693937   -0.013428392450876101   -0.00032268002097843144
-0.004919188267758433   -0.015644229133464003   -0.0004557389460744278
-0.003744058615023689   -0.015707857980995454   -0.0003988717975746627
-0.005539642365693937   -0.013428392450876101   -0.00032268002097843144
-0.004203751691713746   -0.013486042546603877   -0.0003144831722756685
-0.004203319625755941   -0.013496464890071476   -0.0003418507304703605
-0.003744058615023689   -0.015707857980995454   -0.0003988717975746627
-0.005539642365693937   -0.013428392450876101   -0.00032268002097843144
-0.004203319625755941   -0.013496464890071476   -0.0003418507304703605
-0.004919188267758433   -0.015644229133464003   -0.0004557389460744278
-0.003744058615023689   -0.015707857980995454   -0.0003988717975746627
-0.004203751691713746   -0.013486042546603877   -0.0003144831722756685
-0.004879249342586775   -0.015635553219361942   -0.0004044300156089683
-0.0037378419804858674   -0.01570652175857253   -0.0003635490569492186
-0.004203751691713746   -0.013486042546603877   -0.0003144831722756685
-0.005539642365693937   -0.013428392450876101   -0.00032268002097843144
-0.004879249342586775   -0.015635553219361942   -0.0004044300156089683
-0.005500834963745421   -0.013430848931473808   -0.00027956296447953933
-0.0037378419804858674   -0.01570652175857253   -0.0003635490569492186
-0.004821913864701113   -0.01564072509024707   -0.00035068476909826975
-0.005500834963745421   -0.013430848931473808   -0.00027956296447953933
-0.004879249342586775   -0.015635553219361942   -0.0004044300156089683
-0.0037378419804858674   -0.01570652175857253   -0.0003635490569492186
-0.005500834963745421   -0.013430848931473808   -0.00027956296447953933
-0.00420623860425544   -0.013482165494657744   -0.00028517335390291506
-0.004203751691713746   -0.013486042546603877   -0.0003144831722756685
-0.0037378419804858674   -0.01570652175857253   -0.0003635490569492186
-0.005500834963745421   -0.013430848931473808   -0.00027956296447953933
-0.004203751691713746   -0.013486042546603877   -0.0003144831722756685
-0.004879249342586775   -0.015635553219361942   -0.0004044300156089683
0.0009277296188741278   -0.0135771972922068   -0.00015661786107410935
0.0011402983429809712   -0.011081287730526905   -8.083485146637732e-05
-0.0003962543173114497   -0.013591872386946768   -0.00022517350929971466
0.0009421512214488467   -0.0135409129703421   -0.0001793404721780681
0.0011402983429809712   -0.011081287730526905   -8.083485146637732e-05
-0.00033762897178258943   -0.011081999900557445   -0.00014417746815458847
-0.0003962543173114497   -0.013591872386946768   -0.00022517350929971466
-0.0003500902882146261   -0.011052172305774002   -0.00014565197580781628
0.0009421512214488467   -0.0135409129703421   -0.0001793404721780681
-0.00040191022667584574   -0.01356093324645725   -0.00023294456040285125
-0.0003500902882146261   -0.011052172305774002   -0.00014565197580781628
-0.0003962543173114497   -0.013591872386946768   -0.00022517350929971466
0.0009421512214488467   -0.0135409129703421   -0.0001793404721780681
-0.0003500902882146261   -0.011052172305774002   -0.00014565197580781628
0.0011378084497106929   -0.011046625098191543   -9.238690397648096e-05
0.0011402983429809712   -0.011081287730526905   -8.083485146637732e-05
0.0009421512214488467   -0.0135409129703421   -0.0001793404721780681
-0.0003500902882146261   -0.011052172305774002   -0.00014565197580781628
0.0011402983429809712   -0.011081287730526905   -8.083485146637732e-05
-0.0003962543173114497   -0.013591872386946768   -0.00022517350929971466
0.0009421512214488467   -0.0135409129703421   -0.0001793404721780681
0.0011378084497106929   -0.011046625098191543   -9.238690397648096e-05
-0.00040191022667584574   -0.01356093324645725   -0.00023294456040285125
0.0009473783647128332   -0.013515269202629944   -0.00019935425926859295
0.0011378084497106929   -0.011046625098191543   -9.238690397648096e-05
-0.0003500902882146261   -0.011052172305774002   -0.00014565197580781628
-0.00040191022667584574   -0.01356093324645725   -0.00023294456040285125
-0.0003639511606467552   -0.011027036389218581   -0.00014547464675360706
0.0009473783647128332   -0.013515269202629944   -0.00019935425926859295
-0.00040778484450506913   -0.01353709262399834   -0.00023888417973253143
-0.0003639511606467552   -0.011027036389218581   -0.00014547464675360706
-0.00040191022667584574   -0.01356093324645725   -0.00023294456040285125
0.0009473783647128332   -0.013515269202629944   -0.00019935425926859295
-0.0003639511606467552   -0.011027036389218581   -0.00014547464675360706
0.00112865335067973   -0.011019456916728535   -0.00010129115389134947
0.0011378084497106929   -0.011046625098191543   -9.238690397648096e-05
0.0009473783647128332   -0.013515269202629944   -0.00019935425926859295
-0.0003639511606467552   -0.011027036389218581   -0.00014547464675360706
0.0011378084497106929   -0.011046625098191543   -9.238690397648096e-05
-0.00040191022667584574   -0.01356093324645725   -0.00023294456040285125
0.0009473783647128332   -0.013515269202629944   -0.00019935425926859295
0.00112865335067973   -0.011019456916728535   -0.00010129115389134947
-0.00040778484450506913   -0.01353709262399834   -0.00023888417973253143
0.0009512676052194204   -0.013495466537591806   -0.00021679095663647372
0.00112865335067973   -0.011019456916728535   -0.00010129115389134947
-0.0003639511606467552   -0.011027036389218581   -0.00014547464675360706
-0.00040778484450506913   -0.01353709262399834   -0.00023888417973253143
-0.0003814237581865834   -0.011005897482529964   -0.00014358035634098746
0.0009512676052194204   -0.013495466537591806   -0.00021679095663647372
-0.0004183093248844996   -0.013519554905778148   -0.00024305272370625015
-0.0003814237581865834   -0.011005897482529964   -0.00014358035634098746
-0.00040778484450506913   -0.01353709262399834   -0.00023888417973253143
0.0009512676052194204   -0.013495466537591806   -0.00021679095663647372
-0.0003814237581865834   -0.011005897482529964   -0.00014358035634098746
0.0011156099268227555   -0.010995031970597244   -0.00010773279428804486
0.00112865335067973   -0.011019456916728535   -0.00010129115389134947
0.0009512676052194204   -0.013495466537591806   -0.00021679095663647372
-0.0003814237581865834   -0.011005897482529964   -0.00014358035634098746
0.00112865335067973   -0.011019456916728535   -0.00010129115389134947
-0.00040778484450506913   -0.01353709262399834   -0.00023888417973253143
-0.0003962543173114497   -0.013591872386946768   -0.00022517350929971466
-0.00033762897178258943   -0.011081999900557445   -0.00014417746815458847
-0.00166703273887069   -0.013585161171546638   -0.00028093934104801244
-0.00040191022667584574   -0.01356093324645725   -0.00023294456040285125
-0.00033762897178258943   -0.011081999900557445   -0.00014417746815458847
-0.0017481438759662244   -0.011068858912737022   -0.00019567276270268503
-0.00166703273887069   -0.013585161171546638   -0.00028093934104801244
-0.0017623706858461222   -0.01104442518765849   -0.00018998237615017294
-0.00040191022667584574   -0.01356093324645725   -0.00023294456040285125
-0.001675251060717203   -0.013559567886872275   -0.0002775365556340183
-0.0017623706858461222   -0.01104442518765849   -0.00018998237615017294
-0.00166703273887069   -0.013585161171546638   -0.00028093934104801244
-0.00040191022667584574   -0.01356093324645725   -0.00023294456040285125
-0.0017623706858461222   -0.01104442518765849   -0.00018998237615017294
-0.0003500902882146261   -0.011052172305774002   -0.00014565197580781628
-0.00033762897178258943   -0.011081999900557445   -0.00014417746815458847
-0.00040191022667584574   -0.01356093324645725   -0.00023294456040285125
-0.0017623706858461222   -0.01104442518765849   -0.00018998237615017294
-0.00033762897178258943   -0.011081999900557445   -0.00014417746815458847
-0.00166703273887069   -0.013585161171546638   -0.00028093934104801244
-0.00040191022667584574   -0.01356093324645725   -0.00023294456040285125
-0.0003500902882146261   -0.011052172305774002   -0.00014565197580781628
-0.001675251060717203   -0.013559567886872275   -0.0002775365556340183
-0.00040778484450506913   -0.01353709262399834   -0.00023888417973253143
-0.0003500902882146261   -0.011052172305774002   -0.00014565197580781628
-0.0017623706858461222   -0.01104442518765849   -0.00018998237615017294
-0.001675251060717203   -0.013559567886872275   -0.0002775365556340183
-0.001776901966230535   -0.011023808874326552   -0.0001825642985042083
-0.00040778484450506913   -0.01353709262399834   -0.00023888417973253143
-0.0016835857559013873   -0.013540052520569971   -0.00027224178052087086
-0.001776901966230535   -0.011023808874326552   -0.0001825642985042083
-0.001675251060717203   -0.013559567886872275   -0.0002775365556340183
-0.00040778484450506913   -0.01353709262399834   -0.00023888417973253143
-0.001776901966230535   -0.011023808874326552   -0.0001825642985042083
-0.0003639511606467552   -0.011027036389218581   -0.00014547464675360706
-0.0003500902882146261   -0.011052172305774002   -0.00014565197580781628
-0.00040778484450506913   -0.01353709262399834   -0.00023888417973253143
-0.001776901966230535   -0.011023808874326552   -0.0001825642985042083
-0.0003500902882146261   -0.011052172305774002   -0.00014565197580781628
-0.001675251060717203   -0.013559567886872275   -0.0002775365556340183
-0.00040778484450506913   -0.01353709262399834   -0.00023888417973253143
-0.0003639511606467552   -0.011027036389218581   -0.00014547464675360706
-0.0016835857559013873   -0.013540052520569971   -0.00027224178052087086
-0.0004183093248844996   -0.013519554905778148   -0.00024305272370625015
-0.0003639511606467552   -0.011027036389218581   -0.00014547464675360706
-0.001776901966230535   -0.011023808874326552   -0.0001825642985042083
-0.0016835857559013873   -0.013540052520569971   -0.00027224178052087086
-0.001792706607305214   -0.011007225405639727   -0.00017350760931574436
-0.0004183093248844996   -0.013519554905778148   -0.00024305272370625015
-0.001693271821059977   -0.013526714873873672   -0.0002651545385677156
-0.001792706607305214   -0.011007225405639727   -0.00017350760931574436
-0.0016835857559013873   -0.013540052520569971   -0.00027224178052087086
-0.0004183093248844996   -0.013519554905778148   -0.00024305272370625015
-0.001792706607305214   -0.011007225405639727   -0.00017350760931574436
-0.0003814237581865834   -0.011005897482529964   -0.00014358035634098746
-0.0003639511606467552   -0.011027036389218581   -0.00014547464675360706
-0.0004183093248844996   -0.013519554905778148   -0.00024305272370625015
-0.001792706607305214   -0.011007225405639727   -0.00017350760931574436
-0.0003639511606467552   -0.011027036389218581   -0.00014547464675360706
-0.0016835857559013873   -0.013540052520569971   -0.00027224178052087086
-0.00166703273887069   -0.013585161171546638   -0.00028093934104801244
-0.0017481438759662244   -0.011068858912737022   -0.00019567276270268503
-0.0029167086346074318   -0.013558571459128803   -0.00032833760221785013
-0.001675251060717203   -0.013559567886872275   -0.0002775365556340183
-0.0017481438759662244   -0.011068858912737022   -0.00019567276270268503
-0.003134850842928729   -0.011043628985900545   -0.00023867983847941255
-0.0029167086346074318   -0.013558571459128803   -0.00032833760221785013
-0.0031495914936253496   -0.0110241152306967   -0.0002258616091542137
-0.001675251060717203   -0.013559567886872275   -0.0002775365556340183
-0.002925657343535242   -0.013537781248570881   -0.00031383164908058885
-0.0031495914936253496   -0.0110241152306967   -0.0002258616091542137
-0.0029167086346074318   -0.013558571459128803   -0.00032833760221785013
-0.001675251060717203   -0.013559567886872275   -0.0002775365556340183
-0.0031495914936253496   -0.0110241152306967   -0.0002258616091542137
-0.0017623706858461222   -0.01104442518765849   -0.00018998237615017294
-0.0017481438759662244   -0.011068858912737022   -0.00019567276270268503
-0.001675251060717203   -0.013559567886872275   -0.0002775365556340183
-0.0031495914936253496   -0.0110241152306967   -0.0002258616091542137
-0.0017481438759662244   -0.011068858912737022   -0.00019567276270268503
-0.0029167086346074318   -0.013558571459128803   -0.00032833760221785013
-0.001675251060717203   -0.013559567886872275   -0.0002775365556340183
-0.0017623706858461222   -0.01104442518765849   -0.00018998237615017294
-0.002925657343535242   -0.013537781248570881   -0.00031383164908058885
-0.0016835857559013873   -0.013540052520569971   -0.00027224178052087086
-0.0017623706858461222   -0.01104442518765849   -0.00018998237615017294
-0.0031495914936253496   -0.0110241152306967   -0.0002258616091542137
-0.002925657343535242   -0.013537781248570881   -0.00031383164908058885
-0.0031629194078126787   -0.01100839213966097   -0.00021135853549990674
-0.0016835857559013873   -0.013540052520569971   -0.00027224178052087086
-0.0029330137950318675   -0.01352301213116041   -0.00029747112983608036
-0.0031629194078126787   -0.01100839213966097   -0.00021135853549990674
-0.002925657343535242   -0.013537781248570881   -0.00031383164908058885
-0.0016835857559013873   -0.013540052520569971   -0.00027224178052087086
-0.0031629194078126787   -0.01100839213966097   -0.00021135853549990674
-0.001776901966230535   -0.011023808874326552   -0.0001825642985042083
-0.0017623706858461222   -0.01104442518765849   -0.00018998237615017294
-0.0016835857559013873   -0.013540052520569971   -0.00027224178052087086
-0.0031629194078126787   -0.01100839213966097   -0.00021135853549990674
-0.0017623706858461222   -0.01104442518765849   -0.00018998237615017294
-0.002925657343535242   -0.013537781248570881   -0.00031383164908058885
-0.0016835857559013873   -0.013540052520569971   -0.00027224178052087086
-0.001776901966230535   -0.011023808874326552   -0.0001825642985042083
-0.0029330137950318675   -0.01352301213116041   -0.00029747112983608036
-0.001693271821059977   -0.013526714873873672   -0.0002651545385677156
-0.001776901966230535   -0.011023808874326552   -0.0001825642985042083
-0.0031629194078126787   -0.01100839213966097   -0.00021135853549990674
-0.0029330137950318675   -0.01352301213116041   -0.00029747112983608036
-0.003176379751807299   -0.01099648028868423   -0.00019523178500239582
-0.001693271821059977   -0.013526714873873672   -0.0002651545385677156
-0.0029406030161475616   -0.013514235969612364   -0.0002793080088949188
-0.003176379751807299   -0.01099648028868423   -0.00019523178500239582
-0.0029330137950318675   -0.01352301213116041   -0.00029747112983608036
-0.001693271821059977   -0.013526714873873672   -0.0002651545385677156
-0.003176379751807299   -0.01099648028868423   -0.00019523178500239582
-0.001792706607305214   -0.011007225405639727   -0.00017350760931574436
-0.001776901966230535   -0.011023808874326552   -0.0001825642985042083
-0.001693271821059977   -0.013526714873873672   -0.0002651545385677156
-0.003176379751807299   -0.01099648028868423   -0.00019523178500239582
-0.001776901966230535   -0.011023808874326552   -0.0001825642985042083
-0.0029330137950318675   -0.01352301213116041   -0.00029747112983608036
-0.0029167086346074318   -0.013558571459128803   -0.00032833760221785013
-0.003134850842928729   -0.011043628985900545   -0.00023867983847941255
-0.004196062686893118   -0.013512601202359342   -0.00036761898917576875
-0.002925657343535242   -0.013537781248570881   -0.00031383164908058885
-0.003134850842928729   -0.011043628985900545   -0.00023867983847941255
-0.004549219126180227   -0.011005787857178735   -0.0002733463591937713
-0.004196062686893118   -0.013512601202359342   -0.00036761898917576875
-0.00456281876329029   -0.010991211685463725   -0.0002533414243179652
-0.002925657343535242   -0.013537781248570881   -0.00031383164908058885
-0.004203319625755941   -0.013496464890071476   -0.0003418507304703605
-0.00456281876329029   -0.010991211685463725   -0.0002533414243179652
-0.004196062686893118   -0.013512601202359342   -0.00036761898917576875
-0.002925657343535242   -0.013537781248570881   -0.00031383164908058885
-0.00456281876329029   -0.010991211685463725   -0.0002533414243179652
-0.0031495914936253496   -0.0110241152306967   -0.0002258616091542137
-0.003134850842928729   -0.011043628985900545   -0.00023867983847941255
-0.002925657343535242   -0.013537781248570881   -0.00031383164908058885
-0.00456281876329029   -0.010991211685463725   -0.0002533414243179652
-0.003134850842928729   -0.011043628985900545   -0.00023867983847941255
-0.004196062686893118   -0.013512601202359342   -0.00036761898917576875
-0.002925657343535242   -0.013537781248570881   -0.00031383164908058885
-0.0031495914936253496   -0.0110241152306967   -0.0002258616091542137
-0.004203319625755941   -0.013496464890071476   -0.0003418507304703605
-0.0029330137950318675   -0.01352301213116041   -0.00029747112983608036
-0.0031495914936253496   -0.0110241152306967   -0.0002258616091542137
-0.00456281876329029   -0.010991211685463725   -0.0002533414243179652
-0.004203319625755941   -0.013496464890071476   -0.0003418507304703605
-0.004570726894232396   -0.010980012015583544   -0.0002318721191469984
-0.0029330137950318675   -0.01352301213116041   -0.00029747112983608036
-0.004203751691713746   -0.013486042546603877   -0.0003144831722756685
-0.004570726894232396   -0.010980012015583544   -0.0002318721191469984
-0.004203319625755941   -0.013496464890071476   -0.0003418507304703605
-0.0029330137950318675   -0.01352301213116041   -0.00029747112983608036
-0.004570726894232396   -0.010980012015583544   -0.0002318721191469984
-0.0031629194078126787   -0.01100839213966097   -0.00021135853549990674
-0.0031495914936253496   -0.0110241152306967   -0.0002258616091542137
-0.0029330137950318675   -0.01352301213116041   -0.00029747112983608036
-0.004570726894232396   -0.010980012015583544   -0.0002318721191469984
-0.0031495914936253496   -0.0110241152306967   -0.0002258616091542137
-0.004203319625755941   -0.013496464890071476   -0.0003418507304703605
-0.0029330137950318675   -0.01352301213116041   -0.00029747112983608036
-0.0031629194078126787   -0.01100839213966097   -0.00021135853549990674
-0.004203751691713746   -0.013486042546603877   -0.0003144831722756685
-0.0029406030161475616   -0.013514235969612364   -0.0002793080088949188
-0.0031629194078126787   -0.01100839213966097   -0.00021135853549990674
-0.004570726894232396   -0.010980012015583544   -0.0002318721191469984
-0.004203751691713746   -0.013486042546603877   -0.0003144831722756685
-0.00457958443352551   -0.010972970457733416   -0.00020863897101081112
-0.0029406030161475616   -0.013514235969612364   -0.0002793080088949188
-0.00420623860425544   -0.013482165494657744   -0.00028517335390291506
-0.00457958443352551   -0.010972970457733416   -0.00020863897101081112
-0.004203751691713746   -0.013486042546603877   -0.0003144831722756685
-0.0029406030161475616   -0.013514235969612364   -0.0002793080088949188
-0.00457958443352551   -0.010972970457733416   -0.00020863897101081112
-0.003176379751807299   -0.01099648028868423   -0.00019523178500239582
-0.0031629194078126787   -0.01100839213966097   -0.00021135853549990674
-0.0029406030161475616   -0.013514235969612364   -0.0002793080088949188
-0.00457958443352551   -0.010972970457733416   -0.00020863897101081112
-0.0031629194078126787   -0.01100839213966097   -0.00021135853549990674
-0.004203751691713746   -0.013486042546603877   -0.0003144831722756685
-0.004196062686893118   -0.013512601202359342   -0.00036761898917576875
-0.004549219126180227   -0.011005787857178735   -0.0002733463591937713
-0.005592020742752816   -0.01345170973944889   -0.00040120740792700066
-0.004203319625755941   -0.013496464890071476   -0.0003418507304703605
-0.004549219126180227   -0.011005787857178735   -0.0002733463591937713
-0.006068769204351957   -0.010958668223048787   -0.00030061006854935275
-0.005592020742752816   -0.01345170973944889   -0.00040120740792700066
-0.006056631780547537   -0.010946566465430895   -0.00027361177546278605
-0.004203319625755941   -0.013496464890071476   -0.0003418507304703605
-0.0055635438440580715   -0.013436963025501722   -0.00036334593803716877
-0.006056631780547537   -0.010946566465430895   -0.00027361177546278605
-0.005592020742752816   -0.01345170973944889   -0.00040120740792700066
-0.004203319625755941   -0.013496464890071476   -0.0003418507304703605
-0.006056631780547537   -0.010946566465430895   -0.00027361177546278605
-0.00456281876329029   -0.010991211685463725   -0.0002533414243179652
-0.004549219126180227   -0.011005787857178735   -0.0002733463591937713
-0.004203319625755941   -0.013496464890071476   -0.0003418507304703605
-0.006056631780547537   -0.010946566465430895   -0.00027361177546278605
-0.004549219126180227   -0.011005787857178735   -0.0002733463591937713
-0.005592020742752816   -0.01345170973944889   -0.00040120740792700066
-0.004203319625755941   -0.013496464890071476   -0.0003418507304703605
-0.00456281876329029   -0.010991211685463725   -0.0002533414243179652
-0.0055635438440580715   -0.013436963025501722   -0.00036334593803716877
-0.004203751691713746   -0.013486042546603877   -0.0003144831722756685
-0.00456281876329029   -0.010991211685463725   -0.0002533414243179652
-0.006056631780547537   -0.010946566465430895   -0.00027361177546278605
-0.0055635438440580715   -0.013436963025501722   -0.00036334593803716877
-0.0060467172637292555   -0.010937504399712073   -0.00024392525649394667
-0.004203751691713746   -0.013486042546603877   -0.0003144831722756685
-0.005539642365693937   -0.013428392450876101   -0.00032268002097843144
-0.0060467172637292555   -0.010937504399712073   -0.00024392525649394667
-0.0055635438440580715   -0.013436963025501722   -0.00036334593803716877
-0.004203751691713746   -0.013486042546603877   -0.0003144831722756685
-0.0060467172637292555   -0.010937504399712073   -0.00024392525649394667
-0.004570726894232396   -0.010980012015583544   -0.0002318721191469984
-0.00456281876329029   -0.010991211685463725   -0.0002533414243179652
-0.004203751691713746   -0.013486042546603877   -0.0003144831722756685
-0.0060467172637292555   -0.010937504399712073   -0.00024392525649394667
-0.00456281876329029   -0.010991211685463725   -0.0002533414243179652
-0.0055635438440580715   -0.013436963025501722   -0.00036334593803716877
-0.004203751691713746   -0.013486042546603877   -0.0003144831722756685
-0.004570726894232396   -0.010980012015583544   -0.0002318721191469984
-0.005539642365693937   -0.013428392450876101   -0.00032268002097843144
-0.00420623860425544   -0.013482165494657744   -0.00028517335390291506
-0.004570726894232396   -0.010980012015583544   -0.0002318721191469984
-0.0060467172637292555   -0.010937504399712073   -0.00024392525649394667
-0.005539642365693937   -0.013428392450876101   -0.00032268002097843144
-0.006024559957231594   -0.010936391163365379   -0.00021185497556642705
-0.00420623860425544   -0.013482165494657744   -0.00028517335390291506
-0.005500834963745421   -0.013430848931473808   -0.00027956296447953933
-0.006024559957231594   -0.010936391163365379   -0.00021185497556642705
-0.005539642365693937   -0.013428392450876101   -0.00032268002097843144
-0.00420623860425544   -0.013482165494657744   -0.00028517335390291506
-0.006024559957231594   -0.010936391163365379   -0.00021185497556642705
-0.00457958443352551   -0.010972970457733416   -0.00020863897101081112
-0.004570726894232396   -0.010980012015583544   -0.0002318721191469984
-0.00420623860425544   -0.013482165494657744   -0.00028517335390291506
-0.006024559957231594   -0.010936391163365379   -0.00021185497556642705
-0.004570726894232396   -0.010980012015583544   -0.0002318721191469984
-0.005539642365693937   -0.013428392450876101   -0.00032268002097843144
0.0011402983429809712   -0.011081287730526905   -8.083485146637732e-05
0.0011944489268974632   -0.00839811080098642   -1.4680411740875703e-05
-0.00033762897178258943   -0.011081999900557445   -0.00014417746815458847
0.0011378084497106929   -0.011046625098191543   -9.238690397648096e-05
0.0011944489268974632   -0.00839811080098642   -1.4680411740875703e-05
-0.00037502674057860765   -0.00838524416486461   -7.116469974826347e-05
-0.00033762897178258943   -0.011081999900557445   -0.00014417746815458847
-0.00039248453654516774   -0.008356856312143317   -6.623847540018878e-05
0.0011378084497106929   -0.011046625098191543   -9.238690397648096e-05
-0.0003500902882146261   -0.011052172305774002   -0.00014565197580781628
-0.00039248453654516774   -0.008356856312143317   -6.623847540018878e-05
-0.00033762897178258943   -0.011081999900557445   -0.00014417746815458847
0.0011378084497106929   -0.011046625098191543   -9.238690397648096e-05
-0.00039248453654516774   -0.008356856312143317   -6.623847540018878e-05
0.001176897752785558   -0.008365205235669424   -1.4711190417900352e-05
0.0011944489268974632   -0.00839811080098642   -1.4680411740875703e-05
0.0011378084497106929   -0.011046625098191543   -9.238690397648096e-05
-0.00039248453654516774   -0.008356856312143317   -6.623847540018878e-05
0.0011944489268974632   -0.00839811080098642   -1.4680411740875703e-05
-0.00033762897178258943   -0.011081999900557445   -0.00014417746815458847
0.0011378084497106929   -0.011046625098191543   -9.238690397648096e-05
0.001176897752785558   -0.008365205235669424   -1.4711190417900352e-05
-0.0003500902882146261   -0.011052172305774002   -0.00014565197580781628
0.00112865335067973   -0.011019456916728535   -0.00010129115389134947
0.001176897752785558   -0.008365205235669424   -1.4711190417900352e-05
-0.00039248453654516774   -0.008356856312143317   -6.623847540018878e-05
-0.0003500902882146261   -0.011052172305774002   -0.00014565197580781628
-0.00041254729945664127   -0.0083304488584866   -5.978978465519542e-05
0.00112865335067973   -0.011019456916728535   -0.00010129115389134947
-0.0003639511606467552   -0.011027036389218581   -0.00014547464675360706
-0.00041254729945664127   -0.0083304488584866   -5.978978465519542e-05
-0.0003500902882146261   -0.011052172305774002   -0.00014565197580781628
0.00112865335067973   -0.011019456916728535   -0.00010129115389134947
-0.00041254729945664127   -0.0083304488584866   -5.978978465519542e-05
0.0011545958281808128   -0.008336385301732797   -1.1647868964631862e-05
0.001176897752785558   -0.008365205235669424   -1.4711190417900352e-05
0.00112865335067973   -0.011019456916728535   -0.00010129115389134947
-0.00041254729945664127   -0.0083304488584866   -5.978978465519542e-05
0.001176897752785558   -0.008365205235669424   -1.4711190417900352e-05
-0.0003500902882146261   -0.011052172305774002   -0.00014565197580781628
0.00112865335067973   -0.011019456916728535   -0.00010129115389134947
0.0011545958281808128   -0.008336385301732797   -1.1647868964631862e-05
-0.0003639511606467552   -0.011027036389218581   -0.00014547464675360706
0.0011156099268227555   -0.010995031970597244   -0.00010773279428804486
0.0011545958281808128   -0.008336385301732797   -1.1647868964631862e-05
-0.00041254729945664127   -0.0083304488584866   -5.978978465519542e-05
-0.0003639511606467552   -0.011027036389218581   -0.00014547464675360706
-0.0004352533346141857   -0.008305640627192579   -5.1440253546921464e-05
0.0011156099268227555   -0.010995031970597244   -0.00010773279428804486
-0.0003814237581865834   -0.011005897482529964   -0.00014358035634098746
-0.0004352533346141857   -0.008305640627192579   -5.1440253546921464e-05
-0.0003639511606467552   -0.011027036389218581   -0.00014547464675360706
0.0011156099268227555   -0.010995031970597244   -0.00010773279428804486
-0.0004352533346141857   -0.008305640627192579   -5.1440253546921464e-05
0.0011249977405716407   -0.008306532287337466   -5.625274823083381e-06
0.0011545958281808128   -0.008336385301732797   -1.1647868964631862e-05
0.0011156099268227555   -0.010995031970597244   -0.00010773279428804486
-0.0004352533346141857   -0.008305640627192579   -5.1440253546921464e-05
0.0011545958281808128   -0.008336385301732797   -1.1647868964631862e-05
-0.0003639511606467552   -0.011027036389218581   -0.00014547464675360706
-0.00033762897178258943   -0.011081999900557445   -0.00014417746815458847
-0.00037502674057860765   -0.00838524416486461   -7.116469974826347e-05
-0.0017481438759662244   -0.011068858912737022   -0.00019567276270268503
-0.0003500902882146261   -0.011052172305774002   -0.00014565197580781628
-0.00037502674057860765   -0.00838524416486461   -7.116469974826347e-05
-0.0018619235159141711   -0.00836928232726754   -0.00011815684485755387
-0.0017481438759662244   -0.011068858912737022   -0.00019567276270268503
-0.0018799806660532003   -0.008345899478625888   -0.00010998316172432694
-0.0003500902882146261   -0.011052172305774002   -0.00014565197580781628
-0.0017623706858461222   -0.01104442518765849   -0.00018998237615017294
-0.0018799806660532003   -0.008345899478625888   -0.00010998316172432694
-0.0017481438759662244   -0.011068858912737022   -0.00019567276270268503
-0.0003500902882146261   -0.011052172305774002   -0.00014565197580781628
-0.0018799806660532003   -0.008345899478625888   -0.00010998316172432694
-0.00039248453654516774   -0.008356856312143317   -6.623847540018878e-05
-0.00037502674057860765   -0.00838524416486461   -7.116469974826347e-05
-0.0003500902882146261   -0.011052172305774002   -0.00014565197580781628
-0.0018799806660532003   -0.008345899478625888   -0.00010998316172432694
-0.00037502674057860765   -0.00838524416486461   -7.116469974826347e-05
-0.0017481438759662244   -0.011068858912737022   -0.00019567276270268503
-0.0003500902882146261   -0.011052172305774002   -0.00014565197580781628
-0.00039248453654516774   -0.008356856312143317   -6.623847540018878e-05
-0.0017623706858461222   -0.01104442518765849   -0.00018998237615017294
-0.0003639511606467552   -0.011027036389218581   -0.00014547464675360706
-0.00039248453654516774   -0.008356856312143317   -6.623847540018878e-05
-0.0018799806660532003   -0.008345899478625888   -0.00010998316172432694
-0.0017623706858461222   -0.01104442518765849   -0.00018998237615017294
-0.0018984716494193144   -0.00832404524844484   -0.00010034530842942371
-0.0003639511606467552   -0.011027036389218581   -0.00014547464675360706
-0.001776901966230535   -0.011023808874326552   -0.0001825642985042083
-0.0018984716494193144   -0.00832404524844484   -0.00010034530842942371
-0.0017623706858461222   -0.01104442518765849   -0.00018998237615017294
-0.0003639511606467552   -0.011027036389218581   -0.00014547464675360706
-0.0018984716494193144   -0.00832404524844484   -0.00010034530842942371
-0.00041254729945664127   -0.0083304488584866   -5.978978465519542e-05
-0.00039248453654516774   -0.008356856312143317   -6.623847540018878e-05
-0.0003639511606467552   -0.011027036389218581   -0.00014547464675360706
-0.0018984716494193144   -0.00832404524844484   -0.00010034530842942371
-0.00039248453654516774   -0.008356856312143317   -6.623847540018878e-05
-0.0017623706858461222   -0.01104442518765849   -0.00018998237615017294
-0.0003639511606467552   -0.011027036389218581   -0.00014547464675360706
-0.00041254729945664127   -0.0083304488584866   -5.978978465519542e-05
-0.001776901966230535   -0.011023808874326552   -0.0001825642985042083
-0.0003814237581865834   -0.011005897482529964   -0.00014358035634098746
-0.00041254729945664127   -0.0083304488584866   -5.978978465519542e-05
-0.0018984716494193144   -0.00832404524844484   -0.00010034530842942371
-0.001776901966230535   -0.011023808874326552   -0.0001825642985042083
-0.0019181840862321027   -0.008304098897137105   -8.923776153765146e-05
-0.0003814237581865834   -0.011005897482529964   -0.00014358035634098746
-0.001792706607305214   -0.011007225405639727   -0.00017350760931574436
-0.0019181840862321027   -0.008304098897137105   -8.923776153765146e-05
-0.001776901966230535   -0.011023808874326552   -0.0001825642985042083
-0.0003814237581865834   -0.011005897482529964   -0.00014358035634098746
-0.0019181840862321027   -0.008304098897137105   -8.923776153765146e-05
-0.0004352533346141857   -0.008305640627192579   -5.1440253546921464e-05
-0.00041254729945664127   -0.0083304488584866   -5.978978465519542e-05
-0.0003814237581865834   -0.011005897482529964   -0.00014358035634098746
-0.0019181840862321027   -0.008304098897137105   -8.923776153765146e-05
-0.00041254729945664127   -0.0083304488584866   -5.978978465519542e-05
-0.001776901966230535   -0.011023808874326552   -0.0001825642985042083
-0.0017481438759662244   -0.011068858912737022   -0.00019567276270268503
-0.0018619235159141711   -0.00836928232726754   -0.00011815684485755387
-0.003134850842928729   -0.011043628985900545   -0.00023867983847941255
-0.0017623706858461222   -0.01104442518765849   -0.00018998237615017294
-0.0018619235159141711   -0.00836928232726754   -0.00011815684485755387
-0.0033241281119366487   -0.008349698958879123   -0.0001575832089797477
-0.003134850842928729   -0.011043628985900545   -0.00023867983847941255
-0.003342151639316521   -0.008330901239920563   -0.00014620257299982644
-0.0017623706858461222   -0.01104442518765849   -0.00018998237615017294
-0.0031495914936253496   -0.0110241152306967   -0.0002258616091542137
-0.003342151639316521   -0.008330901239920563   -0.00014620257299982644
-0.003134850842928729   -0.011043628985900545   -0.00023867983847941255
-0.0017623706858461222   -0.01104442518765849   -0.00018998237615017294
-0.003342151639316521   -0.008330901239920563   -0.00014620257299982644
-0.0018799806660532003   -0.008345899478625888   -0.00010998316172432694
-0.0018619235159141711   -0.00836928232726754   -0.00011815684485755387
-0.0017623706858461222   -0.01104442518765849   -0.00018998237615017294
-0.003342151639316521   -0.008330901239920563   -0.00014620257299982644
-0.0018619235159141711   -0.00836928232726754   -0.00011815684485755387
-0.003134850842928729   -0.011043628985900545   -0.00023867983847941255
-0.0017623706858461222   -0.01104442518765849   -0.00018998237615017294
-0.0018799806660532003   -0.008345899478625888   -0.00010998316172432694
-0.0031495914936253496   -0.0110241152306967   -0.0002258616091542137
-0.001776901966230535   -0.011023808874326552   -0.0001825642985042083
-0.0018799806660532003   -0.008345899478625888   -0.00010998316172432694
-0.003342151639316521   -0.008330901239920563   -0.00014620257299982644
-0.0031495914936253496   -0.0110241152306967   -0.0002258616091542137
-0.0033589814556657807   -0.008313701565697669   -0.00013340720000275317
-0.001776901966230535   -0.011023808874326552   -0.0001825642985042083
-0.0031629194078126787   -0.01100839213966097   -0.00021135853549990674
-0.0033589814556657807   -0.008313701565697669   -0.00013340720000275317
-0.0031495914936253496   -0.0110241152306967   -0.0002258616091542137
-0.001776901966230535   -0.011023808874326552   -0.0001825642985042083
-0.0033589814556657807   -0.008313701565697669   -0.00013340720000275317
-0.0018984716494193144   -0.00832404524844484   -0.00010034530842942371
-0.0018799806660532003   -0.008345899478625888   -0.00010998316172432694
-0.001776901966230535   -0.011023808874326552   -0.0001825642985042083
-0.0033589814556657807   -0.008313701565697669   -0.00013340720000275317
-0.0018799806660532003   -0.008345899478625888   -0.00010998316172432694
-0.0031495914936253496   -0.0110241152306967   -0.0002258616091542137
-0.001776901966230535   -0.011023808874326552   -0.0001825642985042083
-0.0018984716494193144   -0.00832404524844484   -0.00010034530842942371
-0.0031629194078126787   -0.01100839213966097   -0.00021135853549990674
-0.001792706607305214   -0.011007225405639727   -0.00017350760931574436
-0.0018984716494193144   -0.00832404524844484   -0.00010034530842942371
-0.0033589814556657807   -0.008313701565697669   -0.00013340720000275317
-0.0031629194078126787   -0.01100839213966097   -0.00021135853549990674
-0.003375872380682706   -0.008298141295317953   -0.00011926409619951235
-0.001792706607305214   -0.011007225405639727   -0.00017350760931574436
-0.003176379751807299   -0.01099648028868423   -0.00019523178500239582
-0.003375872380682706   -0.008298141295317953   -0.00011926409619951235
-0.0031629194078126787   -0.01100839213966097   -0.00021135853549990674
-0.001792706607305214   -0.011007225405639727   -0.00017350760931574436
-0.003375872380682706   -0.008298141295317953   -0.00011926409619951235
-0.0019181840862321027   -0.008304098897137105   -8.923776153765146e-05
-0.0018984716494193144   -0.00832404524844484   -0.00010034530842942371
-0.001792706607305214   -0.011007225405639727   -0.00017350760931574436
-0.003375872380682706   -0.008298141295317953   -0.00011926409619951235
-0.0018984716494193144   -0.00832404524844484   -0.00010034530842942371
-0.0031629194078126787   -0.01100839213966097   -0.00021135853549990674
-0.003134850842928729   -0.011043628985900545   -0.00023867983847941255
-0.0033241281119366487   -0.008349698958879123   -0.0001575832089797477
-0.004549219126180227   -0.011005787857178735   -0.0002733463591937713
-0.0031495914936253496   -0.0110241152306967   -0.0002258616091542137
-0.0033241281119366487   -0.008349698958879123   -0.0001575832089797477
-0.004813045411649886   -0.008322937568003678   -0.00018909940964897018
-0.004549219126180227   -0.011005787857178735   -0.0002733463591937713
-0.004830266232803714   -0.008308957343251733   -0.00017455204229430225
-0.0031495914936253496   -0.0110241152306967   -0.0002258616091542137
-0.00456281876329029   -0.010991211685463725   -0.0002533414243179652
-0.004830266232803714   -0.008308957343251733   -0.00017455204229430225
-0.004549219126180227   -0.011005787857178735   -0.0002733463591937713
-0.0031495914936253496   -0.0110241152306967   -0.0002258616091542137
-0.004830266232803714   -0.008308957343251733   -0.00017455204229430225
-0.003342151639316521   -0.008330901239920563   -0.00014620257299982644
-0.0033241281119366487   -0.008349698958879123   -0.0001575832089797477
-0.0031495914936253496   -0.0110241152306967   -0.0002258616091542137
-0.004830266232803714   -0.008308957343251733   -0.00017455204229430225
-0.0033241281119366487   -0.008349698958879123   -0.0001575832089797477
-0.004549219126180227   -0.011005787857178735   -0.0002733463591937713
-0.0031495914936253496   -0.0110241152306967   -0.0002258616091542137
-0.003342151639316521   -0.008330901239920563   -0.00014620257299982644
-0.00456281876329029   -0.010991211685463725   -0.0002533414243179652
-0.0031629194078126787   -0.01100839213966097   -0.00021135853549990674
-0.003342151639316521   -0.008330901239920563   -0.00014620257299982644
-0.004830266232803714   -0.008308957343251733   -0.00017455204229430225
-0.00456281876329029   -0.010991211685463725   -0.0002533414243179652
-0.004843094369456246   -0.008296070036865263   -0.0001588089802224799
-0.0031629194078126787   -0.01100839213966097   -0.00021135853549990674
-0.004570726894232396   -0.010980012015583544   -0.0002318721191469984
-0.004843094369456246   -0.008296070036865263   -0.0001588089802224799
-0.00456281876329029   -0.010991211685463725   -0.0002533414243179652
-0.0031629194078126787   -0.01100839213966097   -0.00021135853549990674
-0.004843094369456246   -0.008296070036865263   -0.0001588089802224799
-0.0033589814556657807   -0.008313701565697669   -0.00013340720000275317
-0.003342151639316521   -0.008330901239920563   -0.00014620257299982644
-0.0031629194078126787   -0.01100839213966097   -0.00021135853549990674
-0.004843094369456246   -0.008296070036865263   -0.0001588089802224799
-0.003342151639316521   -0.008330901239920563   -0.00014620257299982644
-0.00456281876329029   -0.010991211685463725   -0.0002533414243179652
-0.0031629194078126787   -0.01100839213966097   -0.00021135853549990674
-0.0033589814556657807   -0.008313701565697669   -0.00013340720000275317
-0.004570726894232396   -0.010980012015583544   -0.0002318721191469984
-0.003176379751807299   -0.01099648028868423   -0.00019523178500239582
-0.0033589814556657807   -0.008313701565697669   -0.00013340720000275317
-0.004843094369456246   -0.008296070036865263   -0.0001588089802224799
-0.004570726894232396   -0.010980012015583544   -0.0002318721191469984
-0.004855876534023557   -0.008284931176903895   -0.00014157093266769325
-0.003176379751807299   -0.01099648028868423   -0.00019523178500239582
-0.00457958443352551   -0.010972970457733416   -0.00020863897101081112
-0.004855876534023557   -0.008284931176903895   -0.00014157093266769325
-0.004570726894232396   -0.010980012015583544   -0.0002318721191469984
-0.003176379751807299   -0.01099648028868423   -0.00019523178500239582
-0.004855876534023557   -0.008284931176903895   -0.00014157093266769325
-0.003375872380682706   -0.008298141295317953   -0.00011926409619951235
-0.0033589814556657807   -0.008313701565697669   -0.00013340720000275317
-0.003176379751807299   -0.01099648028868423   -0.00019523178500239582
-0.004855876534023557   -0.008284931176903895   -0.00014157093266769325
-0.0033589814556657807   -0.008313701565697669   -0.00013340720000275317
-0.004570726894232396   -0.010980012015583544   -0.0002318721191469984
-0.004549219126180227   -0.011005787857178735   -0.0002733463591937713
-0.004813045411649886   -0.008322937568003678   -0.00018909940964897018
-0.006068769204351957   -0.010958668223048787   -0.00030061006854935275
-0.00456281876329029   -0.010991211685463725   -0.0002533414243179652
-0.004813045411649886   -0.008322937568003678   -0.00018909940964897018
-0.006393308985980148   -0.008290822361670535   -0.00021181893446769098
-0.006068769204351957   -0.010958668223048787   -0.00030061006854935275
-0.00639463125540934   -0.008280040340800944   -0.0001953323049601779
-0.00456281876329029   -0.010991211685463725   -0.0002533414243179652
-0.006056631780547537   -0.010946566465430895   -0.00027361177546278605
-0.00639463125540934   -0.008280040340800944   -0.0001953323049601779
-0.006068769204351957   -0.010958668223048787   -0.00030061006854935275
-0.00456281876329029   -0.010991211685463725   -0.0002533414243179652
-0.00639463125540934   -0.008280040340800944   -0.0001953323049601779
-0.004830266232803714   -0.008308957343251733   -0.00017455204229430225
-0.004813045411649886   -0.008322937568003678   -0.00018909940964897018
-0.00456281876329029   -0.010991211685463725   -0.0002533414243179652
-0.00639463125540934   -0.008280040340800944   -0.0001953323049601779
-0.004813045411649886   -0.008322937568003678   -0.00018909940964897018
-0.006068769204351957   -0.010958668223048787   -0.00030061006854935275
-0.00456281876329029   -0.010991211685463725   -0.0002533414243179652
-0.004830266232803714   -0.008308957343251733   -0.00017455204229430225
-0.006056631780547537   -0.010946566465430895   -0.00027361177546278605
-0.004570726894232396   -0.010980012015583544   -0.0002318721191469984
-0.004830266232803714   -0.008308957343251733   -0.00017455204229430225
-0.00639463125540934   -0.008280040340800944   -0.0001953323049601779
-0.006056631780547537   -0.010946566465430895   -0.00027361177546278605
-0.006396208763032303   -0.008269373727739029   -0.00017645451175412314
-0.004570726894232396   -0.010980012015583544   -0.0002318721191469984
-0.0060467172637292555   -0.010937504399712073   -0.00024392525649394667
-0.006396208763032303   -0.008269373727739029   -0.00017645451175412314
-0.006056631780547537   -0.010946566465430895   -0.00027361177546278605
-0.004570726894232396   -0.010980012015583544   -0.0002318721191469984
-0.006396208763032303   -0.008269373727739029   -0.00017645451175412314
-0.004843094369456246   -0.008296070036865263   -0.0001588089802224799
-0.004830266232803714   -0.008308957343251733   -0.00017455204229430225
-0.004570726894232396   -0.010980012015583544   -0.0002318721191469984
-0.006396208763032303   -0.008269373727739029   -0.00017645451175412314
-0.004830266232803714   -0.008308957343251733   -0.00017455204229430225
-0.006056631780547537   -0.010946566465430895   -0.00027361177546278605
-0.004570726894232396   -0.010980012015583544   -0.0002318721191469984
-0.004843094369456246   -0.008296070036865263   -0.0001588089802224799
-0.0060467172637292555   -0.010937504399712073   -0.00024392525649394667
-0.00457958443352551   -0.010972970457733416   -0.00020863897101081112
-0.004843094369456246   -0.008296070036865263   -0.0001588089802224799
-0.006396208763032303   -0.008269373727739029   -0.00017645451175412314
-0.0060467172637292555   -0.010937504399712073   -0.00024392525649394667
-0.006388543932796322   -0.008263453801035292   -0.0001554599395015142
-0.00457958443352551   -0.010972970457733416   -0.00020863897101081112
-0.006024559957231594   -0.010936391163365379   -0.00021185497556642705
-0.006388543932796322   -0.008263453801035292   -0.0001554599395015142
-0.0060467172637292555   -0.010937504399712073   -0.00024392525649394667
-0.00457958443352551   -0.010972970457733416   -0.00020863897101081112
-0.006388543932796322   -0.008263453801035292   -0.0001554599395015142
-0.004855876534023557   -0.008284931176903895   -0.00014157093266769325
-0.004843094369456246   -0.008296070036865263   -0.0001588089802224799
-0.00457958443352551   -0.010972970457733416   -0.00020863897101081112
-0.006388543932796322   -0.008263453801035292   -0.0001554599395015142
-0.004843094369456246   -0.008296070036865263   -0.0001588089802224799
-0.0060467172637292555   -0.010937504399712073   -0.00024392525649394667
0.0011944489268974632   -0.00839811080098642   -1.4680411740875703e-05
0.00108125841059811   -0.005621493173534775   3.112446746758802e-05
-0.00037502674057860765   -0.00838524416486461   -7.116469974826347e-05
0.001176897752785558   -0.008365205235669424   -1.4711190417900352e-05
0.00108125841059811   -0.005621493173534775   3.112446746758802e-05
-0.0005073954934752872   -0.005596253350364754   -1.2776515673399214e-05
-0.00037502674057860765   -0.00838524416486461   -7.116469974826347e-05
-0.0005286892892793514   -0.00557080827446761   -1.8354192728877465e-06
0.001176897752785558   -0.008365205235669424   -1.4711190417900352e-05
-0.00039248453654516774   -0.008356856312143317   -6.623847540018878e-05
-0.0005286892892793514   -0.00557080827446761   -1.8354192728877465e-06
-0.00037502674057860765   -0.00838524416486461   -7.116469974826347e-05
0.001176897752785558   -0.008365205235669424   -1.4711190417900352e-05
-0.0005286892892793514   -0.00557080827446761   -1.8354192728877465e-06
0.0010484131410367515   -0.005590340366163483   4.415013531494619e-05
0.00108125841059811   -0.005621493173534775   3.112446746758802e-05
0.001176897752785558   -0.008365205235669424   -1.4711190417900352e-05
-0.0005286892892793514   -0.00557080827446761   -1.8354192728877465e-06
0.00108125841059811   -0.005621493173534775   3.112446746758802e-05
-0.00037502674057860765   -0.00838524416486461   -7.116469974826347e-05
0.001176897752785558   -0.008365205235669424   -1.4711190417900352e-05
0.0010484131410367515   -0.005590340366163483   4.415013531494619e-05
-0.00039248453654516774   -0.008356856312143317   -6.623847540018878e-05
0.0011545958281808128   -0.008336385301732797   -1.1647868964631862e-05
0.0010484131410367515   -0.005590340366163483   4.415013531494619e-05
-0.0005286892892793514   -0.00557080827446761   -1.8354192728877465e-06
-0.00039248453654516774   -0.008356856312143317   -6.623847540018878e-05
-0.0005537142081793464   -0.005544103033356616   1.1143431470273242e-05
0.0011545958281808128   -0.008336385301732797   -1.1647868964631862e-05
-0.00041254729945664127   -0.0083304488584866   -5.978978465519542e-05
-0.0005537142081793464   -0.005544103033356616   1.1143431470273242e-05
-0.00039248453654516774   -0.008356856312143317   -6.623847540018878e-05
0.0011545958281808128   -0.008336385301732797   -1.1647868964631862e-05
-0.0005537142081793464   -0.005544103033356616   1.1143431470273242e-05
0.0010111365976544682   -0.00555976321480255   6.339556514788515e-05
0.0010484131410367515   -0.005590340366163483   4.415013531494619e-05
0.0011545958281808128   -0.008336385301732797   -1.1647868964631862e-05
-0.0005537142081793464   -0.005544103033356616   1.1143431470273242e-05
0.0010484131410367515   -0.005590340366163483   4.415013531494619e-05
-0.00039248453654516774   -0.008356856312143317   -6.623847540018878e-05
0.0011545958281808128   -0.008336385301732797   -1.1647868964631862e-05
0.0010111365976544682   -0.00555976321480255   6.339556514788515e-05
-0.00041254729945664127   -0.0083304488584866   -5.978978465519542e-05
0.0011249977405716407   -0.008306532287337466   -5.625274823083381e-06
0.0010111365976544682   -0.00555976321480255   6.339556514788515e-05
-0.0005537142081793464   -0.005544103033356616   1.1143431470273242e-05
-0.00041254729945664127   -0.0083304488584866   -5.978978465519542e-05
-0.0005797351095890567   -0.005515883151921345   2.6151192164256805e-05
0.0011249977405716407   -0.008306532287337466   -5.625274823083381e-06
-0.0004352533346141857   -0.008305640627192579   -5.1440253546921464e-05
-0.0005797351095890567   -0.005515883151921345   2.6151192164256805e-05
-0.00041254729945664127   -0.0083304488584866   -5.978978465519542e-05
0.0011249977405716407   -0.008306532287337466   -5.625274823083381e-06
-0.0005797351095890567   -0.005515883151921345   2.6151192164256805e-05
0.0009655316413690768   -0.0055220608613084   8.46657760696269e-05
0.0010111365976544682   -0.00555976321480255   6.339556514788515e-05
0.0011249977405716407   -0.008306532287337466   -5.625274823083381e-06
-0.0005797351095890567   -0.005515883151921345   2.6151192164256805e-05
0.0010111365976544682   -0.00555976321480255   6.339556514788515e-05
-0.00041254729945664127   -0.0083304488584866   -5.978978465519542e-05
-0.00037502674057860765   -0.00838524416486461   -7.116469974826347e-05
-0.0005073954934752872   -0.005596253350364754   -1.2776515673399214e-05
-0.0018619235159141711   -0.00836928232726754   -0.00011815684485755387
-0.00039248453654516774   -0.008356856312143317   -6.623847540018878e-05
-0.0005073954934752872   -0.005596253350364754   -1.2776515673399214e-05
-0.002001349693176622   -0.005589672539530392   -5.4657030160468275e-05
-0.0018619235159141711   -0.00836928232726754   -0.00011815684485755387
-0.00202082459569775   -0.005567796441810123   -4.418937170445589e-05
-0.00039248453654516774   -0.008356856312143317   -6.623847540018878e-05
-0.0018799806660532003   -0.008345899478625888   -0.00010998316172432694
-0.00202082459569775   -0.005567796441810123   -4.418937170445589e-05
-0.0018619235159141711   -0.00836928232726754   -0.00011815684485755387
-0.00039248453654516774   -0.008356856312143317   -6.623847540018878e-05
-0.00202082459569775   -0.005567796441810123   -4.418937170445589e-05
-0.0005286892892793514   -0.00557080827446761   -1.8354192728877465e-06
-0.0005073954934752872   -0.005596253350364754   -1.2776515673399214e-05
-0.00039248453654516774   -0.008356856312143317   -6.623847540018878e-05
-0.00202082459569775   -0.005567796441810123   -4.418937170445589e-05
-0.0005073954934752872   -0.005596253350364754   -1.2776515673399214e-05
-0.0018619235159141711   -0.00836928232726754   -0.00011815684485755387
-0.00039248453654516774   -0.008356856312143317   -6.623847540018878e-05
-0.0005286892892793514   -0.00557080827446761   -1.8354192728877465e-06
-0.0018799806660532003   -0.008345899478625888   -0.00010998316172432694
-0.00041254729945664127   -0.0083304488584866   -5.978978465519542e-05
-0.0005286892892793514   -0.00557080827446761   -1.8354192728877465e-06
-0.00202082459569775   -0.005567796441810123   -4.418937170445589e-05
-0.0018799806660532003   -0.008345899478625888   -0.00010998316172432694
-0.002041027004659902   -0.0055450994520821195   -3.2628221388221076e-05
-0.00041254729945664127   -0.0083304488584866   -5.978978465519542e-05
-0.0018984716494193144   -0.00832404524844484   -0.00010034530842942371
-0.002041027004659902   -0.0055450994520821195   -3.2628221388221076e-05
-0.0018799806660532003   -0.008345899478625888   -0.00010998316172432694
-0.00041254729945664127   -0.0083304488584866   -5.978978465519542e-05
-0.002041027004659902   -0.0055450994520821195   -3.2628221388221076e-05
-0.0005537142081793464   -0.005544103033356616   1.1143431470273242e-05
-0.0005286892892793514   -0.00557080827446761   -1.8354192728877465e-06
-0.00041254729945664127   -0.0083304488584866   -5.978978465519542e-05
-0.002041027004659902   -0.0055450994520821195   -3.2628221388221076e-05
-0.0005286892892793514   -0.00557080827446761   -1.8354192728877465e-06
-0.0018799806660532003   -0.008345899478625888   -0.00010998316172432694
-0.00041254729945664127   -0.0083304488584866   -5.978978465519542e-05
-0.0005537142081793464   -0.005544103033356616   1.1143431470273242e-05
-0.0018984716494193144   -0.00832404524844484   -0.00010034530842942371
-0.0004352533346141857   -0.008305640627192579   -5.1440253546921464e-05
-0.0005537142081793464   -0.005544103033356616   1.1143431470273242e-05
-0.002041027004659902   -0.0055450994520821195   -3.2628221388221076e-05
-0.0018984716494193144   -0.00832404524844484   -0.00010034530842942371
-0.0020621161354895507   -0.005522066620327749   -1.9767636007657668e-05
-0.0004352533346141857   -0.008305640627192579   -5.1440253546921464e-05
-0.0019181840862321027   -0.008304098897137105   -8.923776153765146e-05
-0.0020621161354895507   -0.005522066620327749   -1.9767636007657668e-05
-0.0018984716494193144   -0.00832404524844484   -0.00010034530842942371
-0.0004352533346141857   -0.008305640627192579   -5.1440253546921464e-05
-0.0020621161354895507   -0.005522066620327749   -1.9767636007657668e-05
-0.0005797351095890567   -0.005515883151921345   2.6151192164256805e-05
-0.0005537142081793464   -0.005544103033356616   1.1143431470273242e-05
-0.0004352533346141857   -0.008305640627192579   -5.1440253546921464e-05
-0.0020621161354895507   -0.005522066620327749   -1.9767636007657668e-05
-0.0005537142081793464   -0.005544103033356616   1.1143431470273242e-05
-0.0018984716494193144   -0.00832404524844484   -0.00010034530842942371
-0.0018619235159141711   -0.00836928232726754   -0.00011815684485755387
-0.002001349693176622   -0.005589672539530392   -5.4657030160468275e-05
-0.0033241281119366487   -0.008349698958879123   -0.0001575832089797477
-0.0018799806660532003   -0.008345899478625888   -0.00010998316172432694
-0.002001349693176622   -0.005589672539530392   -5.4657030160468275e-05
-0.0034785161570013525   -0.005587773579227616   -9.224141834655098e-05
-0.0033241281119366487   -0.008349698958879123   -0.0001575832089797477
-0.0034972454854785466   -0.005568831582813603   -8.200928996592316e-05
-0.0018799806660532003   -0.008345899478625888   -0.00010998316172432694
-0.003342151639316521   -0.008330901239920563   -0.00014620257299982644
-0.0034972454854785466   -0.005568831582813603   -8.200928996592316e-05
-0.0033241281119366487   -0.008349698958879123   -0.0001575832089797477
-0.0018799806660532003   -0.008345899478625888   -0.00010998316172432694
-0.0034972454854785466   -0.005568831582813603   -8.200928996592316e-05
-0.00202082459569775   -0.005567796441810123   -4.418937170445589e-05
-0.002001349693176622   -0.005589672539530392   -5.4657030160468275e-05
-0.0018799806660532003   -0.008345899478625888   -0.00010998316172432694
-0.0034972454854785466   -0.005568831582813603   -8.200928996592316e-05
-0.002001349693176622   -0.005589672539530392   -5.4657030160468275e-05
-0.0033241281119366487   -0.008349698958879123   -0.0001575832089797477
-0.0018799806660532003   -0.008345899478625888   -0.00010998316172432694
-0.00202082459569775   -0.005567796441810123   -4.418937170445589e-05
-0.003342151639316521   -0.008330901239920563   -0.00014620257299982644
-0.0018984716494193144   -0.00832404524844484   -0.00010034530842942371
-0.00202082459569775   -0.005567796441810123   -4.418937170445589e-05
-0.0034972454854785466   -0.005568831582813603   -8.200928996592316e-05
-0.003342151639316521   -0.008330901239920563   -0.00014620257299982644
-0.0035150937126985113   -0.005549641997567935   -7.081171952413191e-05
-0.0018984716494193144   -0.00832404524844484   -0.00010034530842942371
-0.0033589814556657807   -0.008313701565697669   -0.00013340720000275317
-0.0035150937126985113   -0.005549641997567935   -7.081171952413191e-05
-0.003342151639316521   -0.008330901239920563   -0.00014620257299982644
-0.0018984716494193144   -0.00832404524844484   -0.00010034530842942371
-0.0035150937126985113   -0.005549641997567935   -7.081171952413191e-05
-0.002041027004659902   -0.0055450994520821195   -3.2628221388221076e-05
-0.00202082459569775   -0.005567796441810123   -4.418937170445589e-05
-0.0018984716494193144   -0.00832404524844484   -0.00010034530842942371
-0.0035150937126985113   -0.005549641997567935   -7.081171952413191e-05
-0.00202082459569775   -0.005567796441810123   -4.418937170445589e-05
-0.003342151639316521   -0.008330901239920563   -0.00014620257299982644
-0.0018984716494193144   -0.00832404524844484   -0.00010034530842942371
-0.002041027004659902   -0.0055450994520821195   -3.2628221388221076e-05
-0.0033589814556657807   -0.008313701565697669   -0.00013340720000275317
-0.0019181840862321027   -0.008304098897137105   -8.923776153765146e-05
-0.002041027004659902   -0.0055450994520821195   -3.2628221388221076e-05
-0.0035150937126985113   -0.005549641997567935   -7.081171952413191e-05
-0.0033589814556657807   -0.008313701565697669   -0.00013340720000275317
-0.0035327685696128546   -0.005530080563480444   -5.86947702130468e-05
-0.0019181840862321027   -0.008304098897137105   -8.923776153765146e-05
-0.003375872380682706   -0.008298141295317953   -0.00011926409619951235
-0.0035327685696128546   -0.005530080563480444   -5.86947702130468e-05
-0.0033589814556657807   -0.008313701565697669   -0.00013340720000275317
-0.0019181840862321027   -0.008304098897137105   -8.923776153765146e-05
-0.0035327685696128546   -0.005530080563480444   -5.86947702130468e-05
-0.0020621161354895507   -0.005522066620327749   -1.9767636007657668e-05
-0.002041027004659902   -0.0055450994520821195   -3.2628221388221076e-05
-0.0019181840862321027   -0.008304098897137105   -8.923776153765146e-05
-0.0035327685696128546   -0.005530080563480444   -5.86947702130468e-05
-0.002041027004659902   -0.0055450994520821195   -3.2628221388221076e-05
-0.0033589814556657807   -0.008313701565697669   -0.00013340720000275317
-0.0033241281119366487   -0.008349698958879123   -0.0001575832089797477
-0.0034785161570013525   -0.005587773579227616   -9.224141834655098e-05
-0.004813045411649886   -0.008322937568003678   -0.00018909940964897018
-0.003342151639316521   -0.008330901239920563   -0.00014620257299982644
-0.0034785161570013525   -0.005587773579227616   -9.224141834655098e-05
-0.004987192971898151   -0.005578847396118431   -0.0001232713671676985
-0.004813045411649886   -0.008322937568003678   -0.00018909940964897018
-0.005005044050534427   -0.0055637985407583695   -0.00011335759022447007
-0.003342151639316521   -0.008330901239920563   -0.00014620257299982644
-0.004830266232803714   -0.008308957343251733   -0.00017455204229430225
-0.005005044050534427   -0.0055637985407583695   -0.00011335759022447007
-0.004813045411649886   -0.008322937568003678   -0.00018909940964897018
-0.003342151639316521   -0.008330901239920563   -0.00014620257299982644
-0.005005044050534427   -0.0055637985407583695   -0.00011335759022447007
-0.0034972454854785466   -0.005568831582813603   -8.200928996592316e-05
-0.0034785161570013525   -0.005587773579227616   -9.224141834655098e-05
-0.003342151639316521   -0.008330901239920563   -0.00014620257299982644
-0.005005044050534427   -0.0055637985407583695   -0.00011335759022447007
-0.0034785161570013525   -0.005587773579227616   -9.224141834655098e-05
-0.004813045411649886   -0.008322937568003678   -0.00018909940964897018
-0.003342151639316521   -0.008330901239920563   -0.00014620257299982644
-0.0034972454854785466   -0.005568831582813603   -8.200928996592316e-05
-0.004830266232803714   -0.008308957343251733   -0.00017455204229430225
-0.0033589814556657807   -0.008313701565697669   -0.00013340720000275317
-0.0034972454854785466   -0.005568831582813603   -8.200928996592316e-05
-0.005005044050534427   -0.0055637985407583695   -0.00011335759022447007
-0.004830266232803714   -0.008308957343251733   -0.00017455204229430225
-0.005020046646923825   -0.00554795796634883   -0.0001027311749484513
-0.0033589814556657807   -0.008313701565697669   -0.00013340720000275317
-0.004843094369456246   -0.008296070036865263   -0.0001588089802224799
-0.005020046646923825   -0.00554795796634883   -0.0001027311749484513
-0.004830266232803714   -0.008308957343251733   -0.00017455204229430225
-0.0033589814556657807   -0.008313701565697669   -0.00013340720000275317
-0.005020046646923825   -0.00554795796634883   -0.0001027311749484513
-0.0035150937126985113   -0.005549641997567935   -7.081171952413191e-05
-0.0034972454854785466   -0.005568831582813603   -8.200928996592316e-05
-0.0033589814556657807   -0.008313701565697669   -0.00013340720000275317
-0.005020046646923825   -0.00554795796634883   -0.0001027311749484513
-0.0034972454854785466   -0.005568831582813603   -8.200928996592316e-05
-0.004830266232803714   -0.008308957343251733   -0.00017455204229430225
-0.0033589814556657807   -0.008313701565697669   -0.00013340720000275317
-0.0035150937126985113   -0.005549641997567935   -7.081171952413191e-05
-0.004843094369456246   -0.008296070036865263   -0.0001588089802224799
-0.003375872380682706   -0.008298141295317953   -0.00011926409619951235
-0.0035150937126985113   -0.005549641997567935   -7.081171952413191e-05
-0.005020046646923825   -0.00554795796634883   -0.0001027311749484513
-0.004843094369456246   -0.008296070036865263   -0.0001588089802224799
-0.005034219282741951   -0.005531782633332959   -9.110750711847851e-05
-0.003375872380682706   -0.008298141295317953   -0.00011926409619951235
-0.004855876534023557   -0.008284931176903895   -0.00014157093266769325
-0.005034219282741951   -0.005531782633332959   -9.110750711847851e-05
-0.004843094369456246   -0.008296070036865263   -0.0001588089802224799
-0.003375872380682706   -0.008298141295317953   -0.00011926409619951235
-0.005034219282741951   -0.005531782633332959   -9.110750711847851e-05
-0.0035327685696128546   -0.005530080563480444   -5.86947702130468e-05
-0.0035150937126985113   -0.005549641997567935   -7.081171952413191e-05
-0.003375872380682706   -0.008298141295317953   -0.00011926409619951235
-0.005034219282741951   -0.005531782633332959   -9.110750711847851e-05
-0.0035150937126985113   -0.005549641997567935   -7.081171952413191e-05
-0.004843094369456246   -0.008296070036865263   -0.0001588089802224799
-0.004813045411649886   -0.008322937568003678   -0.00018909940964897018
-0.004987192971898151   -0.005578847396118431   -0.0001232713671676985
-0.006393308985980148   -0.008290822361670535   -0.00021181893446769098
-0.004830266232803714   -0.008308957343251733   -0.00017455204229430225
-0.004987192971898151   -0.005578847396118431   -0.0001232713671676985
-0.006570168073921859   -0.005563789256521235   -0.00014535461300609688
-0.006393308985980148   -0.008290822361670535   -0.00021181893446769098
-0.006580608890008504   -0.005551539407719809   -0.00013752608529481425
-0.004830266232803714   -0.008308957343251733   -0.00017455204229430225
-0.00639463125540934   -0.008280040340800944   -0.0001953323049601779
-0.006580608890008504   -0.005551539407719809   -0.00013752608529481425
-0.006393308985980148   -0.008290822361670535   -0.00021181893446769098
-0.004830266232803714   -0.008308957343251733   -0.00017455204229430225
-0.006580608890008504   -0.005551539407719809   -0.00013752608529481425
-0.005005044050534427   -0.0055637985407583695   -0.00011335759022447007
-0.004987192971898151   -0.005578847396118431   -0.0001232713671676985
-0.004830266232803714   -0.008308957343251733   -0.00017455204229430225
-0.006580608890008504   -0.005551539407719809   -0.00013752608529481425
-0.004987192971898151   -0.005578847396118431   -0.0001232713671676985
-0.006393308985980148   -0.008290822361670535   -0.00021181893446769098
-0.004830266232803714   -0.008308957343251733   -0.00017455204229430225
-0.005005044050534427   -0.0055637985407583695   -0.00011335759022447007
-0.00639463125540934   -0.008280040340800944   -0.0001953323049601779
-0.004843094369456246   -0.008296070036865263   -0.0001588089802224799
-0.005005044050534427   -0.0055637985407583695   -0.00011335759022447007
-0.006580608890008504   -0.005551539407719809   -0.00013752608529481425
-0.00639463125540934   -0.008280040340800944   -0.0001953323049601779
-0.006590156249948135   -0.005537518003741934   -0.00012800450000253512
-0.004843094369456246   -0.008296070036865263   -0.0001588089802224799
-0.006396208763032303   -0.008269373727739029   -0.00017645451175412314
-0.006590156249948135   -0.005537518003741934   -0.00012800450000253512
-0.00639463125540934   -0.008280040340800944   -0.0001953323049601779
-0.004843094369456246   -0.008296070036865263   -0.0001588089802224799
-0.006590156249948135   -0.005537518003741934   -0.00012800450000253512
-0.005020046646923825   -0.00554795796634883   -0.0001027311749484513
-0.005005044050534427   -0.0055637985407583695   -0.00011335759022447007
-0.004843094369456246   -0.008296070036865263   -0.0001588089802224799
-0.006590156249948135   -0.005537518003741934   -0.00012800450000253512
-0.005005044050534427   -0.0055637985407583695   -0.00011335759022447007
-0.00639463125540934   -0.008280040340800944   -0.0001953323049601779
-0.004843094369456246   -0.008296070036865263   -0.0001588089802224799
-0.005020046646923825   -0.00554795796634883   -0.0001027311749484513
-0.006396208763032303   -0.008269373727739029   -0.00017645451175412314
-0.004855876534023557   -0.008284931176903895   -0.00014157093266769325
-0.005020046646923825   -0.00554795796634883   -0.0001027311749484513
-0.006590156249948135   -0.005537518003741934   -0.00012800450000253512
-0.006396208763032303   -0.008269373727739029   -0.00017645451175412314
-0.006594049722412342   -0.005525129432487358   -0.00011718233661373357
-0.004855876534023557   -0.008284931176903895   -0.00014157093266769325
-0.006388543932796322   -0.008263453801035292   -0.0001554599395015142
-0.006594049722412342   -0.005525129432487358   -0.00011718233661373357
-0.006396208763032303   -0.008269373727739029   -0.00017645451175412314
-0.004855876534023557   -0.008284931176903895   -0.00014157093266769325
-0.006594049722412342   -0.005525129432487358   -0.00011718233661373357
-0.005034219282741951   -0.005531782633332959   -9.110750711847851e-05
-0.005020046646923825   -0.00554795796634883   -0.0001027311749484513
-0.004855876534023557   -0.008284931176903895   -0.00014157093266769325
-0.006594049722412342   -0.005525129432487358   -0.00011718233661373357
-0.005020046646923825   -0.00554795796634883   -0.0001027311749484513
-0.006396208763032303   -0.008269373727739029   -0.00017645451175412314
0.00108125841059811   -0.005621493173534775   3.112446746758802e-05
0.0007643583846279142   -0.0028360766264912242   3.423923444208667e-05
-0.0005073954934752872   -0.005596253350364754   -1.2776515673399214e-05
0.0010484131410367515   -0.005590340366163483   4.415013531494619e-05
0.0007643583846279142   -0.0028360766264912242   3.423923444208667e-05
-0.0007252955351510268   -0.0028014187494102305   2.089132127359398e-05
-0.0005073954934752872   -0.005596253350364754   -1.2776515673399214e-05
-0.000746759919850011   -0.002789634779765826   3.6527077369887804e-05
0.0010484131410367515   -0.005590340366163483   4.415013531494619e-05
-0.0005286892892793514   -0.00557080827446761   -1.8354192728877465e-06
-0.000746759919850011   -0.002789634779765826   3.6527077369887804e-05
-0.0005073954934752872   -0.005596253350364754   -1.2776515673399214e-05
0.0010484131410367515   -0.005590340366163483   4.415013531494619e-05
-0.000746759919850011   -0.002789634779765826   3.6527077369887804e-05
0.0006971377667758796   -0.002802497824590429   7.252496059416777e-05
0.0007643583846279142   -0.0028360766264912242   3.423923444208667e-05
0.0010484131410367515   -0.005590340366163483   4.415013531494619e-05
-0.000746759919850011   -0.002789634779765826   3.6527077369887804e-05
0.0007643583846279142   -0.0028360766264912242   3.423923444208667e-05
-0.0005073954934752872   -0.005596253350364754   -1.2776515673399214e-05
0.0010484131410367515   -0.005590340366163483   4.415013531494619e-05
0.0006971377667758796   -0.002802497824590429   7.252496059416777e-05
-0.0005286892892793514   -0.00557080827446761   -1.8354192728877465e-06
0.0010111365976544682   -0.00555976321480255   6.339556514788515e-05
0.0006971377667758796   -0.002802497824590429   7.252496059416777e-05
-0.000746759919850011   -0.002789634779765826   3.6527077369887804e-05
-0.0005286892892793514   -0.00557080827446761   -1.8354192728877465e-06
-0.0007754569600393991   -0.0027669988559470295   5.565372200084574e-05
0.0010111365976544682   -0.00555976321480255   6.339556514788515e-05
-0.0005537142081793464   -0.005544103033356616   1.1143431470273242e-05
-0.0007754569600393991   -0.0027669988559470295   5.565372200084574e-05
-0.0005286892892793514   -0.00557080827446761   -1.8354192728877465e-06
0.0010111365976544682   -0.00555976321480255   6.339556514788515e-05
-0.0007754569600393991   -0.0027669988559470295   5.565372200084574e-05
0.0006579925894885225   -0.002775811261874258   0.00010082471550720113
0.0006971377667758796   -0.002802497824590429   7.252496059416777e-05
0.0010111365976544682   -0.00555976321480255   6.339556514788515e-05
-0.0007754569600393991   -0.0027669988559470295   5.565372200084574e-05
0.0006971377667758796   -0.002802497824590429   7.252496059416777e-05
-0.0005286892892793514   -0.00557080827446761   -1.8354192728877465e-06
0.0010111365976544682   -0.00555976321480255   6.339556514788515e-05
0.0006579925894885225   -0.002775811261874258   0.00010082471550720113
-0.0005537142081793464   -0.005544103033356616   1.1143431470273242e-05
0.0009655316413690768   -0.0055220608613084   8.46657760696269e-05
0.0006579925894885225   -0.002775811261874258   0.00010082471550720113
-0.0007754569600393991   -0.0027669988559470295   5.565372200084574e-05
-0.0005537142081793464   -0.005544103033356616   1.1143431470273242e-05
-0.0007997978519439313   -0.0027429565929937313   7.246123568171054e-05
0.0009655316413690768   -0.0055220608613084   8.46657760696269e-05
-0.0005797351095890567   -0.005515883151921345   2.6151192164256805e-05
-0.0007997978519439313   -0.0027429565929937313   7.246123568171054e-05
-0.0005537142081793464   -0.005544103033356616   1.1143431470273242e-05
0.0009655316413690768   -0.0055220608613084   8.46657760696269e-05
-0.0007997978519439313   -0.0027429565929937313   7.246123568171054e-05
0.0006074750038484955   -0.002734296222582002   0.0001333564538792156
0.0006579925894885225   -0.002775811261874258   0.00010082471550720113
0.0009655316413690768   -0.0055220608613084   8.46657760696269e-05
-0.0007997978519439313   -0.0027429565929937313   7.246123568171054e-05
0.0006579925894885225   -0.002775811261874258   0.00010082471550720113
-0.0005537142081793464   -0.005544103033356616   1.1143431470273242e-05
-0.0005073954934752872   -0.005596253350364754   -1.2776515673399214e-05
-0.0007252955351510268   -0.0028014187494102305   2.089132127359398e-05
-0.002001349693176622   -0.005589672539530392   -5.4657030160468275e-05
-0.0005286892892793514   -0.00557080827446761   -1.8354192728877465e-06
-0.0007252955351510268   -0.0028014187494102305   2.089132127359398e-05
-0.0021369524634385203   -0.0028443404343404997   -1.1319275933464818e-05
-0.002001349693176622   -0.005589672539530392   -5.4657030160468275e-05
-0.0021571488546576196   -0.0028251588429005913   -6.755141202654811e-08
-0.0005286892892793514   -0.00557080827446761   -1.8354192728877465e-06
-0.00202082459569775   -0.005567796441810123   -4.418937170445589e-05
-0.0021571488546576196   -0.0028251588429005913   -6.755141202654811e-08
-0.002001349693176622   -0.005589672539530392   -5.4657030160468275e-05
-0.0005286892892793514   -0.00557080827446761   -1.8354192728877465e-06
-0.0021571488546576196   -0.0028251588429005913   -6.755141202654811e-08
-0.000746759919850011   -0.002789634779765826   3.6527077369887804e-05
-0.0007252955351510268   -0.0028014187494102305   2.089132127359398e-05
-0.0005286892892793514   -0.00557080827446761   -1.8354192728877465e-06
-0.0021571488546576196   -0.0028251588429005913   -6.755141202654811e-08
-0.0007252955351510268   -0.0028014187494102305   2.089132127359398e-05
-0.002001349693176622   -0.005589672539530392   -5.4657030160468275e-05
-0.0005286892892793514   -0.00557080827446761   -1.8354192728877465e-06
-0.000746759919850011   -0.002789634779765826   3.6527077369887804e-05
-0.00202082459569775   -0.005567796441810123   -4.418937170445589e-05
-0.0005537142081793464   -0.005544103033356616   1.1143431470273242e-05
-0.000746759919850011   -0.002789634779765826   3.6527077369887804e-05
-0.0021571488546576196   -0.0028251588429005913   -6.755141202654811e-08
-0.00202082459569775   -0.005567796441810123   -4.418937170445589e-05
-0.0021785234384765575   -0.0028032015194879942   1.1958254042138029e-05
-0.0005537142081793464   -0.005544103033356616   1.1143431470273242e-05
-0.002041027004659902   -0.0055450994520821195   -3.2628221388221076e-05
-0.0021785234384765575   -0.0028032015194879942   1.1958254042138029e-05
-0.00202082459569775   -0.005567796441810123   -4.418937170445589e-05
-0.0005537142081793464   -0.005544103033356616   1.1143431470273242e-05
-0.0021785234384765575   -0.0028032015194879942   1.1958254042138029e-05
-0.0007754569600393991   -0.0027669988559470295   5.565372200084574e-05
-0.000746759919850011   -0.002789634779765826   3.6527077369887804e-05
-0.0005537142081793464   -0.005544103033356616   1.1143431470273242e-05
-0.0021785234384765575   -0.0028032015194879942   1.1958254042138029e-05
-0.000746759919850011   -0.002789634779765826   3.6527077369887804e-05
-0.00202082459569775   -0.005567796441810123   -4.418937170445589e-05
-0.0005537142081793464   -0.005544103033356616   1.1143431470273242e-05
-0.0007754569600393991   -0.0027669988559470295   5.565372200084574e-05
-0.002041027004659902   -0.0055450994520821195   -3.2628221388221076e-05
-0.0005797351095890567   -0.005515883151921345   2.6151192164256805e-05
-0.0007754569600393991   -0.0027669988559470295   5.565372200084574e-05
-0.0021785234384765575   -0.0028032015194879942   1.1958254042138029e-05
-0.002041027004659902   -0.0055450994520821195   -3.2628221388221076e-05
-0.002199034278627872   -0.0027791327648207746   2.5290990681111944e-05
-0.0005797351095890567   -0.005515883151921345   2.6151192164256805e-05
-0.0020621161354895507   -0.005522066620327749   -1.9767636007657668e-05
-0.002199034278627872   -0.0027791327648207746   2.5290990681111944e-05
-0.002041027004659902   -0.0055450994520821195   -3.2628221388221076e-05
-0.0005797351095890567   -0.005515883151921345   2.6151192164256805e-05
-0.002199034278627872   -0.0027791327648207746   2.5290990681111944e-05
-0.0007997978519439313   -0.0027429565929937313   7.246123568171054e-05
-0.0007754569600393991   -0.0027669988559470295   5.565372200084574e-05
-0.0005797351095890567   -0.005515883151921345   2.6151192164256805e-05
-0.002199034278627872   -0.0027791327648207746   2.5290990681111944e-05
-0.0007754569600393991   -0.0027669988559470295   5.565372200084574e-05
-0.002041027004659902   -0.0055450994520821195   -3.2628221388221076e-05
-0.002001349693176622   -0.005589672539530392   -5.4657030160468275e-05
-0.0021369524634385203   -0.0028443404343404997   -1.1319275933464818e-05
-0.0034785161570013525   -0.005587773579227616   -9.224141834655098e-05
-0.00202082459569775   -0.005567796441810123   -4.418937170445589e-05
-0.0021369524634385203   -0.0028443404343404997   -1.1319275933464818e-05
-0.0035805669627808467   -0.002877912244061103   -4.777140326595557e-05
-0.0034785161570013525   -0.005587773579227616   -9.224141834655098e-05
-0.0035988959786484947   -0.002858132035458681   -3.89071123871956e-05
-0.00202082459569775   -0.005567796441810123   -4.418937170445589e-05
-0.0034972454854785466   -0.005568831582813603   -8.200928996592316e-05
-0.0035988959786484947   -0.002858132035458681   -3.89071123871956e-05
-0.0034785161570013525   -0.005587773579227616   -9.224141834655098e-05
-0.00202082459569775   -0.005567796441810123   -4.418937170445589e-05
-0.0035988959786484947   -0.002858132035458681   -3.89071123871956e-05
-0.0021571488546576196   -0.0028251588429005913   -6.755141202654811e-08
-0.0021369524634385203   -0.0028443404343404997   -1.1319275933464818e-05
-0.00202082459569775   -0.005567796441810123   -4.418937170445589e-05
-0.0035988959786484947   -0.002858132035458681   -3.89071123871956e-05
-0.0021369524634385203   -0.0028443404343404997   -1.1319275933464818e-05
-0.0034785161570013525   -0.005587773579227616   -9.224141834655098e-05
-0.00202082459569775   -0.005567796441810123   -4.418937170445589e-05
-0.0021571488546576196   -0.0028251588429005913   -6.755141202654811e-08
-0.0034972454854785466   -0.005568831582813603   -8.200928996592316e-05
-0.002041027004659902   -0.0055450994520821195   -3.2628221388221076e-05
-0.0021571488546576196   -0.0028251588429005913   -6.755141202654811e-08
-0.0035988959786484947   -0.002858132035458681   -3.89071123871956e-05
-0.0034972454854785466   -0.005568831582813603   -8.200928996592316e-05
-0.003616573200525903   -0.0028371081872864295   -2.9987223973573835e-05
-0.002041027004659902   -0.0055450994520821195   -3.2628221388221076e-05
-0.0035150937126985113   -0.005549641997567935   -7.081171952413191e-05
-0.003616573200525903   -0.0028371081872864295   -2.9987223973573835e-05
-0.0034972454854785466   -0.005568831582813603   -8.200928996592316e-05
-0.002041027004659902   -0.0055450994520821195   -3.2628221388221076e-05
-0.003616573200525903   -0.0028371081872864295   -2.9987223973573835e-05
-0.0021785234384765575   -0.0028032015194879942   1.1958254042138029e-05
-0.0021571488546576196   -0.0028251588429005913   -6.755141202654811e-08
-0.002041027004659902   -0.0055450994520821195   -3.2628221388221076e-05
-0.003616573200525903   -0.0028371081872864295   -2.9987223973573835e-05
-0.0021571488546576196   -0.0028251588429005913   -6.755141202654811e-08
-0.0034972454854785466   -0.005568831582813603   -8.200928996592316e-05
-0.002041027004659902   -0.0055450994520821195   -3.2628221388221076e-05
-0.0021785234384765575   -0.0028032015194879942   1.1958254042138029e-05
-0.0035150937126985113   -0.005549641997567935   -7.081171952413191e-05
-0.0020621161354895507   -0.005522066620327749   -1.9767636007657668e-05
-0.0021785234384765575   -0.0028032015194879942   1.1958254042138029e-05
-0.003616573200525903   -0.0028371081872864295   -2.9987223973573835e-05
-0.0035150937126985113   -0.005549641997567935   -7.081171952413191e-05
-0.0036329763842254284   -0.002814241946701919   -2.0186706748746592e-05
-0.0020621161354895507   -0.005522066620327749   -1.9767636007657668e-05
-0.0035327685696128546   -0.005530080563480444   -5.86947702130468e-05
-0.0036329763842254284   -0.002814241946701919   -2.0186706748746592e-05
-0.0035150937126985113   -0.005549641997567935   -7.081171952413191e-05
-0.0020621161354895507   -0.005522066620327749   -1.9767636007657668e-05
-0.0036329763842254284   -0.002814241946701919   -2.0186706748746592e-05
-0.002199034278627872   -0.0027791327648207746   2.5290990681111944e-05
-0.0021785234384765575   -0.0028032015194879942   1.1958254042138029e-05
-0.0020621161354895507   -0.005522066620327749   -1.9767636007657668e-05
-0.0036329763842254284   -0.002814241946701919   -2.0186706748746592e-05
-0.0021785234384765575   -0.0028032015194879942   1.1958254042138029e-05
-0.0035150937126985113   -0.005549641997567935   -7.081171952413191e-05
-0.0034785161570013525   -0.005587773579227616   -9.224141834655098e-05
-0.0035805669627808467   -0.002877912244061103   -4.777140326595557e-05
-0.004987192971898151   -0.005578847396118431   -0.0001232713671676985
-0.0034972454854785466   -0.005568831582813603   -8.200928996592316e-05
-0.0035805669627808467   -0.002877912244061103   -4.777140326595557e-05
-0.005074968450860094   -0.002891826451612295   -8.124563209786745e-05
-0.004987192971898151   -0.005578847396118431   -0.0001232713671676985
-0.005091523019073886   -0.0028742902436825306   -7.466349649092739e-05
-0.0034972454854785466   -0.005568831582813603   -8.200928996592316e-05
-0.005005044050534427   -0.0055637985407583695   -0.00011335759022447007
-0.005091523019073886   -0.0028742902436825306   -7.466349649092739e-05
-0.004987192971898151   -0.005578847396118431   -0.0001232713671676985
-0.0034972454854785466   -0.005568831582813603   -8.200928996592316e-05
-0.005091523019073886   -0.0028742902436825306   -7.466349649092739e-05
-0.0035988959786484947   -0.002858132035458681   -3.89071123871956e-05
-0.0035805669627808467   -0.002877912244061103   -4.777140326595557e-05
-0.0034972454854785466   -0.005568831582813603   -8.200928996592316e-05
-0.005091523019073886   -0.0028742902436825306   -7.466349649092739e-05
-0.0035805669627808467   -0.002877912244061103   -4.777140326595557e-05
-0.004987192971898151   -0.005578847396118431   -0.0001232713671676985
-0.0034972454854785466   -0.005568831582813603   -8.200928996592316e-05
-0.0035988959786484947   -0.002858132035458681   -3.89071123871956e-05
-0.005005044050534427   -0.0055637985407583695   -0.00011335759022447007
-0.0035150937126985113   -0.005549641997567935   -7.081171952413191e-05
-0.0035988959786484947   -0.002858132035458681   -3.89071123871956e-05
-0.005091523019073886   -0.0028742902436825306   -7.466349649092739e-05
-0.005005044050534427   -0.0055637985407583695   -0.00011335759022447007
-0.005106283317768749   -0.002855010205993436   -6.819145114422972e-05
-0.0035150937126985113   -0.005549641997567935   -7.081171952413191e-05
-0.005020046646923825   -0.00554795796634883   -0.0001027311749484513
-0.005106283317768749   -0.002855010205993436   -6.819145114422972e-05
-0.005005044050534427   -0.0055637985407583695   -0.00011335759022447007
-0.0035150937126985113   -0.005549641997567935   -7.081171952413191e-05
-0.005106283317768749   -0.002855010205993436   -6.819145114422972e-05
-0.003616573200525903   -0.0028371081872864295   -2.9987223973573835e-05
-0.0035988959786484947   -0.002858132035458681   -3.89071123871956e-05
-0.0035150937126985113   -0.005549641997567935   -7.081171952413191e-05
-0.005106283317768749   -0.002855010205993436   -6.819145114422972e-05
-0.0035988959786484947   -0.002858132035458681   -3.89071123871956e-05
-0.005005044050534427   -0.0055637985407583695   -0.00011335759022447007
-0.0035150937126985113   -0.005549641997567935   -7.081171952413191e-05
-0.003616573200525903   -0.0028371081872864295   -2.9987223973573835e-05
-0.005020046646923825   -0.00554795796634883   -0.0001027311749484513
-0.0035327685696128546   -0.005530080563480444   -5.86947702130468e-05
-0.003616573200525903   -0.0028371081872864295   -2.9987223973573835e-05
-0.005106283317768749   -0.002855010205993436   -6.819145114422972e-05
-0.005020046646923825   -0.00554795796634883   -0.0001027311749484513
-0.005119681965947311   -0.002834398452880223   -6.143659618972481e-05
-0.0035327685696128546   -0.005530080563480444   -5.86947702130468e-05
-0.005034219282741951   -0.005531782633332959   -9.110750711847851e-05
-0.005119681965947311   -0.002834398452880223   -6.143659618972481e-05
-0.005020046646923825   -0.00554795796634883   -0.0001027311749484513
-0.0035327685696128546   -0.005530080563480444   -5.86947702130468e-05
-0.005119681965947311   -0.002834398452880223   -6.143659618972481e-05
-0.0036329763842254284   -0.002814241946701919   -2.0186706748746592e-05
-0.003616573200525903   -0.0028371081872864295   -2.9987223973573835e-05
-0.0035327685696128546   -0.005530080563480444   -5.86947702130468e-05
-0.005119681965947311   -0.002834398452880223   -6.143659618972481e-05
-0.003616573200525903   -0.0028371081872864295   -2.9987223973573835e-05
-0.005020046646923825   -0.00554795796634883   -0.0001027311749484513
-0.004987192971898151   -0.005578847396118431   -0.0001232713671676985
-0.005074968450860094   -0.002891826451612295   -8.124563209786745e-05
-0.006570168073921859   -0.005563789256521235   -0.00014535461300609688
-0.005005044050534427   -0.0055637985407583695   -0.00011335759022447007
-0.005074968450860094   -0.002891826451612295   -8.124563209786745e-05
-0.006625096864263868   -0.0028931590896317306   -0.00010843595082223781
-0.006570168073921859   -0.005563789256521235   -0.00014535461300609688
-0.0066391198983961185   -0.0028762422222176694   -0.00010537779070197672
-0.005005044050534427   -0.0055637985407583695   -0.00011335759022447007
-0.006580608890008504   -0.005551539407719809   -0.00013752608529481425
-0.0066391198983961185   -0.0028762422222176694   -0.00010537779070197672
-0.006570168073921859   -0.005563789256521235   -0.00014535461300609688
-0.005005044050534427   -0.0055637985407583695   -0.00011335759022447007
-0.0066391198983961185   -0.0028762422222176694   -0.00010537779070197672
-0.005091523019073886   -0.0028742902436825306   -7.466349649092739e-05
-0.005074968450860094   -0.002891826451612295   -8.124563209786745e-05
-0.005005044050534427   -0.0055637985407583695   -0.00011335759022447007
-0.0066391198983961185   -0.0028762422222176694   -0.00010537779070197672
-0.005074968450860094   -0.002891826451612295   -8.124563209786745e-05
-0.006570168073921859   -0.005563789256521235   -0.00014535461300609688
-0.005005044050534427   -0.0055637985407583695   -0.00011335759022447007
-0.005091523019073886   -0.0028742902436825306   -7.466349649092739e-05
-0.006580608890008504   -0.005551539407719809   -0.00013752608529481425
-0.005020046646923825   -0.00554795796634883   -0.0001027311749484513
-0.005091523019073886   -0.0028742902436825306   -7.466349649092739e-05
-0.0066391198983961185   -0.0028762422222176694   -0.00010537779070197672
-0.006580608890008504   -0.005551539407719809   -0.00013752608529481425
-0.00665168356076461   -0.0028577694008511648   -0.00010175804039982819
-0.005020046646923825   -0.00554795796634883   -0.0001027311749484513
-0.006590156249948135   -0.005537518003741934   -0.00012800450000253512
-0.00665168356076461   -0.0028577694008511648   -0.00010175804039982819
-0.006580608890008504   -0.005551539407719809   -0.00013752608529481425
-0.005020046646923825   -0.00554795796634883   -0.0001027311749484513
-0.00665168356076461   -0.0028577694008511648   -0.00010175804039982819
-0.005106283317768749   -0.002855010205993436   -6.819145114422972e-05
-0.005091523019073886   -0.0028742902436825306   -7.466349649092739e-05
-0.005020046646923825   -0.00554795796634883   -0.0001027311749484513
-0.00665168356076461   -0.0028577694008511648   -0.00010175804039982819
-0.005091523019073886   -0.0028742902436825306   -7.466349649092739e-05
-0.006580608890008504   -0.005551539407719809   -0.00013752608529481425
-0.005020046646923825   -0.00554795796634883   -0.0001027311749484513
-0.005106283317768749   -0.002855010205993436   -6.819145114422972e-05
-0.006590156249948135   -0.005537518003741934   -0.00012800450000253512
-0.005034219282741951   -0.005531782633332959   -9.110750711847851e-05
-0.005106283317768749   -0.002855010205993436   -6.819145114422972e-05
-0.00665168356076461   -0.0028577694008511648   -0.00010175804039982819
-0.006590156249948135   -0.005537518003741934   -0.00012800450000253512
-0.006661990105621264   -0.0028382430732249706   -9.824364387840405e-05
-0.005034219282741951   -0.005531782633332959   -9.110750711847851e-05
-0.006594049722412342   -0.005525129432487358   -0.00011718233661373357
-0.006661990105621264   -0.0028382430732249706   -9.824364387840405e-05
-0.006590156249948135   -0.005537518003741934   -0.00012800450000253512
-0.005034219282741951   -0.005531782633332959   -9.110750711847851e-05
-0.006661990105621264   -0.0028382430732249706   -9.824364387840405e-05
-0.005119681965947311   -0.002834398452880223   -6.143659618972481e-05
-0.005106283317768749   -0.002855010205993436   -6.819145114422972e-05
-0.005034219282741951   -0.005531782633332959   -9.110750711847851e-05
-0.006661990105621264   -0.0028382430732249706   -9.824364387840405e-05
-0.005106283317768749   -0.002855010205993436   -6.819145114422972e-05
-0.006590156249948135   -0.005537518003741934   -0.00012800450000253512
0.0007643583846279142   -0.0028360766264912242   3.423923444208667e-05
0.0   0.0   0.0
-0.0007252955351510268   -0.0028014187494102305   2.089132127359398e-05
0.0006971377667758796   -0.002802497824590429   7.252496059416777e-05
0.0   0.0   0.0
-0.0009020193253438791   -0.000243060077995299   -4.200908787918734e-06
-0.0007252955351510268   -0.0028014187494102305   2.089132127359398e-05
-0.0009562195891641453   -0.0001917814786277716   2.8330741195650552e-05
0.0006971377667758796   -0.002802497824590429   7.252496059416777e-05
-0.000746759919850011   -0.002789634779765826   3.6527077369887804e-05
-0.0009562195891641453   -0.0001917814786277716   2.8330741195650552e-05
-0.0007252955351510268   -0.0028014187494102305   2.089132127359398e-05
0.0006971377667758796   -0.002802497824590429   7.252496059416777e-05
-0.0009562195891641453   -0.0001917814786277716   2.8330741195650552e-05
0.0   0.0   0.0
0.0   0.0   0.0
0.0006971377667758796   -0.002802497824590429   7.252496059416777e-05
-0.0009562195891641453   -0.0001917814786277716   2.8330741195650552e-05
0.0   0.0   0.0
-0.0007252955351510268   -0.0028014187494102305   2.089132127359398e-05
0.0006971377667758796   -0.002802497824590429   7.252496059416777e-05
0.0   0.0   0.0
-0.000746759919850011   -0.002789634779765826   3.6527077369887804e-05
0.0006579925894885225   -0.002775811261874258   0.00010082471550720113
0.0   0.0   0.0
-0.0009562195891641453   -0.0001917814786277716   2.8330741195650552e-05
-0.000746759919850011   -0.002789634779765826   3.6527077369887804e-05
-0.0009906681504082832   -0.00016745455501986014   4.759037890857095e-05
0.0006579925894885225   -0.002775811261874258   0.00010082471550720113
-0.0007754569600393991   -0.0027669988559470295   5.565372200084574e-05
-0.0009906681504082832   -0.00016745455501986014   4.759037890857095e-05
-0.000746759919850011   -0.002789634779765826   3.6527077369887804e-05
0.0006579925894885225   -0.002775811261874258   0.00010082471550720113
-0.0009906681504082832   -0.00016745455501986014   4.759037890857095e-05
0.0   0.0   0.0
0.0   0.0   0.0
0.0006579925894885225   -0.002775811261874258   0.00010082471550720113
-0.0009906681504082832   -0.00016745455501986014   4.759037890857095e-05
0.0   0.0   0.0
-0.000746759919850011   -0.002789634779765826   3.6527077369887804e-05
0.0006579925894885225   -0.002775811261874258   0.00010082471550720113
0.0   0.0   0.0
-0.0007754569600393991   -0.0027669988559470295   5.565372200084574e-05
0.0006074750038484955   -0.002734296222582002   0.0001333564538792156
0.0   0.0   0.0
-0.0009906681504082832   -0.00016745455501986014   4.759037890857095e-05
-0.0007754569600393991   -0.0027669988559470295   5.565372200084574e-05
-0.0010376094391234794   -0.00013490361174718356   6.978934585976182e-05
0.0006074750038484955   -0.002734296222582002   0.0001333564538792156
-0.0007997978519439313   -0.0027429565929937313   7.246123568171054e-05
-0.0010376094391234794   -0.00013490361174718356   6.978934585976182e-05
-0.0007754569600393991   -0.0027669988559470295   5.565372200084574e-05
0.0006074750038484955   -0.002734296222582002   0.0001333564538792156
-0.0010376094391234794   -0.00013490361174718356   6.978934585976182e-05
0.0   0.0   0.0
0.0   0.0   0.0
0.0006074750038484955   -0.002734296222582002   0.0001333564538792156
-0.0010376094391234794   -0.00013490361174718356   6.978934585976182e-05
0.0   0.0   0.0
-0.0007754569600393991   -0.0027669988559470295   5.565372200084574e-05
-0.0007252955351510268   -0.0028014187494102305   2.089132127359398e-05
-0.0009020193253438791   -0.000243060077995299   -4.200908787918734e-06
-0.0021369524634385203   -0.0028443404343404997   -1.1319275933464818e-05
-0.000746759919850011   -0.002789634779765826   3.6527077369887804e-05
-0.0009020193253438791   -0.000243060077995299   -4.200908787918734e-06
-0.0021976441949450864   -0.0003236448019746492   9.889555733765907e-07
-0.0021369524634385203   -0.0028443404343404997   -1.1319275933464818e-05
-0.00222614182164829   -0.00029643462319766924   9.983553482069534e-06
-0.000746759919850011   -0.002789634779765826   3.6527077369887804e-05
-0.0021571488546576196   -0.0028251588429005913   -6.755141202654811e-08
-0.00222614182164829   -0.00029643462319766924   9.983553482069534e-06
-0.0021369524634385203   -0.0028443404343404997   -1.1319275933464818e-05
-0.000746759919850011   -0.002789634779765826   3.6527077369887804e-05
-0.00222614182164829   -0.00029643462319766924   9.983553482069534e-06
-0.0009562195891641453   -0.0001917814786277716   2.8330741195650552e-05
-0.0009020193253438791   -0.000243060077995299   -4.200908787918734e-06
-0.000746759919850011   -0.002789634779765826   3.6527077369887804e-05
-0.00222614182164829   -0.00029643462319766924   9.983553482069534e-06
-0.0009020193253438791   -0.000243060077995299   -4.200908787918734e-06
-0.0021369524634385203   -0.0028443404343404997   -1.1319275933464818e-05
-0.000746759919850011   -0.002789634779765826   3.6527077369887804e-05
-0.0009562195891641453   -0.0001917814786277716   2.8330741195650552e-05
-0.0021571488546576196   -0.0028251588429005913   -6.755141202654811e-08
-0.0007754569600393991   -0.0027669988559470295   5.565372200084574e-05
-0.0009562195891641453   -0.0001917814786277716   2.8330741195650552e-05
-0.00222614182164829   -0.00029643462319766924   9.983553482069534e-06
-0.0021571488546576196   -0.0028251588429005913   -6.755141202654811e-08
-0.002254720190876063   -0.00026438055116413016   2.559820607067844e-05
-0.0007754569600393991   -0.0027669988559470295   5.565372200084574e-05
-0.0021785234384765575   -0.0028032015194879942   1.1958254042138029e-05
-0.002254720190876063   -0.00026438055116413016   2.559820607067844e-05
-0.0021571488546576196   -0.0028251588429005913   -6.755141202654811e-08
-0.0007754569600393991   -0.0027669988559470295   5.565372200084574e-05
-0.002254720190876063   -0.00026438055116413016   2.559820607067844e-05
-0.0009906681504082832   -0.00016745455501986014   4.759037890857095e-05
-0.0009562195891641453   -0.0001917814786277716   2.8330741195650552e-05
-0.0007754569600393991   -0.0027669988559470295   5.565372200084574e-05
-0.002254720190876063   -0.00026438055116413016   2.559820607067844e-05
-0.0009562195891641453   -0.0001917814786277716   2.8330741195650552e-05
-0.0021571488546576196   -0.0028251588429005913   -6.755141202654811e-08
-0.0007754569600393991   -0.0027669988559470295   5.565372200084574e-05
-0.0009906681504082832   -0.00016745455501986014   4.759037890857095e-05
-0.0021785234384765575   -0.0028032015194879942   1.1958254042138029e-05
-0.0007997978519439313   -0.0027429565929937313   7.246123568171054e-05
-0.0009906681504082832   -0.00016745455501986014   4.759037890857095e-05
-0.002254720190876063   -0.00026438055116413016   2.559820607067844e-05
-0.0021785234384765575   -0.0028032015194879942   1.1958254042138029e-05
-0.002287148969600502   -0.00022682709132355045   4.085956097539239e-05
-0.0007997978519439313   -0.0027429565929937313   7.246123568171054e-05
-0.002199034278627872   -0.0027791327648207746   2.5290990681111944e-05
-0.002287148969600502   -0.00022682709132355045   4.085956097539239e-05
-0.0021785234384765575   -0.0028032015194879942   1.1958254042138029e-05
-0.0007997978519439313   -0.0027429565929937313   7.246123568171054e-05
-0.002287148969600502   -0.00022682709132355045   4.085956097539239e-05
-0.0010376094391234794   -0.00013490361174718356   6.978934585976182e-05
-0.0009906681504082832   -0.00016745455501986014   4.759037890857095e-05
-0.0007997978519439313   -0.0027429565929937313   7.246123568171054e-05
-0.002287148969600502   -0.00022682709132355045   4.085956097539239e-05
-0.0009906681504082832   -0.00016745455501986014   4.759037890857095e-05
-0.0021785234384765575   -0.0028032015194879942   1.1958254042138029e-05
-0.0021369524634385203   -0.0028443404343404997   -1.1319275933464818e-05
-0.0021976441949450864   -0.0003236448019746492   9.889555733765907e-07
-0.0035805669627808467   -0.002877912244061103   -4.777140326595557e-05
-0.0021571488546576196   -0.0028251588429005913   -6.755141202654811e-08
-0.0021976441949450864   -0.0003236448019746492   9.889555733765907e-07
-0.0036149657228253932   -0.00034912001043594173   -2.025580499513504e-05
-0.0035805669627808467   -0.002877912244061103   -4.777140326595557e-05
-0.003632580516834074   -0.00032880810199656244   -1.746779200500465e-05
-0.0021571488546576196   -0.0028251588429005913   -6.755141202654811e-08
-0.0035988959786484947   -0.002858132035458681   -3.89071123871956e-05
-0.003632580516834074   -0.00032880810199656244   -1.746779200500465e-05
-0.0035805669627808467   -0.002877912244061103   -4.777140326595557e-05
-0.0021571488546576196   -0.0028251588429005913   -6.755141202654811e-08
-0.003632580516834074   -0.00032880810199656244   -1.746779200500465e-05
-0.00222614182164829   -0.00029643462319766924   9.983553482069534e-06
-0.0021976441949450864   -0.0003236448019746492   9.889555733765907e-07
-0.0021571488546576196   -0.0028251588429005913   -6.755141202654811e-08
-0.003632580516834074   -0.00032880810199656244   -1.746779200500465e-05
-0.0021976441949450864   -0.0003236448019746492   9.889555733765907e-07
-0.0035805669627808467   -0.002877912244061103   -4.777140326595557e-05
-0.0021571488546576196   -0.0028251588429005913   -6.755141202654811e-08
-0.00222614182164829   -0.00029643462319766924   9.983553482069534e-06
-0.0035988959786484947   -0.002858132035458681   -3.89071123871956e-05
-0.0021785234384765575   -0.0028032015194879942   1.1958254042138029e-05
-0.00222614182164829   -0.00029643462319766924   9.983553482069534e-06
-0.003632580516834074   -0.00032880810199656244   -1.746779200500465e-05
-0.0035988959786484947   -0.002858132035458681   -3.89071123871956e-05
-0.003650954681306443   -0.0003047818398595448   -1.2744989433457436e-05
-0.0021785234384765575   -0.0028032015194879942   1.1958254042138029e-05
-0.003616573200525903   -0.0028371081872864295   -2.9987223973573835e-05
-0.003650954681306443   -0.0003047818398595448   -1.2744989433457436e-05
-0.0035988959786484947   -0.002858132035458681   -3.89071123871956e-05
-0.0021785234384765575   -0.0028032015194879942   1.1958254042138029e-05
-0.003650954681306443   -0.0003047818398595448   -1.2744989433457436e-05
-0.002254720190876063   -0.00026438055116413016   2.559820607067844e-05
-0.00222614182164829   -0.00029643462319766924   9.983553482069534e-06
-0.0021785234384765575   -0.0028032015194879942   1.1958254042138029e-05
-0.003650954681306443   -0.0003047818398595448   -1.2744989433457436e-05
-0.00222614182164829   -0.00029643462319766924   9.983553482069534e-06
-0.0035988959786484947   -0.002858132035458681   -3.89071123871956e-05
-0.0021785234384765575   -0.0028032015194879942   1.1958254042138029e-05
-0.002254720190876063   -0.00026438055116413016   2.559820607067844e-05
-0.003616573200525903   -0.0028371081872864295   -2.9987223973573835e-05
-0.002199034278627872   -0.0027791327648207746   2.5290990681111944e-05
-0.002254720190876063   -0.00026438055116413016   2.559820607067844e-05
-0.003650954681306443   -0.0003047818398595448   -1.2744989433457436e-05
-0.003616573200525903   -0.0028371081872864295   -2.9987223973573835e-05
-0.003669036241464877   -0.00027479985595787185   -6.494033255080515e-06
-0.002199034278627872   -0.0027791327648207746   2.5290990681111944e-05
-0.0036329763842254284   -0.002814241946701919   -2.0186706748746592e-05
-0.003669036241464877   -0.00027479985595787185   -6.494033255080515e-06
-0.003616573200525903   -0.0028371081872864295   -2.9987223973573835e-05
-0.002199034278627872   -0.0027791327648207746   2.5290990681111944e-05
-0.003669036241464877   -0.00027479985595787185   -6.494033255080515e-06
-0.002287148969600502   -0.00022682709132355045   4.085956097539239e-05
-0.002254720190876063   -0.00026438055116413016   2.559820607067844e-05
-0.002199034278627872   -0.0027791327648207746   2.5290990681111944e-05
-0.003669036241464877   -0.00027479985595787185   -6.494033255080515e-06
-0.002254720190876063   -0.00026438055116413016   2.559820607067844e-05
-0.003616573200525903   -0.0028371081872864295   -2.9987223973573835e-05
-0.0035805669627808467   -0.002877912244061103   -4.777140326595557e-05
-0.0036149657228253932   -0.00034912001043594173   -2.025580499513504e-05
-0.005074968450860094   -0.002891826451612295   -8.124563209786745e-05
-0.0035988959786484947   -0.002858132035458681   -3.89071123871956e-05
-0.0036149657228253932   -0.00034912001043594173   -2.025580499513504e-05
-0.005101728921168231   -0.0003481177389700208   -5.3139487613041355e-05
-0.005074968450860094   -0.002891826451612295   -8.124563209786745e-05
-0.005113710329260495   -0.00033054198526298443   -5.190104961979626e-05
-0.0035988959786484947   -0.002858132035458681   -3.89071123871956e-05
-0.005091523019073886   -0.0028742902436825306   -7.466349649092739e-05
-0.005113710329260495   -0.00033054198526298443   -5.190104961979626e-05
-0.005074968450860094   -0.002891826451612295   -8.124563209786745e-05
-0.0035988959786484947   -0.002858132035458681   -3.89071123871956e-05
-0.005113710329260495   -0.00033054198526298443   -5.190104961979626e-05
-0.003632580516834074   -0.00032880810199656244   -1.746779200500465e-05
-0.0036149657228253932   -0.00034912001043594173   -2.025580499513504e-05
-0.0035988959786484947   -0.002858132035458681   -3.89071123871956e-05
-0.005113710329260495   -0.00033054198526298443   -5.190104961979626e-05
-0.0036149657228253932   -0.00034912001043594173   -2.025580499513504e-05
-0.005074968450860094   -0.002891826451612295   -8.124563209786745e-05
-0.0035988959786484947   -0.002858132035458681   -3.89071123871956e-05
-0.003632580516834074   -0.00032880810199656244   -1.746779200500465e-05
-0.005091523019073886   -0.0028742902436825306   -7.466349649092739e-05
-0.003616573200525903   -0.0028371081872864295   -2.9987223973573835e-05
-0.003632580516834074   -0.00032880810199656244   -1.746779200500465e-05
-0.005113710329260495   -0.00033054198526298443   -5.190104961979626e-05
-0.005091523019073886   -0.0028742902436825306   -7.466349649092739e-05
-0.005126190658380702   -0.0003105443105208828   -5.0789318768981e-05
-0.003616573200525903   -0.0028371081872864295   -2.9987223973573835e-05
-0.005106283317768749   -0.002855010205993436   -6.819145114422972e-05
-0.005126190658380702   -0.0003105443105208828   -5.0789318768981e-05
-0.005091523019073886   -0.0028742902436825306   -7.466349649092739e-05
-0.003616573200525903   -0.0028371081872864295   -2.9987223973573835e-05
-0.005126190658380702   -0.0003105443105208828   -5.0789318768981e-05
-0.003650954681306443   -0.0003047818398595448   -1.2744989433457436e-05
-0.003632580516834074   -0.00032880810199656244   -1.746779200500465e-05
-0.003616573200525903   -0.0028371081872864295   -2.9987223973573835e-05
-0.005126190658380702   -0.0003105443105208828   -5.0789318768981e-05
-0.003632580516834074   -0.00032880810199656244   -1.746779200500465e-05
-0.005091523019073886   -0.0028742902436825306   -7.466349649092739e-05
-0.003616573200525903   -0.0028371081872864295   -2.9987223973573835e-05
-0.003650954681306443   -0.0003047818398595448   -1.2744989433457436e-05
-0.005106283317768749   -0.002855010205993436   -6.819145114422972e-05
-0.0036329763842254284   -0.002814241946701919   -2.0186706748746592e-05
-0.003650954681306443   -0.0003047818398595448   -1.2744989433457436e-05
-0.005126190658380702   -0.0003105443105208828   -5.0789318768981e-05
-0.005106283317768749   -0.002855010205993436   -6.819145114422972e-05
-0.005136125204748954   -0.00028844973177699206   -4.983375083728738e-05
-0.0036329763842254284   -0.002814241946701919   -2.0186706748746592e-05
-0.005119681965947311   -0.002834398452880223   -6.143659618972481e-05
-0.005136125204748954   -0.00028844973177699206   -4.983375083728738e-05
-0.005106283317768749   -0.002855010205993436   -6.819145114422972e-05
-0.0036329763842254284   -0.002814241946701919   -2.0186706748746592e-05
-0.005136125204748954   -0.00028844973177699206   -4.983375083728738e-05
-0.003669036241464877   -0.00027479985595787185   -6.494033255080515e-06
-0.003650954681306443   -0.0003047818398595448   -1.2744989433457436e-05
-0.0036329763842254284   -0.002814241946701919   -2.0186706748746592e-05
-0.005136125204748954   -0.00028844973177699206   -4.983375083728738e-05
-0.003650954681306443   -0.0003047818398595448   -1.2744989433457436e-05
-0.005106283317768749   -0.002855010205993436   -6.819145114422972e-05
-0.005074968450860094   -0.002891826451612295   -8.124563209786745e-05
-0.005101728921168231   -0.0003481177389700208   -5.3139487613041355e-05
-0.006625096864263868   -0.0028931590896317306   -0.00010843595082223781
-0.005091523019073886   -0.0028742902436825306   -7.466349649092739e-05
-0.005101728921168231   -0.0003481177389700208   -5.3139487613041355e-05
-0.006631359902900709   -0.00034612878796767615   -8.572826364086202e-05
-0.006625096864263868   -0.0028931590896317306   -0.00010843595082223781
-0.006640939544431194   -0.00032722357289054075   -8.556715111087288e-05
-0.005091523019073886   -0.0028742902436825306   -7.466349649092739e-05
-0.0066391198983961185   -0.0028762422222176694   -0.00010537779070197672
-0.006640939544431194   -0.00032722357289054075   -8.556715111087288e-05
-0.006625096864263868   -0.0028931590896317306   -0.00010843595082223781
-0.005091523019073886   -0.0028742902436825306   -7.466349649092739e-05
-0.006640939544431194   -0.00032722357289054075   -8.556715111087288e-05
-0.005113710329260495   -0.00033054198526298443   -5.190104961979626e-05
-0.005101728921168231   -0.0003481177389700208   -5.3139487613041355e-05
-0.005091523019073886   -0.0028742902436825306   -7.466349649092739e-05
-0.006640939544431194   -0.00032722357289054075   -8.556715111087288e-05
-0.005101728921168231   -0.0003481177389700208   -5.3139487613041355e-05
-0.006625096864263868   -0.0028931590896317306   -0.00010843595082223781
-0.005091523019073886   -0.0028742902436825306   -7.466349649092739e-05
-0.005113710329260495   -0.00033054198526298443   -5.190104961979626e-05
-0.0066391198983961185   -0.0028762422222176694   -0.00010537779070197672
-0.005106283317768749   -0.002855010205993436   -6.819145114422972e-05
-0.005113710329260495   -0.00033054198526298443   -5.190104961979626e-05
-0.006640939544431194   -0.00032722357289054075   -8.556715111087288e-05
-0.0066391198983961185   -0.0028762422222176694   -0.00010537779070197672
-0.006651415939068316   -0.0003080426201104683   -8.689675085236356e-05
-0.005106283317768749   -0.002855010205993436   -6.819145114422972e-05
-0.00665168356076461   -0.0028577694008511648   -0.00010175804039982819
-0.006651415939068316   -0.0003080426201104683   -8.689675085236356e-05
-0.0066391198983961185   -0.0028762422222176694   -0.00010537779070197672
-0.005106283317768749   -0.002855010205993436   -6.819145114422972e-05
-0.006651415939068316   -0.0003080426201104683   -8.689675085236356e-05
-0.005126190658380702   -0.0003105443105208828   -5.0789318768981e-05
-0.005113710329260495   -0.00033054198526298443   -5.190104961979626e-05
-0.005106283317768749   -0.002855010205993436   -6.819145114422972e-05
-0.006651415939068316   -0.0003080426201104683   -8.689675085236356e-05
-0.005113710329260495   -0.00033054198526298443   -5.190104961979626e-05
-0.0066391198983961185   -0.0028762422222176694   -0.00010537779070197672
-0.005106283317768749   -0.002855010205993436   -6.819145114422972e-05
-0.005126190658380702   -0.0003105443105208828   -5.0789318768981e-05
-0.00665168356076461   -0.0028577694008511648   -0.00010175804039982819
-0.005119681965947311   -0.002834398452880223   -6.143659618972481e-05
-0.005126190658380702   -0.0003105443105208828   -5.0789318768981e-05
-0.006651415939068316   -0.0003080426201104683   -8.689675085236356e-05
-0.00665168356076461   -0.0028577694008511648   -0.00010175804039982819
-0.0066592835425572415   -0.0002869540974915309   -8.824112366148768e-05
-0.005119681965947311   -0.002834398452880223   -6.143659618972481e-05
-0.006661990105621264   -0.0028382430732249706   -9.824364387840405e-05
-0.0066592835425572415   -0.0002869540974915309   -8.824112366148768e-05
-0.00665168356076461   -0.0028577694008511648   -0.00010175804039982819
-0.005119681965947311   -0.002834398452880223   -6.143659618972481e-05
-0.0066592835425572415   -0.0002869540974915309   -8.824112366148768e-05
-0.005136125204748954   -0.00028844973177699206   -4.983375083728738e-05
-0.005126190658380702   -0.0003105443105208828   -5.0789318768981e-05
-0.005119681965947311   -0.002834398452880223   -6.143659618972481e-05
-0.0066592835425572415   -0.0002869540974915309   -8.824112366148768e-05
-0.005126190658380702   -0.0003105443105208828   -5.0789318768981e-05
-0.00665168356076461   -0.0028577694008511648   -0.00010175804039982819
              </DataArray>   
          </PointData>  
       </Piece>  
   </UnstructuredGrid> 
</VTKFile> 
