<?xml version="1.0"?> 
<VTKFile type="UnstructuredGrid"> 
   <UnstructuredGrid> 
      <Piece NumberOfPoints="6000"  NumberOfCells="1500">  
          <Points>  
             <DataArray type="Float64" NumberOfComponents="3" format="ascii">   
-500.0   0.0   0.0
-450.0   0.0   0.0
-500.0   30.0   0.0
-500.0   0.0   16.666666666666668
-450.0   0.0   0.0
-450.0   30.0   0.0
-500.0   30.0   0.0
-450.0   30.0   16.666666666666668
-500.0   0.0   16.666666666666668
-500.0   30.0   16.666666666666668
-450.0   30.0   16.666666666666668
-500.0   30.0   0.0
-500.0   0.0   16.666666666666668
-450.0   30.0   16.666666666666668
-450.0   0.0   16.666666666666668
-450.0   0.0   0.0
-500.0   0.0   16.666666666666668
-450.0   30.0   16.666666666666668
-450.0   0.0   0.0
-500.0   30.0   0.0
-500.0   0.0   16.666666666666668
-450.0   0.0   16.666666666666668
-500.0   30.0   16.666666666666668
-500.0   0.0   33.333333333333336
-450.0   0.0   16.666666666666668
-450.0   30.0   16.666666666666668
-500.0   30.0   16.666666666666668
-450.0   30.0   33.333333333333336
-500.0   0.0   33.333333333333336
-500.0   30.0   33.333333333333336
-450.0   30.0   33.333333333333336
-500.0   30.0   16.666666666666668
-500.0   0.0   33.333333333333336
-450.0   30.0   33.333333333333336
-450.0   0.0   33.333333333333336
-450.0   0.0   16.666666666666668
-500.0   0.0   33.333333333333336
-450.0   30.0   33.333333333333336
-450.0   0.0   16.666666666666668
-500.0   30.0   16.666666666666668
-500.0   0.0   33.333333333333336
-450.0   0.0   33.333333333333336
-500.0   30.0   33.333333333333336
-500.0   0.0   50.0
-450.0   0.0   33.333333333333336
-450.0   30.0   33.333333333333336
-500.0   30.0   33.333333333333336
-450.0   30.0   50.0
-500.0   0.0   50.0
-500.0   30.0   50.0
-450.0   30.0   50.0
-500.0   30.0   33.333333333333336
-500.0   0.0   50.0
-450.0   30.0   50.0
-450.0   0.0   50.0
-450.0   0.0   33.333333333333336
-500.0   0.0   50.0
-450.0   30.0   50.0
-450.0   0.0   33.333333333333336
-500.0   30.0   33.333333333333336
-500.0   30.0   0.0
-450.0   30.0   0.0
-500.0   60.0   0.0
-500.0   30.0   16.666666666666668
-450.0   30.0   0.0
-450.0   60.0   0.0
-500.0   60.0   0.0
-450.0   60.0   16.666666666666668
-500.0   30.0   16.666666666666668
-500.0   60.0   16.666666666666668
-450.0   60.0   16.666666666666668
-500.0   60.0   0.0
-500.0   30.0   16.666666666666668
-450.0   60.0   16.666666666666668
-450.0   30.0   16.666666666666668
-450.0   30.0   0.0
-500.0   30.0   16.666666666666668
-450.0   60.0   16.666666666666668
-450.0   30.0   0.0
-500.0   60.0   0.0
-500.0   30.0   16.666666666666668
-450.0   30.0   16.666666666666668
-500.0   60.0   16.666666666666668
-500.0   30.0   33.333333333333336
-450.0   30.0   16.666666666666668
-450.0   60.0   16.666666666666668
-500.0   60.0   16.666666666666668
-450.0   60.0   33.333333333333336
-500.0   30.0   33.333333333333336
-500.0   60.0   33.333333333333336
-450.0   60.0   33.333333333333336
-500.0   60.0   16.666666666666668
-500.0   30.0   33.333333333333336
-450.0   60.0   33.333333333333336
-450.0   30.0   33.333333333333336
-450.0   30.0   16.666666666666668
-500.0   30.0   33.333333333333336
-450.0   60.0   33.333333333333336
-450.0   30.0   16.666666666666668
-500.0   60.0   16.666666666666668
-500.0   30.0   33.333333333333336
-450.0   30.0   33.333333333333336
-500.0   60.0   33.333333333333336
-500.0   30.0   50.0
-450.0   30.0   33.333333333333336
-450.0   60.0   33.333333333333336
-500.0   60.0   33.333333333333336
-450.0   60.0   50.0
-500.0   30.0   50.0
-500.0   60.0   50.0
-450.0   60.0   50.0
-500.0   60.0   33.333333333333336
-500.0   30.0   50.0
-450.0   60.0   50.0
-450.0   30.0   50.0
-450.0   30.0   33.333333333333336
-500.0   30.0   50.0
-450.0   60.0   50.0
-450.0   30.0   33.333333333333336
-500.0   60.0   33.333333333333336
-500.0   60.0   0.0
-450.0   60.0   0.0
-500.0   90.0   0.0
-500.0   60.0   16.666666666666668
-450.0   60.0   0.0
-450.0   90.0   0.0
-500.0   90.0   0.0
-450.0   90.0   16.666666666666668
-500.0   60.0   16.666666666666668
-500.0   90.0   16.666666666666668
-450.0   90.0   16.666666666666668
-500.0   90.0   0.0
-500.0   60.0   16.666666666666668
-450.0   90.0   16.666666666666668
-450.0   60.0   16.666666666666668
-450.0   60.0   0.0
-500.0   60.0   16.666666666666668
-450.0   90.0   16.666666666666668
-450.0   60.0   0.0
-500.0   90.0   0.0
-500.0   60.0   16.666666666666668
-450.0   60.0   16.666666666666668
-500.0   90.0   16.666666666666668
-500.0   60.0   33.333333333333336
-450.0   60.0   16.666666666666668
-450.0   90.0   16.666666666666668
-500.0   90.0   16.666666666666668
-450.0   90.0   33.333333333333336
-500.0   60.0   33.333333333333336
-500.0   90.0   33.333333333333336
-450.0   90.0   33.333333333333336
-500.0   90.0   16.666666666666668
-500.0   60.0   33.333333333333336
-450.0   90.0   33.333333333333336
-450.0   60.0   33.333333333333336
-450.0   60.0   16.666666666666668
-500.0   60.0   33.333333333333336
-450.0   90.0   33.333333333333336
-450.0   60.0   16.666666666666668
-500.0   90.0   16.666666666666668
-500.0   60.0   33.333333333333336
-450.0   60.0   33.333333333333336
-500.0   90.0   33.333333333333336
-500.0   60.0   50.0
-450.0   60.0   33.333333333333336
-450.0   90.0   33.333333333333336
-500.0   90.0   33.333333333333336
-450.0   90.0   50.0
-500.0   60.0   50.0
-500.0   90.0   50.0
-450.0   90.0   50.0
-500.0   90.0   33.333333333333336
-500.0   60.0   50.0
-450.0   90.0   50.0
-450.0   60.0   50.0
-450.0   60.0   33.333333333333336
-500.0   60.0   50.0
-450.0   90.0   50.0
-450.0   60.0   33.333333333333336
-500.0   90.0   33.333333333333336
-500.0   90.0   0.0
-450.0   90.0   0.0
-500.0   120.0   0.0
-500.0   90.0   16.666666666666668
-450.0   90.0   0.0
-450.0   120.0   0.0
-500.0   120.0   0.0
-450.0   120.0   16.666666666666668
-500.0   90.0   16.666666666666668
-500.0   120.0   16.666666666666668
-450.0   120.0   16.666666666666668
-500.0   120.0   0.0
-500.0   90.0   16.666666666666668
-450.0   120.0   16.666666666666668
-450.0   90.0   16.666666666666668
-450.0   90.0   0.0
-500.0   90.0   16.666666666666668
-450.0   120.0   16.666666666666668
-450.0   90.0   0.0
-500.0   120.0   0.0
-500.0   90.0   16.666666666666668
-450.0   90.0   16.666666666666668
-500.0   120.0   16.666666666666668
-500.0   90.0   33.333333333333336
-450.0   90.0   16.666666666666668
-450.0   120.0   16.666666666666668
-500.0   120.0   16.666666666666668
-450.0   120.0   33.333333333333336
-500.0   90.0   33.333333333333336
-500.0   120.0   33.333333333333336
-450.0   120.0   33.333333333333336
-500.0   120.0   16.666666666666668
-500.0   90.0   33.333333333333336
-450.0   120.0   33.333333333333336
-450.0   90.0   33.333333333333336
-450.0   90.0   16.666666666666668
-500.0   90.0   33.333333333333336
-450.0   120.0   33.333333333333336
-450.0   90.0   16.666666666666668
-500.0   120.0   16.666666666666668
-500.0   90.0   33.333333333333336
-450.0   90.0   33.333333333333336
-500.0   120.0   33.333333333333336
-500.0   90.0   50.0
-450.0   90.0   33.333333333333336
-450.0   120.0   33.333333333333336
-500.0   120.0   33.333333333333336
-450.0   120.0   50.0
-500.0   90.0   50.0
-500.0   120.0   50.0
-450.0   120.0   50.0
-500.0   120.0   33.333333333333336
-500.0   90.0   50.0
-450.0   120.0   50.0
-450.0   90.0   50.0
-450.0   90.0   33.333333333333336
-500.0   90.0   50.0
-450.0   120.0   50.0
-450.0   90.0   33.333333333333336
-500.0   120.0   33.333333333333336
-500.0   120.0   0.0
-450.0   120.0   0.0
-500.0   150.0   0.0
-500.0   120.0   16.666666666666668
-450.0   120.0   0.0
-450.0   150.0   0.0
-500.0   150.0   0.0
-450.0   150.0   16.666666666666668
-500.0   120.0   16.666666666666668
-500.0   150.0   16.666666666666668
-450.0   150.0   16.666666666666668
-500.0   150.0   0.0
-500.0   120.0   16.666666666666668
-450.0   150.0   16.666666666666668
-450.0   120.0   16.666666666666668
-450.0   120.0   0.0
-500.0   120.0   16.666666666666668
-450.0   150.0   16.666666666666668
-450.0   120.0   0.0
-500.0   150.0   0.0
-500.0   120.0   16.666666666666668
-450.0   120.0   16.666666666666668
-500.0   150.0   16.666666666666668
-500.0   120.0   33.333333333333336
-450.0   120.0   16.666666666666668
-450.0   150.0   16.666666666666668
-500.0   150.0   16.666666666666668
-450.0   150.0   33.333333333333336
-500.0   120.0   33.333333333333336
-500.0   150.0   33.333333333333336
-450.0   150.0   33.333333333333336
-500.0   150.0   16.666666666666668
-500.0   120.0   33.333333333333336
-450.0   150.0   33.333333333333336
-450.0   120.0   33.333333333333336
-450.0   120.0   16.666666666666668
-500.0   120.0   33.333333333333336
-450.0   150.0   33.333333333333336
-450.0   120.0   16.666666666666668
-500.0   150.0   16.666666666666668
-500.0   120.0   33.333333333333336
-450.0   120.0   33.333333333333336
-500.0   150.0   33.333333333333336
-500.0   120.0   50.0
-450.0   120.0   33.333333333333336
-450.0   150.0   33.333333333333336
-500.0   150.0   33.333333333333336
-450.0   150.0   50.0
-500.0   120.0   50.0
-500.0   150.0   50.0
-450.0   150.0   50.0
-500.0   150.0   33.333333333333336
-500.0   120.0   50.0
-450.0   150.0   50.0
-450.0   120.0   50.0
-450.0   120.0   33.333333333333336
-500.0   120.0   50.0
-450.0   150.0   50.0
-450.0   120.0   33.333333333333336
-500.0   150.0   33.333333333333336
-450.0   0.0   0.0
-400.0   0.0   0.0
-450.0   30.0   0.0
-450.0   0.0   16.666666666666668
-400.0   0.0   0.0
-400.0   30.0   0.0
-450.0   30.0   0.0
-400.0   30.0   16.666666666666668
-450.0   0.0   16.666666666666668
-450.0   30.0   16.666666666666668
-400.0   30.0   16.666666666666668
-450.0   30.0   0.0
-450.0   0.0   16.666666666666668
-400.0   30.0   16.666666666666668
-400.0   0.0   16.666666666666668
-400.0   0.0   0.0
-450.0   0.0   16.666666666666668
-400.0   30.0   16.666666666666668
-400.0   0.0   0.0
-450.0   30.0   0.0
-450.0   0.0   16.666666666666668
-400.0   0.0   16.666666666666668
-450.0   30.0   16.666666666666668
-450.0   0.0   33.333333333333336
-400.0   0.0   16.666666666666668
-400.0   30.0   16.666666666666668
-450.0   30.0   16.666666666666668
-400.0   30.0   33.333333333333336
-450.0   0.0   33.333333333333336
-450.0   30.0   33.333333333333336
-400.0   30.0   33.333333333333336
-450.0   30.0   16.666666666666668
-450.0   0.0   33.333333333333336
-400.0   30.0   33.333333333333336
-400.0   0.0   33.333333333333336
-400.0   0.0   16.666666666666668
-450.0   0.0   33.333333333333336
-400.0   30.0   33.333333333333336
-400.0   0.0   16.666666666666668
-450.0   30.0   16.666666666666668
-450.0   0.0   33.333333333333336
-400.0   0.0   33.333333333333336
-450.0   30.0   33.333333333333336
-450.0   0.0   50.0
-400.0   0.0   33.333333333333336
-400.0   30.0   33.333333333333336
-450.0   30.0   33.333333333333336
-400.0   30.0   50.0
-450.0   0.0   50.0
-450.0   30.0   50.0
-400.0   30.0   50.0
-450.0   30.0   33.333333333333336
-450.0   0.0   50.0
-400.0   30.0   50.0
-400.0   0.0   50.0
-400.0   0.0   33.333333333333336
-450.0   0.0   50.0
-400.0   30.0   50.0
-400.0   0.0   33.333333333333336
-450.0   30.0   33.333333333333336
-450.0   30.0   0.0
-400.0   30.0   0.0
-450.0   60.0   0.0
-450.0   30.0   16.666666666666668
-400.0   30.0   0.0
-400.0   60.0   0.0
-450.0   60.0   0.0
-400.0   60.0   16.666666666666668
-450.0   30.0   16.666666666666668
-450.0   60.0   16.666666666666668
-400.0   60.0   16.666666666666668
-450.0   60.0   0.0
-450.0   30.0   16.666666666666668
-400.0   60.0   16.666666666666668
-400.0   30.0   16.666666666666668
-400.0   30.0   0.0
-450.0   30.0   16.666666666666668
-400.0   60.0   16.666666666666668
-400.0   30.0   0.0
-450.0   60.0   0.0
-450.0   30.0   16.666666666666668
-400.0   30.0   16.666666666666668
-450.0   60.0   16.666666666666668
-450.0   30.0   33.333333333333336
-400.0   30.0   16.666666666666668
-400.0   60.0   16.666666666666668
-450.0   60.0   16.666666666666668
-400.0   60.0   33.333333333333336
-450.0   30.0   33.333333333333336
-450.0   60.0   33.333333333333336
-400.0   60.0   33.333333333333336
-450.0   60.0   16.666666666666668
-450.0   30.0   33.333333333333336
-400.0   60.0   33.333333333333336
-400.0   30.0   33.333333333333336
-400.0   30.0   16.666666666666668
-450.0   30.0   33.333333333333336
-400.0   60.0   33.333333333333336
-400.0   30.0   16.666666666666668
-450.0   60.0   16.666666666666668
-450.0   30.0   33.333333333333336
-400.0   30.0   33.333333333333336
-450.0   60.0   33.333333333333336
-450.0   30.0   50.0
-400.0   30.0   33.333333333333336
-400.0   60.0   33.333333333333336
-450.0   60.0   33.333333333333336
-400.0   60.0   50.0
-450.0   30.0   50.0
-450.0   60.0   50.0
-400.0   60.0   50.0
-450.0   60.0   33.333333333333336
-450.0   30.0   50.0
-400.0   60.0   50.0
-400.0   30.0   50.0
-400.0   30.0   33.333333333333336
-450.0   30.0   50.0
-400.0   60.0   50.0
-400.0   30.0   33.333333333333336
-450.0   60.0   33.333333333333336
-450.0   60.0   0.0
-400.0   60.0   0.0
-450.0   90.0   0.0
-450.0   60.0   16.666666666666668
-400.0   60.0   0.0
-400.0   90.0   0.0
-450.0   90.0   0.0
-400.0   90.0   16.666666666666668
-450.0   60.0   16.666666666666668
-450.0   90.0   16.666666666666668
-400.0   90.0   16.666666666666668
-450.0   90.0   0.0
-450.0   60.0   16.666666666666668
-400.0   90.0   16.666666666666668
-400.0   60.0   16.666666666666668
-400.0   60.0   0.0
-450.0   60.0   16.666666666666668
-400.0   90.0   16.666666666666668
-400.0   60.0   0.0
-450.0   90.0   0.0
-450.0   60.0   16.666666666666668
-400.0   60.0   16.666666666666668
-450.0   90.0   16.666666666666668
-450.0   60.0   33.333333333333336
-400.0   60.0   16.666666666666668
-400.0   90.0   16.666666666666668
-450.0   90.0   16.666666666666668
-400.0   90.0   33.333333333333336
-450.0   60.0   33.333333333333336
-450.0   90.0   33.333333333333336
-400.0   90.0   33.333333333333336
-450.0   90.0   16.666666666666668
-450.0   60.0   33.333333333333336
-400.0   90.0   33.333333333333336
-400.0   60.0   33.333333333333336
-400.0   60.0   16.666666666666668
-450.0   60.0   33.333333333333336
-400.0   90.0   33.333333333333336
-400.0   60.0   16.666666666666668
-450.0   90.0   16.666666666666668
-450.0   60.0   33.333333333333336
-400.0   60.0   33.333333333333336
-450.0   90.0   33.333333333333336
-450.0   60.0   50.0
-400.0   60.0   33.333333333333336
-400.0   90.0   33.333333333333336
-450.0   90.0   33.333333333333336
-400.0   90.0   50.0
-450.0   60.0   50.0
-450.0   90.0   50.0
-400.0   90.0   50.0
-450.0   90.0   33.333333333333336
-450.0   60.0   50.0
-400.0   90.0   50.0
-400.0   60.0   50.0
-400.0   60.0   33.333333333333336
-450.0   60.0   50.0
-400.0   90.0   50.0
-400.0   60.0   33.333333333333336
-450.0   90.0   33.333333333333336
-450.0   90.0   0.0
-400.0   90.0   0.0
-450.0   120.0   0.0
-450.0   90.0   16.666666666666668
-400.0   90.0   0.0
-400.0   120.0   0.0
-450.0   120.0   0.0
-400.0   120.0   16.666666666666668
-450.0   90.0   16.666666666666668
-450.0   120.0   16.666666666666668
-400.0   120.0   16.666666666666668
-450.0   120.0   0.0
-450.0   90.0   16.666666666666668
-400.0   120.0   16.666666666666668
-400.0   90.0   16.666666666666668
-400.0   90.0   0.0
-450.0   90.0   16.666666666666668
-400.0   120.0   16.666666666666668
-400.0   90.0   0.0
-450.0   120.0   0.0
-450.0   90.0   16.666666666666668
-400.0   90.0   16.666666666666668
-450.0   120.0   16.666666666666668
-450.0   90.0   33.333333333333336
-400.0   90.0   16.666666666666668
-400.0   120.0   16.666666666666668
-450.0   120.0   16.666666666666668
-400.0   120.0   33.333333333333336
-450.0   90.0   33.333333333333336
-450.0   120.0   33.333333333333336
-400.0   120.0   33.333333333333336
-450.0   120.0   16.666666666666668
-450.0   90.0   33.333333333333336
-400.0   120.0   33.333333333333336
-400.0   90.0   33.333333333333336
-400.0   90.0   16.666666666666668
-450.0   90.0   33.333333333333336
-400.0   120.0   33.333333333333336
-400.0   90.0   16.666666666666668
-450.0   120.0   16.666666666666668
-450.0   90.0   33.333333333333336
-400.0   90.0   33.333333333333336
-450.0   120.0   33.333333333333336
-450.0   90.0   50.0
-400.0   90.0   33.333333333333336
-400.0   120.0   33.333333333333336
-450.0   120.0   33.333333333333336
-400.0   120.0   50.0
-450.0   90.0   50.0
-450.0   120.0   50.0
-400.0   120.0   50.0
-450.0   120.0   33.333333333333336
-450.0   90.0   50.0
-400.0   120.0   50.0
-400.0   90.0   50.0
-400.0   90.0   33.333333333333336
-450.0   90.0   50.0
-400.0   120.0   50.0
-400.0   90.0   33.333333333333336
-450.0   120.0   33.333333333333336
-450.0   120.0   0.0
-400.0   120.0   0.0
-450.0   150.0   0.0
-450.0   120.0   16.666666666666668
-400.0   120.0   0.0
-400.0   150.0   0.0
-450.0   150.0   0.0
-400.0   150.0   16.666666666666668
-450.0   120.0   16.666666666666668
-450.0   150.0   16.666666666666668
-400.0   150.0   16.666666666666668
-450.0   150.0   0.0
-450.0   120.0   16.666666666666668
-400.0   150.0   16.666666666666668
-400.0   120.0   16.666666666666668
-400.0   120.0   0.0
-450.0   120.0   16.666666666666668
-400.0   150.0   16.666666666666668
-400.0   120.0   0.0
-450.0   150.0   0.0
-450.0   120.0   16.666666666666668
-400.0   120.0   16.666666666666668
-450.0   150.0   16.666666666666668
-450.0   120.0   33.333333333333336
-400.0   120.0   16.666666666666668
-400.0   150.0   16.666666666666668
-450.0   150.0   16.666666666666668
-400.0   150.0   33.333333333333336
-450.0   120.0   33.333333333333336
-450.0   150.0   33.333333333333336
-400.0   150.0   33.333333333333336
-450.0   150.0   16.666666666666668
-450.0   120.0   33.333333333333336
-400.0   150.0   33.333333333333336
-400.0   120.0   33.333333333333336
-400.0   120.0   16.666666666666668
-450.0   120.0   33.333333333333336
-400.0   150.0   33.333333333333336
-400.0   120.0   16.666666666666668
-450.0   150.0   16.666666666666668
-450.0   120.0   33.333333333333336
-400.0   120.0   33.333333333333336
-450.0   150.0   33.333333333333336
-450.0   120.0   50.0
-400.0   120.0   33.333333333333336
-400.0   150.0   33.333333333333336
-450.0   150.0   33.333333333333336
-400.0   150.0   50.0
-450.0   120.0   50.0
-450.0   150.0   50.0
-400.0   150.0   50.0
-450.0   150.0   33.333333333333336
-450.0   120.0   50.0
-400.0   150.0   50.0
-400.0   120.0   50.0
-400.0   120.0   33.333333333333336
-450.0   120.0   50.0
-400.0   150.0   50.0
-400.0   120.0   33.333333333333336
-450.0   150.0   33.333333333333336
-400.0   0.0   0.0
-350.0   0.0   0.0
-400.0   30.0   0.0
-400.0   0.0   16.666666666666668
-350.0   0.0   0.0
-350.0   30.0   0.0
-400.0   30.0   0.0
-350.0   30.0   16.666666666666668
-400.0   0.0   16.666666666666668
-400.0   30.0   16.666666666666668
-350.0   30.0   16.666666666666668
-400.0   30.0   0.0
-400.0   0.0   16.666666666666668
-350.0   30.0   16.666666666666668
-350.0   0.0   16.666666666666668
-350.0   0.0   0.0
-400.0   0.0   16.666666666666668
-350.0   30.0   16.666666666666668
-350.0   0.0   0.0
-400.0   30.0   0.0
-400.0   0.0   16.666666666666668
-350.0   0.0   16.666666666666668
-400.0   30.0   16.666666666666668
-400.0   0.0   33.333333333333336
-350.0   0.0   16.666666666666668
-350.0   30.0   16.666666666666668
-400.0   30.0   16.666666666666668
-350.0   30.0   33.333333333333336
-400.0   0.0   33.333333333333336
-400.0   30.0   33.333333333333336
-350.0   30.0   33.333333333333336
-400.0   30.0   16.666666666666668
-400.0   0.0   33.333333333333336
-350.0   30.0   33.333333333333336
-350.0   0.0   33.333333333333336
-350.0   0.0   16.666666666666668
-400.0   0.0   33.333333333333336
-350.0   30.0   33.333333333333336
-350.0   0.0   16.666666666666668
-400.0   30.0   16.666666666666668
-400.0   0.0   33.333333333333336
-350.0   0.0   33.333333333333336
-400.0   30.0   33.333333333333336
-400.0   0.0   50.0
-350.0   0.0   33.333333333333336
-350.0   30.0   33.333333333333336
-400.0   30.0   33.333333333333336
-350.0   30.0   50.0
-400.0   0.0   50.0
-400.0   30.0   50.0
-350.0   30.0   50.0
-400.0   30.0   33.333333333333336
-400.0   0.0   50.0
-350.0   30.0   50.0
-350.0   0.0   50.0
-350.0   0.0   33.333333333333336
-400.0   0.0   50.0
-350.0   30.0   50.0
-350.0   0.0   33.333333333333336
-400.0   30.0   33.333333333333336
-400.0   30.0   0.0
-350.0   30.0   0.0
-400.0   60.0   0.0
-400.0   30.0   16.666666666666668
-350.0   30.0   0.0
-350.0   60.0   0.0
-400.0   60.0   0.0
-350.0   60.0   16.666666666666668
-400.0   30.0   16.666666666666668
-400.0   60.0   16.666666666666668
-350.0   60.0   16.666666666666668
-400.0   60.0   0.0
-400.0   30.0   16.666666666666668
-350.0   60.0   16.666666666666668
-350.0   30.0   16.666666666666668
-350.0   30.0   0.0
-400.0   30.0   16.666666666666668
-350.0   60.0   16.666666666666668
-350.0   30.0   0.0
-400.0   60.0   0.0
-400.0   30.0   16.666666666666668
-350.0   30.0   16.666666666666668
-400.0   60.0   16.666666666666668
-400.0   30.0   33.333333333333336
-350.0   30.0   16.666666666666668
-350.0   60.0   16.666666666666668
-400.0   60.0   16.666666666666668
-350.0   60.0   33.333333333333336
-400.0   30.0   33.333333333333336
-400.0   60.0   33.333333333333336
-350.0   60.0   33.333333333333336
-400.0   60.0   16.666666666666668
-400.0   30.0   33.333333333333336
-350.0   60.0   33.333333333333336
-350.0   30.0   33.333333333333336
-350.0   30.0   16.666666666666668
-400.0   30.0   33.333333333333336
-350.0   60.0   33.333333333333336
-350.0   30.0   16.666666666666668
-400.0   60.0   16.666666666666668
-400.0   30.0   33.333333333333336
-350.0   30.0   33.333333333333336
-400.0   60.0   33.333333333333336
-400.0   30.0   50.0
-350.0   30.0   33.333333333333336
-350.0   60.0   33.333333333333336
-400.0   60.0   33.333333333333336
-350.0   60.0   50.0
-400.0   30.0   50.0
-400.0   60.0   50.0
-350.0   60.0   50.0
-400.0   60.0   33.333333333333336
-400.0   30.0   50.0
-350.0   60.0   50.0
-350.0   30.0   50.0
-350.0   30.0   33.333333333333336
-400.0   30.0   50.0
-350.0   60.0   50.0
-350.0   30.0   33.333333333333336
-400.0   60.0   33.333333333333336
-400.0   60.0   0.0
-350.0   60.0   0.0
-400.0   90.0   0.0
-400.0   60.0   16.666666666666668
-350.0   60.0   0.0
-350.0   90.0   0.0
-400.0   90.0   0.0
-350.0   90.0   16.666666666666668
-400.0   60.0   16.666666666666668
-400.0   90.0   16.666666666666668
-350.0   90.0   16.666666666666668
-400.0   90.0   0.0
-400.0   60.0   16.666666666666668
-350.0   90.0   16.666666666666668
-350.0   60.0   16.666666666666668
-350.0   60.0   0.0
-400.0   60.0   16.666666666666668
-350.0   90.0   16.666666666666668
-350.0   60.0   0.0
-400.0   90.0   0.0
-400.0   60.0   16.666666666666668
-350.0   60.0   16.666666666666668
-400.0   90.0   16.666666666666668
-400.0   60.0   33.333333333333336
-350.0   60.0   16.666666666666668
-350.0   90.0   16.666666666666668
-400.0   90.0   16.666666666666668
-350.0   90.0   33.333333333333336
-400.0   60.0   33.333333333333336
-400.0   90.0   33.333333333333336
-350.0   90.0   33.333333333333336
-400.0   90.0   16.666666666666668
-400.0   60.0   33.333333333333336
-350.0   90.0   33.333333333333336
-350.0   60.0   33.333333333333336
-350.0   60.0   16.666666666666668
-400.0   60.0   33.333333333333336
-350.0   90.0   33.333333333333336
-350.0   60.0   16.666666666666668
-400.0   90.0   16.666666666666668
-400.0   60.0   33.333333333333336
-350.0   60.0   33.333333333333336
-400.0   90.0   33.333333333333336
-400.0   60.0   50.0
-350.0   60.0   33.333333333333336
-350.0   90.0   33.333333333333336
-400.0   90.0   33.333333333333336
-350.0   90.0   50.0
-400.0   60.0   50.0
-400.0   90.0   50.0
-350.0   90.0   50.0
-400.0   90.0   33.333333333333336
-400.0   60.0   50.0
-350.0   90.0   50.0
-350.0   60.0   50.0
-350.0   60.0   33.333333333333336
-400.0   60.0   50.0
-350.0   90.0   50.0
-350.0   60.0   33.333333333333336
-400.0   90.0   33.333333333333336
-400.0   90.0   0.0
-350.0   90.0   0.0
-400.0   120.0   0.0
-400.0   90.0   16.666666666666668
-350.0   90.0   0.0
-350.0   120.0   0.0
-400.0   120.0   0.0
-350.0   120.0   16.666666666666668
-400.0   90.0   16.666666666666668
-400.0   120.0   16.666666666666668
-350.0   120.0   16.666666666666668
-400.0   120.0   0.0
-400.0   90.0   16.666666666666668
-350.0   120.0   16.666666666666668
-350.0   90.0   16.666666666666668
-350.0   90.0   0.0
-400.0   90.0   16.666666666666668
-350.0   120.0   16.666666666666668
-350.0   90.0   0.0
-400.0   120.0   0.0
-400.0   90.0   16.666666666666668
-350.0   90.0   16.666666666666668
-400.0   120.0   16.666666666666668
-400.0   90.0   33.333333333333336
-350.0   90.0   16.666666666666668
-350.0   120.0   16.666666666666668
-400.0   120.0   16.666666666666668
-350.0   120.0   33.333333333333336
-400.0   90.0   33.333333333333336
-400.0   120.0   33.333333333333336
-350.0   120.0   33.333333333333336
-400.0   120.0   16.666666666666668
-400.0   90.0   33.333333333333336
-350.0   120.0   33.333333333333336
-350.0   90.0   33.333333333333336
-350.0   90.0   16.666666666666668
-400.0   90.0   33.333333333333336
-350.0   120.0   33.333333333333336
-350.0   90.0   16.666666666666668
-400.0   120.0   16.666666666666668
-400.0   90.0   33.333333333333336
-350.0   90.0   33.333333333333336
-400.0   120.0   33.333333333333336
-400.0   90.0   50.0
-350.0   90.0   33.333333333333336
-350.0   120.0   33.333333333333336
-400.0   120.0   33.333333333333336
-350.0   120.0   50.0
-400.0   90.0   50.0
-400.0   120.0   50.0
-350.0   120.0   50.0
-400.0   120.0   33.333333333333336
-400.0   90.0   50.0
-350.0   120.0   50.0
-350.0   90.0   50.0
-350.0   90.0   33.333333333333336
-400.0   90.0   50.0
-350.0   120.0   50.0
-350.0   90.0   33.333333333333336
-400.0   120.0   33.333333333333336
-400.0   120.0   0.0
-350.0   120.0   0.0
-400.0   150.0   0.0
-400.0   120.0   16.666666666666668
-350.0   120.0   0.0
-350.0   150.0   0.0
-400.0   150.0   0.0
-350.0   150.0   16.666666666666668
-400.0   120.0   16.666666666666668
-400.0   150.0   16.666666666666668
-350.0   150.0   16.666666666666668
-400.0   150.0   0.0
-400.0   120.0   16.666666666666668
-350.0   150.0   16.666666666666668
-350.0   120.0   16.666666666666668
-350.0   120.0   0.0
-400.0   120.0   16.666666666666668
-350.0   150.0   16.666666666666668
-350.0   120.0   0.0
-400.0   150.0   0.0
-400.0   120.0   16.666666666666668
-350.0   120.0   16.666666666666668
-400.0   150.0   16.666666666666668
-400.0   120.0   33.333333333333336
-350.0   120.0   16.666666666666668
-350.0   150.0   16.666666666666668
-400.0   150.0   16.666666666666668
-350.0   150.0   33.333333333333336
-400.0   120.0   33.333333333333336
-400.0   150.0   33.333333333333336
-350.0   150.0   33.333333333333336
-400.0   150.0   16.666666666666668
-400.0   120.0   33.333333333333336
-350.0   150.0   33.333333333333336
-350.0   120.0   33.333333333333336
-350.0   120.0   16.666666666666668
-400.0   120.0   33.333333333333336
-350.0   150.0   33.333333333333336
-350.0   120.0   16.666666666666668
-400.0   150.0   16.666666666666668
-400.0   120.0   33.333333333333336
-350.0   120.0   33.333333333333336
-400.0   150.0   33.333333333333336
-400.0   120.0   50.0
-350.0   120.0   33.333333333333336
-350.0   150.0   33.333333333333336
-400.0   150.0   33.333333333333336
-350.0   150.0   50.0
-400.0   120.0   50.0
-400.0   150.0   50.0
-350.0   150.0   50.0
-400.0   150.0   33.333333333333336
-400.0   120.0   50.0
-350.0   150.0   50.0
-350.0   120.0   50.0
-350.0   120.0   33.333333333333336
-400.0   120.0   50.0
-350.0   150.0   50.0
-350.0   120.0   33.333333333333336
-400.0   150.0   33.333333333333336
-350.0   0.0   0.0
-300.0   0.0   0.0
-350.0   30.0   0.0
-350.0   0.0   16.666666666666668
-300.0   0.0   0.0
-300.0   30.0   0.0
-350.0   30.0   0.0
-300.0   30.0   16.666666666666668
-350.0   0.0   16.666666666666668
-350.0   30.0   16.666666666666668
-300.0   30.0   16.666666666666668
-350.0   30.0   0.0
-350.0   0.0   16.666666666666668
-300.0   30.0   16.666666666666668
-300.0   0.0   16.666666666666668
-300.0   0.0   0.0
-350.0   0.0   16.666666666666668
-300.0   30.0   16.666666666666668
-300.0   0.0   0.0
-350.0   30.0   0.0
-350.0   0.0   16.666666666666668
-300.0   0.0   16.666666666666668
-350.0   30.0   16.666666666666668
-350.0   0.0   33.333333333333336
-300.0   0.0   16.666666666666668
-300.0   30.0   16.666666666666668
-350.0   30.0   16.666666666666668
-300.0   30.0   33.333333333333336
-350.0   0.0   33.333333333333336
-350.0   30.0   33.333333333333336
-300.0   30.0   33.333333333333336
-350.0   30.0   16.666666666666668
-350.0   0.0   33.333333333333336
-300.0   30.0   33.333333333333336
-300.0   0.0   33.333333333333336
-300.0   0.0   16.666666666666668
-350.0   0.0   33.333333333333336
-300.0   30.0   33.333333333333336
-300.0   0.0   16.666666666666668
-350.0   30.0   16.666666666666668
-350.0   0.0   33.333333333333336
-300.0   0.0   33.333333333333336
-350.0   30.0   33.333333333333336
-350.0   0.0   50.0
-300.0   0.0   33.333333333333336
-300.0   30.0   33.333333333333336
-350.0   30.0   33.333333333333336
-300.0   30.0   50.0
-350.0   0.0   50.0
-350.0   30.0   50.0
-300.0   30.0   50.0
-350.0   30.0   33.333333333333336
-350.0   0.0   50.0
-300.0   30.0   50.0
-300.0   0.0   50.0
-300.0   0.0   33.333333333333336
-350.0   0.0   50.0
-300.0   30.0   50.0
-300.0   0.0   33.333333333333336
-350.0   30.0   33.333333333333336
-350.0   30.0   0.0
-300.0   30.0   0.0
-350.0   60.0   0.0
-350.0   30.0   16.666666666666668
-300.0   30.0   0.0
-300.0   60.0   0.0
-350.0   60.0   0.0
-300.0   60.0   16.666666666666668
-350.0   30.0   16.666666666666668
-350.0   60.0   16.666666666666668
-300.0   60.0   16.666666666666668
-350.0   60.0   0.0
-350.0   30.0   16.666666666666668
-300.0   60.0   16.666666666666668
-300.0   30.0   16.666666666666668
-300.0   30.0   0.0
-350.0   30.0   16.666666666666668
-300.0   60.0   16.666666666666668
-300.0   30.0   0.0
-350.0   60.0   0.0
-350.0   30.0   16.666666666666668
-300.0   30.0   16.666666666666668
-350.0   60.0   16.666666666666668
-350.0   30.0   33.333333333333336
-300.0   30.0   16.666666666666668
-300.0   60.0   16.666666666666668
-350.0   60.0   16.666666666666668
-300.0   60.0   33.333333333333336
-350.0   30.0   33.333333333333336
-350.0   60.0   33.333333333333336
-300.0   60.0   33.333333333333336
-350.0   60.0   16.666666666666668
-350.0   30.0   33.333333333333336
-300.0   60.0   33.333333333333336
-300.0   30.0   33.333333333333336
-300.0   30.0   16.666666666666668
-350.0   30.0   33.333333333333336
-300.0   60.0   33.333333333333336
-300.0   30.0   16.666666666666668
-350.0   60.0   16.666666666666668
-350.0   30.0   33.333333333333336
-300.0   30.0   33.333333333333336
-350.0   60.0   33.333333333333336
-350.0   30.0   50.0
-300.0   30.0   33.333333333333336
-300.0   60.0   33.333333333333336
-350.0   60.0   33.333333333333336
-300.0   60.0   50.0
-350.0   30.0   50.0
-350.0   60.0   50.0
-300.0   60.0   50.0
-350.0   60.0   33.333333333333336
-350.0   30.0   50.0
-300.0   60.0   50.0
-300.0   30.0   50.0
-300.0   30.0   33.333333333333336
-350.0   30.0   50.0
-300.0   60.0   50.0
-300.0   30.0   33.333333333333336
-350.0   60.0   33.333333333333336
-350.0   60.0   0.0
-300.0   60.0   0.0
-350.0   90.0   0.0
-350.0   60.0   16.666666666666668
-300.0   60.0   0.0
-300.0   90.0   0.0
-350.0   90.0   0.0
-300.0   90.0   16.666666666666668
-350.0   60.0   16.666666666666668
-350.0   90.0   16.666666666666668
-300.0   90.0   16.666666666666668
-350.0   90.0   0.0
-350.0   60.0   16.666666666666668
-300.0   90.0   16.666666666666668
-300.0   60.0   16.666666666666668
-300.0   60.0   0.0
-350.0   60.0   16.666666666666668
-300.0   90.0   16.666666666666668
-300.0   60.0   0.0
-350.0   90.0   0.0
-350.0   60.0   16.666666666666668
-300.0   60.0   16.666666666666668
-350.0   90.0   16.666666666666668
-350.0   60.0   33.333333333333336
-300.0   60.0   16.666666666666668
-300.0   90.0   16.666666666666668
-350.0   90.0   16.666666666666668
-300.0   90.0   33.333333333333336
-350.0   60.0   33.333333333333336
-350.0   90.0   33.333333333333336
-300.0   90.0   33.333333333333336
-350.0   90.0   16.666666666666668
-350.0   60.0   33.333333333333336
-300.0   90.0   33.333333333333336
-300.0   60.0   33.333333333333336
-300.0   60.0   16.666666666666668
-350.0   60.0   33.333333333333336
-300.0   90.0   33.333333333333336
-300.0   60.0   16.666666666666668
-350.0   90.0   16.666666666666668
-350.0   60.0   33.333333333333336
-300.0   60.0   33.333333333333336
-350.0   90.0   33.333333333333336
-350.0   60.0   50.0
-300.0   60.0   33.333333333333336
-300.0   90.0   33.333333333333336
-350.0   90.0   33.333333333333336
-300.0   90.0   50.0
-350.0   60.0   50.0
-350.0   90.0   50.0
-300.0   90.0   50.0
-350.0   90.0   33.333333333333336
-350.0   60.0   50.0
-300.0   90.0   50.0
-300.0   60.0   50.0
-300.0   60.0   33.333333333333336
-350.0   60.0   50.0
-300.0   90.0   50.0
-300.0   60.0   33.333333333333336
-350.0   90.0   33.333333333333336
-350.0   90.0   0.0
-300.0   90.0   0.0
-350.0   120.0   0.0
-350.0   90.0   16.666666666666668
-300.0   90.0   0.0
-300.0   120.0   0.0
-350.0   120.0   0.0
-300.0   120.0   16.666666666666668
-350.0   90.0   16.666666666666668
-350.0   120.0   16.666666666666668
-300.0   120.0   16.666666666666668
-350.0   120.0   0.0
-350.0   90.0   16.666666666666668
-300.0   120.0   16.666666666666668
-300.0   90.0   16.666666666666668
-300.0   90.0   0.0
-350.0   90.0   16.666666666666668
-300.0   120.0   16.666666666666668
-300.0   90.0   0.0
-350.0   120.0   0.0
-350.0   90.0   16.666666666666668
-300.0   90.0   16.666666666666668
-350.0   120.0   16.666666666666668
-350.0   90.0   33.333333333333336
-300.0   90.0   16.666666666666668
-300.0   120.0   16.666666666666668
-350.0   120.0   16.666666666666668
-300.0   120.0   33.333333333333336
-350.0   90.0   33.333333333333336
-350.0   120.0   33.333333333333336
-300.0   120.0   33.333333333333336
-350.0   120.0   16.666666666666668
-350.0   90.0   33.333333333333336
-300.0   120.0   33.333333333333336
-300.0   90.0   33.333333333333336
-300.0   90.0   16.666666666666668
-350.0   90.0   33.333333333333336
-300.0   120.0   33.333333333333336
-300.0   90.0   16.666666666666668
-350.0   120.0   16.666666666666668
-350.0   90.0   33.333333333333336
-300.0   90.0   33.333333333333336
-350.0   120.0   33.333333333333336
-350.0   90.0   50.0
-300.0   90.0   33.333333333333336
-300.0   120.0   33.333333333333336
-350.0   120.0   33.333333333333336
-300.0   120.0   50.0
-350.0   90.0   50.0
-350.0   120.0   50.0
-300.0   120.0   50.0
-350.0   120.0   33.333333333333336
-350.0   90.0   50.0
-300.0   120.0   50.0
-300.0   90.0   50.0
-300.0   90.0   33.333333333333336
-350.0   90.0   50.0
-300.0   120.0   50.0
-300.0   90.0   33.333333333333336
-350.0   120.0   33.333333333333336
-350.0   120.0   0.0
-300.0   120.0   0.0
-350.0   150.0   0.0
-350.0   120.0   16.666666666666668
-300.0   120.0   0.0
-300.0   150.0   0.0
-350.0   150.0   0.0
-300.0   150.0   16.666666666666668
-350.0   120.0   16.666666666666668
-350.0   150.0   16.666666666666668
-300.0   150.0   16.666666666666668
-350.0   150.0   0.0
-350.0   120.0   16.666666666666668
-300.0   150.0   16.666666666666668
-300.0   120.0   16.666666666666668
-300.0   120.0   0.0
-350.0   120.0   16.666666666666668
-300.0   150.0   16.666666666666668
-300.0   120.0   0.0
-350.0   150.0   0.0
-350.0   120.0   16.666666666666668
-300.0   120.0   16.666666666666668
-350.0   150.0   16.666666666666668
-350.0   120.0   33.333333333333336
-300.0   120.0   16.666666666666668
-300.0   150.0   16.666666666666668
-350.0   150.0   16.666666666666668
-300.0   150.0   33.333333333333336
-350.0   120.0   33.333333333333336
-350.0   150.0   33.333333333333336
-300.0   150.0   33.333333333333336
-350.0   150.0   16.666666666666668
-350.0   120.0   33.333333333333336
-300.0   150.0   33.333333333333336
-300.0   120.0   33.333333333333336
-300.0   120.0   16.666666666666668
-350.0   120.0   33.333333333333336
-300.0   150.0   33.333333333333336
-300.0   120.0   16.666666666666668
-350.0   150.0   16.666666666666668
-350.0   120.0   33.333333333333336
-300.0   120.0   33.333333333333336
-350.0   150.0   33.333333333333336
-350.0   120.0   50.0
-300.0   120.0   33.333333333333336
-300.0   150.0   33.333333333333336
-350.0   150.0   33.333333333333336
-300.0   150.0   50.0
-350.0   120.0   50.0
-350.0   150.0   50.0
-300.0   150.0   50.0
-350.0   150.0   33.333333333333336
-350.0   120.0   50.0
-300.0   150.0   50.0
-300.0   120.0   50.0
-300.0   120.0   33.333333333333336
-350.0   120.0   50.0
-300.0   150.0   50.0
-300.0   120.0   33.333333333333336
-350.0   150.0   33.333333333333336
-300.0   0.0   0.0
-250.0   0.0   0.0
-300.0   30.0   0.0
-300.0   0.0   16.666666666666668
-250.0   0.0   0.0
-250.0   30.0   0.0
-300.0   30.0   0.0
-250.0   30.0   16.666666666666668
-300.0   0.0   16.666666666666668
-300.0   30.0   16.666666666666668
-250.0   30.0   16.666666666666668
-300.0   30.0   0.0
-300.0   0.0   16.666666666666668
-250.0   30.0   16.666666666666668
-250.0   0.0   16.666666666666668
-250.0   0.0   0.0
-300.0   0.0   16.666666666666668
-250.0   30.0   16.666666666666668
-250.0   0.0   0.0
-300.0   30.0   0.0
-300.0   0.0   16.666666666666668
-250.0   0.0   16.666666666666668
-300.0   30.0   16.666666666666668
-300.0   0.0   33.333333333333336
-250.0   0.0   16.666666666666668
-250.0   30.0   16.666666666666668
-300.0   30.0   16.666666666666668
-250.0   30.0   33.333333333333336
-300.0   0.0   33.333333333333336
-300.0   30.0   33.333333333333336
-250.0   30.0   33.333333333333336
-300.0   30.0   16.666666666666668
-300.0   0.0   33.333333333333336
-250.0   30.0   33.333333333333336
-250.0   0.0   33.333333333333336
-250.0   0.0   16.666666666666668
-300.0   0.0   33.333333333333336
-250.0   30.0   33.333333333333336
-250.0   0.0   16.666666666666668
-300.0   30.0   16.666666666666668
-300.0   0.0   33.333333333333336
-250.0   0.0   33.333333333333336
-300.0   30.0   33.333333333333336
-300.0   0.0   50.0
-250.0   0.0   33.333333333333336
-250.0   30.0   33.333333333333336
-300.0   30.0   33.333333333333336
-250.0   30.0   50.0
-300.0   0.0   50.0
-300.0   30.0   50.0
-250.0   30.0   50.0
-300.0   30.0   33.333333333333336
-300.0   0.0   50.0
-250.0   30.0   50.0
-250.0   0.0   50.0
-250.0   0.0   33.333333333333336
-300.0   0.0   50.0
-250.0   30.0   50.0
-250.0   0.0   33.333333333333336
-300.0   30.0   33.333333333333336
-300.0   30.0   0.0
-250.0   30.0   0.0
-300.0   60.0   0.0
-300.0   30.0   16.666666666666668
-250.0   30.0   0.0
-250.0   60.0   0.0
-300.0   60.0   0.0
-250.0   60.0   16.666666666666668
-300.0   30.0   16.666666666666668
-300.0   60.0   16.666666666666668
-250.0   60.0   16.666666666666668
-300.0   60.0   0.0
-300.0   30.0   16.666666666666668
-250.0   60.0   16.666666666666668
-250.0   30.0   16.666666666666668
-250.0   30.0   0.0
-300.0   30.0   16.666666666666668
-250.0   60.0   16.666666666666668
-250.0   30.0   0.0
-300.0   60.0   0.0
-300.0   30.0   16.666666666666668
-250.0   30.0   16.666666666666668
-300.0   60.0   16.666666666666668
-300.0   30.0   33.333333333333336
-250.0   30.0   16.666666666666668
-250.0   60.0   16.666666666666668
-300.0   60.0   16.666666666666668
-250.0   60.0   33.333333333333336
-300.0   30.0   33.333333333333336
-300.0   60.0   33.333333333333336
-250.0   60.0   33.333333333333336
-300.0   60.0   16.666666666666668
-300.0   30.0   33.333333333333336
-250.0   60.0   33.333333333333336
-250.0   30.0   33.333333333333336
-250.0   30.0   16.666666666666668
-300.0   30.0   33.333333333333336
-250.0   60.0   33.333333333333336
-250.0   30.0   16.666666666666668
-300.0   60.0   16.666666666666668
-300.0   30.0   33.333333333333336
-250.0   30.0   33.333333333333336
-300.0   60.0   33.333333333333336
-300.0   30.0   50.0
-250.0   30.0   33.333333333333336
-250.0   60.0   33.333333333333336
-300.0   60.0   33.333333333333336
-250.0   60.0   50.0
-300.0   30.0   50.0
-300.0   60.0   50.0
-250.0   60.0   50.0
-300.0   60.0   33.333333333333336
-300.0   30.0   50.0
-250.0   60.0   50.0
-250.0   30.0   50.0
-250.0   30.0   33.333333333333336
-300.0   30.0   50.0
-250.0   60.0   50.0
-250.0   30.0   33.333333333333336
-300.0   60.0   33.333333333333336
-300.0   60.0   0.0
-250.0   60.0   0.0
-300.0   90.0   0.0
-300.0   60.0   16.666666666666668
-250.0   60.0   0.0
-250.0   90.0   0.0
-300.0   90.0   0.0
-250.0   90.0   16.666666666666668
-300.0   60.0   16.666666666666668
-300.0   90.0   16.666666666666668
-250.0   90.0   16.666666666666668
-300.0   90.0   0.0
-300.0   60.0   16.666666666666668
-250.0   90.0   16.666666666666668
-250.0   60.0   16.666666666666668
-250.0   60.0   0.0
-300.0   60.0   16.666666666666668
-250.0   90.0   16.666666666666668
-250.0   60.0   0.0
-300.0   90.0   0.0
-300.0   60.0   16.666666666666668
-250.0   60.0   16.666666666666668
-300.0   90.0   16.666666666666668
-300.0   60.0   33.333333333333336
-250.0   60.0   16.666666666666668
-250.0   90.0   16.666666666666668
-300.0   90.0   16.666666666666668
-250.0   90.0   33.333333333333336
-300.0   60.0   33.333333333333336
-300.0   90.0   33.333333333333336
-250.0   90.0   33.333333333333336
-300.0   90.0   16.666666666666668
-300.0   60.0   33.333333333333336
-250.0   90.0   33.333333333333336
-250.0   60.0   33.333333333333336
-250.0   60.0   16.666666666666668
-300.0   60.0   33.333333333333336
-250.0   90.0   33.333333333333336
-250.0   60.0   16.666666666666668
-300.0   90.0   16.666666666666668
-300.0   60.0   33.333333333333336
-250.0   60.0   33.333333333333336
-300.0   90.0   33.333333333333336
-300.0   60.0   50.0
-250.0   60.0   33.333333333333336
-250.0   90.0   33.333333333333336
-300.0   90.0   33.333333333333336
-250.0   90.0   50.0
-300.0   60.0   50.0
-300.0   90.0   50.0
-250.0   90.0   50.0
-300.0   90.0   33.333333333333336
-300.0   60.0   50.0
-250.0   90.0   50.0
-250.0   60.0   50.0
-250.0   60.0   33.333333333333336
-300.0   60.0   50.0
-250.0   90.0   50.0
-250.0   60.0   33.333333333333336
-300.0   90.0   33.333333333333336
-300.0   90.0   0.0
-250.0   90.0   0.0
-300.0   120.0   0.0
-300.0   90.0   16.666666666666668
-250.0   90.0   0.0
-250.0   120.0   0.0
-300.0   120.0   0.0
-250.0   120.0   16.666666666666668
-300.0   90.0   16.666666666666668
-300.0   120.0   16.666666666666668
-250.0   120.0   16.666666666666668
-300.0   120.0   0.0
-300.0   90.0   16.666666666666668
-250.0   120.0   16.666666666666668
-250.0   90.0   16.666666666666668
-250.0   90.0   0.0
-300.0   90.0   16.666666666666668
-250.0   120.0   16.666666666666668
-250.0   90.0   0.0
-300.0   120.0   0.0
-300.0   90.0   16.666666666666668
-250.0   90.0   16.666666666666668
-300.0   120.0   16.666666666666668
-300.0   90.0   33.333333333333336
-250.0   90.0   16.666666666666668
-250.0   120.0   16.666666666666668
-300.0   120.0   16.666666666666668
-250.0   120.0   33.333333333333336
-300.0   90.0   33.333333333333336
-300.0   120.0   33.333333333333336
-250.0   120.0   33.333333333333336
-300.0   120.0   16.666666666666668
-300.0   90.0   33.333333333333336
-250.0   120.0   33.333333333333336
-250.0   90.0   33.333333333333336
-250.0   90.0   16.666666666666668
-300.0   90.0   33.333333333333336
-250.0   120.0   33.333333333333336
-250.0   90.0   16.666666666666668
-300.0   120.0   16.666666666666668
-300.0   90.0   33.333333333333336
-250.0   90.0   33.333333333333336
-300.0   120.0   33.333333333333336
-300.0   90.0   50.0
-250.0   90.0   33.333333333333336
-250.0   120.0   33.333333333333336
-300.0   120.0   33.333333333333336
-250.0   120.0   50.0
-300.0   90.0   50.0
-300.0   120.0   50.0
-250.0   120.0   50.0
-300.0   120.0   33.333333333333336
-300.0   90.0   50.0
-250.0   120.0   50.0
-250.0   90.0   50.0
-250.0   90.0   33.333333333333336
-300.0   90.0   50.0
-250.0   120.0   50.0
-250.0   90.0   33.333333333333336
-300.0   120.0   33.333333333333336
-300.0   120.0   0.0
-250.0   120.0   0.0
-300.0   150.0   0.0
-300.0   120.0   16.666666666666668
-250.0   120.0   0.0
-250.0   150.0   0.0
-300.0   150.0   0.0
-250.0   150.0   16.666666666666668
-300.0   120.0   16.666666666666668
-300.0   150.0   16.666666666666668
-250.0   150.0   16.666666666666668
-300.0   150.0   0.0
-300.0   120.0   16.666666666666668
-250.0   150.0   16.666666666666668
-250.0   120.0   16.666666666666668
-250.0   120.0   0.0
-300.0   120.0   16.666666666666668
-250.0   150.0   16.666666666666668
-250.0   120.0   0.0
-300.0   150.0   0.0
-300.0   120.0   16.666666666666668
-250.0   120.0   16.666666666666668
-300.0   150.0   16.666666666666668
-300.0   120.0   33.333333333333336
-250.0   120.0   16.666666666666668
-250.0   150.0   16.666666666666668
-300.0   150.0   16.666666666666668
-250.0   150.0   33.333333333333336
-300.0   120.0   33.333333333333336
-300.0   150.0   33.333333333333336
-250.0   150.0   33.333333333333336
-300.0   150.0   16.666666666666668
-300.0   120.0   33.333333333333336
-250.0   150.0   33.333333333333336
-250.0   120.0   33.333333333333336
-250.0   120.0   16.666666666666668
-300.0   120.0   33.333333333333336
-250.0   150.0   33.333333333333336
-250.0   120.0   16.666666666666668
-300.0   150.0   16.666666666666668
-300.0   120.0   33.333333333333336
-250.0   120.0   33.333333333333336
-300.0   150.0   33.333333333333336
-300.0   120.0   50.0
-250.0   120.0   33.333333333333336
-250.0   150.0   33.333333333333336
-300.0   150.0   33.333333333333336
-250.0   150.0   50.0
-300.0   120.0   50.0
-300.0   150.0   50.0
-250.0   150.0   50.0
-300.0   150.0   33.333333333333336
-300.0   120.0   50.0
-250.0   150.0   50.0
-250.0   120.0   50.0
-250.0   120.0   33.333333333333336
-300.0   120.0   50.0
-250.0   150.0   50.0
-250.0   120.0   33.333333333333336
-300.0   150.0   33.333333333333336
-250.0   0.0   0.0
-200.0   0.0   0.0
-250.0   30.0   0.0
-250.0   0.0   16.666666666666668
-200.0   0.0   0.0
-200.0   30.0   0.0
-250.0   30.0   0.0
-200.0   30.0   16.666666666666668
-250.0   0.0   16.666666666666668
-250.0   30.0   16.666666666666668
-200.0   30.0   16.666666666666668
-250.0   30.0   0.0
-250.0   0.0   16.666666666666668
-200.0   30.0   16.666666666666668
-200.0   0.0   16.666666666666668
-200.0   0.0   0.0
-250.0   0.0   16.666666666666668
-200.0   30.0   16.666666666666668
-200.0   0.0   0.0
-250.0   30.0   0.0
-250.0   0.0   16.666666666666668
-200.0   0.0   16.666666666666668
-250.0   30.0   16.666666666666668
-250.0   0.0   33.333333333333336
-200.0   0.0   16.666666666666668
-200.0   30.0   16.666666666666668
-250.0   30.0   16.666666666666668
-200.0   30.0   33.333333333333336
-250.0   0.0   33.333333333333336
-250.0   30.0   33.333333333333336
-200.0   30.0   33.333333333333336
-250.0   30.0   16.666666666666668
-250.0   0.0   33.333333333333336
-200.0   30.0   33.333333333333336
-200.0   0.0   33.333333333333336
-200.0   0.0   16.666666666666668
-250.0   0.0   33.333333333333336
-200.0   30.0   33.333333333333336
-200.0   0.0   16.666666666666668
-250.0   30.0   16.666666666666668
-250.0   0.0   33.333333333333336
-200.0   0.0   33.333333333333336
-250.0   30.0   33.333333333333336
-250.0   0.0   50.0
-200.0   0.0   33.333333333333336
-200.0   30.0   33.333333333333336
-250.0   30.0   33.333333333333336
-200.0   30.0   50.0
-250.0   0.0   50.0
-250.0   30.0   50.0
-200.0   30.0   50.0
-250.0   30.0   33.333333333333336
-250.0   0.0   50.0
-200.0   30.0   50.0
-200.0   0.0   50.0
-200.0   0.0   33.333333333333336
-250.0   0.0   50.0
-200.0   30.0   50.0
-200.0   0.0   33.333333333333336
-250.0   30.0   33.333333333333336
-250.0   30.0   0.0
-200.0   30.0   0.0
-250.0   60.0   0.0
-250.0   30.0   16.666666666666668
-200.0   30.0   0.0
-200.0   60.0   0.0
-250.0   60.0   0.0
-200.0   60.0   16.666666666666668
-250.0   30.0   16.666666666666668
-250.0   60.0   16.666666666666668
-200.0   60.0   16.666666666666668
-250.0   60.0   0.0
-250.0   30.0   16.666666666666668
-200.0   60.0   16.666666666666668
-200.0   30.0   16.666666666666668
-200.0   30.0   0.0
-250.0   30.0   16.666666666666668
-200.0   60.0   16.666666666666668
-200.0   30.0   0.0
-250.0   60.0   0.0
-250.0   30.0   16.666666666666668
-200.0   30.0   16.666666666666668
-250.0   60.0   16.666666666666668
-250.0   30.0   33.333333333333336
-200.0   30.0   16.666666666666668
-200.0   60.0   16.666666666666668
-250.0   60.0   16.666666666666668
-200.0   60.0   33.333333333333336
-250.0   30.0   33.333333333333336
-250.0   60.0   33.333333333333336
-200.0   60.0   33.333333333333336
-250.0   60.0   16.666666666666668
-250.0   30.0   33.333333333333336
-200.0   60.0   33.333333333333336
-200.0   30.0   33.333333333333336
-200.0   30.0   16.666666666666668
-250.0   30.0   33.333333333333336
-200.0   60.0   33.333333333333336
-200.0   30.0   16.666666666666668
-250.0   60.0   16.666666666666668
-250.0   30.0   33.333333333333336
-200.0   30.0   33.333333333333336
-250.0   60.0   33.333333333333336
-250.0   30.0   50.0
-200.0   30.0   33.333333333333336
-200.0   60.0   33.333333333333336
-250.0   60.0   33.333333333333336
-200.0   60.0   50.0
-250.0   30.0   50.0
-250.0   60.0   50.0
-200.0   60.0   50.0
-250.0   60.0   33.333333333333336
-250.0   30.0   50.0
-200.0   60.0   50.0
-200.0   30.0   50.0
-200.0   30.0   33.333333333333336
-250.0   30.0   50.0
-200.0   60.0   50.0
-200.0   30.0   33.333333333333336
-250.0   60.0   33.333333333333336
-250.0   60.0   0.0
-200.0   60.0   0.0
-250.0   90.0   0.0
-250.0   60.0   16.666666666666668
-200.0   60.0   0.0
-200.0   90.0   0.0
-250.0   90.0   0.0
-200.0   90.0   16.666666666666668
-250.0   60.0   16.666666666666668
-250.0   90.0   16.666666666666668
-200.0   90.0   16.666666666666668
-250.0   90.0   0.0
-250.0   60.0   16.666666666666668
-200.0   90.0   16.666666666666668
-200.0   60.0   16.666666666666668
-200.0   60.0   0.0
-250.0   60.0   16.666666666666668
-200.0   90.0   16.666666666666668
-200.0   60.0   0.0
-250.0   90.0   0.0
-250.0   60.0   16.666666666666668
-200.0   60.0   16.666666666666668
-250.0   90.0   16.666666666666668
-250.0   60.0   33.333333333333336
-200.0   60.0   16.666666666666668
-200.0   90.0   16.666666666666668
-250.0   90.0   16.666666666666668
-200.0   90.0   33.333333333333336
-250.0   60.0   33.333333333333336
-250.0   90.0   33.333333333333336
-200.0   90.0   33.333333333333336
-250.0   90.0   16.666666666666668
-250.0   60.0   33.333333333333336
-200.0   90.0   33.333333333333336
-200.0   60.0   33.333333333333336
-200.0   60.0   16.666666666666668
-250.0   60.0   33.333333333333336
-200.0   90.0   33.333333333333336
-200.0   60.0   16.666666666666668
-250.0   90.0   16.666666666666668
-250.0   60.0   33.333333333333336
-200.0   60.0   33.333333333333336
-250.0   90.0   33.333333333333336
-250.0   60.0   50.0
-200.0   60.0   33.333333333333336
-200.0   90.0   33.333333333333336
-250.0   90.0   33.333333333333336
-200.0   90.0   50.0
-250.0   60.0   50.0
-250.0   90.0   50.0
-200.0   90.0   50.0
-250.0   90.0   33.333333333333336
-250.0   60.0   50.0
-200.0   90.0   50.0
-200.0   60.0   50.0
-200.0   60.0   33.333333333333336
-250.0   60.0   50.0
-200.0   90.0   50.0
-200.0   60.0   33.333333333333336
-250.0   90.0   33.333333333333336
-250.0   90.0   0.0
-200.0   90.0   0.0
-250.0   120.0   0.0
-250.0   90.0   16.666666666666668
-200.0   90.0   0.0
-200.0   120.0   0.0
-250.0   120.0   0.0
-200.0   120.0   16.666666666666668
-250.0   90.0   16.666666666666668
-250.0   120.0   16.666666666666668
-200.0   120.0   16.666666666666668
-250.0   120.0   0.0
-250.0   90.0   16.666666666666668
-200.0   120.0   16.666666666666668
-200.0   90.0   16.666666666666668
-200.0   90.0   0.0
-250.0   90.0   16.666666666666668
-200.0   120.0   16.666666666666668
-200.0   90.0   0.0
-250.0   120.0   0.0
-250.0   90.0   16.666666666666668
-200.0   90.0   16.666666666666668
-250.0   120.0   16.666666666666668
-250.0   90.0   33.333333333333336
-200.0   90.0   16.666666666666668
-200.0   120.0   16.666666666666668
-250.0   120.0   16.666666666666668
-200.0   120.0   33.333333333333336
-250.0   90.0   33.333333333333336
-250.0   120.0   33.333333333333336
-200.0   120.0   33.333333333333336
-250.0   120.0   16.666666666666668
-250.0   90.0   33.333333333333336
-200.0   120.0   33.333333333333336
-200.0   90.0   33.333333333333336
-200.0   90.0   16.666666666666668
-250.0   90.0   33.333333333333336
-200.0   120.0   33.333333333333336
-200.0   90.0   16.666666666666668
-250.0   120.0   16.666666666666668
-250.0   90.0   33.333333333333336
-200.0   90.0   33.333333333333336
-250.0   120.0   33.333333333333336
-250.0   90.0   50.0
-200.0   90.0   33.333333333333336
-200.0   120.0   33.333333333333336
-250.0   120.0   33.333333333333336
-200.0   120.0   50.0
-250.0   90.0   50.0
-250.0   120.0   50.0
-200.0   120.0   50.0
-250.0   120.0   33.333333333333336
-250.0   90.0   50.0
-200.0   120.0   50.0
-200.0   90.0   50.0
-200.0   90.0   33.333333333333336
-250.0   90.0   50.0
-200.0   120.0   50.0
-200.0   90.0   33.333333333333336
-250.0   120.0   33.333333333333336
-250.0   120.0   0.0
-200.0   120.0   0.0
-250.0   150.0   0.0
-250.0   120.0   16.666666666666668
-200.0   120.0   0.0
-200.0   150.0   0.0
-250.0   150.0   0.0
-200.0   150.0   16.666666666666668
-250.0   120.0   16.666666666666668
-250.0   150.0   16.666666666666668
-200.0   150.0   16.666666666666668
-250.0   150.0   0.0
-250.0   120.0   16.666666666666668
-200.0   150.0   16.666666666666668
-200.0   120.0   16.666666666666668
-200.0   120.0   0.0
-250.0   120.0   16.666666666666668
-200.0   150.0   16.666666666666668
-200.0   120.0   0.0
-250.0   150.0   0.0
-250.0   120.0   16.666666666666668
-200.0   120.0   16.666666666666668
-250.0   150.0   16.666666666666668
-250.0   120.0   33.333333333333336
-200.0   120.0   16.666666666666668
-200.0   150.0   16.666666666666668
-250.0   150.0   16.666666666666668
-200.0   150.0   33.333333333333336
-250.0   120.0   33.333333333333336
-250.0   150.0   33.333333333333336
-200.0   150.0   33.333333333333336
-250.0   150.0   16.666666666666668
-250.0   120.0   33.333333333333336
-200.0   150.0   33.333333333333336
-200.0   120.0   33.333333333333336
-200.0   120.0   16.666666666666668
-250.0   120.0   33.333333333333336
-200.0   150.0   33.333333333333336
-200.0   120.0   16.666666666666668
-250.0   150.0   16.666666666666668
-250.0   120.0   33.333333333333336
-200.0   120.0   33.333333333333336
-250.0   150.0   33.333333333333336
-250.0   120.0   50.0
-200.0   120.0   33.333333333333336
-200.0   150.0   33.333333333333336
-250.0   150.0   33.333333333333336
-200.0   150.0   50.0
-250.0   120.0   50.0
-250.0   150.0   50.0
-200.0   150.0   50.0
-250.0   150.0   33.333333333333336
-250.0   120.0   50.0
-200.0   150.0   50.0
-200.0   120.0   50.0
-200.0   120.0   33.333333333333336
-250.0   120.0   50.0
-200.0   150.0   50.0
-200.0   120.0   33.333333333333336
-250.0   150.0   33.333333333333336
-200.0   0.0   0.0
-150.0   0.0   0.0
-200.0   30.0   0.0
-200.0   0.0   16.666666666666668
-150.0   0.0   0.0
-150.0   30.0   0.0
-200.0   30.0   0.0
-150.0   30.0   16.666666666666668
-200.0   0.0   16.666666666666668
-200.0   30.0   16.666666666666668
-150.0   30.0   16.666666666666668
-200.0   30.0   0.0
-200.0   0.0   16.666666666666668
-150.0   30.0   16.666666666666668
-150.0   0.0   16.666666666666668
-150.0   0.0   0.0
-200.0   0.0   16.666666666666668
-150.0   30.0   16.666666666666668
-150.0   0.0   0.0
-200.0   30.0   0.0
-200.0   0.0   16.666666666666668
-150.0   0.0   16.666666666666668
-200.0   30.0   16.666666666666668
-200.0   0.0   33.333333333333336
-150.0   0.0   16.666666666666668
-150.0   30.0   16.666666666666668
-200.0   30.0   16.666666666666668
-150.0   30.0   33.333333333333336
-200.0   0.0   33.333333333333336
-200.0   30.0   33.333333333333336
-150.0   30.0   33.333333333333336
-200.0   30.0   16.666666666666668
-200.0   0.0   33.333333333333336
-150.0   30.0   33.333333333333336
-150.0   0.0   33.333333333333336
-150.0   0.0   16.666666666666668
-200.0   0.0   33.333333333333336
-150.0   30.0   33.333333333333336
-150.0   0.0   16.666666666666668
-200.0   30.0   16.666666666666668
-200.0   0.0   33.333333333333336
-150.0   0.0   33.333333333333336
-200.0   30.0   33.333333333333336
-200.0   0.0   50.0
-150.0   0.0   33.333333333333336
-150.0   30.0   33.333333333333336
-200.0   30.0   33.333333333333336
-150.0   30.0   50.0
-200.0   0.0   50.0
-200.0   30.0   50.0
-150.0   30.0   50.0
-200.0   30.0   33.333333333333336
-200.0   0.0   50.0
-150.0   30.0   50.0
-150.0   0.0   50.0
-150.0   0.0   33.333333333333336
-200.0   0.0   50.0
-150.0   30.0   50.0
-150.0   0.0   33.333333333333336
-200.0   30.0   33.333333333333336
-200.0   30.0   0.0
-150.0   30.0   0.0
-200.0   60.0   0.0
-200.0   30.0   16.666666666666668
-150.0   30.0   0.0
-150.0   60.0   0.0
-200.0   60.0   0.0
-150.0   60.0   16.666666666666668
-200.0   30.0   16.666666666666668
-200.0   60.0   16.666666666666668
-150.0   60.0   16.666666666666668
-200.0   60.0   0.0
-200.0   30.0   16.666666666666668
-150.0   60.0   16.666666666666668
-150.0   30.0   16.666666666666668
-150.0   30.0   0.0
-200.0   30.0   16.666666666666668
-150.0   60.0   16.666666666666668
-150.0   30.0   0.0
-200.0   60.0   0.0
-200.0   30.0   16.666666666666668
-150.0   30.0   16.666666666666668
-200.0   60.0   16.666666666666668
-200.0   30.0   33.333333333333336
-150.0   30.0   16.666666666666668
-150.0   60.0   16.666666666666668
-200.0   60.0   16.666666666666668
-150.0   60.0   33.333333333333336
-200.0   30.0   33.333333333333336
-200.0   60.0   33.333333333333336
-150.0   60.0   33.333333333333336
-200.0   60.0   16.666666666666668
-200.0   30.0   33.333333333333336
-150.0   60.0   33.333333333333336
-150.0   30.0   33.333333333333336
-150.0   30.0   16.666666666666668
-200.0   30.0   33.333333333333336
-150.0   60.0   33.333333333333336
-150.0   30.0   16.666666666666668
-200.0   60.0   16.666666666666668
-200.0   30.0   33.333333333333336
-150.0   30.0   33.333333333333336
-200.0   60.0   33.333333333333336
-200.0   30.0   50.0
-150.0   30.0   33.333333333333336
-150.0   60.0   33.333333333333336
-200.0   60.0   33.333333333333336
-150.0   60.0   50.0
-200.0   30.0   50.0
-200.0   60.0   50.0
-150.0   60.0   50.0
-200.0   60.0   33.333333333333336
-200.0   30.0   50.0
-150.0   60.0   50.0
-150.0   30.0   50.0
-150.0   30.0   33.333333333333336
-200.0   30.0   50.0
-150.0   60.0   50.0
-150.0   30.0   33.333333333333336
-200.0   60.0   33.333333333333336
-200.0   60.0   0.0
-150.0   60.0   0.0
-200.0   90.0   0.0
-200.0   60.0   16.666666666666668
-150.0   60.0   0.0
-150.0   90.0   0.0
-200.0   90.0   0.0
-150.0   90.0   16.666666666666668
-200.0   60.0   16.666666666666668
-200.0   90.0   16.666666666666668
-150.0   90.0   16.666666666666668
-200.0   90.0   0.0
-200.0   60.0   16.666666666666668
-150.0   90.0   16.666666666666668
-150.0   60.0   16.666666666666668
-150.0   60.0   0.0
-200.0   60.0   16.666666666666668
-150.0   90.0   16.666666666666668
-150.0   60.0   0.0
-200.0   90.0   0.0
-200.0   60.0   16.666666666666668
-150.0   60.0   16.666666666666668
-200.0   90.0   16.666666666666668
-200.0   60.0   33.333333333333336
-150.0   60.0   16.666666666666668
-150.0   90.0   16.666666666666668
-200.0   90.0   16.666666666666668
-150.0   90.0   33.333333333333336
-200.0   60.0   33.333333333333336
-200.0   90.0   33.333333333333336
-150.0   90.0   33.333333333333336
-200.0   90.0   16.666666666666668
-200.0   60.0   33.333333333333336
-150.0   90.0   33.333333333333336
-150.0   60.0   33.333333333333336
-150.0   60.0   16.666666666666668
-200.0   60.0   33.333333333333336
-150.0   90.0   33.333333333333336
-150.0   60.0   16.666666666666668
-200.0   90.0   16.666666666666668
-200.0   60.0   33.333333333333336
-150.0   60.0   33.333333333333336
-200.0   90.0   33.333333333333336
-200.0   60.0   50.0
-150.0   60.0   33.333333333333336
-150.0   90.0   33.333333333333336
-200.0   90.0   33.333333333333336
-150.0   90.0   50.0
-200.0   60.0   50.0
-200.0   90.0   50.0
-150.0   90.0   50.0
-200.0   90.0   33.333333333333336
-200.0   60.0   50.0
-150.0   90.0   50.0
-150.0   60.0   50.0
-150.0   60.0   33.333333333333336
-200.0   60.0   50.0
-150.0   90.0   50.0
-150.0   60.0   33.333333333333336
-200.0   90.0   33.333333333333336
-200.0   90.0   0.0
-150.0   90.0   0.0
-200.0   120.0   0.0
-200.0   90.0   16.666666666666668
-150.0   90.0   0.0
-150.0   120.0   0.0
-200.0   120.0   0.0
-150.0   120.0   16.666666666666668
-200.0   90.0   16.666666666666668
-200.0   120.0   16.666666666666668
-150.0   120.0   16.666666666666668
-200.0   120.0   0.0
-200.0   90.0   16.666666666666668
-150.0   120.0   16.666666666666668
-150.0   90.0   16.666666666666668
-150.0   90.0   0.0
-200.0   90.0   16.666666666666668
-150.0   120.0   16.666666666666668
-150.0   90.0   0.0
-200.0   120.0   0.0
-200.0   90.0   16.666666666666668
-150.0   90.0   16.666666666666668
-200.0   120.0   16.666666666666668
-200.0   90.0   33.333333333333336
-150.0   90.0   16.666666666666668
-150.0   120.0   16.666666666666668
-200.0   120.0   16.666666666666668
-150.0   120.0   33.333333333333336
-200.0   90.0   33.333333333333336
-200.0   120.0   33.333333333333336
-150.0   120.0   33.333333333333336
-200.0   120.0   16.666666666666668
-200.0   90.0   33.333333333333336
-150.0   120.0   33.333333333333336
-150.0   90.0   33.333333333333336
-150.0   90.0   16.666666666666668
-200.0   90.0   33.333333333333336
-150.0   120.0   33.333333333333336
-150.0   90.0   16.666666666666668
-200.0   120.0   16.666666666666668
-200.0   90.0   33.333333333333336
-150.0   90.0   33.333333333333336
-200.0   120.0   33.333333333333336
-200.0   90.0   50.0
-150.0   90.0   33.333333333333336
-150.0   120.0   33.333333333333336
-200.0   120.0   33.333333333333336
-150.0   120.0   50.0
-200.0   90.0   50.0
-200.0   120.0   50.0
-150.0   120.0   50.0
-200.0   120.0   33.333333333333336
-200.0   90.0   50.0
-150.0   120.0   50.0
-150.0   90.0   50.0
-150.0   90.0   33.333333333333336
-200.0   90.0   50.0
-150.0   120.0   50.0
-150.0   90.0   33.333333333333336
-200.0   120.0   33.333333333333336
-200.0   120.0   0.0
-150.0   120.0   0.0
-200.0   150.0   0.0
-200.0   120.0   16.666666666666668
-150.0   120.0   0.0
-150.0   150.0   0.0
-200.0   150.0   0.0
-150.0   150.0   16.666666666666668
-200.0   120.0   16.666666666666668
-200.0   150.0   16.666666666666668
-150.0   150.0   16.666666666666668
-200.0   150.0   0.0
-200.0   120.0   16.666666666666668
-150.0   150.0   16.666666666666668
-150.0   120.0   16.666666666666668
-150.0   120.0   0.0
-200.0   120.0   16.666666666666668
-150.0   150.0   16.666666666666668
-150.0   120.0   0.0
-200.0   150.0   0.0
-200.0   120.0   16.666666666666668
-150.0   120.0   16.666666666666668
-200.0   150.0   16.666666666666668
-200.0   120.0   33.333333333333336
-150.0   120.0   16.666666666666668
-150.0   150.0   16.666666666666668
-200.0   150.0   16.666666666666668
-150.0   150.0   33.333333333333336
-200.0   120.0   33.333333333333336
-200.0   150.0   33.333333333333336
-150.0   150.0   33.333333333333336
-200.0   150.0   16.666666666666668
-200.0   120.0   33.333333333333336
-150.0   150.0   33.333333333333336
-150.0   120.0   33.333333333333336
-150.0   120.0   16.666666666666668
-200.0   120.0   33.333333333333336
-150.0   150.0   33.333333333333336
-150.0   120.0   16.666666666666668
-200.0   150.0   16.666666666666668
-200.0   120.0   33.333333333333336
-150.0   120.0   33.333333333333336
-200.0   150.0   33.333333333333336
-200.0   120.0   50.0
-150.0   120.0   33.333333333333336
-150.0   150.0   33.333333333333336
-200.0   150.0   33.333333333333336
-150.0   150.0   50.0
-200.0   120.0   50.0
-200.0   150.0   50.0
-150.0   150.0   50.0
-200.0   150.0   33.333333333333336
-200.0   120.0   50.0
-150.0   150.0   50.0
-150.0   120.0   50.0
-150.0   120.0   33.333333333333336
-200.0   120.0   50.0
-150.0   150.0   50.0
-150.0   120.0   33.333333333333336
-200.0   150.0   33.333333333333336
-150.0   0.0   0.0
-100.0   0.0   0.0
-150.0   30.0   0.0
-150.0   0.0   16.666666666666668
-100.0   0.0   0.0
-100.0   30.0   0.0
-150.0   30.0   0.0
-100.0   30.0   16.666666666666668
-150.0   0.0   16.666666666666668
-150.0   30.0   16.666666666666668
-100.0   30.0   16.666666666666668
-150.0   30.0   0.0
-150.0   0.0   16.666666666666668
-100.0   30.0   16.666666666666668
-100.0   0.0   16.666666666666668
-100.0   0.0   0.0
-150.0   0.0   16.666666666666668
-100.0   30.0   16.666666666666668
-100.0   0.0   0.0
-150.0   30.0   0.0
-150.0   0.0   16.666666666666668
-100.0   0.0   16.666666666666668
-150.0   30.0   16.666666666666668
-150.0   0.0   33.333333333333336
-100.0   0.0   16.666666666666668
-100.0   30.0   16.666666666666668
-150.0   30.0   16.666666666666668
-100.0   30.0   33.333333333333336
-150.0   0.0   33.333333333333336
-150.0   30.0   33.333333333333336
-100.0   30.0   33.333333333333336
-150.0   30.0   16.666666666666668
-150.0   0.0   33.333333333333336
-100.0   30.0   33.333333333333336
-100.0   0.0   33.333333333333336
-100.0   0.0   16.666666666666668
-150.0   0.0   33.333333333333336
-100.0   30.0   33.333333333333336
-100.0   0.0   16.666666666666668
-150.0   30.0   16.666666666666668
-150.0   0.0   33.333333333333336
-100.0   0.0   33.333333333333336
-150.0   30.0   33.333333333333336
-150.0   0.0   50.0
-100.0   0.0   33.333333333333336
-100.0   30.0   33.333333333333336
-150.0   30.0   33.333333333333336
-100.0   30.0   50.0
-150.0   0.0   50.0
-150.0   30.0   50.0
-100.0   30.0   50.0
-150.0   30.0   33.333333333333336
-150.0   0.0   50.0
-100.0   30.0   50.0
-100.0   0.0   50.0
-100.0   0.0   33.333333333333336
-150.0   0.0   50.0
-100.0   30.0   50.0
-100.0   0.0   33.333333333333336
-150.0   30.0   33.333333333333336
-150.0   30.0   0.0
-100.0   30.0   0.0
-150.0   60.0   0.0
-150.0   30.0   16.666666666666668
-100.0   30.0   0.0
-100.0   60.0   0.0
-150.0   60.0   0.0
-100.0   60.0   16.666666666666668
-150.0   30.0   16.666666666666668
-150.0   60.0   16.666666666666668
-100.0   60.0   16.666666666666668
-150.0   60.0   0.0
-150.0   30.0   16.666666666666668
-100.0   60.0   16.666666666666668
-100.0   30.0   16.666666666666668
-100.0   30.0   0.0
-150.0   30.0   16.666666666666668
-100.0   60.0   16.666666666666668
-100.0   30.0   0.0
-150.0   60.0   0.0
-150.0   30.0   16.666666666666668
-100.0   30.0   16.666666666666668
-150.0   60.0   16.666666666666668
-150.0   30.0   33.333333333333336
-100.0   30.0   16.666666666666668
-100.0   60.0   16.666666666666668
-150.0   60.0   16.666666666666668
-100.0   60.0   33.333333333333336
-150.0   30.0   33.333333333333336
-150.0   60.0   33.333333333333336
-100.0   60.0   33.333333333333336
-150.0   60.0   16.666666666666668
-150.0   30.0   33.333333333333336
-100.0   60.0   33.333333333333336
-100.0   30.0   33.333333333333336
-100.0   30.0   16.666666666666668
-150.0   30.0   33.333333333333336
-100.0   60.0   33.333333333333336
-100.0   30.0   16.666666666666668
-150.0   60.0   16.666666666666668
-150.0   30.0   33.333333333333336
-100.0   30.0   33.333333333333336
-150.0   60.0   33.333333333333336
-150.0   30.0   50.0
-100.0   30.0   33.333333333333336
-100.0   60.0   33.333333333333336
-150.0   60.0   33.333333333333336
-100.0   60.0   50.0
-150.0   30.0   50.0
-150.0   60.0   50.0
-100.0   60.0   50.0
-150.0   60.0   33.333333333333336
-150.0   30.0   50.0
-100.0   60.0   50.0
-100.0   30.0   50.0
-100.0   30.0   33.333333333333336
-150.0   30.0   50.0
-100.0   60.0   50.0
-100.0   30.0   33.333333333333336
-150.0   60.0   33.333333333333336
-150.0   60.0   0.0
-100.0   60.0   0.0
-150.0   90.0   0.0
-150.0   60.0   16.666666666666668
-100.0   60.0   0.0
-100.0   90.0   0.0
-150.0   90.0   0.0
-100.0   90.0   16.666666666666668
-150.0   60.0   16.666666666666668
-150.0   90.0   16.666666666666668
-100.0   90.0   16.666666666666668
-150.0   90.0   0.0
-150.0   60.0   16.666666666666668
-100.0   90.0   16.666666666666668
-100.0   60.0   16.666666666666668
-100.0   60.0   0.0
-150.0   60.0   16.666666666666668
-100.0   90.0   16.666666666666668
-100.0   60.0   0.0
-150.0   90.0   0.0
-150.0   60.0   16.666666666666668
-100.0   60.0   16.666666666666668
-150.0   90.0   16.666666666666668
-150.0   60.0   33.333333333333336
-100.0   60.0   16.666666666666668
-100.0   90.0   16.666666666666668
-150.0   90.0   16.666666666666668
-100.0   90.0   33.333333333333336
-150.0   60.0   33.333333333333336
-150.0   90.0   33.333333333333336
-100.0   90.0   33.333333333333336
-150.0   90.0   16.666666666666668
-150.0   60.0   33.333333333333336
-100.0   90.0   33.333333333333336
-100.0   60.0   33.333333333333336
-100.0   60.0   16.666666666666668
-150.0   60.0   33.333333333333336
-100.0   90.0   33.333333333333336
-100.0   60.0   16.666666666666668
-150.0   90.0   16.666666666666668
-150.0   60.0   33.333333333333336
-100.0   60.0   33.333333333333336
-150.0   90.0   33.333333333333336
-150.0   60.0   50.0
-100.0   60.0   33.333333333333336
-100.0   90.0   33.333333333333336
-150.0   90.0   33.333333333333336
-100.0   90.0   50.0
-150.0   60.0   50.0
-150.0   90.0   50.0
-100.0   90.0   50.0
-150.0   90.0   33.333333333333336
-150.0   60.0   50.0
-100.0   90.0   50.0
-100.0   60.0   50.0
-100.0   60.0   33.333333333333336
-150.0   60.0   50.0
-100.0   90.0   50.0
-100.0   60.0   33.333333333333336
-150.0   90.0   33.333333333333336
-150.0   90.0   0.0
-100.0   90.0   0.0
-150.0   120.0   0.0
-150.0   90.0   16.666666666666668
-100.0   90.0   0.0
-100.0   120.0   0.0
-150.0   120.0   0.0
-100.0   120.0   16.666666666666668
-150.0   90.0   16.666666666666668
-150.0   120.0   16.666666666666668
-100.0   120.0   16.666666666666668
-150.0   120.0   0.0
-150.0   90.0   16.666666666666668
-100.0   120.0   16.666666666666668
-100.0   90.0   16.666666666666668
-100.0   90.0   0.0
-150.0   90.0   16.666666666666668
-100.0   120.0   16.666666666666668
-100.0   90.0   0.0
-150.0   120.0   0.0
-150.0   90.0   16.666666666666668
-100.0   90.0   16.666666666666668
-150.0   120.0   16.666666666666668
-150.0   90.0   33.333333333333336
-100.0   90.0   16.666666666666668
-100.0   120.0   16.666666666666668
-150.0   120.0   16.666666666666668
-100.0   120.0   33.333333333333336
-150.0   90.0   33.333333333333336
-150.0   120.0   33.333333333333336
-100.0   120.0   33.333333333333336
-150.0   120.0   16.666666666666668
-150.0   90.0   33.333333333333336
-100.0   120.0   33.333333333333336
-100.0   90.0   33.333333333333336
-100.0   90.0   16.666666666666668
-150.0   90.0   33.333333333333336
-100.0   120.0   33.333333333333336
-100.0   90.0   16.666666666666668
-150.0   120.0   16.666666666666668
-150.0   90.0   33.333333333333336
-100.0   90.0   33.333333333333336
-150.0   120.0   33.333333333333336
-150.0   90.0   50.0
-100.0   90.0   33.333333333333336
-100.0   120.0   33.333333333333336
-150.0   120.0   33.333333333333336
-100.0   120.0   50.0
-150.0   90.0   50.0
-150.0   120.0   50.0
-100.0   120.0   50.0
-150.0   120.0   33.333333333333336
-150.0   90.0   50.0
-100.0   120.0   50.0
-100.0   90.0   50.0
-100.0   90.0   33.333333333333336
-150.0   90.0   50.0
-100.0   120.0   50.0
-100.0   90.0   33.333333333333336
-150.0   120.0   33.333333333333336
-150.0   120.0   0.0
-100.0   120.0   0.0
-150.0   150.0   0.0
-150.0   120.0   16.666666666666668
-100.0   120.0   0.0
-100.0   150.0   0.0
-150.0   150.0   0.0
-100.0   150.0   16.666666666666668
-150.0   120.0   16.666666666666668
-150.0   150.0   16.666666666666668
-100.0   150.0   16.666666666666668
-150.0   150.0   0.0
-150.0   120.0   16.666666666666668
-100.0   150.0   16.666666666666668
-100.0   120.0   16.666666666666668
-100.0   120.0   0.0
-150.0   120.0   16.666666666666668
-100.0   150.0   16.666666666666668
-100.0   120.0   0.0
-150.0   150.0   0.0
-150.0   120.0   16.666666666666668
-100.0   120.0   16.666666666666668
-150.0   150.0   16.666666666666668
-150.0   120.0   33.333333333333336
-100.0   120.0   16.666666666666668
-100.0   150.0   16.666666666666668
-150.0   150.0   16.666666666666668
-100.0   150.0   33.333333333333336
-150.0   120.0   33.333333333333336
-150.0   150.0   33.333333333333336
-100.0   150.0   33.333333333333336
-150.0   150.0   16.666666666666668
-150.0   120.0   33.333333333333336
-100.0   150.0   33.333333333333336
-100.0   120.0   33.333333333333336
-100.0   120.0   16.666666666666668
-150.0   120.0   33.333333333333336
-100.0   150.0   33.333333333333336
-100.0   120.0   16.666666666666668
-150.0   150.0   16.666666666666668
-150.0   120.0   33.333333333333336
-100.0   120.0   33.333333333333336
-150.0   150.0   33.333333333333336
-150.0   120.0   50.0
-100.0   120.0   33.333333333333336
-100.0   150.0   33.333333333333336
-150.0   150.0   33.333333333333336
-100.0   150.0   50.0
-150.0   120.0   50.0
-150.0   150.0   50.0
-100.0   150.0   50.0
-150.0   150.0   33.333333333333336
-150.0   120.0   50.0
-100.0   150.0   50.0
-100.0   120.0   50.0
-100.0   120.0   33.333333333333336
-150.0   120.0   50.0
-100.0   150.0   50.0
-100.0   120.0   33.333333333333336
-150.0   150.0   33.333333333333336
-100.0   0.0   0.0
-50.0   0.0   0.0
-100.0   30.0   0.0
-100.0   0.0   16.666666666666668
-50.0   0.0   0.0
-50.0   30.0   0.0
-100.0   30.0   0.0
-50.0   30.0   16.666666666666668
-100.0   0.0   16.666666666666668
-100.0   30.0   16.666666666666668
-50.0   30.0   16.666666666666668
-100.0   30.0   0.0
-100.0   0.0   16.666666666666668
-50.0   30.0   16.666666666666668
-50.0   0.0   16.666666666666668
-50.0   0.0   0.0
-100.0   0.0   16.666666666666668
-50.0   30.0   16.666666666666668
-50.0   0.0   0.0
-100.0   30.0   0.0
-100.0   0.0   16.666666666666668
-50.0   0.0   16.666666666666668
-100.0   30.0   16.666666666666668
-100.0   0.0   33.333333333333336
-50.0   0.0   16.666666666666668
-50.0   30.0   16.666666666666668
-100.0   30.0   16.666666666666668
-50.0   30.0   33.333333333333336
-100.0   0.0   33.333333333333336
-100.0   30.0   33.333333333333336
-50.0   30.0   33.333333333333336
-100.0   30.0   16.666666666666668
-100.0   0.0   33.333333333333336
-50.0   30.0   33.333333333333336
-50.0   0.0   33.333333333333336
-50.0   0.0   16.666666666666668
-100.0   0.0   33.333333333333336
-50.0   30.0   33.333333333333336
-50.0   0.0   16.666666666666668
-100.0   30.0   16.666666666666668
-100.0   0.0   33.333333333333336
-50.0   0.0   33.333333333333336
-100.0   30.0   33.333333333333336
-100.0   0.0   50.0
-50.0   0.0   33.333333333333336
-50.0   30.0   33.333333333333336
-100.0   30.0   33.333333333333336
-50.0   30.0   50.0
-100.0   0.0   50.0
-100.0   30.0   50.0
-50.0   30.0   50.0
-100.0   30.0   33.333333333333336
-100.0   0.0   50.0
-50.0   30.0   50.0
-50.0   0.0   50.0
-50.0   0.0   33.333333333333336
-100.0   0.0   50.0
-50.0   30.0   50.0
-50.0   0.0   33.333333333333336
-100.0   30.0   33.333333333333336
-100.0   30.0   0.0
-50.0   30.0   0.0
-100.0   60.0   0.0
-100.0   30.0   16.666666666666668
-50.0   30.0   0.0
-50.0   60.0   0.0
-100.0   60.0   0.0
-50.0   60.0   16.666666666666668
-100.0   30.0   16.666666666666668
-100.0   60.0   16.666666666666668
-50.0   60.0   16.666666666666668
-100.0   60.0   0.0
-100.0   30.0   16.666666666666668
-50.0   60.0   16.666666666666668
-50.0   30.0   16.666666666666668
-50.0   30.0   0.0
-100.0   30.0   16.666666666666668
-50.0   60.0   16.666666666666668
-50.0   30.0   0.0
-100.0   60.0   0.0
-100.0   30.0   16.666666666666668
-50.0   30.0   16.666666666666668
-100.0   60.0   16.666666666666668
-100.0   30.0   33.333333333333336
-50.0   30.0   16.666666666666668
-50.0   60.0   16.666666666666668
-100.0   60.0   16.666666666666668
-50.0   60.0   33.333333333333336
-100.0   30.0   33.333333333333336
-100.0   60.0   33.333333333333336
-50.0   60.0   33.333333333333336
-100.0   60.0   16.666666666666668
-100.0   30.0   33.333333333333336
-50.0   60.0   33.333333333333336
-50.0   30.0   33.333333333333336
-50.0   30.0   16.666666666666668
-100.0   30.0   33.333333333333336
-50.0   60.0   33.333333333333336
-50.0   30.0   16.666666666666668
-100.0   60.0   16.666666666666668
-100.0   30.0   33.333333333333336
-50.0   30.0   33.333333333333336
-100.0   60.0   33.333333333333336
-100.0   30.0   50.0
-50.0   30.0   33.333333333333336
-50.0   60.0   33.333333333333336
-100.0   60.0   33.333333333333336
-50.0   60.0   50.0
-100.0   30.0   50.0
-100.0   60.0   50.0
-50.0   60.0   50.0
-100.0   60.0   33.333333333333336
-100.0   30.0   50.0
-50.0   60.0   50.0
-50.0   30.0   50.0
-50.0   30.0   33.333333333333336
-100.0   30.0   50.0
-50.0   60.0   50.0
-50.0   30.0   33.333333333333336
-100.0   60.0   33.333333333333336
-100.0   60.0   0.0
-50.0   60.0   0.0
-100.0   90.0   0.0
-100.0   60.0   16.666666666666668
-50.0   60.0   0.0
-50.0   90.0   0.0
-100.0   90.0   0.0
-50.0   90.0   16.666666666666668
-100.0   60.0   16.666666666666668
-100.0   90.0   16.666666666666668
-50.0   90.0   16.666666666666668
-100.0   90.0   0.0
-100.0   60.0   16.666666666666668
-50.0   90.0   16.666666666666668
-50.0   60.0   16.666666666666668
-50.0   60.0   0.0
-100.0   60.0   16.666666666666668
-50.0   90.0   16.666666666666668
-50.0   60.0   0.0
-100.0   90.0   0.0
-100.0   60.0   16.666666666666668
-50.0   60.0   16.666666666666668
-100.0   90.0   16.666666666666668
-100.0   60.0   33.333333333333336
-50.0   60.0   16.666666666666668
-50.0   90.0   16.666666666666668
-100.0   90.0   16.666666666666668
-50.0   90.0   33.333333333333336
-100.0   60.0   33.333333333333336
-100.0   90.0   33.333333333333336
-50.0   90.0   33.333333333333336
-100.0   90.0   16.666666666666668
-100.0   60.0   33.333333333333336
-50.0   90.0   33.333333333333336
-50.0   60.0   33.333333333333336
-50.0   60.0   16.666666666666668
-100.0   60.0   33.333333333333336
-50.0   90.0   33.333333333333336
-50.0   60.0   16.666666666666668
-100.0   90.0   16.666666666666668
-100.0   60.0   33.333333333333336
-50.0   60.0   33.333333333333336
-100.0   90.0   33.333333333333336
-100.0   60.0   50.0
-50.0   60.0   33.333333333333336
-50.0   90.0   33.333333333333336
-100.0   90.0   33.333333333333336
-50.0   90.0   50.0
-100.0   60.0   50.0
-100.0   90.0   50.0
-50.0   90.0   50.0
-100.0   90.0   33.333333333333336
-100.0   60.0   50.0
-50.0   90.0   50.0
-50.0   60.0   50.0
-50.0   60.0   33.333333333333336
-100.0   60.0   50.0
-50.0   90.0   50.0
-50.0   60.0   33.333333333333336
-100.0   90.0   33.333333333333336
-100.0   90.0   0.0
-50.0   90.0   0.0
-100.0   120.0   0.0
-100.0   90.0   16.666666666666668
-50.0   90.0   0.0
-50.0   120.0   0.0
-100.0   120.0   0.0
-50.0   120.0   16.666666666666668
-100.0   90.0   16.666666666666668
-100.0   120.0   16.666666666666668
-50.0   120.0   16.666666666666668
-100.0   120.0   0.0
-100.0   90.0   16.666666666666668
-50.0   120.0   16.666666666666668
-50.0   90.0   16.666666666666668
-50.0   90.0   0.0
-100.0   90.0   16.666666666666668
-50.0   120.0   16.666666666666668
-50.0   90.0   0.0
-100.0   120.0   0.0
-100.0   90.0   16.666666666666668
-50.0   90.0   16.666666666666668
-100.0   120.0   16.666666666666668
-100.0   90.0   33.333333333333336
-50.0   90.0   16.666666666666668
-50.0   120.0   16.666666666666668
-100.0   120.0   16.666666666666668
-50.0   120.0   33.333333333333336
-100.0   90.0   33.333333333333336
-100.0   120.0   33.333333333333336
-50.0   120.0   33.333333333333336
-100.0   120.0   16.666666666666668
-100.0   90.0   33.333333333333336
-50.0   120.0   33.333333333333336
-50.0   90.0   33.333333333333336
-50.0   90.0   16.666666666666668
-100.0   90.0   33.333333333333336
-50.0   120.0   33.333333333333336
-50.0   90.0   16.666666666666668
-100.0   120.0   16.666666666666668
-100.0   90.0   33.333333333333336
-50.0   90.0   33.333333333333336
-100.0   120.0   33.333333333333336
-100.0   90.0   50.0
-50.0   90.0   33.333333333333336
-50.0   120.0   33.333333333333336
-100.0   120.0   33.333333333333336
-50.0   120.0   50.0
-100.0   90.0   50.0
-100.0   120.0   50.0
-50.0   120.0   50.0
-100.0   120.0   33.333333333333336
-100.0   90.0   50.0
-50.0   120.0   50.0
-50.0   90.0   50.0
-50.0   90.0   33.333333333333336
-100.0   90.0   50.0
-50.0   120.0   50.0
-50.0   90.0   33.333333333333336
-100.0   120.0   33.333333333333336
-100.0   120.0   0.0
-50.0   120.0   0.0
-100.0   150.0   0.0
-100.0   120.0   16.666666666666668
-50.0   120.0   0.0
-50.0   150.0   0.0
-100.0   150.0   0.0
-50.0   150.0   16.666666666666668
-100.0   120.0   16.666666666666668
-100.0   150.0   16.666666666666668
-50.0   150.0   16.666666666666668
-100.0   150.0   0.0
-100.0   120.0   16.666666666666668
-50.0   150.0   16.666666666666668
-50.0   120.0   16.666666666666668
-50.0   120.0   0.0
-100.0   120.0   16.666666666666668
-50.0   150.0   16.666666666666668
-50.0   120.0   0.0
-100.0   150.0   0.0
-100.0   120.0   16.666666666666668
-50.0   120.0   16.666666666666668
-100.0   150.0   16.666666666666668
-100.0   120.0   33.333333333333336
-50.0   120.0   16.666666666666668
-50.0   150.0   16.666666666666668
-100.0   150.0   16.666666666666668
-50.0   150.0   33.333333333333336
-100.0   120.0   33.333333333333336
-100.0   150.0   33.333333333333336
-50.0   150.0   33.333333333333336
-100.0   150.0   16.666666666666668
-100.0   120.0   33.333333333333336
-50.0   150.0   33.333333333333336
-50.0   120.0   33.333333333333336
-50.0   120.0   16.666666666666668
-100.0   120.0   33.333333333333336
-50.0   150.0   33.333333333333336
-50.0   120.0   16.666666666666668
-100.0   150.0   16.666666666666668
-100.0   120.0   33.333333333333336
-50.0   120.0   33.333333333333336
-100.0   150.0   33.333333333333336
-100.0   120.0   50.0
-50.0   120.0   33.333333333333336
-50.0   150.0   33.333333333333336
-100.0   150.0   33.333333333333336
-50.0   150.0   50.0
-100.0   120.0   50.0
-100.0   150.0   50.0
-50.0   150.0   50.0
-100.0   150.0   33.333333333333336
-100.0   120.0   50.0
-50.0   150.0   50.0
-50.0   120.0   50.0
-50.0   120.0   33.333333333333336
-100.0   120.0   50.0
-50.0   150.0   50.0
-50.0   120.0   33.333333333333336
-100.0   150.0   33.333333333333336
-50.0   0.0   0.0
0.0   0.0   0.0
-50.0   30.0   0.0
-50.0   0.0   16.666666666666668
0.0   0.0   0.0
0.0   30.0   0.0
-50.0   30.0   0.0
0.0   30.0   16.666666666666668
-50.0   0.0   16.666666666666668
-50.0   30.0   16.666666666666668
0.0   30.0   16.666666666666668
-50.0   30.0   0.0
-50.0   0.0   16.666666666666668
0.0   30.0   16.666666666666668
0.0   0.0   16.666666666666668
0.0   0.0   0.0
-50.0   0.0   16.666666666666668
0.0   30.0   16.666666666666668
0.0   0.0   0.0
-50.0   30.0   0.0
-50.0   0.0   16.666666666666668
0.0   0.0   16.666666666666668
-50.0   30.0   16.666666666666668
-50.0   0.0   33.333333333333336
0.0   0.0   16.666666666666668
0.0   30.0   16.666666666666668
-50.0   30.0   16.666666666666668
0.0   30.0   33.333333333333336
-50.0   0.0   33.333333333333336
-50.0   30.0   33.333333333333336
0.0   30.0   33.333333333333336
-50.0   30.0   16.666666666666668
-50.0   0.0   33.333333333333336
0.0   30.0   33.333333333333336
0.0   0.0   33.333333333333336
0.0   0.0   16.666666666666668
-50.0   0.0   33.333333333333336
0.0   30.0   33.333333333333336
0.0   0.0   16.666666666666668
-50.0   30.0   16.666666666666668
-50.0   0.0   33.333333333333336
0.0   0.0   33.333333333333336
-50.0   30.0   33.333333333333336
-50.0   0.0   50.0
0.0   0.0   33.333333333333336
0.0   30.0   33.333333333333336
-50.0   30.0   33.333333333333336
0.0   30.0   50.0
-50.0   0.0   50.0
-50.0   30.0   50.0
0.0   30.0   50.0
-50.0   30.0   33.333333333333336
-50.0   0.0   50.0
0.0   30.0   50.0
0.0   0.0   50.0
0.0   0.0   33.333333333333336
-50.0   0.0   50.0
0.0   30.0   50.0
0.0   0.0   33.333333333333336
-50.0   30.0   33.333333333333336
-50.0   30.0   0.0
0.0   30.0   0.0
-50.0   60.0   0.0
-50.0   30.0   16.666666666666668
0.0   30.0   0.0
0.0   60.0   0.0
-50.0   60.0   0.0
0.0   60.0   16.666666666666668
-50.0   30.0   16.666666666666668
-50.0   60.0   16.666666666666668
0.0   60.0   16.666666666666668
-50.0   60.0   0.0
-50.0   30.0   16.666666666666668
0.0   60.0   16.666666666666668
0.0   30.0   16.666666666666668
0.0   30.0   0.0
-50.0   30.0   16.666666666666668
0.0   60.0   16.666666666666668
0.0   30.0   0.0
-50.0   60.0   0.0
-50.0   30.0   16.666666666666668
0.0   30.0   16.666666666666668
-50.0   60.0   16.666666666666668
-50.0   30.0   33.333333333333336
0.0   30.0   16.666666666666668
0.0   60.0   16.666666666666668
-50.0   60.0   16.666666666666668
0.0   60.0   33.333333333333336
-50.0   30.0   33.333333333333336
-50.0   60.0   33.333333333333336
0.0   60.0   33.333333333333336
-50.0   60.0   16.666666666666668
-50.0   30.0   33.333333333333336
0.0   60.0   33.333333333333336
0.0   30.0   33.333333333333336
0.0   30.0   16.666666666666668
-50.0   30.0   33.333333333333336
0.0   60.0   33.333333333333336
0.0   30.0   16.666666666666668
-50.0   60.0   16.666666666666668
-50.0   30.0   33.333333333333336
0.0   30.0   33.333333333333336
-50.0   60.0   33.333333333333336
-50.0   30.0   50.0
0.0   30.0   33.333333333333336
0.0   60.0   33.333333333333336
-50.0   60.0   33.333333333333336
0.0   60.0   50.0
-50.0   30.0   50.0
-50.0   60.0   50.0
0.0   60.0   50.0
-50.0   60.0   33.333333333333336
-50.0   30.0   50.0
0.0   60.0   50.0
0.0   30.0   50.0
0.0   30.0   33.333333333333336
-50.0   30.0   50.0
0.0   60.0   50.0
0.0   30.0   33.333333333333336
-50.0   60.0   33.333333333333336
-50.0   60.0   0.0
0.0   60.0   0.0
-50.0   90.0   0.0
-50.0   60.0   16.666666666666668
0.0   60.0   0.0
0.0   90.0   0.0
-50.0   90.0   0.0
0.0   90.0   16.666666666666668
-50.0   60.0   16.666666666666668
-50.0   90.0   16.666666666666668
0.0   90.0   16.666666666666668
-50.0   90.0   0.0
-50.0   60.0   16.666666666666668
0.0   90.0   16.666666666666668
0.0   60.0   16.666666666666668
0.0   60.0   0.0
-50.0   60.0   16.666666666666668
0.0   90.0   16.666666666666668
0.0   60.0   0.0
-50.0   90.0   0.0
-50.0   60.0   16.666666666666668
0.0   60.0   16.666666666666668
-50.0   90.0   16.666666666666668
-50.0   60.0   33.333333333333336
0.0   60.0   16.666666666666668
0.0   90.0   16.666666666666668
-50.0   90.0   16.666666666666668
0.0   90.0   33.333333333333336
-50.0   60.0   33.333333333333336
-50.0   90.0   33.333333333333336
0.0   90.0   33.333333333333336
-50.0   90.0   16.666666666666668
-50.0   60.0   33.333333333333336
0.0   90.0   33.333333333333336
0.0   60.0   33.333333333333336
0.0   60.0   16.666666666666668
-50.0   60.0   33.333333333333336
0.0   90.0   33.333333333333336
0.0   60.0   16.666666666666668
-50.0   90.0   16.666666666666668
-50.0   60.0   33.333333333333336
0.0   60.0   33.333333333333336
-50.0   90.0   33.333333333333336
-50.0   60.0   50.0
0.0   60.0   33.333333333333336
0.0   90.0   33.333333333333336
-50.0   90.0   33.333333333333336
0.0   90.0   50.0
-50.0   60.0   50.0
-50.0   90.0   50.0
0.0   90.0   50.0
-50.0   90.0   33.333333333333336
-50.0   60.0   50.0
0.0   90.0   50.0
0.0   60.0   50.0
0.0   60.0   33.333333333333336
-50.0   60.0   50.0
0.0   90.0   50.0
0.0   60.0   33.333333333333336
-50.0   90.0   33.333333333333336
-50.0   90.0   0.0
0.0   90.0   0.0
-50.0   120.0   0.0
-50.0   90.0   16.666666666666668
0.0   90.0   0.0
0.0   120.0   0.0
-50.0   120.0   0.0
0.0   120.0   16.666666666666668
-50.0   90.0   16.666666666666668
-50.0   120.0   16.666666666666668
0.0   120.0   16.666666666666668
-50.0   120.0   0.0
-50.0   90.0   16.666666666666668
0.0   120.0   16.666666666666668
0.0   90.0   16.666666666666668
0.0   90.0   0.0
-50.0   90.0   16.666666666666668
0.0   120.0   16.666666666666668
0.0   90.0   0.0
-50.0   120.0   0.0
-50.0   90.0   16.666666666666668
0.0   90.0   16.666666666666668
-50.0   120.0   16.666666666666668
-50.0   90.0   33.333333333333336
0.0   90.0   16.666666666666668
0.0   120.0   16.666666666666668
-50.0   120.0   16.666666666666668
0.0   120.0   33.333333333333336
-50.0   90.0   33.333333333333336
-50.0   120.0   33.333333333333336
0.0   120.0   33.333333333333336
-50.0   120.0   16.666666666666668
-50.0   90.0   33.333333333333336
0.0   120.0   33.333333333333336
0.0   90.0   33.333333333333336
0.0   90.0   16.666666666666668
-50.0   90.0   33.333333333333336
0.0   120.0   33.333333333333336
0.0   90.0   16.666666666666668
-50.0   120.0   16.666666666666668
-50.0   90.0   33.333333333333336
0.0   90.0   33.333333333333336
-50.0   120.0   33.333333333333336
-50.0   90.0   50.0
0.0   90.0   33.333333333333336
0.0   120.0   33.333333333333336
-50.0   120.0   33.333333333333336
0.0   120.0   50.0
-50.0   90.0   50.0
-50.0   120.0   50.0
0.0   120.0   50.0
-50.0   120.0   33.333333333333336
-50.0   90.0   50.0
0.0   120.0   50.0
0.0   90.0   50.0
0.0   90.0   33.333333333333336
-50.0   90.0   50.0
0.0   120.0   50.0
0.0   90.0   33.333333333333336
-50.0   120.0   33.333333333333336
-50.0   120.0   0.0
0.0   120.0   0.0
-50.0   150.0   0.0
-50.0   120.0   16.666666666666668
0.0   120.0   0.0
0.0   150.0   0.0
-50.0   150.0   0.0
0.0   150.0   16.666666666666668
-50.0   120.0   16.666666666666668
-50.0   150.0   16.666666666666668
0.0   150.0   16.666666666666668
-50.0   150.0   0.0
-50.0   120.0   16.666666666666668
0.0   150.0   16.666666666666668
0.0   120.0   16.666666666666668
0.0   120.0   0.0
-50.0   120.0   16.666666666666668
0.0   150.0   16.666666666666668
0.0   120.0   0.0
-50.0   150.0   0.0
-50.0   120.0   16.666666666666668
0.0   120.0   16.666666666666668
-50.0   150.0   16.666666666666668
-50.0   120.0   33.333333333333336
0.0   120.0   16.666666666666668
0.0   150.0   16.666666666666668
-50.0   150.0   16.666666666666668
0.0   150.0   33.333333333333336
-50.0   120.0   33.333333333333336
-50.0   150.0   33.333333333333336
0.0   150.0   33.333333333333336
-50.0   150.0   16.666666666666668
-50.0   120.0   33.333333333333336
0.0   150.0   33.333333333333336
0.0   120.0   33.333333333333336
0.0   120.0   16.666666666666668
-50.0   120.0   33.333333333333336
0.0   150.0   33.333333333333336
0.0   120.0   16.666666666666668
-50.0   150.0   16.666666666666668
-50.0   120.0   33.333333333333336
0.0   120.0   33.333333333333336
-50.0   150.0   33.333333333333336
-50.0   120.0   50.0
0.0   120.0   33.333333333333336
0.0   150.0   33.333333333333336
-50.0   150.0   33.333333333333336
0.0   150.0   50.0
-50.0   120.0   50.0
-50.0   150.0   50.0
0.0   150.0   50.0
-50.0   150.0   33.333333333333336
-50.0   120.0   50.0
0.0   150.0   50.0
0.0   120.0   50.0
0.0   120.0   33.333333333333336
-50.0   120.0   50.0
0.0   150.0   50.0
0.0   120.0   33.333333333333336
-50.0   150.0   33.333333333333336
0.0   0.0   0.0
50.0   0.0   0.0
0.0   30.0   0.0
0.0   0.0   16.666666666666668
50.0   0.0   0.0
50.0   30.0   0.0
0.0   30.0   0.0
50.0   30.0   16.666666666666668
0.0   0.0   16.666666666666668
0.0   30.0   16.666666666666668
50.0   30.0   16.666666666666668
0.0   30.0   0.0
0.0   0.0   16.666666666666668
50.0   30.0   16.666666666666668
50.0   0.0   16.666666666666668
50.0   0.0   0.0
0.0   0.0   16.666666666666668
50.0   30.0   16.666666666666668
50.0   0.0   0.0
0.0   30.0   0.0
0.0   0.0   16.666666666666668
50.0   0.0   16.666666666666668
0.0   30.0   16.666666666666668
0.0   0.0   33.333333333333336
50.0   0.0   16.666666666666668
50.0   30.0   16.666666666666668
0.0   30.0   16.666666666666668
50.0   30.0   33.333333333333336
0.0   0.0   33.333333333333336
0.0   30.0   33.333333333333336
50.0   30.0   33.333333333333336
0.0   30.0   16.666666666666668
0.0   0.0   33.333333333333336
50.0   30.0   33.333333333333336
50.0   0.0   33.333333333333336
50.0   0.0   16.666666666666668
0.0   0.0   33.333333333333336
50.0   30.0   33.333333333333336
50.0   0.0   16.666666666666668
0.0   30.0   16.666666666666668
0.0   0.0   33.333333333333336
50.0   0.0   33.333333333333336
0.0   30.0   33.333333333333336
0.0   0.0   50.0
50.0   0.0   33.333333333333336
50.0   30.0   33.333333333333336
0.0   30.0   33.333333333333336
50.0   30.0   50.0
0.0   0.0   50.0
0.0   30.0   50.0
50.0   30.0   50.0
0.0   30.0   33.333333333333336
0.0   0.0   50.0
50.0   30.0   50.0
50.0   0.0   50.0
50.0   0.0   33.333333333333336
0.0   0.0   50.0
50.0   30.0   50.0
50.0   0.0   33.333333333333336
0.0   30.0   33.333333333333336
0.0   30.0   0.0
50.0   30.0   0.0
0.0   60.0   0.0
0.0   30.0   16.666666666666668
50.0   30.0   0.0
50.0   60.0   0.0
0.0   60.0   0.0
50.0   60.0   16.666666666666668
0.0   30.0   16.666666666666668
0.0   60.0   16.666666666666668
50.0   60.0   16.666666666666668
0.0   60.0   0.0
0.0   30.0   16.666666666666668
50.0   60.0   16.666666666666668
50.0   30.0   16.666666666666668
50.0   30.0   0.0
0.0   30.0   16.666666666666668
50.0   60.0   16.666666666666668
50.0   30.0   0.0
0.0   60.0   0.0
0.0   30.0   16.666666666666668
50.0   30.0   16.666666666666668
0.0   60.0   16.666666666666668
0.0   30.0   33.333333333333336
50.0   30.0   16.666666666666668
50.0   60.0   16.666666666666668
0.0   60.0   16.666666666666668
50.0   60.0   33.333333333333336
0.0   30.0   33.333333333333336
0.0   60.0   33.333333333333336
50.0   60.0   33.333333333333336
0.0   60.0   16.666666666666668
0.0   30.0   33.333333333333336
50.0   60.0   33.333333333333336
50.0   30.0   33.333333333333336
50.0   30.0   16.666666666666668
0.0   30.0   33.333333333333336
50.0   60.0   33.333333333333336
50.0   30.0   16.666666666666668
0.0   60.0   16.666666666666668
0.0   30.0   33.333333333333336
50.0   30.0   33.333333333333336
0.0   60.0   33.333333333333336
0.0   30.0   50.0
50.0   30.0   33.333333333333336
50.0   60.0   33.333333333333336
0.0   60.0   33.333333333333336
50.0   60.0   50.0
0.0   30.0   50.0
0.0   60.0   50.0
50.0   60.0   50.0
0.0   60.0   33.333333333333336
0.0   30.0   50.0
50.0   60.0   50.0
50.0   30.0   50.0
50.0   30.0   33.333333333333336
0.0   30.0   50.0
50.0   60.0   50.0
50.0   30.0   33.333333333333336
0.0   60.0   33.333333333333336
0.0   60.0   0.0
50.0   60.0   0.0
0.0   90.0   0.0
0.0   60.0   16.666666666666668
50.0   60.0   0.0
50.0   90.0   0.0
0.0   90.0   0.0
50.0   90.0   16.666666666666668
0.0   60.0   16.666666666666668
0.0   90.0   16.666666666666668
50.0   90.0   16.666666666666668
0.0   90.0   0.0
0.0   60.0   16.666666666666668
50.0   90.0   16.666666666666668
50.0   60.0   16.666666666666668
50.0   60.0   0.0
0.0   60.0   16.666666666666668
50.0   90.0   16.666666666666668
50.0   60.0   0.0
0.0   90.0   0.0
0.0   60.0   16.666666666666668
50.0   60.0   16.666666666666668
0.0   90.0   16.666666666666668
0.0   60.0   33.333333333333336
50.0   60.0   16.666666666666668
50.0   90.0   16.666666666666668
0.0   90.0   16.666666666666668
50.0   90.0   33.333333333333336
0.0   60.0   33.333333333333336
0.0   90.0   33.333333333333336
50.0   90.0   33.333333333333336
0.0   90.0   16.666666666666668
0.0   60.0   33.333333333333336
50.0   90.0   33.333333333333336
50.0   60.0   33.333333333333336
50.0   60.0   16.666666666666668
0.0   60.0   33.333333333333336
50.0   90.0   33.333333333333336
50.0   60.0   16.666666666666668
0.0   90.0   16.666666666666668
0.0   60.0   33.333333333333336
50.0   60.0   33.333333333333336
0.0   90.0   33.333333333333336
0.0   60.0   50.0
50.0   60.0   33.333333333333336
50.0   90.0   33.333333333333336
0.0   90.0   33.333333333333336
50.0   90.0   50.0
0.0   60.0   50.0
0.0   90.0   50.0
50.0   90.0   50.0
0.0   90.0   33.333333333333336
0.0   60.0   50.0
50.0   90.0   50.0
50.0   60.0   50.0
50.0   60.0   33.333333333333336
0.0   60.0   50.0
50.0   90.0   50.0
50.0   60.0   33.333333333333336
0.0   90.0   33.333333333333336
0.0   90.0   0.0
50.0   90.0   0.0
0.0   120.0   0.0
0.0   90.0   16.666666666666668
50.0   90.0   0.0
50.0   120.0   0.0
0.0   120.0   0.0
50.0   120.0   16.666666666666668
0.0   90.0   16.666666666666668
0.0   120.0   16.666666666666668
50.0   120.0   16.666666666666668
0.0   120.0   0.0
0.0   90.0   16.666666666666668
50.0   120.0   16.666666666666668
50.0   90.0   16.666666666666668
50.0   90.0   0.0
0.0   90.0   16.666666666666668
50.0   120.0   16.666666666666668
50.0   90.0   0.0
0.0   120.0   0.0
0.0   90.0   16.666666666666668
50.0   90.0   16.666666666666668
0.0   120.0   16.666666666666668
0.0   90.0   33.333333333333336
50.0   90.0   16.666666666666668
50.0   120.0   16.666666666666668
0.0   120.0   16.666666666666668
50.0   120.0   33.333333333333336
0.0   90.0   33.333333333333336
0.0   120.0   33.333333333333336
50.0   120.0   33.333333333333336
0.0   120.0   16.666666666666668
0.0   90.0   33.333333333333336
50.0   120.0   33.333333333333336
50.0   90.0   33.333333333333336
50.0   90.0   16.666666666666668
0.0   90.0   33.333333333333336
50.0   120.0   33.333333333333336
50.0   90.0   16.666666666666668
0.0   120.0   16.666666666666668
0.0   90.0   33.333333333333336
50.0   90.0   33.333333333333336
0.0   120.0   33.333333333333336
0.0   90.0   50.0
50.0   90.0   33.333333333333336
50.0   120.0   33.333333333333336
0.0   120.0   33.333333333333336
50.0   120.0   50.0
0.0   90.0   50.0
0.0   120.0   50.0
50.0   120.0   50.0
0.0   120.0   33.333333333333336
0.0   90.0   50.0
50.0   120.0   50.0
50.0   90.0   50.0
50.0   90.0   33.333333333333336
0.0   90.0   50.0
50.0   120.0   50.0
50.0   90.0   33.333333333333336
0.0   120.0   33.333333333333336
0.0   120.0   0.0
50.0   120.0   0.0
0.0   150.0   0.0
0.0   120.0   16.666666666666668
50.0   120.0   0.0
50.0   150.0   0.0
0.0   150.0   0.0
50.0   150.0   16.666666666666668
0.0   120.0   16.666666666666668
0.0   150.0   16.666666666666668
50.0   150.0   16.666666666666668
0.0   150.0   0.0
0.0   120.0   16.666666666666668
50.0   150.0   16.666666666666668
50.0   120.0   16.666666666666668
50.0   120.0   0.0
0.0   120.0   16.666666666666668
50.0   150.0   16.666666666666668
50.0   120.0   0.0
0.0   150.0   0.0
0.0   120.0   16.666666666666668
50.0   120.0   16.666666666666668
0.0   150.0   16.666666666666668
0.0   120.0   33.333333333333336
50.0   120.0   16.666666666666668
50.0   150.0   16.666666666666668
0.0   150.0   16.666666666666668
50.0   150.0   33.333333333333336
0.0   120.0   33.333333333333336
0.0   150.0   33.333333333333336
50.0   150.0   33.333333333333336
0.0   150.0   16.666666666666668
0.0   120.0   33.333333333333336
50.0   150.0   33.333333333333336
50.0   120.0   33.333333333333336
50.0   120.0   16.666666666666668
0.0   120.0   33.333333333333336
50.0   150.0   33.333333333333336
50.0   120.0   16.666666666666668
0.0   150.0   16.666666666666668
0.0   120.0   33.333333333333336
50.0   120.0   33.333333333333336
0.0   150.0   33.333333333333336
0.0   120.0   50.0
50.0   120.0   33.333333333333336
50.0   150.0   33.333333333333336
0.0   150.0   33.333333333333336
50.0   150.0   50.0
0.0   120.0   50.0
0.0   150.0   50.0
50.0   150.0   50.0
0.0   150.0   33.333333333333336
0.0   120.0   50.0
50.0   150.0   50.0
50.0   120.0   50.0
50.0   120.0   33.333333333333336
0.0   120.0   50.0
50.0   150.0   50.0
50.0   120.0   33.333333333333336
0.0   150.0   33.333333333333336
50.0   0.0   0.0
100.0   0.0   0.0
50.0   30.0   0.0
50.0   0.0   16.666666666666668
100.0   0.0   0.0
100.0   30.0   0.0
50.0   30.0   0.0
100.0   30.0   16.666666666666668
50.0   0.0   16.666666666666668
50.0   30.0   16.666666666666668
100.0   30.0   16.666666666666668
50.0   30.0   0.0
50.0   0.0   16.666666666666668
100.0   30.0   16.666666666666668
100.0   0.0   16.666666666666668
100.0   0.0   0.0
50.0   0.0   16.666666666666668
100.0   30.0   16.666666666666668
100.0   0.0   0.0
50.0   30.0   0.0
50.0   0.0   16.666666666666668
100.0   0.0   16.666666666666668
50.0   30.0   16.666666666666668
50.0   0.0   33.333333333333336
100.0   0.0   16.666666666666668
100.0   30.0   16.666666666666668
50.0   30.0   16.666666666666668
100.0   30.0   33.333333333333336
50.0   0.0   33.333333333333336
50.0   30.0   33.333333333333336
100.0   30.0   33.333333333333336
50.0   30.0   16.666666666666668
50.0   0.0   33.333333333333336
100.0   30.0   33.333333333333336
100.0   0.0   33.333333333333336
100.0   0.0   16.666666666666668
50.0   0.0   33.333333333333336
100.0   30.0   33.333333333333336
100.0   0.0   16.666666666666668
50.0   30.0   16.666666666666668
50.0   0.0   33.333333333333336
100.0   0.0   33.333333333333336
50.0   30.0   33.333333333333336
50.0   0.0   50.0
100.0   0.0   33.333333333333336
100.0   30.0   33.333333333333336
50.0   30.0   33.333333333333336
100.0   30.0   50.0
50.0   0.0   50.0
50.0   30.0   50.0
100.0   30.0   50.0
50.0   30.0   33.333333333333336
50.0   0.0   50.0
100.0   30.0   50.0
100.0   0.0   50.0
100.0   0.0   33.333333333333336
50.0   0.0   50.0
100.0   30.0   50.0
100.0   0.0   33.333333333333336
50.0   30.0   33.333333333333336
50.0   30.0   0.0
100.0   30.0   0.0
50.0   60.0   0.0
50.0   30.0   16.666666666666668
100.0   30.0   0.0
100.0   60.0   0.0
50.0   60.0   0.0
100.0   60.0   16.666666666666668
50.0   30.0   16.666666666666668
50.0   60.0   16.666666666666668
100.0   60.0   16.666666666666668
50.0   60.0   0.0
50.0   30.0   16.666666666666668
100.0   60.0   16.666666666666668
100.0   30.0   16.666666666666668
100.0   30.0   0.0
50.0   30.0   16.666666666666668
100.0   60.0   16.666666666666668
100.0   30.0   0.0
50.0   60.0   0.0
50.0   30.0   16.666666666666668
100.0   30.0   16.666666666666668
50.0   60.0   16.666666666666668
50.0   30.0   33.333333333333336
100.0   30.0   16.666666666666668
100.0   60.0   16.666666666666668
50.0   60.0   16.666666666666668
100.0   60.0   33.333333333333336
50.0   30.0   33.333333333333336
50.0   60.0   33.333333333333336
100.0   60.0   33.333333333333336
50.0   60.0   16.666666666666668
50.0   30.0   33.333333333333336
100.0   60.0   33.333333333333336
100.0   30.0   33.333333333333336
100.0   30.0   16.666666666666668
50.0   30.0   33.333333333333336
100.0   60.0   33.333333333333336
100.0   30.0   16.666666666666668
50.0   60.0   16.666666666666668
50.0   30.0   33.333333333333336
100.0   30.0   33.333333333333336
50.0   60.0   33.333333333333336
50.0   30.0   50.0
100.0   30.0   33.333333333333336
100.0   60.0   33.333333333333336
50.0   60.0   33.333333333333336
100.0   60.0   50.0
50.0   30.0   50.0
50.0   60.0   50.0
100.0   60.0   50.0
50.0   60.0   33.333333333333336
50.0   30.0   50.0
100.0   60.0   50.0
100.0   30.0   50.0
100.0   30.0   33.333333333333336
50.0   30.0   50.0
100.0   60.0   50.0
100.0   30.0   33.333333333333336
50.0   60.0   33.333333333333336
50.0   60.0   0.0
100.0   60.0   0.0
50.0   90.0   0.0
50.0   60.0   16.666666666666668
100.0   60.0   0.0
100.0   90.0   0.0
50.0   90.0   0.0
100.0   90.0   16.666666666666668
50.0   60.0   16.666666666666668
50.0   90.0   16.666666666666668
100.0   90.0   16.666666666666668
50.0   90.0   0.0
50.0   60.0   16.666666666666668
100.0   90.0   16.666666666666668
100.0   60.0   16.666666666666668
100.0   60.0   0.0
50.0   60.0   16.666666666666668
100.0   90.0   16.666666666666668
100.0   60.0   0.0
50.0   90.0   0.0
50.0   60.0   16.666666666666668
100.0   60.0   16.666666666666668
50.0   90.0   16.666666666666668
50.0   60.0   33.333333333333336
100.0   60.0   16.666666666666668
100.0   90.0   16.666666666666668
50.0   90.0   16.666666666666668
100.0   90.0   33.333333333333336
50.0   60.0   33.333333333333336
50.0   90.0   33.333333333333336
100.0   90.0   33.333333333333336
50.0   90.0   16.666666666666668
50.0   60.0   33.333333333333336
100.0   90.0   33.333333333333336
100.0   60.0   33.333333333333336
100.0   60.0   16.666666666666668
50.0   60.0   33.333333333333336
100.0   90.0   33.333333333333336
100.0   60.0   16.666666666666668
50.0   90.0   16.666666666666668
50.0   60.0   33.333333333333336
100.0   60.0   33.333333333333336
50.0   90.0   33.333333333333336
50.0   60.0   50.0
100.0   60.0   33.333333333333336
100.0   90.0   33.333333333333336
50.0   90.0   33.333333333333336
100.0   90.0   50.0
50.0   60.0   50.0
50.0   90.0   50.0
100.0   90.0   50.0
50.0   90.0   33.333333333333336
50.0   60.0   50.0
100.0   90.0   50.0
100.0   60.0   50.0
100.0   60.0   33.333333333333336
50.0   60.0   50.0
100.0   90.0   50.0
100.0   60.0   33.333333333333336
50.0   90.0   33.333333333333336
50.0   90.0   0.0
100.0   90.0   0.0
50.0   120.0   0.0
50.0   90.0   16.666666666666668
100.0   90.0   0.0
100.0   120.0   0.0
50.0   120.0   0.0
100.0   120.0   16.666666666666668
50.0   90.0   16.666666666666668
50.0   120.0   16.666666666666668
100.0   120.0   16.666666666666668
50.0   120.0   0.0
50.0   90.0   16.666666666666668
100.0   120.0   16.666666666666668
100.0   90.0   16.666666666666668
100.0   90.0   0.0
50.0   90.0   16.666666666666668
100.0   120.0   16.666666666666668
100.0   90.0   0.0
50.0   120.0   0.0
50.0   90.0   16.666666666666668
100.0   90.0   16.666666666666668
50.0   120.0   16.666666666666668
50.0   90.0   33.333333333333336
100.0   90.0   16.666666666666668
100.0   120.0   16.666666666666668
50.0   120.0   16.666666666666668
100.0   120.0   33.333333333333336
50.0   90.0   33.333333333333336
50.0   120.0   33.333333333333336
100.0   120.0   33.333333333333336
50.0   120.0   16.666666666666668
50.0   90.0   33.333333333333336
100.0   120.0   33.333333333333336
100.0   90.0   33.333333333333336
100.0   90.0   16.666666666666668
50.0   90.0   33.333333333333336
100.0   120.0   33.333333333333336
100.0   90.0   16.666666666666668
50.0   120.0   16.666666666666668
50.0   90.0   33.333333333333336
100.0   90.0   33.333333333333336
50.0   120.0   33.333333333333336
50.0   90.0   50.0
100.0   90.0   33.333333333333336
100.0   120.0   33.333333333333336
50.0   120.0   33.333333333333336
100.0   120.0   50.0
50.0   90.0   50.0
50.0   120.0   50.0
100.0   120.0   50.0
50.0   120.0   33.333333333333336
50.0   90.0   50.0
100.0   120.0   50.0
100.0   90.0   50.0
100.0   90.0   33.333333333333336
50.0   90.0   50.0
100.0   120.0   50.0
100.0   90.0   33.333333333333336
50.0   120.0   33.333333333333336
50.0   120.0   0.0
100.0   120.0   0.0
50.0   150.0   0.0
50.0   120.0   16.666666666666668
100.0   120.0   0.0
100.0   150.0   0.0
50.0   150.0   0.0
100.0   150.0   16.666666666666668
50.0   120.0   16.666666666666668
50.0   150.0   16.666666666666668
100.0   150.0   16.666666666666668
50.0   150.0   0.0
50.0   120.0   16.666666666666668
100.0   150.0   16.666666666666668
100.0   120.0   16.666666666666668
100.0   120.0   0.0
50.0   120.0   16.666666666666668
100.0   150.0   16.666666666666668
100.0   120.0   0.0
50.0   150.0   0.0
50.0   120.0   16.666666666666668
100.0   120.0   16.666666666666668
50.0   150.0   16.666666666666668
50.0   120.0   33.333333333333336
100.0   120.0   16.666666666666668
100.0   150.0   16.666666666666668
50.0   150.0   16.666666666666668
100.0   150.0   33.333333333333336
50.0   120.0   33.333333333333336
50.0   150.0   33.333333333333336
100.0   150.0   33.333333333333336
50.0   150.0   16.666666666666668
50.0   120.0   33.333333333333336
100.0   150.0   33.333333333333336
100.0   120.0   33.333333333333336
100.0   120.0   16.666666666666668
50.0   120.0   33.333333333333336
100.0   150.0   33.333333333333336
100.0   120.0   16.666666666666668
50.0   150.0   16.666666666666668
50.0   120.0   33.333333333333336
100.0   120.0   33.333333333333336
50.0   150.0   33.333333333333336
50.0   120.0   50.0
100.0   120.0   33.333333333333336
100.0   150.0   33.333333333333336
50.0   150.0   33.333333333333336
100.0   150.0   50.0
50.0   120.0   50.0
50.0   150.0   50.0
100.0   150.0   50.0
50.0   150.0   33.333333333333336
50.0   120.0   50.0
100.0   150.0   50.0
100.0   120.0   50.0
100.0   120.0   33.333333333333336
50.0   120.0   50.0
100.0   150.0   50.0
100.0   120.0   33.333333333333336
50.0   150.0   33.333333333333336
100.0   0.0   0.0
150.0   0.0   0.0
100.0   30.0   0.0
100.0   0.0   16.666666666666668
150.0   0.0   0.0
150.0   30.0   0.0
100.0   30.0   0.0
150.0   30.0   16.666666666666668
100.0   0.0   16.666666666666668
100.0   30.0   16.666666666666668
150.0   30.0   16.666666666666668
100.0   30.0   0.0
100.0   0.0   16.666666666666668
150.0   30.0   16.666666666666668
150.0   0.0   16.666666666666668
150.0   0.0   0.0
100.0   0.0   16.666666666666668
150.0   30.0   16.666666666666668
150.0   0.0   0.0
100.0   30.0   0.0
100.0   0.0   16.666666666666668
150.0   0.0   16.666666666666668
100.0   30.0   16.666666666666668
100.0   0.0   33.333333333333336
150.0   0.0   16.666666666666668
150.0   30.0   16.666666666666668
100.0   30.0   16.666666666666668
150.0   30.0   33.333333333333336
100.0   0.0   33.333333333333336
100.0   30.0   33.333333333333336
150.0   30.0   33.333333333333336
100.0   30.0   16.666666666666668
100.0   0.0   33.333333333333336
150.0   30.0   33.333333333333336
150.0   0.0   33.333333333333336
150.0   0.0   16.666666666666668
100.0   0.0   33.333333333333336
150.0   30.0   33.333333333333336
150.0   0.0   16.666666666666668
100.0   30.0   16.666666666666668
100.0   0.0   33.333333333333336
150.0   0.0   33.333333333333336
100.0   30.0   33.333333333333336
100.0   0.0   50.0
150.0   0.0   33.333333333333336
150.0   30.0   33.333333333333336
100.0   30.0   33.333333333333336
150.0   30.0   50.0
100.0   0.0   50.0
100.0   30.0   50.0
150.0   30.0   50.0
100.0   30.0   33.333333333333336
100.0   0.0   50.0
150.0   30.0   50.0
150.0   0.0   50.0
150.0   0.0   33.333333333333336
100.0   0.0   50.0
150.0   30.0   50.0
150.0   0.0   33.333333333333336
100.0   30.0   33.333333333333336
100.0   30.0   0.0
150.0   30.0   0.0
100.0   60.0   0.0
100.0   30.0   16.666666666666668
150.0   30.0   0.0
150.0   60.0   0.0
100.0   60.0   0.0
150.0   60.0   16.666666666666668
100.0   30.0   16.666666666666668
100.0   60.0   16.666666666666668
150.0   60.0   16.666666666666668
100.0   60.0   0.0
100.0   30.0   16.666666666666668
150.0   60.0   16.666666666666668
150.0   30.0   16.666666666666668
150.0   30.0   0.0
100.0   30.0   16.666666666666668
150.0   60.0   16.666666666666668
150.0   30.0   0.0
100.0   60.0   0.0
100.0   30.0   16.666666666666668
150.0   30.0   16.666666666666668
100.0   60.0   16.666666666666668
100.0   30.0   33.333333333333336
150.0   30.0   16.666666666666668
150.0   60.0   16.666666666666668
100.0   60.0   16.666666666666668
150.0   60.0   33.333333333333336
100.0   30.0   33.333333333333336
100.0   60.0   33.333333333333336
150.0   60.0   33.333333333333336
100.0   60.0   16.666666666666668
100.0   30.0   33.333333333333336
150.0   60.0   33.333333333333336
150.0   30.0   33.333333333333336
150.0   30.0   16.666666666666668
100.0   30.0   33.333333333333336
150.0   60.0   33.333333333333336
150.0   30.0   16.666666666666668
100.0   60.0   16.666666666666668
100.0   30.0   33.333333333333336
150.0   30.0   33.333333333333336
100.0   60.0   33.333333333333336
100.0   30.0   50.0
150.0   30.0   33.333333333333336
150.0   60.0   33.333333333333336
100.0   60.0   33.333333333333336
150.0   60.0   50.0
100.0   30.0   50.0
100.0   60.0   50.0
150.0   60.0   50.0
100.0   60.0   33.333333333333336
100.0   30.0   50.0
150.0   60.0   50.0
150.0   30.0   50.0
150.0   30.0   33.333333333333336
100.0   30.0   50.0
150.0   60.0   50.0
150.0   30.0   33.333333333333336
100.0   60.0   33.333333333333336
100.0   60.0   0.0
150.0   60.0   0.0
100.0   90.0   0.0
100.0   60.0   16.666666666666668
150.0   60.0   0.0
150.0   90.0   0.0
100.0   90.0   0.0
150.0   90.0   16.666666666666668
100.0   60.0   16.666666666666668
100.0   90.0   16.666666666666668
150.0   90.0   16.666666666666668
100.0   90.0   0.0
100.0   60.0   16.666666666666668
150.0   90.0   16.666666666666668
150.0   60.0   16.666666666666668
150.0   60.0   0.0
100.0   60.0   16.666666666666668
150.0   90.0   16.666666666666668
150.0   60.0   0.0
100.0   90.0   0.0
100.0   60.0   16.666666666666668
150.0   60.0   16.666666666666668
100.0   90.0   16.666666666666668
100.0   60.0   33.333333333333336
150.0   60.0   16.666666666666668
150.0   90.0   16.666666666666668
100.0   90.0   16.666666666666668
150.0   90.0   33.333333333333336
100.0   60.0   33.333333333333336
100.0   90.0   33.333333333333336
150.0   90.0   33.333333333333336
100.0   90.0   16.666666666666668
100.0   60.0   33.333333333333336
150.0   90.0   33.333333333333336
150.0   60.0   33.333333333333336
150.0   60.0   16.666666666666668
100.0   60.0   33.333333333333336
150.0   90.0   33.333333333333336
150.0   60.0   16.666666666666668
100.0   90.0   16.666666666666668
100.0   60.0   33.333333333333336
150.0   60.0   33.333333333333336
100.0   90.0   33.333333333333336
100.0   60.0   50.0
150.0   60.0   33.333333333333336
150.0   90.0   33.333333333333336
100.0   90.0   33.333333333333336
150.0   90.0   50.0
100.0   60.0   50.0
100.0   90.0   50.0
150.0   90.0   50.0
100.0   90.0   33.333333333333336
100.0   60.0   50.0
150.0   90.0   50.0
150.0   60.0   50.0
150.0   60.0   33.333333333333336
100.0   60.0   50.0
150.0   90.0   50.0
150.0   60.0   33.333333333333336
100.0   90.0   33.333333333333336
100.0   90.0   0.0
150.0   90.0   0.0
100.0   120.0   0.0
100.0   90.0   16.666666666666668
150.0   90.0   0.0
150.0   120.0   0.0
100.0   120.0   0.0
150.0   120.0   16.666666666666668
100.0   90.0   16.666666666666668
100.0   120.0   16.666666666666668
150.0   120.0   16.666666666666668
100.0   120.0   0.0
100.0   90.0   16.666666666666668
150.0   120.0   16.666666666666668
150.0   90.0   16.666666666666668
150.0   90.0   0.0
100.0   90.0   16.666666666666668
150.0   120.0   16.666666666666668
150.0   90.0   0.0
100.0   120.0   0.0
100.0   90.0   16.666666666666668
150.0   90.0   16.666666666666668
100.0   120.0   16.666666666666668
100.0   90.0   33.333333333333336
150.0   90.0   16.666666666666668
150.0   120.0   16.666666666666668
100.0   120.0   16.666666666666668
150.0   120.0   33.333333333333336
100.0   90.0   33.333333333333336
100.0   120.0   33.333333333333336
150.0   120.0   33.333333333333336
100.0   120.0   16.666666666666668
100.0   90.0   33.333333333333336
150.0   120.0   33.333333333333336
150.0   90.0   33.333333333333336
150.0   90.0   16.666666666666668
100.0   90.0   33.333333333333336
150.0   120.0   33.333333333333336
150.0   90.0   16.666666666666668
100.0   120.0   16.666666666666668
100.0   90.0   33.333333333333336
150.0   90.0   33.333333333333336
100.0   120.0   33.333333333333336
100.0   90.0   50.0
150.0   90.0   33.333333333333336
150.0   120.0   33.333333333333336
100.0   120.0   33.333333333333336
150.0   120.0   50.0
100.0   90.0   50.0
100.0   120.0   50.0
150.0   120.0   50.0
100.0   120.0   33.333333333333336
100.0   90.0   50.0
150.0   120.0   50.0
150.0   90.0   50.0
150.0   90.0   33.333333333333336
100.0   90.0   50.0
150.0   120.0   50.0
150.0   90.0   33.333333333333336
100.0   120.0   33.333333333333336
100.0   120.0   0.0
150.0   120.0   0.0
100.0   150.0   0.0
100.0   120.0   16.666666666666668
150.0   120.0   0.0
150.0   150.0   0.0
100.0   150.0   0.0
150.0   150.0   16.666666666666668
100.0   120.0   16.666666666666668
100.0   150.0   16.666666666666668
150.0   150.0   16.666666666666668
100.0   150.0   0.0
100.0   120.0   16.666666666666668
150.0   150.0   16.666666666666668
150.0   120.0   16.666666666666668
150.0   120.0   0.0
100.0   120.0   16.666666666666668
150.0   150.0   16.666666666666668
150.0   120.0   0.0
100.0   150.0   0.0
100.0   120.0   16.666666666666668
150.0   120.0   16.666666666666668
100.0   150.0   16.666666666666668
100.0   120.0   33.333333333333336
150.0   120.0   16.666666666666668
150.0   150.0   16.666666666666668
100.0   150.0   16.666666666666668
150.0   150.0   33.333333333333336
100.0   120.0   33.333333333333336
100.0   150.0   33.333333333333336
150.0   150.0   33.333333333333336
100.0   150.0   16.666666666666668
100.0   120.0   33.333333333333336
150.0   150.0   33.333333333333336
150.0   120.0   33.333333333333336
150.0   120.0   16.666666666666668
100.0   120.0   33.333333333333336
150.0   150.0   33.333333333333336
150.0   120.0   16.666666666666668
100.0   150.0   16.666666666666668
100.0   120.0   33.333333333333336
150.0   120.0   33.333333333333336
100.0   150.0   33.333333333333336
100.0   120.0   50.0
150.0   120.0   33.333333333333336
150.0   150.0   33.333333333333336
100.0   150.0   33.333333333333336
150.0   150.0   50.0
100.0   120.0   50.0
100.0   150.0   50.0
150.0   150.0   50.0
100.0   150.0   33.333333333333336
100.0   120.0   50.0
150.0   150.0   50.0
150.0   120.0   50.0
150.0   120.0   33.333333333333336
100.0   120.0   50.0
150.0   150.0   50.0
150.0   120.0   33.333333333333336
100.0   150.0   33.333333333333336
150.0   0.0   0.0
200.0   0.0   0.0
150.0   30.0   0.0
150.0   0.0   16.666666666666668
200.0   0.0   0.0
200.0   30.0   0.0
150.0   30.0   0.0
200.0   30.0   16.666666666666668
150.0   0.0   16.666666666666668
150.0   30.0   16.666666666666668
200.0   30.0   16.666666666666668
150.0   30.0   0.0
150.0   0.0   16.666666666666668
200.0   30.0   16.666666666666668
200.0   0.0   16.666666666666668
200.0   0.0   0.0
150.0   0.0   16.666666666666668
200.0   30.0   16.666666666666668
200.0   0.0   0.0
150.0   30.0   0.0
150.0   0.0   16.666666666666668
200.0   0.0   16.666666666666668
150.0   30.0   16.666666666666668
150.0   0.0   33.333333333333336
200.0   0.0   16.666666666666668
200.0   30.0   16.666666666666668
150.0   30.0   16.666666666666668
200.0   30.0   33.333333333333336
150.0   0.0   33.333333333333336
150.0   30.0   33.333333333333336
200.0   30.0   33.333333333333336
150.0   30.0   16.666666666666668
150.0   0.0   33.333333333333336
200.0   30.0   33.333333333333336
200.0   0.0   33.333333333333336
200.0   0.0   16.666666666666668
150.0   0.0   33.333333333333336
200.0   30.0   33.333333333333336
200.0   0.0   16.666666666666668
150.0   30.0   16.666666666666668
150.0   0.0   33.333333333333336
200.0   0.0   33.333333333333336
150.0   30.0   33.333333333333336
150.0   0.0   50.0
200.0   0.0   33.333333333333336
200.0   30.0   33.333333333333336
150.0   30.0   33.333333333333336
200.0   30.0   50.0
150.0   0.0   50.0
150.0   30.0   50.0
200.0   30.0   50.0
150.0   30.0   33.333333333333336
150.0   0.0   50.0
200.0   30.0   50.0
200.0   0.0   50.0
200.0   0.0   33.333333333333336
150.0   0.0   50.0
200.0   30.0   50.0
200.0   0.0   33.333333333333336
150.0   30.0   33.333333333333336
150.0   30.0   0.0
200.0   30.0   0.0
150.0   60.0   0.0
150.0   30.0   16.666666666666668
200.0   30.0   0.0
200.0   60.0   0.0
150.0   60.0   0.0
200.0   60.0   16.666666666666668
150.0   30.0   16.666666666666668
150.0   60.0   16.666666666666668
200.0   60.0   16.666666666666668
150.0   60.0   0.0
150.0   30.0   16.666666666666668
200.0   60.0   16.666666666666668
200.0   30.0   16.666666666666668
200.0   30.0   0.0
150.0   30.0   16.666666666666668
200.0   60.0   16.666666666666668
200.0   30.0   0.0
150.0   60.0   0.0
150.0   30.0   16.666666666666668
200.0   30.0   16.666666666666668
150.0   60.0   16.666666666666668
150.0   30.0   33.333333333333336
200.0   30.0   16.666666666666668
200.0   60.0   16.666666666666668
150.0   60.0   16.666666666666668
200.0   60.0   33.333333333333336
150.0   30.0   33.333333333333336
150.0   60.0   33.333333333333336
200.0   60.0   33.333333333333336
150.0   60.0   16.666666666666668
150.0   30.0   33.333333333333336
200.0   60.0   33.333333333333336
200.0   30.0   33.333333333333336
200.0   30.0   16.666666666666668
150.0   30.0   33.333333333333336
200.0   60.0   33.333333333333336
200.0   30.0   16.666666666666668
150.0   60.0   16.666666666666668
150.0   30.0   33.333333333333336
200.0   30.0   33.333333333333336
150.0   60.0   33.333333333333336
150.0   30.0   50.0
200.0   30.0   33.333333333333336
200.0   60.0   33.333333333333336
150.0   60.0   33.333333333333336
200.0   60.0   50.0
150.0   30.0   50.0
150.0   60.0   50.0
200.0   60.0   50.0
150.0   60.0   33.333333333333336
150.0   30.0   50.0
200.0   60.0   50.0
200.0   30.0   50.0
200.0   30.0   33.333333333333336
150.0   30.0   50.0
200.0   60.0   50.0
200.0   30.0   33.333333333333336
150.0   60.0   33.333333333333336
150.0   60.0   0.0
200.0   60.0   0.0
150.0   90.0   0.0
150.0   60.0   16.666666666666668
200.0   60.0   0.0
200.0   90.0   0.0
150.0   90.0   0.0
200.0   90.0   16.666666666666668
150.0   60.0   16.666666666666668
150.0   90.0   16.666666666666668
200.0   90.0   16.666666666666668
150.0   90.0   0.0
150.0   60.0   16.666666666666668
200.0   90.0   16.666666666666668
200.0   60.0   16.666666666666668
200.0   60.0   0.0
150.0   60.0   16.666666666666668
200.0   90.0   16.666666666666668
200.0   60.0   0.0
150.0   90.0   0.0
150.0   60.0   16.666666666666668
200.0   60.0   16.666666666666668
150.0   90.0   16.666666666666668
150.0   60.0   33.333333333333336
200.0   60.0   16.666666666666668
200.0   90.0   16.666666666666668
150.0   90.0   16.666666666666668
200.0   90.0   33.333333333333336
150.0   60.0   33.333333333333336
150.0   90.0   33.333333333333336
200.0   90.0   33.333333333333336
150.0   90.0   16.666666666666668
150.0   60.0   33.333333333333336
200.0   90.0   33.333333333333336
200.0   60.0   33.333333333333336
200.0   60.0   16.666666666666668
150.0   60.0   33.333333333333336
200.0   90.0   33.333333333333336
200.0   60.0   16.666666666666668
150.0   90.0   16.666666666666668
150.0   60.0   33.333333333333336
200.0   60.0   33.333333333333336
150.0   90.0   33.333333333333336
150.0   60.0   50.0
200.0   60.0   33.333333333333336
200.0   90.0   33.333333333333336
150.0   90.0   33.333333333333336
200.0   90.0   50.0
150.0   60.0   50.0
150.0   90.0   50.0
200.0   90.0   50.0
150.0   90.0   33.333333333333336
150.0   60.0   50.0
200.0   90.0   50.0
200.0   60.0   50.0
200.0   60.0   33.333333333333336
150.0   60.0   50.0
200.0   90.0   50.0
200.0   60.0   33.333333333333336
150.0   90.0   33.333333333333336
150.0   90.0   0.0
200.0   90.0   0.0
150.0   120.0   0.0
150.0   90.0   16.666666666666668
200.0   90.0   0.0
200.0   120.0   0.0
150.0   120.0   0.0
200.0   120.0   16.666666666666668
150.0   90.0   16.666666666666668
150.0   120.0   16.666666666666668
200.0   120.0   16.666666666666668
150.0   120.0   0.0
150.0   90.0   16.666666666666668
200.0   120.0   16.666666666666668
200.0   90.0   16.666666666666668
200.0   90.0   0.0
150.0   90.0   16.666666666666668
200.0   120.0   16.666666666666668
200.0   90.0   0.0
150.0   120.0   0.0
150.0   90.0   16.666666666666668
200.0   90.0   16.666666666666668
150.0   120.0   16.666666666666668
150.0   90.0   33.333333333333336
200.0   90.0   16.666666666666668
200.0   120.0   16.666666666666668
150.0   120.0   16.666666666666668
200.0   120.0   33.333333333333336
150.0   90.0   33.333333333333336
150.0   120.0   33.333333333333336
200.0   120.0   33.333333333333336
150.0   120.0   16.666666666666668
150.0   90.0   33.333333333333336
200.0   120.0   33.333333333333336
200.0   90.0   33.333333333333336
200.0   90.0   16.666666666666668
150.0   90.0   33.333333333333336
200.0   120.0   33.333333333333336
200.0   90.0   16.666666666666668
150.0   120.0   16.666666666666668
150.0   90.0   33.333333333333336
200.0   90.0   33.333333333333336
150.0   120.0   33.333333333333336
150.0   90.0   50.0
200.0   90.0   33.333333333333336
200.0   120.0   33.333333333333336
150.0   120.0   33.333333333333336
200.0   120.0   50.0
150.0   90.0   50.0
150.0   120.0   50.0
200.0   120.0   50.0
150.0   120.0   33.333333333333336
150.0   90.0   50.0
200.0   120.0   50.0
200.0   90.0   50.0
200.0   90.0   33.333333333333336
150.0   90.0   50.0
200.0   120.0   50.0
200.0   90.0   33.333333333333336
150.0   120.0   33.333333333333336
150.0   120.0   0.0
200.0   120.0   0.0
150.0   150.0   0.0
150.0   120.0   16.666666666666668
200.0   120.0   0.0
200.0   150.0   0.0
150.0   150.0   0.0
200.0   150.0   16.666666666666668
150.0   120.0   16.666666666666668
150.0   150.0   16.666666666666668
200.0   150.0   16.666666666666668
150.0   150.0   0.0
150.0   120.0   16.666666666666668
200.0   150.0   16.666666666666668
200.0   120.0   16.666666666666668
200.0   120.0   0.0
150.0   120.0   16.666666666666668
200.0   150.0   16.666666666666668
200.0   120.0   0.0
150.0   150.0   0.0
150.0   120.0   16.666666666666668
200.0   120.0   16.666666666666668
150.0   150.0   16.666666666666668
150.0   120.0   33.333333333333336
200.0   120.0   16.666666666666668
200.0   150.0   16.666666666666668
150.0   150.0   16.666666666666668
200.0   150.0   33.333333333333336
150.0   120.0   33.333333333333336
150.0   150.0   33.333333333333336
200.0   150.0   33.333333333333336
150.0   150.0   16.666666666666668
150.0   120.0   33.333333333333336
200.0   150.0   33.333333333333336
200.0   120.0   33.333333333333336
200.0   120.0   16.666666666666668
150.0   120.0   33.333333333333336
200.0   150.0   33.333333333333336
200.0   120.0   16.666666666666668
150.0   150.0   16.666666666666668
150.0   120.0   33.333333333333336
200.0   120.0   33.333333333333336
150.0   150.0   33.333333333333336
150.0   120.0   50.0
200.0   120.0   33.333333333333336
200.0   150.0   33.333333333333336
150.0   150.0   33.333333333333336
200.0   150.0   50.0
150.0   120.0   50.0
150.0   150.0   50.0
200.0   150.0   50.0
150.0   150.0   33.333333333333336
150.0   120.0   50.0
200.0   150.0   50.0
200.0   120.0   50.0
200.0   120.0   33.333333333333336
150.0   120.0   50.0
200.0   150.0   50.0
200.0   120.0   33.333333333333336
150.0   150.0   33.333333333333336
200.0   0.0   0.0
250.0   0.0   0.0
200.0   30.0   0.0
200.0   0.0   16.666666666666668
250.0   0.0   0.0
250.0   30.0   0.0
200.0   30.0   0.0
250.0   30.0   16.666666666666668
200.0   0.0   16.666666666666668
200.0   30.0   16.666666666666668
250.0   30.0   16.666666666666668
200.0   30.0   0.0
200.0   0.0   16.666666666666668
250.0   30.0   16.666666666666668
250.0   0.0   16.666666666666668
250.0   0.0   0.0
200.0   0.0   16.666666666666668
250.0   30.0   16.666666666666668
250.0   0.0   0.0
200.0   30.0   0.0
200.0   0.0   16.666666666666668
250.0   0.0   16.666666666666668
200.0   30.0   16.666666666666668
200.0   0.0   33.333333333333336
250.0   0.0   16.666666666666668
250.0   30.0   16.666666666666668
200.0   30.0   16.666666666666668
250.0   30.0   33.333333333333336
200.0   0.0   33.333333333333336
200.0   30.0   33.333333333333336
250.0   30.0   33.333333333333336
200.0   30.0   16.666666666666668
200.0   0.0   33.333333333333336
250.0   30.0   33.333333333333336
250.0   0.0   33.333333333333336
250.0   0.0   16.666666666666668
200.0   0.0   33.333333333333336
250.0   30.0   33.333333333333336
250.0   0.0   16.666666666666668
200.0   30.0   16.666666666666668
200.0   0.0   33.333333333333336
250.0   0.0   33.333333333333336
200.0   30.0   33.333333333333336
200.0   0.0   50.0
250.0   0.0   33.333333333333336
250.0   30.0   33.333333333333336
200.0   30.0   33.333333333333336
250.0   30.0   50.0
200.0   0.0   50.0
200.0   30.0   50.0
250.0   30.0   50.0
200.0   30.0   33.333333333333336
200.0   0.0   50.0
250.0   30.0   50.0
250.0   0.0   50.0
250.0   0.0   33.333333333333336
200.0   0.0   50.0
250.0   30.0   50.0
250.0   0.0   33.333333333333336
200.0   30.0   33.333333333333336
200.0   30.0   0.0
250.0   30.0   0.0
200.0   60.0   0.0
200.0   30.0   16.666666666666668
250.0   30.0   0.0
250.0   60.0   0.0
200.0   60.0   0.0
250.0   60.0   16.666666666666668
200.0   30.0   16.666666666666668
200.0   60.0   16.666666666666668
250.0   60.0   16.666666666666668
200.0   60.0   0.0
200.0   30.0   16.666666666666668
250.0   60.0   16.666666666666668
250.0   30.0   16.666666666666668
250.0   30.0   0.0
200.0   30.0   16.666666666666668
250.0   60.0   16.666666666666668
250.0   30.0   0.0
200.0   60.0   0.0
200.0   30.0   16.666666666666668
250.0   30.0   16.666666666666668
200.0   60.0   16.666666666666668
200.0   30.0   33.333333333333336
250.0   30.0   16.666666666666668
250.0   60.0   16.666666666666668
200.0   60.0   16.666666666666668
250.0   60.0   33.333333333333336
200.0   30.0   33.333333333333336
200.0   60.0   33.333333333333336
250.0   60.0   33.333333333333336
200.0   60.0   16.666666666666668
200.0   30.0   33.333333333333336
250.0   60.0   33.333333333333336
250.0   30.0   33.333333333333336
250.0   30.0   16.666666666666668
200.0   30.0   33.333333333333336
250.0   60.0   33.333333333333336
250.0   30.0   16.666666666666668
200.0   60.0   16.666666666666668
200.0   30.0   33.333333333333336
250.0   30.0   33.333333333333336
200.0   60.0   33.333333333333336
200.0   30.0   50.0
250.0   30.0   33.333333333333336
250.0   60.0   33.333333333333336
200.0   60.0   33.333333333333336
250.0   60.0   50.0
200.0   30.0   50.0
200.0   60.0   50.0
250.0   60.0   50.0
200.0   60.0   33.333333333333336
200.0   30.0   50.0
250.0   60.0   50.0
250.0   30.0   50.0
250.0   30.0   33.333333333333336
200.0   30.0   50.0
250.0   60.0   50.0
250.0   30.0   33.333333333333336
200.0   60.0   33.333333333333336
200.0   60.0   0.0
250.0   60.0   0.0
200.0   90.0   0.0
200.0   60.0   16.666666666666668
250.0   60.0   0.0
250.0   90.0   0.0
200.0   90.0   0.0
250.0   90.0   16.666666666666668
200.0   60.0   16.666666666666668
200.0   90.0   16.666666666666668
250.0   90.0   16.666666666666668
200.0   90.0   0.0
200.0   60.0   16.666666666666668
250.0   90.0   16.666666666666668
250.0   60.0   16.666666666666668
250.0   60.0   0.0
200.0   60.0   16.666666666666668
250.0   90.0   16.666666666666668
250.0   60.0   0.0
200.0   90.0   0.0
200.0   60.0   16.666666666666668
250.0   60.0   16.666666666666668
200.0   90.0   16.666666666666668
200.0   60.0   33.333333333333336
250.0   60.0   16.666666666666668
250.0   90.0   16.666666666666668
200.0   90.0   16.666666666666668
250.0   90.0   33.333333333333336
200.0   60.0   33.333333333333336
200.0   90.0   33.333333333333336
250.0   90.0   33.333333333333336
200.0   90.0   16.666666666666668
200.0   60.0   33.333333333333336
250.0   90.0   33.333333333333336
250.0   60.0   33.333333333333336
250.0   60.0   16.666666666666668
200.0   60.0   33.333333333333336
250.0   90.0   33.333333333333336
250.0   60.0   16.666666666666668
200.0   90.0   16.666666666666668
200.0   60.0   33.333333333333336
250.0   60.0   33.333333333333336
200.0   90.0   33.333333333333336
200.0   60.0   50.0
250.0   60.0   33.333333333333336
250.0   90.0   33.333333333333336
200.0   90.0   33.333333333333336
250.0   90.0   50.0
200.0   60.0   50.0
200.0   90.0   50.0
250.0   90.0   50.0
200.0   90.0   33.333333333333336
200.0   60.0   50.0
250.0   90.0   50.0
250.0   60.0   50.0
250.0   60.0   33.333333333333336
200.0   60.0   50.0
250.0   90.0   50.0
250.0   60.0   33.333333333333336
200.0   90.0   33.333333333333336
200.0   90.0   0.0
250.0   90.0   0.0
200.0   120.0   0.0
200.0   90.0   16.666666666666668
250.0   90.0   0.0
250.0   120.0   0.0
200.0   120.0   0.0
250.0   120.0   16.666666666666668
200.0   90.0   16.666666666666668
200.0   120.0   16.666666666666668
250.0   120.0   16.666666666666668
200.0   120.0   0.0
200.0   90.0   16.666666666666668
250.0   120.0   16.666666666666668
250.0   90.0   16.666666666666668
250.0   90.0   0.0
200.0   90.0   16.666666666666668
250.0   120.0   16.666666666666668
250.0   90.0   0.0
200.0   120.0   0.0
200.0   90.0   16.666666666666668
250.0   90.0   16.666666666666668
200.0   120.0   16.666666666666668
200.0   90.0   33.333333333333336
250.0   90.0   16.666666666666668
250.0   120.0   16.666666666666668
200.0   120.0   16.666666666666668
250.0   120.0   33.333333333333336
200.0   90.0   33.333333333333336
200.0   120.0   33.333333333333336
250.0   120.0   33.333333333333336
200.0   120.0   16.666666666666668
200.0   90.0   33.333333333333336
250.0   120.0   33.333333333333336
250.0   90.0   33.333333333333336
250.0   90.0   16.666666666666668
200.0   90.0   33.333333333333336
250.0   120.0   33.333333333333336
250.0   90.0   16.666666666666668
200.0   120.0   16.666666666666668
200.0   90.0   33.333333333333336
250.0   90.0   33.333333333333336
200.0   120.0   33.333333333333336
200.0   90.0   50.0
250.0   90.0   33.333333333333336
250.0   120.0   33.333333333333336
200.0   120.0   33.333333333333336
250.0   120.0   50.0
200.0   90.0   50.0
200.0   120.0   50.0
250.0   120.0   50.0
200.0   120.0   33.333333333333336
200.0   90.0   50.0
250.0   120.0   50.0
250.0   90.0   50.0
250.0   90.0   33.333333333333336
200.0   90.0   50.0
250.0   120.0   50.0
250.0   90.0   33.333333333333336
200.0   120.0   33.333333333333336
200.0   120.0   0.0
250.0   120.0   0.0
200.0   150.0   0.0
200.0   120.0   16.666666666666668
250.0   120.0   0.0
250.0   150.0   0.0
200.0   150.0   0.0
250.0   150.0   16.666666666666668
200.0   120.0   16.666666666666668
200.0   150.0   16.666666666666668
250.0   150.0   16.666666666666668
200.0   150.0   0.0
200.0   120.0   16.666666666666668
250.0   150.0   16.666666666666668
250.0   120.0   16.666666666666668
250.0   120.0   0.0
200.0   120.0   16.666666666666668
250.0   150.0   16.666666666666668
250.0   120.0   0.0
200.0   150.0   0.0
200.0   120.0   16.666666666666668
250.0   120.0   16.666666666666668
200.0   150.0   16.666666666666668
200.0   120.0   33.333333333333336
250.0   120.0   16.666666666666668
250.0   150.0   16.666666666666668
200.0   150.0   16.666666666666668
250.0   150.0   33.333333333333336
200.0   120.0   33.333333333333336
200.0   150.0   33.333333333333336
250.0   150.0   33.333333333333336
200.0   150.0   16.666666666666668
200.0   120.0   33.333333333333336
250.0   150.0   33.333333333333336
250.0   120.0   33.333333333333336
250.0   120.0   16.666666666666668
200.0   120.0   33.333333333333336
250.0   150.0   33.333333333333336
250.0   120.0   16.666666666666668
200.0   150.0   16.666666666666668
200.0   120.0   33.333333333333336
250.0   120.0   33.333333333333336
200.0   150.0   33.333333333333336
200.0   120.0   50.0
250.0   120.0   33.333333333333336
250.0   150.0   33.333333333333336
200.0   150.0   33.333333333333336
250.0   150.0   50.0
200.0   120.0   50.0
200.0   150.0   50.0
250.0   150.0   50.0
200.0   150.0   33.333333333333336
200.0   120.0   50.0
250.0   150.0   50.0
250.0   120.0   50.0
250.0   120.0   33.333333333333336
200.0   120.0   50.0
250.0   150.0   50.0
250.0   120.0   33.333333333333336
200.0   150.0   33.333333333333336
250.0   0.0   0.0
300.0   0.0   0.0
250.0   30.0   0.0
250.0   0.0   16.666666666666668
300.0   0.0   0.0
300.0   30.0   0.0
250.0   30.0   0.0
300.0   30.0   16.666666666666668
250.0   0.0   16.666666666666668
250.0   30.0   16.666666666666668
300.0   30.0   16.666666666666668
250.0   30.0   0.0
250.0   0.0   16.666666666666668
300.0   30.0   16.666666666666668
300.0   0.0   16.666666666666668
300.0   0.0   0.0
250.0   0.0   16.666666666666668
300.0   30.0   16.666666666666668
300.0   0.0   0.0
250.0   30.0   0.0
250.0   0.0   16.666666666666668
300.0   0.0   16.666666666666668
250.0   30.0   16.666666666666668
250.0   0.0   33.333333333333336
300.0   0.0   16.666666666666668
300.0   30.0   16.666666666666668
250.0   30.0   16.666666666666668
300.0   30.0   33.333333333333336
250.0   0.0   33.333333333333336
250.0   30.0   33.333333333333336
300.0   30.0   33.333333333333336
250.0   30.0   16.666666666666668
250.0   0.0   33.333333333333336
300.0   30.0   33.333333333333336
300.0   0.0   33.333333333333336
300.0   0.0   16.666666666666668
250.0   0.0   33.333333333333336
300.0   30.0   33.333333333333336
300.0   0.0   16.666666666666668
250.0   30.0   16.666666666666668
250.0   0.0   33.333333333333336
300.0   0.0   33.333333333333336
250.0   30.0   33.333333333333336
250.0   0.0   50.0
300.0   0.0   33.333333333333336
300.0   30.0   33.333333333333336
250.0   30.0   33.333333333333336
300.0   30.0   50.0
250.0   0.0   50.0
250.0   30.0   50.0
300.0   30.0   50.0
250.0   30.0   33.333333333333336
250.0   0.0   50.0
300.0   30.0   50.0
300.0   0.0   50.0
300.0   0.0   33.333333333333336
250.0   0.0   50.0
300.0   30.0   50.0
300.0   0.0   33.333333333333336
250.0   30.0   33.333333333333336
250.0   30.0   0.0
300.0   30.0   0.0
250.0   60.0   0.0
250.0   30.0   16.666666666666668
300.0   30.0   0.0
300.0   60.0   0.0
250.0   60.0   0.0
300.0   60.0   16.666666666666668
250.0   30.0   16.666666666666668
250.0   60.0   16.666666666666668
300.0   60.0   16.666666666666668
250.0   60.0   0.0
250.0   30.0   16.666666666666668
300.0   60.0   16.666666666666668
300.0   30.0   16.666666666666668
300.0   30.0   0.0
250.0   30.0   16.666666666666668
300.0   60.0   16.666666666666668
300.0   30.0   0.0
250.0   60.0   0.0
250.0   30.0   16.666666666666668
300.0   30.0   16.666666666666668
250.0   60.0   16.666666666666668
250.0   30.0   33.333333333333336
300.0   30.0   16.666666666666668
300.0   60.0   16.666666666666668
250.0   60.0   16.666666666666668
300.0   60.0   33.333333333333336
250.0   30.0   33.333333333333336
250.0   60.0   33.333333333333336
300.0   60.0   33.333333333333336
250.0   60.0   16.666666666666668
250.0   30.0   33.333333333333336
300.0   60.0   33.333333333333336
300.0   30.0   33.333333333333336
300.0   30.0   16.666666666666668
250.0   30.0   33.333333333333336
300.0   60.0   33.333333333333336
300.0   30.0   16.666666666666668
250.0   60.0   16.666666666666668
250.0   30.0   33.333333333333336
300.0   30.0   33.333333333333336
250.0   60.0   33.333333333333336
250.0   30.0   50.0
300.0   30.0   33.333333333333336
300.0   60.0   33.333333333333336
250.0   60.0   33.333333333333336
300.0   60.0   50.0
250.0   30.0   50.0
250.0   60.0   50.0
300.0   60.0   50.0
250.0   60.0   33.333333333333336
250.0   30.0   50.0
300.0   60.0   50.0
300.0   30.0   50.0
300.0   30.0   33.333333333333336
250.0   30.0   50.0
300.0   60.0   50.0
300.0   30.0   33.333333333333336
250.0   60.0   33.333333333333336
250.0   60.0   0.0
300.0   60.0   0.0
250.0   90.0   0.0
250.0   60.0   16.666666666666668
300.0   60.0   0.0
300.0   90.0   0.0
250.0   90.0   0.0
300.0   90.0   16.666666666666668
250.0   60.0   16.666666666666668
250.0   90.0   16.666666666666668
300.0   90.0   16.666666666666668
250.0   90.0   0.0
250.0   60.0   16.666666666666668
300.0   90.0   16.666666666666668
300.0   60.0   16.666666666666668
300.0   60.0   0.0
250.0   60.0   16.666666666666668
300.0   90.0   16.666666666666668
300.0   60.0   0.0
250.0   90.0   0.0
250.0   60.0   16.666666666666668
300.0   60.0   16.666666666666668
250.0   90.0   16.666666666666668
250.0   60.0   33.333333333333336
300.0   60.0   16.666666666666668
300.0   90.0   16.666666666666668
250.0   90.0   16.666666666666668
300.0   90.0   33.333333333333336
250.0   60.0   33.333333333333336
250.0   90.0   33.333333333333336
300.0   90.0   33.333333333333336
250.0   90.0   16.666666666666668
250.0   60.0   33.333333333333336
300.0   90.0   33.333333333333336
300.0   60.0   33.333333333333336
300.0   60.0   16.666666666666668
250.0   60.0   33.333333333333336
300.0   90.0   33.333333333333336
300.0   60.0   16.666666666666668
250.0   90.0   16.666666666666668
250.0   60.0   33.333333333333336
300.0   60.0   33.333333333333336
250.0   90.0   33.333333333333336
250.0   60.0   50.0
300.0   60.0   33.333333333333336
300.0   90.0   33.333333333333336
250.0   90.0   33.333333333333336
300.0   90.0   50.0
250.0   60.0   50.0
250.0   90.0   50.0
300.0   90.0   50.0
250.0   90.0   33.333333333333336
250.0   60.0   50.0
300.0   90.0   50.0
300.0   60.0   50.0
300.0   60.0   33.333333333333336
250.0   60.0   50.0
300.0   90.0   50.0
300.0   60.0   33.333333333333336
250.0   90.0   33.333333333333336
250.0   90.0   0.0
300.0   90.0   0.0
250.0   120.0   0.0
250.0   90.0   16.666666666666668
300.0   90.0   0.0
300.0   120.0   0.0
250.0   120.0   0.0
300.0   120.0   16.666666666666668
250.0   90.0   16.666666666666668
250.0   120.0   16.666666666666668
300.0   120.0   16.666666666666668
250.0   120.0   0.0
250.0   90.0   16.666666666666668
300.0   120.0   16.666666666666668
300.0   90.0   16.666666666666668
300.0   90.0   0.0
250.0   90.0   16.666666666666668
300.0   120.0   16.666666666666668
300.0   90.0   0.0
250.0   120.0   0.0
250.0   90.0   16.666666666666668
300.0   90.0   16.666666666666668
250.0   120.0   16.666666666666668
250.0   90.0   33.333333333333336
300.0   90.0   16.666666666666668
300.0   120.0   16.666666666666668
250.0   120.0   16.666666666666668
300.0   120.0   33.333333333333336
250.0   90.0   33.333333333333336
250.0   120.0   33.333333333333336
300.0   120.0   33.333333333333336
250.0   120.0   16.666666666666668
250.0   90.0   33.333333333333336
300.0   120.0   33.333333333333336
300.0   90.0   33.333333333333336
300.0   90.0   16.666666666666668
250.0   90.0   33.333333333333336
300.0   120.0   33.333333333333336
300.0   90.0   16.666666666666668
250.0   120.0   16.666666666666668
250.0   90.0   33.333333333333336
300.0   90.0   33.333333333333336
250.0   120.0   33.333333333333336
250.0   90.0   50.0
300.0   90.0   33.333333333333336
300.0   120.0   33.333333333333336
250.0   120.0   33.333333333333336
300.0   120.0   50.0
250.0   90.0   50.0
250.0   120.0   50.0
300.0   120.0   50.0
250.0   120.0   33.333333333333336
250.0   90.0   50.0
300.0   120.0   50.0
300.0   90.0   50.0
300.0   90.0   33.333333333333336
250.0   90.0   50.0
300.0   120.0   50.0
300.0   90.0   33.333333333333336
250.0   120.0   33.333333333333336
250.0   120.0   0.0
300.0   120.0   0.0
250.0   150.0   0.0
250.0   120.0   16.666666666666668
300.0   120.0   0.0
300.0   150.0   0.0
250.0   150.0   0.0
300.0   150.0   16.666666666666668
250.0   120.0   16.666666666666668
250.0   150.0   16.666666666666668
300.0   150.0   16.666666666666668
250.0   150.0   0.0
250.0   120.0   16.666666666666668
300.0   150.0   16.666666666666668
300.0   120.0   16.666666666666668
300.0   120.0   0.0
250.0   120.0   16.666666666666668
300.0   150.0   16.666666666666668
300.0   120.0   0.0
250.0   150.0   0.0
250.0   120.0   16.666666666666668
300.0   120.0   16.666666666666668
250.0   150.0   16.666666666666668
250.0   120.0   33.333333333333336
300.0   120.0   16.666666666666668
300.0   150.0   16.666666666666668
250.0   150.0   16.666666666666668
300.0   150.0   33.333333333333336
250.0   120.0   33.333333333333336
250.0   150.0   33.333333333333336
300.0   150.0   33.333333333333336
250.0   150.0   16.666666666666668
250.0   120.0   33.333333333333336
300.0   150.0   33.333333333333336
300.0   120.0   33.333333333333336
300.0   120.0   16.666666666666668
250.0   120.0   33.333333333333336
300.0   150.0   33.333333333333336
300.0   120.0   16.666666666666668
250.0   150.0   16.666666666666668
250.0   120.0   33.333333333333336
300.0   120.0   33.333333333333336
250.0   150.0   33.333333333333336
250.0   120.0   50.0
300.0   120.0   33.333333333333336
300.0   150.0   33.333333333333336
250.0   150.0   33.333333333333336
300.0   150.0   50.0
250.0   120.0   50.0
250.0   150.0   50.0
300.0   150.0   50.0
250.0   150.0   33.333333333333336
250.0   120.0   50.0
300.0   150.0   50.0
300.0   120.0   50.0
300.0   120.0   33.333333333333336
250.0   120.0   50.0
300.0   150.0   50.0
300.0   120.0   33.333333333333336
250.0   150.0   33.333333333333336
300.0   0.0   0.0
350.0   0.0   0.0
300.0   30.0   0.0
300.0   0.0   16.666666666666668
350.0   0.0   0.0
350.0   30.0   0.0
300.0   30.0   0.0
350.0   30.0   16.666666666666668
300.0   0.0   16.666666666666668
300.0   30.0   16.666666666666668
350.0   30.0   16.666666666666668
300.0   30.0   0.0
300.0   0.0   16.666666666666668
350.0   30.0   16.666666666666668
350.0   0.0   16.666666666666668
350.0   0.0   0.0
300.0   0.0   16.666666666666668
350.0   30.0   16.666666666666668
350.0   0.0   0.0
300.0   30.0   0.0
300.0   0.0   16.666666666666668
350.0   0.0   16.666666666666668
300.0   30.0   16.666666666666668
300.0   0.0   33.333333333333336
350.0   0.0   16.666666666666668
350.0   30.0   16.666666666666668
300.0   30.0   16.666666666666668
350.0   30.0   33.333333333333336
300.0   0.0   33.333333333333336
300.0   30.0   33.333333333333336
350.0   30.0   33.333333333333336
300.0   30.0   16.666666666666668
300.0   0.0   33.333333333333336
350.0   30.0   33.333333333333336
350.0   0.0   33.333333333333336
350.0   0.0   16.666666666666668
300.0   0.0   33.333333333333336
350.0   30.0   33.333333333333336
350.0   0.0   16.666666666666668
300.0   30.0   16.666666666666668
300.0   0.0   33.333333333333336
350.0   0.0   33.333333333333336
300.0   30.0   33.333333333333336
300.0   0.0   50.0
350.0   0.0   33.333333333333336
350.0   30.0   33.333333333333336
300.0   30.0   33.333333333333336
350.0   30.0   50.0
300.0   0.0   50.0
300.0   30.0   50.0
350.0   30.0   50.0
300.0   30.0   33.333333333333336
300.0   0.0   50.0
350.0   30.0   50.0
350.0   0.0   50.0
350.0   0.0   33.333333333333336
300.0   0.0   50.0
350.0   30.0   50.0
350.0   0.0   33.333333333333336
300.0   30.0   33.333333333333336
300.0   30.0   0.0
350.0   30.0   0.0
300.0   60.0   0.0
300.0   30.0   16.666666666666668
350.0   30.0   0.0
350.0   60.0   0.0
300.0   60.0   0.0
350.0   60.0   16.666666666666668
300.0   30.0   16.666666666666668
300.0   60.0   16.666666666666668
350.0   60.0   16.666666666666668
300.0   60.0   0.0
300.0   30.0   16.666666666666668
350.0   60.0   16.666666666666668
350.0   30.0   16.666666666666668
350.0   30.0   0.0
300.0   30.0   16.666666666666668
350.0   60.0   16.666666666666668
350.0   30.0   0.0
300.0   60.0   0.0
300.0   30.0   16.666666666666668
350.0   30.0   16.666666666666668
300.0   60.0   16.666666666666668
300.0   30.0   33.333333333333336
350.0   30.0   16.666666666666668
350.0   60.0   16.666666666666668
300.0   60.0   16.666666666666668
350.0   60.0   33.333333333333336
300.0   30.0   33.333333333333336
300.0   60.0   33.333333333333336
350.0   60.0   33.333333333333336
300.0   60.0   16.666666666666668
300.0   30.0   33.333333333333336
350.0   60.0   33.333333333333336
350.0   30.0   33.333333333333336
350.0   30.0   16.666666666666668
300.0   30.0   33.333333333333336
350.0   60.0   33.333333333333336
350.0   30.0   16.666666666666668
300.0   60.0   16.666666666666668
300.0   30.0   33.333333333333336
350.0   30.0   33.333333333333336
300.0   60.0   33.333333333333336
300.0   30.0   50.0
350.0   30.0   33.333333333333336
350.0   60.0   33.333333333333336
300.0   60.0   33.333333333333336
350.0   60.0   50.0
300.0   30.0   50.0
300.0   60.0   50.0
350.0   60.0   50.0
300.0   60.0   33.333333333333336
300.0   30.0   50.0
350.0   60.0   50.0
350.0   30.0   50.0
350.0   30.0   33.333333333333336
300.0   30.0   50.0
350.0   60.0   50.0
350.0   30.0   33.333333333333336
300.0   60.0   33.333333333333336
300.0   60.0   0.0
350.0   60.0   0.0
300.0   90.0   0.0
300.0   60.0   16.666666666666668
350.0   60.0   0.0
350.0   90.0   0.0
300.0   90.0   0.0
350.0   90.0   16.666666666666668
300.0   60.0   16.666666666666668
300.0   90.0   16.666666666666668
350.0   90.0   16.666666666666668
300.0   90.0   0.0
300.0   60.0   16.666666666666668
350.0   90.0   16.666666666666668
350.0   60.0   16.666666666666668
350.0   60.0   0.0
300.0   60.0   16.666666666666668
350.0   90.0   16.666666666666668
350.0   60.0   0.0
300.0   90.0   0.0
300.0   60.0   16.666666666666668
350.0   60.0   16.666666666666668
300.0   90.0   16.666666666666668
300.0   60.0   33.333333333333336
350.0   60.0   16.666666666666668
350.0   90.0   16.666666666666668
300.0   90.0   16.666666666666668
350.0   90.0   33.333333333333336
300.0   60.0   33.333333333333336
300.0   90.0   33.333333333333336
350.0   90.0   33.333333333333336
300.0   90.0   16.666666666666668
300.0   60.0   33.333333333333336
350.0   90.0   33.333333333333336
350.0   60.0   33.333333333333336
350.0   60.0   16.666666666666668
300.0   60.0   33.333333333333336
350.0   90.0   33.333333333333336
350.0   60.0   16.666666666666668
300.0   90.0   16.666666666666668
300.0   60.0   33.333333333333336
350.0   60.0   33.333333333333336
300.0   90.0   33.333333333333336
300.0   60.0   50.0
350.0   60.0   33.333333333333336
350.0   90.0   33.333333333333336
300.0   90.0   33.333333333333336
350.0   90.0   50.0
300.0   60.0   50.0
300.0   90.0   50.0
350.0   90.0   50.0
300.0   90.0   33.333333333333336
300.0   60.0   50.0
350.0   90.0   50.0
350.0   60.0   50.0
350.0   60.0   33.333333333333336
300.0   60.0   50.0
350.0   90.0   50.0
350.0   60.0   33.333333333333336
300.0   90.0   33.333333333333336
300.0   90.0   0.0
350.0   90.0   0.0
300.0   120.0   0.0
300.0   90.0   16.666666666666668
350.0   90.0   0.0
350.0   120.0   0.0
300.0   120.0   0.0
350.0   120.0   16.666666666666668
300.0   90.0   16.666666666666668
300.0   120.0   16.666666666666668
350.0   120.0   16.666666666666668
300.0   120.0   0.0
300.0   90.0   16.666666666666668
350.0   120.0   16.666666666666668
350.0   90.0   16.666666666666668
350.0   90.0   0.0
300.0   90.0   16.666666666666668
350.0   120.0   16.666666666666668
350.0   90.0   0.0
300.0   120.0   0.0
300.0   90.0   16.666666666666668
350.0   90.0   16.666666666666668
300.0   120.0   16.666666666666668
300.0   90.0   33.333333333333336
350.0   90.0   16.666666666666668
350.0   120.0   16.666666666666668
300.0   120.0   16.666666666666668
350.0   120.0   33.333333333333336
300.0   90.0   33.333333333333336
300.0   120.0   33.333333333333336
350.0   120.0   33.333333333333336
300.0   120.0   16.666666666666668
300.0   90.0   33.333333333333336
350.0   120.0   33.333333333333336
350.0   90.0   33.333333333333336
350.0   90.0   16.666666666666668
300.0   90.0   33.333333333333336
350.0   120.0   33.333333333333336
350.0   90.0   16.666666666666668
300.0   120.0   16.666666666666668
300.0   90.0   33.333333333333336
350.0   90.0   33.333333333333336
300.0   120.0   33.333333333333336
300.0   90.0   50.0
350.0   90.0   33.333333333333336
350.0   120.0   33.333333333333336
300.0   120.0   33.333333333333336
350.0   120.0   50.0
300.0   90.0   50.0
300.0   120.0   50.0
350.0   120.0   50.0
300.0   120.0   33.333333333333336
300.0   90.0   50.0
350.0   120.0   50.0
350.0   90.0   50.0
350.0   90.0   33.333333333333336
300.0   90.0   50.0
350.0   120.0   50.0
350.0   90.0   33.333333333333336
300.0   120.0   33.333333333333336
300.0   120.0   0.0
350.0   120.0   0.0
300.0   150.0   0.0
300.0   120.0   16.666666666666668
350.0   120.0   0.0
350.0   150.0   0.0
300.0   150.0   0.0
350.0   150.0   16.666666666666668
300.0   120.0   16.666666666666668
300.0   150.0   16.666666666666668
350.0   150.0   16.666666666666668
300.0   150.0   0.0
300.0   120.0   16.666666666666668
350.0   150.0   16.666666666666668
350.0   120.0   16.666666666666668
350.0   120.0   0.0
300.0   120.0   16.666666666666668
350.0   150.0   16.666666666666668
350.0   120.0   0.0
300.0   150.0   0.0
300.0   120.0   16.666666666666668
350.0   120.0   16.666666666666668
300.0   150.0   16.666666666666668
300.0   120.0   33.333333333333336
350.0   120.0   16.666666666666668
350.0   150.0   16.666666666666668
300.0   150.0   16.666666666666668
350.0   150.0   33.333333333333336
300.0   120.0   33.333333333333336
300.0   150.0   33.333333333333336
350.0   150.0   33.333333333333336
300.0   150.0   16.666666666666668
300.0   120.0   33.333333333333336
350.0   150.0   33.333333333333336
350.0   120.0   33.333333333333336
350.0   120.0   16.666666666666668
300.0   120.0   33.333333333333336
350.0   150.0   33.333333333333336
350.0   120.0   16.666666666666668
300.0   150.0   16.666666666666668
300.0   120.0   33.333333333333336
350.0   120.0   33.333333333333336
300.0   150.0   33.333333333333336
300.0   120.0   50.0
350.0   120.0   33.333333333333336
350.0   150.0   33.333333333333336
300.0   150.0   33.333333333333336
350.0   150.0   50.0
300.0   120.0   50.0
300.0   150.0   50.0
350.0   150.0   50.0
300.0   150.0   33.333333333333336
300.0   120.0   50.0
350.0   150.0   50.0
350.0   120.0   50.0
350.0   120.0   33.333333333333336
300.0   120.0   50.0
350.0   150.0   50.0
350.0   120.0   33.333333333333336
300.0   150.0   33.333333333333336
350.0   0.0   0.0
400.0   0.0   0.0
350.0   30.0   0.0
350.0   0.0   16.666666666666668
400.0   0.0   0.0
400.0   30.0   0.0
350.0   30.0   0.0
400.0   30.0   16.666666666666668
350.0   0.0   16.666666666666668
350.0   30.0   16.666666666666668
400.0   30.0   16.666666666666668
350.0   30.0   0.0
350.0   0.0   16.666666666666668
400.0   30.0   16.666666666666668
400.0   0.0   16.666666666666668
400.0   0.0   0.0
350.0   0.0   16.666666666666668
400.0   30.0   16.666666666666668
400.0   0.0   0.0
350.0   30.0   0.0
350.0   0.0   16.666666666666668
400.0   0.0   16.666666666666668
350.0   30.0   16.666666666666668
350.0   0.0   33.333333333333336
400.0   0.0   16.666666666666668
400.0   30.0   16.666666666666668
350.0   30.0   16.666666666666668
400.0   30.0   33.333333333333336
350.0   0.0   33.333333333333336
350.0   30.0   33.333333333333336
400.0   30.0   33.333333333333336
350.0   30.0   16.666666666666668
350.0   0.0   33.333333333333336
400.0   30.0   33.333333333333336
400.0   0.0   33.333333333333336
400.0   0.0   16.666666666666668
350.0   0.0   33.333333333333336
400.0   30.0   33.333333333333336
400.0   0.0   16.666666666666668
350.0   30.0   16.666666666666668
350.0   0.0   33.333333333333336
400.0   0.0   33.333333333333336
350.0   30.0   33.333333333333336
350.0   0.0   50.0
400.0   0.0   33.333333333333336
400.0   30.0   33.333333333333336
350.0   30.0   33.333333333333336
400.0   30.0   50.0
350.0   0.0   50.0
350.0   30.0   50.0
400.0   30.0   50.0
350.0   30.0   33.333333333333336
350.0   0.0   50.0
400.0   30.0   50.0
400.0   0.0   50.0
400.0   0.0   33.333333333333336
350.0   0.0   50.0
400.0   30.0   50.0
400.0   0.0   33.333333333333336
350.0   30.0   33.333333333333336
350.0   30.0   0.0
400.0   30.0   0.0
350.0   60.0   0.0
350.0   30.0   16.666666666666668
400.0   30.0   0.0
400.0   60.0   0.0
350.0   60.0   0.0
400.0   60.0   16.666666666666668
350.0   30.0   16.666666666666668
350.0   60.0   16.666666666666668
400.0   60.0   16.666666666666668
350.0   60.0   0.0
350.0   30.0   16.666666666666668
400.0   60.0   16.666666666666668
400.0   30.0   16.666666666666668
400.0   30.0   0.0
350.0   30.0   16.666666666666668
400.0   60.0   16.666666666666668
400.0   30.0   0.0
350.0   60.0   0.0
350.0   30.0   16.666666666666668
400.0   30.0   16.666666666666668
350.0   60.0   16.666666666666668
350.0   30.0   33.333333333333336
400.0   30.0   16.666666666666668
400.0   60.0   16.666666666666668
350.0   60.0   16.666666666666668
400.0   60.0   33.333333333333336
350.0   30.0   33.333333333333336
350.0   60.0   33.333333333333336
400.0   60.0   33.333333333333336
350.0   60.0   16.666666666666668
350.0   30.0   33.333333333333336
400.0   60.0   33.333333333333336
400.0   30.0   33.333333333333336
400.0   30.0   16.666666666666668
350.0   30.0   33.333333333333336
400.0   60.0   33.333333333333336
400.0   30.0   16.666666666666668
350.0   60.0   16.666666666666668
350.0   30.0   33.333333333333336
400.0   30.0   33.333333333333336
350.0   60.0   33.333333333333336
350.0   30.0   50.0
400.0   30.0   33.333333333333336
400.0   60.0   33.333333333333336
350.0   60.0   33.333333333333336
400.0   60.0   50.0
350.0   30.0   50.0
350.0   60.0   50.0
400.0   60.0   50.0
350.0   60.0   33.333333333333336
350.0   30.0   50.0
400.0   60.0   50.0
400.0   30.0   50.0
400.0   30.0   33.333333333333336
350.0   30.0   50.0
400.0   60.0   50.0
400.0   30.0   33.333333333333336
350.0   60.0   33.333333333333336
350.0   60.0   0.0
400.0   60.0   0.0
350.0   90.0   0.0
350.0   60.0   16.666666666666668
400.0   60.0   0.0
400.0   90.0   0.0
350.0   90.0   0.0
400.0   90.0   16.666666666666668
350.0   60.0   16.666666666666668
350.0   90.0   16.666666666666668
400.0   90.0   16.666666666666668
350.0   90.0   0.0
350.0   60.0   16.666666666666668
400.0   90.0   16.666666666666668
400.0   60.0   16.666666666666668
400.0   60.0   0.0
350.0   60.0   16.666666666666668
400.0   90.0   16.666666666666668
400.0   60.0   0.0
350.0   90.0   0.0
350.0   60.0   16.666666666666668
400.0   60.0   16.666666666666668
350.0   90.0   16.666666666666668
350.0   60.0   33.333333333333336
400.0   60.0   16.666666666666668
400.0   90.0   16.666666666666668
350.0   90.0   16.666666666666668
400.0   90.0   33.333333333333336
350.0   60.0   33.333333333333336
350.0   90.0   33.333333333333336
400.0   90.0   33.333333333333336
350.0   90.0   16.666666666666668
350.0   60.0   33.333333333333336
400.0   90.0   33.333333333333336
400.0   60.0   33.333333333333336
400.0   60.0   16.666666666666668
350.0   60.0   33.333333333333336
400.0   90.0   33.333333333333336
400.0   60.0   16.666666666666668
350.0   90.0   16.666666666666668
350.0   60.0   33.333333333333336
400.0   60.0   33.333333333333336
350.0   90.0   33.333333333333336
350.0   60.0   50.0
400.0   60.0   33.333333333333336
400.0   90.0   33.333333333333336
350.0   90.0   33.333333333333336
400.0   90.0   50.0
350.0   60.0   50.0
350.0   90.0   50.0
400.0   90.0   50.0
350.0   90.0   33.333333333333336
350.0   60.0   50.0
400.0   90.0   50.0
400.0   60.0   50.0
400.0   60.0   33.333333333333336
350.0   60.0   50.0
400.0   90.0   50.0
400.0   60.0   33.333333333333336
350.0   90.0   33.333333333333336
350.0   90.0   0.0
400.0   90.0   0.0
350.0   120.0   0.0
350.0   90.0   16.666666666666668
400.0   90.0   0.0
400.0   120.0   0.0
350.0   120.0   0.0
400.0   120.0   16.666666666666668
350.0   90.0   16.666666666666668
350.0   120.0   16.666666666666668
400.0   120.0   16.666666666666668
350.0   120.0   0.0
350.0   90.0   16.666666666666668
400.0   120.0   16.666666666666668
400.0   90.0   16.666666666666668
400.0   90.0   0.0
350.0   90.0   16.666666666666668
400.0   120.0   16.666666666666668
400.0   90.0   0.0
350.0   120.0   0.0
350.0   90.0   16.666666666666668
400.0   90.0   16.666666666666668
350.0   120.0   16.666666666666668
350.0   90.0   33.333333333333336
400.0   90.0   16.666666666666668
400.0   120.0   16.666666666666668
350.0   120.0   16.666666666666668
400.0   120.0   33.333333333333336
350.0   90.0   33.333333333333336
350.0   120.0   33.333333333333336
400.0   120.0   33.333333333333336
350.0   120.0   16.666666666666668
350.0   90.0   33.333333333333336
400.0   120.0   33.333333333333336
400.0   90.0   33.333333333333336
400.0   90.0   16.666666666666668
350.0   90.0   33.333333333333336
400.0   120.0   33.333333333333336
400.0   90.0   16.666666666666668
350.0   120.0   16.666666666666668
350.0   90.0   33.333333333333336
400.0   90.0   33.333333333333336
350.0   120.0   33.333333333333336
350.0   90.0   50.0
400.0   90.0   33.333333333333336
400.0   120.0   33.333333333333336
350.0   120.0   33.333333333333336
400.0   120.0   50.0
350.0   90.0   50.0
350.0   120.0   50.0
400.0   120.0   50.0
350.0   120.0   33.333333333333336
350.0   90.0   50.0
400.0   120.0   50.0
400.0   90.0   50.0
400.0   90.0   33.333333333333336
350.0   90.0   50.0
400.0   120.0   50.0
400.0   90.0   33.333333333333336
350.0   120.0   33.333333333333336
350.0   120.0   0.0
400.0   120.0   0.0
350.0   150.0   0.0
350.0   120.0   16.666666666666668
400.0   120.0   0.0
400.0   150.0   0.0
350.0   150.0   0.0
400.0   150.0   16.666666666666668
350.0   120.0   16.666666666666668
350.0   150.0   16.666666666666668
400.0   150.0   16.666666666666668
350.0   150.0   0.0
350.0   120.0   16.666666666666668
400.0   150.0   16.666666666666668
400.0   120.0   16.666666666666668
400.0   120.0   0.0
350.0   120.0   16.666666666666668
400.0   150.0   16.666666666666668
400.0   120.0   0.0
350.0   150.0   0.0
350.0   120.0   16.666666666666668
400.0   120.0   16.666666666666668
350.0   150.0   16.666666666666668
350.0   120.0   33.333333333333336
400.0   120.0   16.666666666666668
400.0   150.0   16.666666666666668
350.0   150.0   16.666666666666668
400.0   150.0   33.333333333333336
350.0   120.0   33.333333333333336
350.0   150.0   33.333333333333336
400.0   150.0   33.333333333333336
350.0   150.0   16.666666666666668
350.0   120.0   33.333333333333336
400.0   150.0   33.333333333333336
400.0   120.0   33.333333333333336
400.0   120.0   16.666666666666668
350.0   120.0   33.333333333333336
400.0   150.0   33.333333333333336
400.0   120.0   16.666666666666668
350.0   150.0   16.666666666666668
350.0   120.0   33.333333333333336
400.0   120.0   33.333333333333336
350.0   150.0   33.333333333333336
350.0   120.0   50.0
400.0   120.0   33.333333333333336
400.0   150.0   33.333333333333336
350.0   150.0   33.333333333333336
400.0   150.0   50.0
350.0   120.0   50.0
350.0   150.0   50.0
400.0   150.0   50.0
350.0   150.0   33.333333333333336
350.0   120.0   50.0
400.0   150.0   50.0
400.0   120.0   50.0
400.0   120.0   33.333333333333336
350.0   120.0   50.0
400.0   150.0   50.0
400.0   120.0   33.333333333333336
350.0   150.0   33.333333333333336
400.0   0.0   0.0
450.0   0.0   0.0
400.0   30.0   0.0
400.0   0.0   16.666666666666668
450.0   0.0   0.0
450.0   30.0   0.0
400.0   30.0   0.0
450.0   30.0   16.666666666666668
400.0   0.0   16.666666666666668
400.0   30.0   16.666666666666668
450.0   30.0   16.666666666666668
400.0   30.0   0.0
400.0   0.0   16.666666666666668
450.0   30.0   16.666666666666668
450.0   0.0   16.666666666666668
450.0   0.0   0.0
400.0   0.0   16.666666666666668
450.0   30.0   16.666666666666668
450.0   0.0   0.0
400.0   30.0   0.0
400.0   0.0   16.666666666666668
450.0   0.0   16.666666666666668
400.0   30.0   16.666666666666668
400.0   0.0   33.333333333333336
450.0   0.0   16.666666666666668
450.0   30.0   16.666666666666668
400.0   30.0   16.666666666666668
450.0   30.0   33.333333333333336
400.0   0.0   33.333333333333336
400.0   30.0   33.333333333333336
450.0   30.0   33.333333333333336
400.0   30.0   16.666666666666668
400.0   0.0   33.333333333333336
450.0   30.0   33.333333333333336
450.0   0.0   33.333333333333336
450.0   0.0   16.666666666666668
400.0   0.0   33.333333333333336
450.0   30.0   33.333333333333336
450.0   0.0   16.666666666666668
400.0   30.0   16.666666666666668
400.0   0.0   33.333333333333336
450.0   0.0   33.333333333333336
400.0   30.0   33.333333333333336
400.0   0.0   50.0
450.0   0.0   33.333333333333336
450.0   30.0   33.333333333333336
400.0   30.0   33.333333333333336
450.0   30.0   50.0
400.0   0.0   50.0
400.0   30.0   50.0
450.0   30.0   50.0
400.0   30.0   33.333333333333336
400.0   0.0   50.0
450.0   30.0   50.0
450.0   0.0   50.0
450.0   0.0   33.333333333333336
400.0   0.0   50.0
450.0   30.0   50.0
450.0   0.0   33.333333333333336
400.0   30.0   33.333333333333336
400.0   30.0   0.0
450.0   30.0   0.0
400.0   60.0   0.0
400.0   30.0   16.666666666666668
450.0   30.0   0.0
450.0   60.0   0.0
400.0   60.0   0.0
450.0   60.0   16.666666666666668
400.0   30.0   16.666666666666668
400.0   60.0   16.666666666666668
450.0   60.0   16.666666666666668
400.0   60.0   0.0
400.0   30.0   16.666666666666668
450.0   60.0   16.666666666666668
450.0   30.0   16.666666666666668
450.0   30.0   0.0
400.0   30.0   16.666666666666668
450.0   60.0   16.666666666666668
450.0   30.0   0.0
400.0   60.0   0.0
400.0   30.0   16.666666666666668
450.0   30.0   16.666666666666668
400.0   60.0   16.666666666666668
400.0   30.0   33.333333333333336
450.0   30.0   16.666666666666668
450.0   60.0   16.666666666666668
400.0   60.0   16.666666666666668
450.0   60.0   33.333333333333336
400.0   30.0   33.333333333333336
400.0   60.0   33.333333333333336
450.0   60.0   33.333333333333336
400.0   60.0   16.666666666666668
400.0   30.0   33.333333333333336
450.0   60.0   33.333333333333336
450.0   30.0   33.333333333333336
450.0   30.0   16.666666666666668
400.0   30.0   33.333333333333336
450.0   60.0   33.333333333333336
450.0   30.0   16.666666666666668
400.0   60.0   16.666666666666668
400.0   30.0   33.333333333333336
450.0   30.0   33.333333333333336
400.0   60.0   33.333333333333336
400.0   30.0   50.0
450.0   30.0   33.333333333333336
450.0   60.0   33.333333333333336
400.0   60.0   33.333333333333336
450.0   60.0   50.0
400.0   30.0   50.0
400.0   60.0   50.0
450.0   60.0   50.0
400.0   60.0   33.333333333333336
400.0   30.0   50.0
450.0   60.0   50.0
450.0   30.0   50.0
450.0   30.0   33.333333333333336
400.0   30.0   50.0
450.0   60.0   50.0
450.0   30.0   33.333333333333336
400.0   60.0   33.333333333333336
400.0   60.0   0.0
450.0   60.0   0.0
400.0   90.0   0.0
400.0   60.0   16.666666666666668
450.0   60.0   0.0
450.0   90.0   0.0
400.0   90.0   0.0
450.0   90.0   16.666666666666668
400.0   60.0   16.666666666666668
400.0   90.0   16.666666666666668
450.0   90.0   16.666666666666668
400.0   90.0   0.0
400.0   60.0   16.666666666666668
450.0   90.0   16.666666666666668
450.0   60.0   16.666666666666668
450.0   60.0   0.0
400.0   60.0   16.666666666666668
450.0   90.0   16.666666666666668
450.0   60.0   0.0
400.0   90.0   0.0
400.0   60.0   16.666666666666668
450.0   60.0   16.666666666666668
400.0   90.0   16.666666666666668
400.0   60.0   33.333333333333336
450.0   60.0   16.666666666666668
450.0   90.0   16.666666666666668
400.0   90.0   16.666666666666668
450.0   90.0   33.333333333333336
400.0   60.0   33.333333333333336
400.0   90.0   33.333333333333336
450.0   90.0   33.333333333333336
400.0   90.0   16.666666666666668
400.0   60.0   33.333333333333336
450.0   90.0   33.333333333333336
450.0   60.0   33.333333333333336
450.0   60.0   16.666666666666668
400.0   60.0   33.333333333333336
450.0   90.0   33.333333333333336
450.0   60.0   16.666666666666668
400.0   90.0   16.666666666666668
400.0   60.0   33.333333333333336
450.0   60.0   33.333333333333336
400.0   90.0   33.333333333333336
400.0   60.0   50.0
450.0   60.0   33.333333333333336
450.0   90.0   33.333333333333336
400.0   90.0   33.333333333333336
450.0   90.0   50.0
400.0   60.0   50.0
400.0   90.0   50.0
450.0   90.0   50.0
400.0   90.0   33.333333333333336
400.0   60.0   50.0
450.0   90.0   50.0
450.0   60.0   50.0
450.0   60.0   33.333333333333336
400.0   60.0   50.0
450.0   90.0   50.0
450.0   60.0   33.333333333333336
400.0   90.0   33.333333333333336
400.0   90.0   0.0
450.0   90.0   0.0
400.0   120.0   0.0
400.0   90.0   16.666666666666668
450.0   90.0   0.0
450.0   120.0   0.0
400.0   120.0   0.0
450.0   120.0   16.666666666666668
400.0   90.0   16.666666666666668
400.0   120.0   16.666666666666668
450.0   120.0   16.666666666666668
400.0   120.0   0.0
400.0   90.0   16.666666666666668
450.0   120.0   16.666666666666668
450.0   90.0   16.666666666666668
450.0   90.0   0.0
400.0   90.0   16.666666666666668
450.0   120.0   16.666666666666668
450.0   90.0   0.0
400.0   120.0   0.0
400.0   90.0   16.666666666666668
450.0   90.0   16.666666666666668
400.0   120.0   16.666666666666668
400.0   90.0   33.333333333333336
450.0   90.0   16.666666666666668
450.0   120.0   16.666666666666668
400.0   120.0   16.666666666666668
450.0   120.0   33.333333333333336
400.0   90.0   33.333333333333336
400.0   120.0   33.333333333333336
450.0   120.0   33.333333333333336
400.0   120.0   16.666666666666668
400.0   90.0   33.333333333333336
450.0   120.0   33.333333333333336
450.0   90.0   33.333333333333336
450.0   90.0   16.666666666666668
400.0   90.0   33.333333333333336
450.0   120.0   33.333333333333336
450.0   90.0   16.666666666666668
400.0   120.0   16.666666666666668
400.0   90.0   33.333333333333336
450.0   90.0   33.333333333333336
400.0   120.0   33.333333333333336
400.0   90.0   50.0
450.0   90.0   33.333333333333336
450.0   120.0   33.333333333333336
400.0   120.0   33.333333333333336
450.0   120.0   50.0
400.0   90.0   50.0
400.0   120.0   50.0
450.0   120.0   50.0
400.0   120.0   33.333333333333336
400.0   90.0   50.0
450.0   120.0   50.0
450.0   90.0   50.0
450.0   90.0   33.333333333333336
400.0   90.0   50.0
450.0   120.0   50.0
450.0   90.0   33.333333333333336
400.0   120.0   33.333333333333336
400.0   120.0   0.0
450.0   120.0   0.0
400.0   150.0   0.0
400.0   120.0   16.666666666666668
450.0   120.0   0.0
450.0   150.0   0.0
400.0   150.0   0.0
450.0   150.0   16.666666666666668
400.0   120.0   16.666666666666668
400.0   150.0   16.666666666666668
450.0   150.0   16.666666666666668
400.0   150.0   0.0
400.0   120.0   16.666666666666668
450.0   150.0   16.666666666666668
450.0   120.0   16.666666666666668
450.0   120.0   0.0
400.0   120.0   16.666666666666668
450.0   150.0   16.666666666666668
450.0   120.0   0.0
400.0   150.0   0.0
400.0   120.0   16.666666666666668
450.0   120.0   16.666666666666668
400.0   150.0   16.666666666666668
400.0   120.0   33.333333333333336
450.0   120.0   16.666666666666668
450.0   150.0   16.666666666666668
400.0   150.0   16.666666666666668
450.0   150.0   33.333333333333336
400.0   120.0   33.333333333333336
400.0   150.0   33.333333333333336
450.0   150.0   33.333333333333336
400.0   150.0   16.666666666666668
400.0   120.0   33.333333333333336
450.0   150.0   33.333333333333336
450.0   120.0   33.333333333333336
450.0   120.0   16.666666666666668
400.0   120.0   33.333333333333336
450.0   150.0   33.333333333333336
450.0   120.0   16.666666666666668
400.0   150.0   16.666666666666668
400.0   120.0   33.333333333333336
450.0   120.0   33.333333333333336
400.0   150.0   33.333333333333336
400.0   120.0   50.0
450.0   120.0   33.333333333333336
450.0   150.0   33.333333333333336
400.0   150.0   33.333333333333336
450.0   150.0   50.0
400.0   120.0   50.0
400.0   150.0   50.0
450.0   150.0   50.0
400.0   150.0   33.333333333333336
400.0   120.0   50.0
450.0   150.0   50.0
450.0   120.0   50.0
450.0   120.0   33.333333333333336
400.0   120.0   50.0
450.0   150.0   50.0
450.0   120.0   33.333333333333336
400.0   150.0   33.333333333333336
450.0   0.0   0.0
500.0   0.0   0.0
450.0   30.0   0.0
450.0   0.0   16.666666666666668
500.0   0.0   0.0
500.0   30.0   0.0
450.0   30.0   0.0
500.0   30.0   16.666666666666668
450.0   0.0   16.666666666666668
450.0   30.0   16.666666666666668
500.0   30.0   16.666666666666668
450.0   30.0   0.0
450.0   0.0   16.666666666666668
500.0   30.0   16.666666666666668
500.0   0.0   16.666666666666668
500.0   0.0   0.0
450.0   0.0   16.666666666666668
500.0   30.0   16.666666666666668
500.0   0.0   0.0
450.0   30.0   0.0
450.0   0.0   16.666666666666668
500.0   0.0   16.666666666666668
450.0   30.0   16.666666666666668
450.0   0.0   33.333333333333336
500.0   0.0   16.666666666666668
500.0   30.0   16.666666666666668
450.0   30.0   16.666666666666668
500.0   30.0   33.333333333333336
450.0   0.0   33.333333333333336
450.0   30.0   33.333333333333336
500.0   30.0   33.333333333333336
450.0   30.0   16.666666666666668
450.0   0.0   33.333333333333336
500.0   30.0   33.333333333333336
500.0   0.0   33.333333333333336
500.0   0.0   16.666666666666668
450.0   0.0   33.333333333333336
500.0   30.0   33.333333333333336
500.0   0.0   16.666666666666668
450.0   30.0   16.666666666666668
450.0   0.0   33.333333333333336
500.0   0.0   33.333333333333336
450.0   30.0   33.333333333333336
450.0   0.0   50.0
500.0   0.0   33.333333333333336
500.0   30.0   33.333333333333336
450.0   30.0   33.333333333333336
500.0   30.0   50.0
450.0   0.0   50.0
450.0   30.0   50.0
500.0   30.0   50.0
450.0   30.0   33.333333333333336
450.0   0.0   50.0
500.0   30.0   50.0
500.0   0.0   50.0
500.0   0.0   33.333333333333336
450.0   0.0   50.0
500.0   30.0   50.0
500.0   0.0   33.333333333333336
450.0   30.0   33.333333333333336
450.0   30.0   0.0
500.0   30.0   0.0
450.0   60.0   0.0
450.0   30.0   16.666666666666668
500.0   30.0   0.0
500.0   60.0   0.0
450.0   60.0   0.0
500.0   60.0   16.666666666666668
450.0   30.0   16.666666666666668
450.0   60.0   16.666666666666668
500.0   60.0   16.666666666666668
450.0   60.0   0.0
450.0   30.0   16.666666666666668
500.0   60.0   16.666666666666668
500.0   30.0   16.666666666666668
500.0   30.0   0.0
450.0   30.0   16.666666666666668
500.0   60.0   16.666666666666668
500.0   30.0   0.0
450.0   60.0   0.0
450.0   30.0   16.666666666666668
500.0   30.0   16.666666666666668
450.0   60.0   16.666666666666668
450.0   30.0   33.333333333333336
500.0   30.0   16.666666666666668
500.0   60.0   16.666666666666668
450.0   60.0   16.666666666666668
500.0   60.0   33.333333333333336
450.0   30.0   33.333333333333336
450.0   60.0   33.333333333333336
500.0   60.0   33.333333333333336
450.0   60.0   16.666666666666668
450.0   30.0   33.333333333333336
500.0   60.0   33.333333333333336
500.0   30.0   33.333333333333336
500.0   30.0   16.666666666666668
450.0   30.0   33.333333333333336
500.0   60.0   33.333333333333336
500.0   30.0   16.666666666666668
450.0   60.0   16.666666666666668
450.0   30.0   33.333333333333336
500.0   30.0   33.333333333333336
450.0   60.0   33.333333333333336
450.0   30.0   50.0
500.0   30.0   33.333333333333336
500.0   60.0   33.333333333333336
450.0   60.0   33.333333333333336
500.0   60.0   50.0
450.0   30.0   50.0
450.0   60.0   50.0
500.0   60.0   50.0
450.0   60.0   33.333333333333336
450.0   30.0   50.0
500.0   60.0   50.0
500.0   30.0   50.0
500.0   30.0   33.333333333333336
450.0   30.0   50.0
500.0   60.0   50.0
500.0   30.0   33.333333333333336
450.0   60.0   33.333333333333336
450.0   60.0   0.0
500.0   60.0   0.0
450.0   90.0   0.0
450.0   60.0   16.666666666666668
500.0   60.0   0.0
500.0   90.0   0.0
450.0   90.0   0.0
500.0   90.0   16.666666666666668
450.0   60.0   16.666666666666668
450.0   90.0   16.666666666666668
500.0   90.0   16.666666666666668
450.0   90.0   0.0
450.0   60.0   16.666666666666668
500.0   90.0   16.666666666666668
500.0   60.0   16.666666666666668
500.0   60.0   0.0
450.0   60.0   16.666666666666668
500.0   90.0   16.666666666666668
500.0   60.0   0.0
450.0   90.0   0.0
450.0   60.0   16.666666666666668
500.0   60.0   16.666666666666668
450.0   90.0   16.666666666666668
450.0   60.0   33.333333333333336
500.0   60.0   16.666666666666668
500.0   90.0   16.666666666666668
450.0   90.0   16.666666666666668
500.0   90.0   33.333333333333336
450.0   60.0   33.333333333333336
450.0   90.0   33.333333333333336
500.0   90.0   33.333333333333336
450.0   90.0   16.666666666666668
450.0   60.0   33.333333333333336
500.0   90.0   33.333333333333336
500.0   60.0   33.333333333333336
500.0   60.0   16.666666666666668
450.0   60.0   33.333333333333336
500.0   90.0   33.333333333333336
500.0   60.0   16.666666666666668
450.0   90.0   16.666666666666668
450.0   60.0   33.333333333333336
500.0   60.0   33.333333333333336
450.0   90.0   33.333333333333336
450.0   60.0   50.0
500.0   60.0   33.333333333333336
500.0   90.0   33.333333333333336
450.0   90.0   33.333333333333336
500.0   90.0   50.0
450.0   60.0   50.0
450.0   90.0   50.0
500.0   90.0   50.0
450.0   90.0   33.333333333333336
450.0   60.0   50.0
500.0   90.0   50.0
500.0   60.0   50.0
500.0   60.0   33.333333333333336
450.0   60.0   50.0
500.0   90.0   50.0
500.0   60.0   33.333333333333336
450.0   90.0   33.333333333333336
450.0   90.0   0.0
500.0   90.0   0.0
450.0   120.0   0.0
450.0   90.0   16.666666666666668
500.0   90.0   0.0
500.0   120.0   0.0
450.0   120.0   0.0
500.0   120.0   16.666666666666668
450.0   90.0   16.666666666666668
450.0   120.0   16.666666666666668
500.0   120.0   16.666666666666668
450.0   120.0   0.0
450.0   90.0   16.666666666666668
500.0   120.0   16.666666666666668
500.0   90.0   16.666666666666668
500.0   90.0   0.0
450.0   90.0   16.666666666666668
500.0   120.0   16.666666666666668
500.0   90.0   0.0
450.0   120.0   0.0
450.0   90.0   16.666666666666668
500.0   90.0   16.666666666666668
450.0   120.0   16.666666666666668
450.0   90.0   33.333333333333336
500.0   90.0   16.666666666666668
500.0   120.0   16.666666666666668
450.0   120.0   16.666666666666668
500.0   120.0   33.333333333333336
450.0   90.0   33.333333333333336
450.0   120.0   33.333333333333336
500.0   120.0   33.333333333333336
450.0   120.0   16.666666666666668
450.0   90.0   33.333333333333336
500.0   120.0   33.333333333333336
500.0   90.0   33.333333333333336
500.0   90.0   16.666666666666668
450.0   90.0   33.333333333333336
500.0   120.0   33.333333333333336
500.0   90.0   16.666666666666668
450.0   120.0   16.666666666666668
450.0   90.0   33.333333333333336
500.0   90.0   33.333333333333336
450.0   120.0   33.333333333333336
450.0   90.0   50.0
500.0   90.0   33.333333333333336
500.0   120.0   33.333333333333336
450.0   120.0   33.333333333333336
500.0   120.0   50.0
450.0   90.0   50.0
450.0   120.0   50.0
500.0   120.0   50.0
450.0   120.0   33.333333333333336
450.0   90.0   50.0
500.0   120.0   50.0
500.0   90.0   50.0
500.0   90.0   33.333333333333336
450.0   90.0   50.0
500.0   120.0   50.0
500.0   90.0   33.333333333333336
450.0   120.0   33.333333333333336
450.0   120.0   0.0
500.0   120.0   0.0
450.0   150.0   0.0
450.0   120.0   16.666666666666668
500.0   120.0   0.0
500.0   150.0   0.0
450.0   150.0   0.0
500.0   150.0   16.666666666666668
450.0   120.0   16.666666666666668
450.0   150.0   16.666666666666668
500.0   150.0   16.666666666666668
450.0   150.0   0.0
450.0   120.0   16.666666666666668
500.0   150.0   16.666666666666668
500.0   120.0   16.666666666666668
500.0   120.0   0.0
450.0   120.0   16.666666666666668
500.0   150.0   16.666666666666668
500.0   120.0   0.0
450.0   150.0   0.0
450.0   120.0   16.666666666666668
500.0   120.0   16.666666666666668
450.0   150.0   16.666666666666668
450.0   120.0   33.333333333333336
500.0   120.0   16.666666666666668
500.0   150.0   16.666666666666668
450.0   150.0   16.666666666666668
500.0   150.0   33.333333333333336
450.0   120.0   33.333333333333336
450.0   150.0   33.333333333333336
500.0   150.0   33.333333333333336
450.0   150.0   16.666666666666668
450.0   120.0   33.333333333333336
500.0   150.0   33.333333333333336
500.0   120.0   33.333333333333336
500.0   120.0   16.666666666666668
450.0   120.0   33.333333333333336
500.0   150.0   33.333333333333336
500.0   120.0   16.666666666666668
450.0   150.0   16.666666666666668
450.0   120.0   33.333333333333336
500.0   120.0   33.333333333333336
450.0   150.0   33.333333333333336
450.0   120.0   50.0
500.0   120.0   33.333333333333336
500.0   150.0   33.333333333333336
450.0   150.0   33.333333333333336
500.0   150.0   50.0
450.0   120.0   50.0
450.0   150.0   50.0
500.0   150.0   50.0
450.0   150.0   33.333333333333336
450.0   120.0   50.0
500.0   150.0   50.0
500.0   120.0   50.0
500.0   120.0   33.333333333333336
450.0   120.0   50.0
500.0   150.0   50.0
500.0   120.0   33.333333333333336
450.0   150.0   33.333333333333336
             </DataArray>   
          </Points>  
          <Cells>  
             <DataArray type="Int32" Name="connectivity" format="ascii">   
0   1   2   3
4   5   6   7
8   9   10   11
12   13   14   15
16   17   18   19
20   21   22   23
24   25   26   27
28   29   30   31
32   33   34   35
36   37   38   39
40   41   42   43
44   45   46   47
48   49   50   51
52   53   54   55
56   57   58   59
60   61   62   63
64   65   66   67
68   69   70   71
72   73   74   75
76   77   78   79
80   81   82   83
84   85   86   87
88   89   90   91
92   93   94   95
96   97   98   99
100   101   102   103
104   105   106   107
108   109   110   111
112   113   114   115
116   117   118   119
120   121   122   123
124   125   126   127
128   129   130   131
132   133   134   135
136   137   138   139
140   141   142   143
144   145   146   147
148   149   150   151
152   153   154   155
156   157   158   159
160   161   162   163
164   165   166   167
168   169   170   171
172   173   174   175
176   177   178   179
180   181   182   183
184   185   186   187
188   189   190   191
192   193   194   195
196   197   198   199
200   201   202   203
204   205   206   207
208   209   210   211
212   213   214   215
216   217   218   219
220   221   222   223
224   225   226   227
228   229   230   231
232   233   234   235
236   237   238   239
240   241   242   243
244   245   246   247
248   249   250   251
252   253   254   255
256   257   258   259
260   261   262   263
264   265   266   267
268   269   270   271
272   273   274   275
276   277   278   279
280   281   282   283
284   285   286   287
288   289   290   291
292   293   294   295
296   297   298   299
300   301   302   303
304   305   306   307
308   309   310   311
312   313   314   315
316   317   318   319
320   321   322   323
324   325   326   327
328   329   330   331
332   333   334   335
336   337   338   339
340   341   342   343
344   345   346   347
348   349   350   351
352   353   354   355
356   357   358   359
360   361   362   363
364   365   366   367
368   369   370   371
372   373   374   375
376   377   378   379
380   381   382   383
384   385   386   387
388   389   390   391
392   393   394   395
396   397   398   399
400   401   402   403
404   405   406   407
408   409   410   411
412   413   414   415
416   417   418   419
420   421   422   423
424   425   426   427
428   429   430   431
432   433   434   435
436   437   438   439
440   441   442   443
444   445   446   447
448   449   450   451
452   453   454   455
456   457   458   459
460   461   462   463
464   465   466   467
468   469   470   471
472   473   474   475
476   477   478   479
480   481   482   483
484   485   486   487
488   489   490   491
492   493   494   495
496   497   498   499
500   501   502   503
504   505   506   507
508   509   510   511
512   513   514   515
516   517   518   519
520   521   522   523
524   525   526   527
528   529   530   531
532   533   534   535
536   537   538   539
540   541   542   543
544   545   546   547
548   549   550   551
552   553   554   555
556   557   558   559
560   561   562   563
564   565   566   567
568   569   570   571
572   573   574   575
576   577   578   579
580   581   582   583
584   585   586   587
588   589   590   591
592   593   594   595
596   597   598   599
600   601   602   603
604   605   606   607
608   609   610   611
612   613   614   615
616   617   618   619
620   621   622   623
624   625   626   627
628   629   630   631
632   633   634   635
636   637   638   639
640   641   642   643
644   645   646   647
648   649   650   651
652   653   654   655
656   657   658   659
660   661   662   663
664   665   666   667
668   669   670   671
672   673   674   675
676   677   678   679
680   681   682   683
684   685   686   687
688   689   690   691
692   693   694   695
696   697   698   699
700   701   702   703
704   705   706   707
708   709   710   711
712   713   714   715
716   717   718   719
720   721   722   723
724   725   726   727
728   729   730   731
732   733   734   735
736   737   738   739
740   741   742   743
744   745   746   747
748   749   750   751
752   753   754   755
756   757   758   759
760   761   762   763
764   765   766   767
768   769   770   771
772   773   774   775
776   777   778   779
780   781   782   783
784   785   786   787
788   789   790   791
792   793   794   795
796   797   798   799
800   801   802   803
804   805   806   807
808   809   810   811
812   813   814   815
816   817   818   819
820   821   822   823
824   825   826   827
828   829   830   831
832   833   834   835
836   837   838   839
840   841   842   843
844   845   846   847
848   849   850   851
852   853   854   855
856   857   858   859
860   861   862   863
864   865   866   867
868   869   870   871
872   873   874   875
876   877   878   879
880   881   882   883
884   885   886   887
888   889   890   891
892   893   894   895
896   897   898   899
900   901   902   903
904   905   906   907
908   909   910   911
912   913   914   915
916   917   918   919
920   921   922   923
924   925   926   927
928   929   930   931
932   933   934   935
936   937   938   939
940   941   942   943
944   945   946   947
948   949   950   951
952   953   954   955
956   957   958   959
960   961   962   963
964   965   966   967
968   969   970   971
972   973   974   975
976   977   978   979
980   981   982   983
984   985   986   987
988   989   990   991
992   993   994   995
996   997   998   999
1000   1001   1002   1003
1004   1005   1006   1007
1008   1009   1010   1011
1012   1013   1014   1015
1016   1017   1018   1019
1020   1021   1022   1023
1024   1025   1026   1027
1028   1029   1030   1031
1032   1033   1034   1035
1036   1037   1038   1039
1040   1041   1042   1043
1044   1045   1046   1047
1048   1049   1050   1051
1052   1053   1054   1055
1056   1057   1058   1059
1060   1061   1062   1063
1064   1065   1066   1067
1068   1069   1070   1071
1072   1073   1074   1075
1076   1077   1078   1079
1080   1081   1082   1083
1084   1085   1086   1087
1088   1089   1090   1091
1092   1093   1094   1095
1096   1097   1098   1099
1100   1101   1102   1103
1104   1105   1106   1107
1108   1109   1110   1111
1112   1113   1114   1115
1116   1117   1118   1119
1120   1121   1122   1123
1124   1125   1126   1127
1128   1129   1130   1131
1132   1133   1134   1135
1136   1137   1138   1139
1140   1141   1142   1143
1144   1145   1146   1147
1148   1149   1150   1151
1152   1153   1154   1155
1156   1157   1158   1159
1160   1161   1162   1163
1164   1165   1166   1167
1168   1169   1170   1171
1172   1173   1174   1175
1176   1177   1178   1179
1180   1181   1182   1183
1184   1185   1186   1187
1188   1189   1190   1191
1192   1193   1194   1195
1196   1197   1198   1199
1200   1201   1202   1203
1204   1205   1206   1207
1208   1209   1210   1211
1212   1213   1214   1215
1216   1217   1218   1219
1220   1221   1222   1223
1224   1225   1226   1227
1228   1229   1230   1231
1232   1233   1234   1235
1236   1237   1238   1239
1240   1241   1242   1243
1244   1245   1246   1247
1248   1249   1250   1251
1252   1253   1254   1255
1256   1257   1258   1259
1260   1261   1262   1263
1264   1265   1266   1267
1268   1269   1270   1271
1272   1273   1274   1275
1276   1277   1278   1279
1280   1281   1282   1283
1284   1285   1286   1287
1288   1289   1290   1291
1292   1293   1294   1295
1296   1297   1298   1299
1300   1301   1302   1303
1304   1305   1306   1307
1308   1309   1310   1311
1312   1313   1314   1315
1316   1317   1318   1319
1320   1321   1322   1323
1324   1325   1326   1327
1328   1329   1330   1331
1332   1333   1334   1335
1336   1337   1338   1339
1340   1341   1342   1343
1344   1345   1346   1347
1348   1349   1350   1351
1352   1353   1354   1355
1356   1357   1358   1359
1360   1361   1362   1363
1364   1365   1366   1367
1368   1369   1370   1371
1372   1373   1374   1375
1376   1377   1378   1379
1380   1381   1382   1383
1384   1385   1386   1387
1388   1389   1390   1391
1392   1393   1394   1395
1396   1397   1398   1399
1400   1401   1402   1403
1404   1405   1406   1407
1408   1409   1410   1411
1412   1413   1414   1415
1416   1417   1418   1419
1420   1421   1422   1423
1424   1425   1426   1427
1428   1429   1430   1431
1432   1433   1434   1435
1436   1437   1438   1439
1440   1441   1442   1443
1444   1445   1446   1447
1448   1449   1450   1451
1452   1453   1454   1455
1456   1457   1458   1459
1460   1461   1462   1463
1464   1465   1466   1467
1468   1469   1470   1471
1472   1473   1474   1475
1476   1477   1478   1479
1480   1481   1482   1483
1484   1485   1486   1487
1488   1489   1490   1491
1492   1493   1494   1495
1496   1497   1498   1499
1500   1501   1502   1503
1504   1505   1506   1507
1508   1509   1510   1511
1512   1513   1514   1515
1516   1517   1518   1519
1520   1521   1522   1523
1524   1525   1526   1527
1528   1529   1530   1531
1532   1533   1534   1535
1536   1537   1538   1539
1540   1541   1542   1543
1544   1545   1546   1547
1548   1549   1550   1551
1552   1553   1554   1555
1556   1557   1558   1559
1560   1561   1562   1563
1564   1565   1566   1567
1568   1569   1570   1571
1572   1573   1574   1575
1576   1577   1578   1579
1580   1581   1582   1583
1584   1585   1586   1587
1588   1589   1590   1591
1592   1593   1594   1595
1596   1597   1598   1599
1600   1601   1602   1603
1604   1605   1606   1607
1608   1609   1610   1611
1612   1613   1614   1615
1616   1617   1618   1619
1620   1621   1622   1623
1624   1625   1626   1627
1628   1629   1630   1631
1632   1633   1634   1635
1636   1637   1638   1639
1640   1641   1642   1643
1644   1645   1646   1647
1648   1649   1650   1651
1652   1653   1654   1655
1656   1657   1658   1659
1660   1661   1662   1663
1664   1665   1666   1667
1668   1669   1670   1671
1672   1673   1674   1675
1676   1677   1678   1679
1680   1681   1682   1683
1684   1685   1686   1687
1688   1689   1690   1691
1692   1693   1694   1695
1696   1697   1698   1699
1700   1701   1702   1703
1704   1705   1706   1707
1708   1709   1710   1711
1712   1713   1714   1715
1716   1717   1718   1719
1720   1721   1722   1723
1724   1725   1726   1727
1728   1729   1730   1731
1732   1733   1734   1735
1736   1737   1738   1739
1740   1741   1742   1743
1744   1745   1746   1747
1748   1749   1750   1751
1752   1753   1754   1755
1756   1757   1758   1759
1760   1761   1762   1763
1764   1765   1766   1767
1768   1769   1770   1771
1772   1773   1774   1775
1776   1777   1778   1779
1780   1781   1782   1783
1784   1785   1786   1787
1788   1789   1790   1791
1792   1793   1794   1795
1796   1797   1798   1799
1800   1801   1802   1803
1804   1805   1806   1807
1808   1809   1810   1811
1812   1813   1814   1815
1816   1817   1818   1819
1820   1821   1822   1823
1824   1825   1826   1827
1828   1829   1830   1831
1832   1833   1834   1835
1836   1837   1838   1839
1840   1841   1842   1843
1844   1845   1846   1847
1848   1849   1850   1851
1852   1853   1854   1855
1856   1857   1858   1859
1860   1861   1862   1863
1864   1865   1866   1867
1868   1869   1870   1871
1872   1873   1874   1875
1876   1877   1878   1879
1880   1881   1882   1883
1884   1885   1886   1887
1888   1889   1890   1891
1892   1893   1894   1895
1896   1897   1898   1899
1900   1901   1902   1903
1904   1905   1906   1907
1908   1909   1910   1911
1912   1913   1914   1915
1916   1917   1918   1919
1920   1921   1922   1923
1924   1925   1926   1927
1928   1929   1930   1931
1932   1933   1934   1935
1936   1937   1938   1939
1940   1941   1942   1943
1944   1945   1946   1947
1948   1949   1950   1951
1952   1953   1954   1955
1956   1957   1958   1959
1960   1961   1962   1963
1964   1965   1966   1967
1968   1969   1970   1971
1972   1973   1974   1975
1976   1977   1978   1979
1980   1981   1982   1983
1984   1985   1986   1987
1988   1989   1990   1991
1992   1993   1994   1995
1996   1997   1998   1999
2000   2001   2002   2003
2004   2005   2006   2007
2008   2009   2010   2011
2012   2013   2014   2015
2016   2017   2018   2019
2020   2021   2022   2023
2024   2025   2026   2027
2028   2029   2030   2031
2032   2033   2034   2035
2036   2037   2038   2039
2040   2041   2042   2043
2044   2045   2046   2047
2048   2049   2050   2051
2052   2053   2054   2055
2056   2057   2058   2059
2060   2061   2062   2063
2064   2065   2066   2067
2068   2069   2070   2071
2072   2073   2074   2075
2076   2077   2078   2079
2080   2081   2082   2083
2084   2085   2086   2087
2088   2089   2090   2091
2092   2093   2094   2095
2096   2097   2098   2099
2100   2101   2102   2103
2104   2105   2106   2107
2108   2109   2110   2111
2112   2113   2114   2115
2116   2117   2118   2119
2120   2121   2122   2123
2124   2125   2126   2127
2128   2129   2130   2131
2132   2133   2134   2135
2136   2137   2138   2139
2140   2141   2142   2143
2144   2145   2146   2147
2148   2149   2150   2151
2152   2153   2154   2155
2156   2157   2158   2159
2160   2161   2162   2163
2164   2165   2166   2167
2168   2169   2170   2171
2172   2173   2174   2175
2176   2177   2178   2179
2180   2181   2182   2183
2184   2185   2186   2187
2188   2189   2190   2191
2192   2193   2194   2195
2196   2197   2198   2199
2200   2201   2202   2203
2204   2205   2206   2207
2208   2209   2210   2211
2212   2213   2214   2215
2216   2217   2218   2219
2220   2221   2222   2223
2224   2225   2226   2227
2228   2229   2230   2231
2232   2233   2234   2235
2236   2237   2238   2239
2240   2241   2242   2243
2244   2245   2246   2247
2248   2249   2250   2251
2252   2253   2254   2255
2256   2257   2258   2259
2260   2261   2262   2263
2264   2265   2266   2267
2268   2269   2270   2271
2272   2273   2274   2275
2276   2277   2278   2279
2280   2281   2282   2283
2284   2285   2286   2287
2288   2289   2290   2291
2292   2293   2294   2295
2296   2297   2298   2299
2300   2301   2302   2303
2304   2305   2306   2307
2308   2309   2310   2311
2312   2313   2314   2315
2316   2317   2318   2319
2320   2321   2322   2323
2324   2325   2326   2327
2328   2329   2330   2331
2332   2333   2334   2335
2336   2337   2338   2339
2340   2341   2342   2343
2344   2345   2346   2347
2348   2349   2350   2351
2352   2353   2354   2355
2356   2357   2358   2359
2360   2361   2362   2363
2364   2365   2366   2367
2368   2369   2370   2371
2372   2373   2374   2375
2376   2377   2378   2379
2380   2381   2382   2383
2384   2385   2386   2387
2388   2389   2390   2391
2392   2393   2394   2395
2396   2397   2398   2399
2400   2401   2402   2403
2404   2405   2406   2407
2408   2409   2410   2411
2412   2413   2414   2415
2416   2417   2418   2419
2420   2421   2422   2423
2424   2425   2426   2427
2428   2429   2430   2431
2432   2433   2434   2435
2436   2437   2438   2439
2440   2441   2442   2443
2444   2445   2446   2447
2448   2449   2450   2451
2452   2453   2454   2455
2456   2457   2458   2459
2460   2461   2462   2463
2464   2465   2466   2467
2468   2469   2470   2471
2472   2473   2474   2475
2476   2477   2478   2479
2480   2481   2482   2483
2484   2485   2486   2487
2488   2489   2490   2491
2492   2493   2494   2495
2496   2497   2498   2499
2500   2501   2502   2503
2504   2505   2506   2507
2508   2509   2510   2511
2512   2513   2514   2515
2516   2517   2518   2519
2520   2521   2522   2523
2524   2525   2526   2527
2528   2529   2530   2531
2532   2533   2534   2535
2536   2537   2538   2539
2540   2541   2542   2543
2544   2545   2546   2547
2548   2549   2550   2551
2552   2553   2554   2555
2556   2557   2558   2559
2560   2561   2562   2563
2564   2565   2566   2567
2568   2569   2570   2571
2572   2573   2574   2575
2576   2577   2578   2579
2580   2581   2582   2583
2584   2585   2586   2587
2588   2589   2590   2591
2592   2593   2594   2595
2596   2597   2598   2599
2600   2601   2602   2603
2604   2605   2606   2607
2608   2609   2610   2611
2612   2613   2614   2615
2616   2617   2618   2619
2620   2621   2622   2623
2624   2625   2626   2627
2628   2629   2630   2631
2632   2633   2634   2635
2636   2637   2638   2639
2640   2641   2642   2643
2644   2645   2646   2647
2648   2649   2650   2651
2652   2653   2654   2655
2656   2657   2658   2659
2660   2661   2662   2663
2664   2665   2666   2667
2668   2669   2670   2671
2672   2673   2674   2675
2676   2677   2678   2679
2680   2681   2682   2683
2684   2685   2686   2687
2688   2689   2690   2691
2692   2693   2694   2695
2696   2697   2698   2699
2700   2701   2702   2703
2704   2705   2706   2707
2708   2709   2710   2711
2712   2713   2714   2715
2716   2717   2718   2719
2720   2721   2722   2723
2724   2725   2726   2727
2728   2729   2730   2731
2732   2733   2734   2735
2736   2737   2738   2739
2740   2741   2742   2743
2744   2745   2746   2747
2748   2749   2750   2751
2752   2753   2754   2755
2756   2757   2758   2759
2760   2761   2762   2763
2764   2765   2766   2767
2768   2769   2770   2771
2772   2773   2774   2775
2776   2777   2778   2779
2780   2781   2782   2783
2784   2785   2786   2787
2788   2789   2790   2791
2792   2793   2794   2795
2796   2797   2798   2799
2800   2801   2802   2803
2804   2805   2806   2807
2808   2809   2810   2811
2812   2813   2814   2815
2816   2817   2818   2819
2820   2821   2822   2823
2824   2825   2826   2827
2828   2829   2830   2831
2832   2833   2834   2835
2836   2837   2838   2839
2840   2841   2842   2843
2844   2845   2846   2847
2848   2849   2850   2851
2852   2853   2854   2855
2856   2857   2858   2859
2860   2861   2862   2863
2864   2865   2866   2867
2868   2869   2870   2871
2872   2873   2874   2875
2876   2877   2878   2879
2880   2881   2882   2883
2884   2885   2886   2887
2888   2889   2890   2891
2892   2893   2894   2895
2896   2897   2898   2899
2900   2901   2902   2903
2904   2905   2906   2907
2908   2909   2910   2911
2912   2913   2914   2915
2916   2917   2918   2919
2920   2921   2922   2923
2924   2925   2926   2927
2928   2929   2930   2931
2932   2933   2934   2935
2936   2937   2938   2939
2940   2941   2942   2943
2944   2945   2946   2947
2948   2949   2950   2951
2952   2953   2954   2955
2956   2957   2958   2959
2960   2961   2962   2963
2964   2965   2966   2967
2968   2969   2970   2971
2972   2973   2974   2975
2976   2977   2978   2979
2980   2981   2982   2983
2984   2985   2986   2987
2988   2989   2990   2991
2992   2993   2994   2995
2996   2997   2998   2999
3000   3001   3002   3003
3004   3005   3006   3007
3008   3009   3010   3011
3012   3013   3014   3015
3016   3017   3018   3019
3020   3021   3022   3023
3024   3025   3026   3027
3028   3029   3030   3031
3032   3033   3034   3035
3036   3037   3038   3039
3040   3041   3042   3043
3044   3045   3046   3047
3048   3049   3050   3051
3052   3053   3054   3055
3056   3057   3058   3059
3060   3061   3062   3063
3064   3065   3066   3067
3068   3069   3070   3071
3072   3073   3074   3075
3076   3077   3078   3079
3080   3081   3082   3083
3084   3085   3086   3087
3088   3089   3090   3091
3092   3093   3094   3095
3096   3097   3098   3099
3100   3101   3102   3103
3104   3105   3106   3107
3108   3109   3110   3111
3112   3113   3114   3115
3116   3117   3118   3119
3120   3121   3122   3123
3124   3125   3126   3127
3128   3129   3130   3131
3132   3133   3134   3135
3136   3137   3138   3139
3140   3141   3142   3143
3144   3145   3146   3147
3148   3149   3150   3151
3152   3153   3154   3155
3156   3157   3158   3159
3160   3161   3162   3163
3164   3165   3166   3167
3168   3169   3170   3171
3172   3173   3174   3175
3176   3177   3178   3179
3180   3181   3182   3183
3184   3185   3186   3187
3188   3189   3190   3191
3192   3193   3194   3195
3196   3197   3198   3199
3200   3201   3202   3203
3204   3205   3206   3207
3208   3209   3210   3211
3212   3213   3214   3215
3216   3217   3218   3219
3220   3221   3222   3223
3224   3225   3226   3227
3228   3229   3230   3231
3232   3233   3234   3235
3236   3237   3238   3239
3240   3241   3242   3243
3244   3245   3246   3247
3248   3249   3250   3251
3252   3253   3254   3255
3256   3257   3258   3259
3260   3261   3262   3263
3264   3265   3266   3267
3268   3269   3270   3271
3272   3273   3274   3275
3276   3277   3278   3279
3280   3281   3282   3283
3284   3285   3286   3287
3288   3289   3290   3291
3292   3293   3294   3295
3296   3297   3298   3299
3300   3301   3302   3303
3304   3305   3306   3307
3308   3309   3310   3311
3312   3313   3314   3315
3316   3317   3318   3319
3320   3321   3322   3323
3324   3325   3326   3327
3328   3329   3330   3331
3332   3333   3334   3335
3336   3337   3338   3339
3340   3341   3342   3343
3344   3345   3346   3347
3348   3349   3350   3351
3352   3353   3354   3355
3356   3357   3358   3359
3360   3361   3362   3363
3364   3365   3366   3367
3368   3369   3370   3371
3372   3373   3374   3375
3376   3377   3378   3379
3380   3381   3382   3383
3384   3385   3386   3387
3388   3389   3390   3391
3392   3393   3394   3395
3396   3397   3398   3399
3400   3401   3402   3403
3404   3405   3406   3407
3408   3409   3410   3411
3412   3413   3414   3415
3416   3417   3418   3419
3420   3421   3422   3423
3424   3425   3426   3427
3428   3429   3430   3431
3432   3433   3434   3435
3436   3437   3438   3439
3440   3441   3442   3443
3444   3445   3446   3447
3448   3449   3450   3451
3452   3453   3454   3455
3456   3457   3458   3459
3460   3461   3462   3463
3464   3465   3466   3467
3468   3469   3470   3471
3472   3473   3474   3475
3476   3477   3478   3479
3480   3481   3482   3483
3484   3485   3486   3487
3488   3489   3490   3491
3492   3493   3494   3495
3496   3497   3498   3499
3500   3501   3502   3503
3504   3505   3506   3507
3508   3509   3510   3511
3512   3513   3514   3515
3516   3517   3518   3519
3520   3521   3522   3523
3524   3525   3526   3527
3528   3529   3530   3531
3532   3533   3534   3535
3536   3537   3538   3539
3540   3541   3542   3543
3544   3545   3546   3547
3548   3549   3550   3551
3552   3553   3554   3555
3556   3557   3558   3559
3560   3561   3562   3563
3564   3565   3566   3567
3568   3569   3570   3571
3572   3573   3574   3575
3576   3577   3578   3579
3580   3581   3582   3583
3584   3585   3586   3587
3588   3589   3590   3591
3592   3593   3594   3595
3596   3597   3598   3599
3600   3601   3602   3603
3604   3605   3606   3607
3608   3609   3610   3611
3612   3613   3614   3615
3616   3617   3618   3619
3620   3621   3622   3623
3624   3625   3626   3627
3628   3629   3630   3631
3632   3633   3634   3635
3636   3637   3638   3639
3640   3641   3642   3643
3644   3645   3646   3647
3648   3649   3650   3651
3652   3653   3654   3655
3656   3657   3658   3659
3660   3661   3662   3663
3664   3665   3666   3667
3668   3669   3670   3671
3672   3673   3674   3675
3676   3677   3678   3679
3680   3681   3682   3683
3684   3685   3686   3687
3688   3689   3690   3691
3692   3693   3694   3695
3696   3697   3698   3699
3700   3701   3702   3703
3704   3705   3706   3707
3708   3709   3710   3711
3712   3713   3714   3715
3716   3717   3718   3719
3720   3721   3722   3723
3724   3725   3726   3727
3728   3729   3730   3731
3732   3733   3734   3735
3736   3737   3738   3739
3740   3741   3742   3743
3744   3745   3746   3747
3748   3749   3750   3751
3752   3753   3754   3755
3756   3757   3758   3759
3760   3761   3762   3763
3764   3765   3766   3767
3768   3769   3770   3771
3772   3773   3774   3775
3776   3777   3778   3779
3780   3781   3782   3783
3784   3785   3786   3787
3788   3789   3790   3791
3792   3793   3794   3795
3796   3797   3798   3799
3800   3801   3802   3803
3804   3805   3806   3807
3808   3809   3810   3811
3812   3813   3814   3815
3816   3817   3818   3819
3820   3821   3822   3823
3824   3825   3826   3827
3828   3829   3830   3831
3832   3833   3834   3835
3836   3837   3838   3839
3840   3841   3842   3843
3844   3845   3846   3847
3848   3849   3850   3851
3852   3853   3854   3855
3856   3857   3858   3859
3860   3861   3862   3863
3864   3865   3866   3867
3868   3869   3870   3871
3872   3873   3874   3875
3876   3877   3878   3879
3880   3881   3882   3883
3884   3885   3886   3887
3888   3889   3890   3891
3892   3893   3894   3895
3896   3897   3898   3899
3900   3901   3902   3903
3904   3905   3906   3907
3908   3909   3910   3911
3912   3913   3914   3915
3916   3917   3918   3919
3920   3921   3922   3923
3924   3925   3926   3927
3928   3929   3930   3931
3932   3933   3934   3935
3936   3937   3938   3939
3940   3941   3942   3943
3944   3945   3946   3947
3948   3949   3950   3951
3952   3953   3954   3955
3956   3957   3958   3959
3960   3961   3962   3963
3964   3965   3966   3967
3968   3969   3970   3971
3972   3973   3974   3975
3976   3977   3978   3979
3980   3981   3982   3983
3984   3985   3986   3987
3988   3989   3990   3991
3992   3993   3994   3995
3996   3997   3998   3999
4000   4001   4002   4003
4004   4005   4006   4007
4008   4009   4010   4011
4012   4013   4014   4015
4016   4017   4018   4019
4020   4021   4022   4023
4024   4025   4026   4027
4028   4029   4030   4031
4032   4033   4034   4035
4036   4037   4038   4039
4040   4041   4042   4043
4044   4045   4046   4047
4048   4049   4050   4051
4052   4053   4054   4055
4056   4057   4058   4059
4060   4061   4062   4063
4064   4065   4066   4067
4068   4069   4070   4071
4072   4073   4074   4075
4076   4077   4078   4079
4080   4081   4082   4083
4084   4085   4086   4087
4088   4089   4090   4091
4092   4093   4094   4095
4096   4097   4098   4099
4100   4101   4102   4103
4104   4105   4106   4107
4108   4109   4110   4111
4112   4113   4114   4115
4116   4117   4118   4119
4120   4121   4122   4123
4124   4125   4126   4127
4128   4129   4130   4131
4132   4133   4134   4135
4136   4137   4138   4139
4140   4141   4142   4143
4144   4145   4146   4147
4148   4149   4150   4151
4152   4153   4154   4155
4156   4157   4158   4159
4160   4161   4162   4163
4164   4165   4166   4167
4168   4169   4170   4171
4172   4173   4174   4175
4176   4177   4178   4179
4180   4181   4182   4183
4184   4185   4186   4187
4188   4189   4190   4191
4192   4193   4194   4195
4196   4197   4198   4199
4200   4201   4202   4203
4204   4205   4206   4207
4208   4209   4210   4211
4212   4213   4214   4215
4216   4217   4218   4219
4220   4221   4222   4223
4224   4225   4226   4227
4228   4229   4230   4231
4232   4233   4234   4235
4236   4237   4238   4239
4240   4241   4242   4243
4244   4245   4246   4247
4248   4249   4250   4251
4252   4253   4254   4255
4256   4257   4258   4259
4260   4261   4262   4263
4264   4265   4266   4267
4268   4269   4270   4271
4272   4273   4274   4275
4276   4277   4278   4279
4280   4281   4282   4283
4284   4285   4286   4287
4288   4289   4290   4291
4292   4293   4294   4295
4296   4297   4298   4299
4300   4301   4302   4303
4304   4305   4306   4307
4308   4309   4310   4311
4312   4313   4314   4315
4316   4317   4318   4319
4320   4321   4322   4323
4324   4325   4326   4327
4328   4329   4330   4331
4332   4333   4334   4335
4336   4337   4338   4339
4340   4341   4342   4343
4344   4345   4346   4347
4348   4349   4350   4351
4352   4353   4354   4355
4356   4357   4358   4359
4360   4361   4362   4363
4364   4365   4366   4367
4368   4369   4370   4371
4372   4373   4374   4375
4376   4377   4378   4379
4380   4381   4382   4383
4384   4385   4386   4387
4388   4389   4390   4391
4392   4393   4394   4395
4396   4397   4398   4399
4400   4401   4402   4403
4404   4405   4406   4407
4408   4409   4410   4411
4412   4413   4414   4415
4416   4417   4418   4419
4420   4421   4422   4423
4424   4425   4426   4427
4428   4429   4430   4431
4432   4433   4434   4435
4436   4437   4438   4439
4440   4441   4442   4443
4444   4445   4446   4447
4448   4449   4450   4451
4452   4453   4454   4455
4456   4457   4458   4459
4460   4461   4462   4463
4464   4465   4466   4467
4468   4469   4470   4471
4472   4473   4474   4475
4476   4477   4478   4479
4480   4481   4482   4483
4484   4485   4486   4487
4488   4489   4490   4491
4492   4493   4494   4495
4496   4497   4498   4499
4500   4501   4502   4503
4504   4505   4506   4507
4508   4509   4510   4511
4512   4513   4514   4515
4516   4517   4518   4519
4520   4521   4522   4523
4524   4525   4526   4527
4528   4529   4530   4531
4532   4533   4534   4535
4536   4537   4538   4539
4540   4541   4542   4543
4544   4545   4546   4547
4548   4549   4550   4551
4552   4553   4554   4555
4556   4557   4558   4559
4560   4561   4562   4563
4564   4565   4566   4567
4568   4569   4570   4571
4572   4573   4574   4575
4576   4577   4578   4579
4580   4581   4582   4583
4584   4585   4586   4587
4588   4589   4590   4591
4592   4593   4594   4595
4596   4597   4598   4599
4600   4601   4602   4603
4604   4605   4606   4607
4608   4609   4610   4611
4612   4613   4614   4615
4616   4617   4618   4619
4620   4621   4622   4623
4624   4625   4626   4627
4628   4629   4630   4631
4632   4633   4634   4635
4636   4637   4638   4639
4640   4641   4642   4643
4644   4645   4646   4647
4648   4649   4650   4651
4652   4653   4654   4655
4656   4657   4658   4659
4660   4661   4662   4663
4664   4665   4666   4667
4668   4669   4670   4671
4672   4673   4674   4675
4676   4677   4678   4679
4680   4681   4682   4683
4684   4685   4686   4687
4688   4689   4690   4691
4692   4693   4694   4695
4696   4697   4698   4699
4700   4701   4702   4703
4704   4705   4706   4707
4708   4709   4710   4711
4712   4713   4714   4715
4716   4717   4718   4719
4720   4721   4722   4723
4724   4725   4726   4727
4728   4729   4730   4731
4732   4733   4734   4735
4736   4737   4738   4739
4740   4741   4742   4743
4744   4745   4746   4747
4748   4749   4750   4751
4752   4753   4754   4755
4756   4757   4758   4759
4760   4761   4762   4763
4764   4765   4766   4767
4768   4769   4770   4771
4772   4773   4774   4775
4776   4777   4778   4779
4780   4781   4782   4783
4784   4785   4786   4787
4788   4789   4790   4791
4792   4793   4794   4795
4796   4797   4798   4799
4800   4801   4802   4803
4804   4805   4806   4807
4808   4809   4810   4811
4812   4813   4814   4815
4816   4817   4818   4819
4820   4821   4822   4823
4824   4825   4826   4827
4828   4829   4830   4831
4832   4833   4834   4835
4836   4837   4838   4839
4840   4841   4842   4843
4844   4845   4846   4847
4848   4849   4850   4851
4852   4853   4854   4855
4856   4857   4858   4859
4860   4861   4862   4863
4864   4865   4866   4867
4868   4869   4870   4871
4872   4873   4874   4875
4876   4877   4878   4879
4880   4881   4882   4883
4884   4885   4886   4887
4888   4889   4890   4891
4892   4893   4894   4895
4896   4897   4898   4899
4900   4901   4902   4903
4904   4905   4906   4907
4908   4909   4910   4911
4912   4913   4914   4915
4916   4917   4918   4919
4920   4921   4922   4923
4924   4925   4926   4927
4928   4929   4930   4931
4932   4933   4934   4935
4936   4937   4938   4939
4940   4941   4942   4943
4944   4945   4946   4947
4948   4949   4950   4951
4952   4953   4954   4955
4956   4957   4958   4959
4960   4961   4962   4963
4964   4965   4966   4967
4968   4969   4970   4971
4972   4973   4974   4975
4976   4977   4978   4979
4980   4981   4982   4983
4984   4985   4986   4987
4988   4989   4990   4991
4992   4993   4994   4995
4996   4997   4998   4999
5000   5001   5002   5003
5004   5005   5006   5007
5008   5009   5010   5011
5012   5013   5014   5015
5016   5017   5018   5019
5020   5021   5022   5023
5024   5025   5026   5027
5028   5029   5030   5031
5032   5033   5034   5035
5036   5037   5038   5039
5040   5041   5042   5043
5044   5045   5046   5047
5048   5049   5050   5051
5052   5053   5054   5055
5056   5057   5058   5059
5060   5061   5062   5063
5064   5065   5066   5067
5068   5069   5070   5071
5072   5073   5074   5075
5076   5077   5078   5079
5080   5081   5082   5083
5084   5085   5086   5087
5088   5089   5090   5091
5092   5093   5094   5095
5096   5097   5098   5099
5100   5101   5102   5103
5104   5105   5106   5107
5108   5109   5110   5111
5112   5113   5114   5115
5116   5117   5118   5119
5120   5121   5122   5123
5124   5125   5126   5127
5128   5129   5130   5131
5132   5133   5134   5135
5136   5137   5138   5139
5140   5141   5142   5143
5144   5145   5146   5147
5148   5149   5150   5151
5152   5153   5154   5155
5156   5157   5158   5159
5160   5161   5162   5163
5164   5165   5166   5167
5168   5169   5170   5171
5172   5173   5174   5175
5176   5177   5178   5179
5180   5181   5182   5183
5184   5185   5186   5187
5188   5189   5190   5191
5192   5193   5194   5195
5196   5197   5198   5199
5200   5201   5202   5203
5204   5205   5206   5207
5208   5209   5210   5211
5212   5213   5214   5215
5216   5217   5218   5219
5220   5221   5222   5223
5224   5225   5226   5227
5228   5229   5230   5231
5232   5233   5234   5235
5236   5237   5238   5239
5240   5241   5242   5243
5244   5245   5246   5247
5248   5249   5250   5251
5252   5253   5254   5255
5256   5257   5258   5259
5260   5261   5262   5263
5264   5265   5266   5267
5268   5269   5270   5271
5272   5273   5274   5275
5276   5277   5278   5279
5280   5281   5282   5283
5284   5285   5286   5287
5288   5289   5290   5291
5292   5293   5294   5295
5296   5297   5298   5299
5300   5301   5302   5303
5304   5305   5306   5307
5308   5309   5310   5311
5312   5313   5314   5315
5316   5317   5318   5319
5320   5321   5322   5323
5324   5325   5326   5327
5328   5329   5330   5331
5332   5333   5334   5335
5336   5337   5338   5339
5340   5341   5342   5343
5344   5345   5346   5347
5348   5349   5350   5351
5352   5353   5354   5355
5356   5357   5358   5359
5360   5361   5362   5363
5364   5365   5366   5367
5368   5369   5370   5371
5372   5373   5374   5375
5376   5377   5378   5379
5380   5381   5382   5383
5384   5385   5386   5387
5388   5389   5390   5391
5392   5393   5394   5395
5396   5397   5398   5399
5400   5401   5402   5403
5404   5405   5406   5407
5408   5409   5410   5411
5412   5413   5414   5415
5416   5417   5418   5419
5420   5421   5422   5423
5424   5425   5426   5427
5428   5429   5430   5431
5432   5433   5434   5435
5436   5437   5438   5439
5440   5441   5442   5443
5444   5445   5446   5447
5448   5449   5450   5451
5452   5453   5454   5455
5456   5457   5458   5459
5460   5461   5462   5463
5464   5465   5466   5467
5468   5469   5470   5471
5472   5473   5474   5475
5476   5477   5478   5479
5480   5481   5482   5483
5484   5485   5486   5487
5488   5489   5490   5491
5492   5493   5494   5495
5496   5497   5498   5499
5500   5501   5502   5503
5504   5505   5506   5507
5508   5509   5510   5511
5512   5513   5514   5515
5516   5517   5518   5519
5520   5521   5522   5523
5524   5525   5526   5527
5528   5529   5530   5531
5532   5533   5534   5535
5536   5537   5538   5539
5540   5541   5542   5543
5544   5545   5546   5547
5548   5549   5550   5551
5552   5553   5554   5555
5556   5557   5558   5559
5560   5561   5562   5563
5564   5565   5566   5567
5568   5569   5570   5571
5572   5573   5574   5575
5576   5577   5578   5579
5580   5581   5582   5583
5584   5585   5586   5587
5588   5589   5590   5591
5592   5593   5594   5595
5596   5597   5598   5599
5600   5601   5602   5603
5604   5605   5606   5607
5608   5609   5610   5611
5612   5613   5614   5615
5616   5617   5618   5619
5620   5621   5622   5623
5624   5625   5626   5627
5628   5629   5630   5631
5632   5633   5634   5635
5636   5637   5638   5639
5640   5641   5642   5643
5644   5645   5646   5647
5648   5649   5650   5651
5652   5653   5654   5655
5656   5657   5658   5659
5660   5661   5662   5663
5664   5665   5666   5667
5668   5669   5670   5671
5672   5673   5674   5675
5676   5677   5678   5679
5680   5681   5682   5683
5684   5685   5686   5687
5688   5689   5690   5691
5692   5693   5694   5695
5696   5697   5698   5699
5700   5701   5702   5703
5704   5705   5706   5707
5708   5709   5710   5711
5712   5713   5714   5715
5716   5717   5718   5719
5720   5721   5722   5723
5724   5725   5726   5727
5728   5729   5730   5731
5732   5733   5734   5735
5736   5737   5738   5739
5740   5741   5742   5743
5744   5745   5746   5747
5748   5749   5750   5751
5752   5753   5754   5755
5756   5757   5758   5759
5760   5761   5762   5763
5764   5765   5766   5767
5768   5769   5770   5771
5772   5773   5774   5775
5776   5777   5778   5779
5780   5781   5782   5783
5784   5785   5786   5787
5788   5789   5790   5791
5792   5793   5794   5795
5796   5797   5798   5799
5800   5801   5802   5803
5804   5805   5806   5807
5808   5809   5810   5811
5812   5813   5814   5815
5816   5817   5818   5819
5820   5821   5822   5823
5824   5825   5826   5827
5828   5829   5830   5831
5832   5833   5834   5835
5836   5837   5838   5839
5840   5841   5842   5843
5844   5845   5846   5847
5848   5849   5850   5851
5852   5853   5854   5855
5856   5857   5858   5859
5860   5861   5862   5863
5864   5865   5866   5867
5868   5869   5870   5871
5872   5873   5874   5875
5876   5877   5878   5879
5880   5881   5882   5883
5884   5885   5886   5887
5888   5889   5890   5891
5892   5893   5894   5895
5896   5897   5898   5899
5900   5901   5902   5903
5904   5905   5906   5907
5908   5909   5910   5911
5912   5913   5914   5915
5916   5917   5918   5919
5920   5921   5922   5923
5924   5925   5926   5927
5928   5929   5930   5931
5932   5933   5934   5935
5936   5937   5938   5939
5940   5941   5942   5943
5944   5945   5946   5947
5948   5949   5950   5951
5952   5953   5954   5955
5956   5957   5958   5959
5960   5961   5962   5963
5964   5965   5966   5967
5968   5969   5970   5971
5972   5973   5974   5975
5976   5977   5978   5979
5980   5981   5982   5983
5984   5985   5986   5987
5988   5989   5990   5991
5992   5993   5994   5995
5996   5997   5998   5999
              </DataArray>   
              <DataArray type="Int32" Name="offsets" format="ascii">   
4
8
12
16
20
24
28
32
36
40
44
48
52
56
60
64
68
72
76
80
84
88
92
96
100
104
108
112
116
120
124
128
132
136
140
144
148
152
156
160
164
168
172
176
180
184
188
192
196
200
204
208
212
216
220
224
228
232
236
240
244
248
252
256
260
264
268
272
276
280
284
288
292
296
300
304
308
312
316
320
324
328
332
336
340
344
348
352
356
360
364
368
372
376
380
384
388
392
396
400
404
408
412
416
420
424
428
432
436
440
444
448
452
456
460
464
468
472
476
480
484
488
492
496
500
504
508
512
516
520
524
528
532
536
540
544
548
552
556
560
564
568
572
576
580
584
588
592
596
600
604
608
612
616
620
624
628
632
636
640
644
648
652
656
660
664
668
672
676
680
684
688
692
696
700
704
708
712
716
720
724
728
732
736
740
744
748
752
756
760
764
768
772
776
780
784
788
792
796
800
804
808
812
816
820
824
828
832
836
840
844
848
852
856
860
864
868
872
876
880
884
888
892
896
900
904
908
912
916
920
924
928
932
936
940
944
948
952
956
960
964
968
972
976
980
984
988
992
996
1000
1004
1008
1012
1016
1020
1024
1028
1032
1036
1040
1044
1048
1052
1056
1060
1064
1068
1072
1076
1080
1084
1088
1092
1096
1100
1104
1108
1112
1116
1120
1124
1128
1132
1136
1140
1144
1148
1152
1156
1160
1164
1168
1172
1176
1180
1184
1188
1192
1196
1200
1204
1208
1212
1216
1220
1224
1228
1232
1236
1240
1244
1248
1252
1256
1260
1264
1268
1272
1276
1280
1284
1288
1292
1296
1300
1304
1308
1312
1316
1320
1324
1328
1332
1336
1340
1344
1348
1352
1356
1360
1364
1368
1372
1376
1380
1384
1388
1392
1396
1400
1404
1408
1412
1416
1420
1424
1428
1432
1436
1440
1444
1448
1452
1456
1460
1464
1468
1472
1476
1480
1484
1488
1492
1496
1500
1504
1508
1512
1516
1520
1524
1528
1532
1536
1540
1544
1548
1552
1556
1560
1564
1568
1572
1576
1580
1584
1588
1592
1596
1600
1604
1608
1612
1616
1620
1624
1628
1632
1636
1640
1644
1648
1652
1656
1660
1664
1668
1672
1676
1680
1684
1688
1692
1696
1700
1704
1708
1712
1716
1720
1724
1728
1732
1736
1740
1744
1748
1752
1756
1760
1764
1768
1772
1776
1780
1784
1788
1792
1796
1800
1804
1808
1812
1816
1820
1824
1828
1832
1836
1840
1844
1848
1852
1856
1860
1864
1868
1872
1876
1880
1884
1888
1892
1896
1900
1904
1908
1912
1916
1920
1924
1928
1932
1936
1940
1944
1948
1952
1956
1960
1964
1968
1972
1976
1980
1984
1988
1992
1996
2000
2004
2008
2012
2016
2020
2024
2028
2032
2036
2040
2044
2048
2052
2056
2060
2064
2068
2072
2076
2080
2084
2088
2092
2096
2100
2104
2108
2112
2116
2120
2124
2128
2132
2136
2140
2144
2148
2152
2156
2160
2164
2168
2172
2176
2180
2184
2188
2192
2196
2200
2204
2208
2212
2216
2220
2224
2228
2232
2236
2240
2244
2248
2252
2256
2260
2264
2268
2272
2276
2280
2284
2288
2292
2296
2300
2304
2308
2312
2316
2320
2324
2328
2332
2336
2340
2344
2348
2352
2356
2360
2364
2368
2372
2376
2380
2384
2388
2392
2396
2400
2404
2408
2412
2416
2420
2424
2428
2432
2436
2440
2444
2448
2452
2456
2460
2464
2468
2472
2476
2480
2484
2488
2492
2496
2500
2504
2508
2512
2516
2520
2524
2528
2532
2536
2540
2544
2548
2552
2556
2560
2564
2568
2572
2576
2580
2584
2588
2592
2596
2600
2604
2608
2612
2616
2620
2624
2628
2632
2636
2640
2644
2648
2652
2656
2660
2664
2668
2672
2676
2680
2684
2688
2692
2696
2700
2704
2708
2712
2716
2720
2724
2728
2732
2736
2740
2744
2748
2752
2756
2760
2764
2768
2772
2776
2780
2784
2788
2792
2796
2800
2804
2808
2812
2816
2820
2824
2828
2832
2836
2840
2844
2848
2852
2856
2860
2864
2868
2872
2876
2880
2884
2888
2892
2896
2900
2904
2908
2912
2916
2920
2924
2928
2932
2936
2940
2944
2948
2952
2956
2960
2964
2968
2972
2976
2980
2984
2988
2992
2996
3000
3004
3008
3012
3016
3020
3024
3028
3032
3036
3040
3044
3048
3052
3056
3060
3064
3068
3072
3076
3080
3084
3088
3092
3096
3100
3104
3108
3112
3116
3120
3124
3128
3132
3136
3140
3144
3148
3152
3156
3160
3164
3168
3172
3176
3180
3184
3188
3192
3196
3200
3204
3208
3212
3216
3220
3224
3228
3232
3236
3240
3244
3248
3252
3256
3260
3264
3268
3272
3276
3280
3284
3288
3292
3296
3300
3304
3308
3312
3316
3320
3324
3328
3332
3336
3340
3344
3348
3352
3356
3360
3364
3368
3372
3376
3380
3384
3388
3392
3396
3400
3404
3408
3412
3416
3420
3424
3428
3432
3436
3440
3444
3448
3452
3456
3460
3464
3468
3472
3476
3480
3484
3488
3492
3496
3500
3504
3508
3512
3516
3520
3524
3528
3532
3536
3540
3544
3548
3552
3556
3560
3564
3568
3572
3576
3580
3584
3588
3592
3596
3600
3604
3608
3612
3616
3620
3624
3628
3632
3636
3640
3644
3648
3652
3656
3660
3664
3668
3672
3676
3680
3684
3688
3692
3696
3700
3704
3708
3712
3716
3720
3724
3728
3732
3736
3740
3744
3748
3752
3756
3760
3764
3768
3772
3776
3780
3784
3788
3792
3796
3800
3804
3808
3812
3816
3820
3824
3828
3832
3836
3840
3844
3848
3852
3856
3860
3864
3868
3872
3876
3880
3884
3888
3892
3896
3900
3904
3908
3912
3916
3920
3924
3928
3932
3936
3940
3944
3948
3952
3956
3960
3964
3968
3972
3976
3980
3984
3988
3992
3996
4000
4004
4008
4012
4016
4020
4024
4028
4032
4036
4040
4044
4048
4052
4056
4060
4064
4068
4072
4076
4080
4084
4088
4092
4096
4100
4104
4108
4112
4116
4120
4124
4128
4132
4136
4140
4144
4148
4152
4156
4160
4164
4168
4172
4176
4180
4184
4188
4192
4196
4200
4204
4208
4212
4216
4220
4224
4228
4232
4236
4240
4244
4248
4252
4256
4260
4264
4268
4272
4276
4280
4284
4288
4292
4296
4300
4304
4308
4312
4316
4320
4324
4328
4332
4336
4340
4344
4348
4352
4356
4360
4364
4368
4372
4376
4380
4384
4388
4392
4396
4400
4404
4408
4412
4416
4420
4424
4428
4432
4436
4440
4444
4448
4452
4456
4460
4464
4468
4472
4476
4480
4484
4488
4492
4496
4500
4504
4508
4512
4516
4520
4524
4528
4532
4536
4540
4544
4548
4552
4556
4560
4564
4568
4572
4576
4580
4584
4588
4592
4596
4600
4604
4608
4612
4616
4620
4624
4628
4632
4636
4640
4644
4648
4652
4656
4660
4664
4668
4672
4676
4680
4684
4688
4692
4696
4700
4704
4708
4712
4716
4720
4724
4728
4732
4736
4740
4744
4748
4752
4756
4760
4764
4768
4772
4776
4780
4784
4788
4792
4796
4800
4804
4808
4812
4816
4820
4824
4828
4832
4836
4840
4844
4848
4852
4856
4860
4864
4868
4872
4876
4880
4884
4888
4892
4896
4900
4904
4908
4912
4916
4920
4924
4928
4932
4936
4940
4944
4948
4952
4956
4960
4964
4968
4972
4976
4980
4984
4988
4992
4996
5000
5004
5008
5012
5016
5020
5024
5028
5032
5036
5040
5044
5048
5052
5056
5060
5064
5068
5072
5076
5080
5084
5088
5092
5096
5100
5104
5108
5112
5116
5120
5124
5128
5132
5136
5140
5144
5148
5152
5156
5160
5164
5168
5172
5176
5180
5184
5188
5192
5196
5200
5204
5208
5212
5216
5220
5224
5228
5232
5236
5240
5244
5248
5252
5256
5260
5264
5268
5272
5276
5280
5284
5288
5292
5296
5300
5304
5308
5312
5316
5320
5324
5328
5332
5336
5340
5344
5348
5352
5356
5360
5364
5368
5372
5376
5380
5384
5388
5392
5396
5400
5404
5408
5412
5416
5420
5424
5428
5432
5436
5440
5444
5448
5452
5456
5460
5464
5468
5472
5476
5480
5484
5488
5492
5496
5500
5504
5508
5512
5516
5520
5524
5528
5532
5536
5540
5544
5548
5552
5556
5560
5564
5568
5572
5576
5580
5584
5588
5592
5596
5600
5604
5608
5612
5616
5620
5624
5628
5632
5636
5640
5644
5648
5652
5656
5660
5664
5668
5672
5676
5680
5684
5688
5692
5696
5700
5704
5708
5712
5716
5720
5724
5728
5732
5736
5740
5744
5748
5752
5756
5760
5764
5768
5772
5776
5780
5784
5788
5792
5796
5800
5804
5808
5812
5816
5820
5824
5828
5832
5836
5840
5844
5848
5852
5856
5860
5864
5868
5872
5876
5880
5884
5888
5892
5896
5900
5904
5908
5912
5916
5920
5924
5928
5932
5936
5940
5944
5948
5952
5956
5960
5964
5968
5972
5976
5980
5984
5988
5992
5996
6000
              </DataArray>   
              <DataArray type="UInt8" Name="types" format="ascii">   
10
10
10
10
10
10
10
10
10
10
10
10
10
10
10
10
10
10
10
10
10
10
10
10
10
10
10
10
10
10
10
10
10
10
10
10
10
10
10
10
10
10
10
10
10
10
10
10
10
10
10
10
10
10
10
10
10
10
10
10
10
10
10
10
10
10
10
10
10
10
10
10
10
10
10
10
10
10
10
10
10
10
10
10
10
10
10
10
10
10
10
10
10
10
10
10
10
10
10
10
10
10
10
10
10
10
10
10
10
10
10
10
10
10
10
10
10
10
10
10
10
10
10
10
10
10
10
10
10
10
10
10
10
10
10
10
10
10
10
10
10
10
10
10
10
10
10
10
10
10
10
10
10
10
10
10
10
10
10
10
10
10
10
10
10
10
10
10
10
10
10
10
10
10
10
10
10
10
10
10
10
10
10
10
10
10
10
10
10
10
10
10
10
10
10
10
10
10
10
10
10
10
10
10
10
10
10
10
10
10
10
10
10
10
10
10
10
10
10
10
10
10
10
10
10
10
10
10
10
10
10
10
10
10
10
10
10
10
10
10
10
10
10
10
10
10
10
10
10
10
10
10
10
10
10
10
10
10
10
10
10
10
10
10
10
10
10
10
10
10
10
10
10
10
10
10
10
10
10
10
10
10
10
10
10
10
10
10
10
10
10
10
10
10
10
10
10
10
10
10
10
10
10
10
10
10
10
10
10
10
10
10
10
10
10
10
10
10
10
10
10
10
10
10
10
10
10
10
10
10
10
10
10
10
10
10
10
10
10
10
10
10
10
10
10
10
10
10
10
10
10
10
10
10
10
10
10
10
10
10
10
10
10
10
10
10
10
10
10
10
10
10
10
10
10
10
10
10
10
10
10
10
10
10
10
10
10
10
10
10
10
10
10
10
10
10
10
10
10
10
10
10
10
10
10
10
10
10
10
10
10
10
10
10
10
10
10
10
10
10
10
10
10
10
10
10
10
10
10
10
10
10
10
10
10
10
10
10
10
10
10
10
10
10
10
10
10
10
10
10
10
10
10
10
10
10
10
10
10
10
10
10
10
10
10
10
10
10
10
10
10
10
10
10
10
10
10
10
10
10
10
10
10
10
10
10
10
10
10
10
10
10
10
10
10
10
10
10
10
10
10
10
10
10
10
10
10
10
10
10
10
10
10
10
10
10
10
10
10
10
10
10
10
10
10
10
10
10
10
10
10
10
10
10
10
10
10
10
10
10
10
10
10
10
10
10
10
10
10
10
10
10
10
10
10
10
10
10
10
10
10
10
10
10
10
10
10
10
10
10
10
10
10
10
10
10
10
10
10
10
10
10
10
10
10
10
10
10
10
10
10
10
10
10
10
10
10
10
10
10
10
10
10
10
10
10
10
10
10
10
10
10
10
10
10
10
10
10
10
10
10
10
10
10
10
10
10
10
10
10
10
10
10
10
10
10
10
10
10
10
10
10
10
10
10
10
10
10
10
10
10
10
10
10
10
10
10
10
10
10
10
10
10
10
10
10
10
10
10
10
10
10
10
10
10
10
10
10
10
10
10
10
10
10
10
10
10
10
10
10
10
10
10
10
10
10
10
10
10
10
10
10
10
10
10
10
10
10
10
10
10
10
10
10
10
10
10
10
10
10
10
10
10
10
10
10
10
10
10
10
10
10
10
10
10
10
10
10
10
10
10
10
10
10
10
10
10
10
10
10
10
10
10
10
10
10
10
10
10
10
10
10
10
10
10
10
10
10
10
10
10
10
10
10
10
10
10
10
10
10
10
10
10
10
10
10
10
10
10
10
10
10
10
10
10
10
10
10
10
10
10
10
10
10
10
10
10
10
10
10
10
10
10
10
10
10
10
10
10
10
10
10
10
10
10
10
10
10
10
10
10
10
10
10
10
10
10
10
10
10
10
10
10
10
10
10
10
10
10
10
10
10
10
10
10
10
10
10
10
10
10
10
10
10
10
10
10
10
10
10
10
10
10
10
10
10
10
10
10
10
10
10
10
10
10
10
10
10
10
10
10
10
10
10
10
10
10
10
10
10
10
10
10
10
10
10
10
10
10
10
10
10
10
10
10
10
10
10
10
10
10
10
10
10
10
10
10
10
10
10
10
10
10
10
10
10
10
10
10
10
10
10
10
10
10
10
10
10
10
10
10
10
10
10
10
10
10
10
10
10
10
10
10
10
10
10
10
10
10
10
10
10
10
10
10
10
10
10
10
10
10
10
10
10
10
10
10
10
10
10
10
10
10
10
10
10
10
10
10
10
10
10
10
10
10
10
10
10
10
10
10
10
10
10
10
10
10
10
10
10
10
10
10
10
10
10
10
10
10
10
10
10
10
10
10
10
10
10
10
10
10
10
10
10
10
10
10
10
10
10
10
10
10
10
10
10
10
10
10
10
10
10
10
10
10
10
10
10
10
10
10
10
10
10
10
10
10
10
10
10
10
10
10
10
10
10
10
10
10
10
10
10
10
10
10
10
10
10
10
10
10
10
10
10
10
10
10
10
10
10
10
10
10
10
10
10
10
10
10
10
10
10
10
10
10
10
10
10
10
10
10
10
10
10
10
10
10
10
10
10
10
10
10
10
10
10
10
10
10
10
10
10
10
10
10
10
10
10
10
10
10
10
10
10
10
10
10
10
10
10
10
10
10
10
10
10
10
10
10
10
10
10
10
10
10
10
10
10
10
10
10
10
10
10
10
10
10
10
10
10
10
10
10
10
10
10
10
10
10
10
10
10
10
10
10
10
10
10
10
10
10
10
10
10
10
10
10
10
10
10
10
10
10
10
10
10
10
10
10
10
10
10
10
10
10
10
10
10
10
10
10
10
10
10
10
10
10
10
10
10
10
10
10
10
10
10
10
10
10
10
10
10
10
10
10
10
10
10
10
10
10
10
10
10
10
10
10
10
10
10
10
10
10
10
10
10
10
10
10
10
10
10
10
10
10
10
10
10
10
10
10
10
10
10
10
10
10
10
10
10
10
10
10
10
10
10
10
10
10
10
10
10
10
10
10
10
10
10
10
10
10
10
10
10
10
10
10
10
10
10
10
10
10
10
10
10
10
10
10
10
10
10
10
10
10
10
10
10
10
10
10
10
10
10
10
10
10
10
10
10
10
10
10
10
10
10
10
10
10
10
10
10
10
10
10
10
10
10
10
10
10
10
10
10
10
10
10
10
10
10
10
10
10
10
10
10
10
10
10
10
10
10
10
10
10
10
10
10
10
10
10
10
10
10
10
10
10
10
10
10
10
10
10
10
10
10
10
10
10
10
10
10
10
10
10
10
10
10
10
10
10
10
10
10
10
10
10
10
10
10
10
10
10
10
10
10
10
10
10
10
10
10
10
10
10
10
10
10
10
10
10
10
10
10
10
10
10
10
10
10
              </DataArray>   
          </Cells>  
          <PointData>  
             <DataArray type="Float64" NumberOfComponents="3" Name="Strains" format="ascii">   
-0.00010063189759967848   0.0   -6.60279900268589e-05
-0.00010063189759967848   0.0   -6.60279900268589e-05
-0.00010063189759967848   0.0   -6.60279900268589e-05
-0.00010063189759967848   0.0   -6.60279900268589e-05
-6.403569818432618e-05   1.1150327294092273e-05   1.6558720418501452e-06
-6.403569818432618e-05   1.1150327294092273e-05   1.6558720418501452e-06
-6.403569818432618e-05   1.1150327294092273e-05   1.6558720418501452e-06
-6.403569818432618e-05   1.1150327294092273e-05   1.6558720418501452e-06
-6.277061967548956e-05   0.0   -6.231517048247787e-05
-6.277061967548956e-05   0.0   -6.231517048247787e-05
-6.277061967548956e-05   0.0   -6.231517048247787e-05
-6.277061967548956e-05   0.0   -6.231517048247787e-05
-0.00010531770089546665   1.3379890609270883e-05   5.686971852550285e-07
-0.00010531770089546665   1.3379890609270883e-05   5.686971852550285e-07
-0.00010531770089546665   1.3379890609270883e-05   5.686971852550285e-07
-0.00010531770089546665   1.3379890609270883e-05   5.686971852550285e-07
-8.170125863758388e-05   3.0940162869841866e-06   -3.2620515317844206e-05
-8.170125863758388e-05   3.0940162869841866e-06   -3.2620515317844206e-05
-8.170125863758388e-05   3.0940162869841866e-06   -3.2620515317844206e-05
-8.170125863758388e-05   3.0940162869841866e-06   -3.2620515317844206e-05
-0.00010531770089546682   0.0   -7.03431048480404e-05
-0.00010531770089546682   0.0   -7.03431048480404e-05
-0.00010531770089546682   0.0   -7.03431048480404e-05
-0.00010531770089546682   0.0   -7.03431048480404e-05
-6.277061967548956e-05   1.337989060927091e-05   8.596631550817567e-06
-6.277061967548956e-05   1.337989060927091e-05   8.596631550817567e-06
-6.277061967548956e-05   1.337989060927091e-05   8.596631550817567e-06
-6.277061967548956e-05   1.337989060927091e-05   8.596631550817567e-06
-6.294909331254853e-05   0.0   -6.384081701998438e-05
-6.294909331254853e-05   0.0   -6.384081701998438e-05
-6.294909331254853e-05   0.0   -6.384081701998438e-05
-6.294909331254853e-05   0.0   -6.384081701998438e-05
-0.00010860916001978012   1.4334244199164391e-05   3.6587476392365694e-06
-0.00010860916001978012   1.4334244199164391e-05   3.6587476392365694e-06
-0.00010860916001978012   1.4334244199164391e-05   3.6587476392365694e-06
-0.00010860916001978012   1.4334244199164391e-05   3.6587476392365694e-06
-8.413339710400754e-05   5.418573190046684e-06   -3.178478794824708e-05
-8.413339710400754e-05   5.418573190046684e-06   -3.178478794824708e-05
-8.413339710400754e-05   5.418573190046684e-06   -3.178478794824708e-05
-8.413339710400754e-05   5.418573190046684e-06   -3.178478794824708e-05
-0.00010860916001978031   0.0   -7.244136353948304e-05
-0.00010860916001978031   0.0   -7.244136353948304e-05
-0.00010860916001978031   0.0   -7.244136353948304e-05
-0.00010860916001978031   0.0   -7.244136353948304e-05
-6.294909331254843e-05   1.4334244199164391e-05   1.225929415873519e-05
-6.294909331254843e-05   1.4334244199164391e-05   1.225929415873519e-05
-6.294909331254843e-05   1.4334244199164391e-05   1.225929415873519e-05
-6.294909331254843e-05   1.4334244199164391e-05   1.225929415873519e-05
-6.291763973707964e-05   0.0   -6.423261878089121e-05
-6.291763973707964e-05   0.0   -6.423261878089121e-05
-6.291763973707964e-05   0.0   -6.423261878089121e-05
-6.291763973707964e-05   0.0   -6.423261878089121e-05
-0.00011569843139317008   1.6328730152992996e-05   1.3938129220797299e-05
-0.00011569843139317008   1.6328730152992996e-05   1.3938129220797299e-05
-0.00011569843139317008   1.6328730152992996e-05   1.3938129220797299e-05
-0.00011569843139317008   1.6328730152992996e-05   1.3938129220797299e-05
-8.576339987842983e-05   6.84062063215985e-06   -3.0260724257936493e-05
-8.576339987842983e-05   6.84062063215985e-06   -3.0260724257936493e-05
-8.576339987842983e-05   6.84062063215985e-06   -3.0260724257936493e-05
-8.576339987842983e-05   6.84062063215985e-06   -3.0260724257936493e-05
-6.403569818432629e-05   0.0   -5.9337793650403526e-05
-6.403569818432629e-05   0.0   -5.9337793650403526e-05
-6.403569818432629e-05   0.0   -5.9337793650403526e-05
-6.403569818432629e-05   0.0   -5.9337793650403526e-05
-2.916052712699098e-05   4.089934337523076e-06   1.2414520476691375e-06
-2.916052712699098e-05   4.089934337523076e-06   1.2414520476691375e-06
-2.916052712699098e-05   4.089934337523076e-06   1.2414520476691375e-06
-2.916052712699098e-05   4.089934337523076e-06   1.2414520476691375e-06
-2.8047595072740203e-05   0.0   -5.882193404067576e-05
-2.8047595072740203e-05   0.0   -5.882193404067576e-05
-2.8047595072740203e-05   0.0   -5.882193404067576e-05
-2.8047595072740203e-05   0.0   -5.882193404067576e-05
-6.277061967548956e-05   5.822060736336668e-06   -4.443462811229036e-06
-6.277061967548956e-05   5.822060736336668e-06   -4.443462811229036e-06
-6.277061967548956e-05   5.822060736336668e-06   -4.443462811229036e-06
-6.277061967548956e-05   5.822060736336668e-06   -4.443462811229036e-06
-4.604164662853319e-05   4.2988300810638404e-07   -2.908977791921792e-05
-4.604164662853319e-05   4.2988300810638404e-07   -2.908977791921792e-05
-4.604164662853319e-05   4.2988300810638404e-07   -2.908977791921792e-05
-4.604164662853319e-05   4.2988300810638404e-07   -2.908977791921792e-05
-6.277061967548951e-05   0.0   -6.231517048247781e-05
-6.277061967548951e-05   0.0   -6.231517048247781e-05
-6.277061967548951e-05   0.0   -6.231517048247781e-05
-6.277061967548951e-05   0.0   -6.231517048247781e-05
-2.8047595072740203e-05   5.8220607363366545e-06   -9.502263694270309e-07
-2.8047595072740203e-05   5.8220607363366545e-06   -9.502263694270309e-07
-2.8047595072740203e-05   5.8220607363366545e-06   -9.502263694270309e-07
-2.8047595072740203e-05   5.8220607363366545e-06   -9.502263694270309e-07
-2.7423130635195886e-05   0.0   -5.9560607740320734e-05
-2.7423130635195886e-05   0.0   -5.9560607740320734e-05
-2.7423130635195886e-05   0.0   -5.9560607740320734e-05
-2.7423130635195886e-05   0.0   -5.9560607740320734e-05
-6.294909331254853e-05   7.133682132772577e-06   -4.630879224396713e-06
-6.294909331254853e-05   7.133682132772577e-06   -4.630879224396713e-06
-6.294909331254853e-05   7.133682132772577e-06   -4.630879224396713e-06
-6.294909331254853e-05   7.133682132772577e-06   -4.630879224396713e-06
-4.509687515534266e-05   2.295468951797524e-06   -3.148164824448789e-05
-4.509687515534266e-05   2.295468951797524e-06   -3.148164824448789e-05
-4.509687515534266e-05   2.295468951797524e-06   -3.148164824448789e-05
-4.509687515534266e-05   2.295468951797524e-06   -3.148164824448789e-05
-6.294909331254853e-05   0.0   -6.384081701998438e-05
-6.294909331254853e-05   0.0   -6.384081701998438e-05
-6.294909331254853e-05   0.0   -6.384081701998438e-05
-6.294909331254853e-05   0.0   -6.384081701998438e-05
-2.7423130635195933e-05   7.133682132772577e-06   -3.506699447331681e-07
-2.7423130635195933e-05   7.133682132772577e-06   -3.506699447331681e-07
-2.7423130635195933e-05   7.133682132772577e-06   -3.506699447331681e-07
-2.7423130635195933e-05   7.133682132772577e-06   -3.506699447331681e-07
-2.685474628139055e-05   0.0   -5.9252302013963224e-05
-2.685474628139055e-05   0.0   -5.9252302013963224e-05
-2.685474628139055e-05   0.0   -5.9252302013963224e-05
-2.685474628139055e-05   0.0   -5.9252302013963224e-05
-6.291763973707948e-05   8.300527944879883e-06   -4.127796354742698e-06
-6.291763973707948e-05   8.300527944879883e-06   -4.127796354742698e-06
-6.291763973707948e-05   8.300527944879883e-06   -4.127796354742698e-06
-6.291763973707948e-05   8.300527944879883e-06   -4.127796354742698e-06
-4.490191979696953e-05   3.823762505017596e-06   -3.146793699100881e-05
-4.490191979696953e-05   3.823762505017596e-06   -3.146793699100881e-05
-4.490191979696953e-05   3.823762505017596e-06   -3.146793699100881e-05
-4.490191979696953e-05   3.823762505017596e-06   -3.146793699100881e-05
-2.9160527126991032e-05   0.0   -5.688383304788968e-05
-2.9160527126991032e-05   0.0   -5.688383304788968e-05
-2.9160527126991032e-05   0.0   -5.688383304788968e-05
-2.9160527126991032e-05   0.0   -5.688383304788968e-05
3.7911967136155863e-06   -5.236549873284481e-07   -2.278486305942331e-06
3.7911967136155863e-06   -5.236549873284481e-07   -2.278486305942331e-06
3.7911967136155863e-06   -5.236549873284481e-07   -2.278486305942331e-06
3.7911967136155863e-06   -5.236549873284481e-07   -2.278486305942331e-06
4.500907538904756e-06   0.0   -5.8202718809777945e-05
4.500907538904756e-06   0.0   -5.8202718809777945e-05
4.500907538904756e-06   0.0   -5.8202718809777945e-05
4.500907538904756e-06   0.0   -5.8202718809777945e-05
-2.8047595072740203e-05   1.0320253848295326e-06   -4.574429687934153e-06
-2.8047595072740203e-05   1.0320253848295326e-06   -4.574429687934153e-06
-2.8047595072740203e-05   1.0320253848295326e-06   -4.574429687934153e-06
-2.8047595072740203e-05   1.0320253848295326e-06   -4.574429687934153e-06
-1.2329809794043108e-05   -1.0990714682403876e-06   -2.949208037392067e-05
-1.2329809794043108e-05   -1.0990714682403876e-06   -2.949208037392067e-05
-1.2329809794043108e-05   -1.0990714682403876e-06   -2.949208037392067e-05
-1.2329809794043108e-05   -1.0990714682403876e-06   -2.949208037392067e-05
-2.8047595072740254e-05   0.0   -5.8821934040675864e-05
-2.8047595072740254e-05   0.0   -5.8821934040675864e-05
-2.8047595072740254e-05   0.0   -5.8821934040675864e-05
-2.8047595072740254e-05   0.0   -5.8821934040675864e-05
4.500907538904764e-06   1.0320253848295326e-06   -3.955214457036438e-06
4.500907538904764e-06   1.0320253848295326e-06   -3.955214457036438e-06
4.500907538904764e-06   1.0320253848295326e-06   -3.955214457036438e-06
4.500907538904764e-06   1.0320253848295326e-06   -3.955214457036438e-06
5.060864738226939e-06   0.0   -5.8119562344591795e-05
5.060864738226939e-06   0.0   -5.8119562344591795e-05
5.060864738226939e-06   0.0   -5.8119562344591795e-05
5.060864738226939e-06   0.0   -5.8119562344591795e-05
-2.742313063519584e-05   2.4017423262148946e-06   -5.420615451282696e-06
-2.742313063519584e-05   2.4017423262148946e-06   -5.420615451282696e-06
-2.742313063519584e-05   2.4017423262148946e-06   -5.420615451282696e-06
-2.742313063519584e-05   2.4017423262148946e-06   -5.420615451282696e-06
-1.1493365167256632e-05   5.853097467366439e-07   -3.08803650168278e-05
-1.1493365167256632e-05   5.853097467366439e-07   -3.08803650168278e-05
-1.1493365167256632e-05   5.853097467366439e-07   -3.08803650168278e-05
-1.1493365167256632e-05   5.853097467366439e-07   -3.08803650168278e-05
-2.7423130635195933e-05   0.0   -5.9560607740320836e-05
-2.7423130635195933e-05   0.0   -5.9560607740320836e-05
-2.7423130635195933e-05   0.0   -5.9560607740320836e-05
-2.7423130635195933e-05   0.0   -5.9560607740320836e-05
5.060864738226948e-06   2.401742326214908e-06   -3.97957005555377e-06
5.060864738226948e-06   2.401742326214908e-06   -3.97957005555377e-06
5.060864738226948e-06   2.401742326214908e-06   -3.97957005555377e-06
5.060864738226948e-06   2.401742326214908e-06   -3.97957005555377e-06
5.814770956451624e-06   0.0   -5.685931613003104e-05
5.814770956451624e-06   0.0   -5.685931613003104e-05
5.814770956451624e-06   0.0   -5.685931613003104e-05
5.814770956451624e-06   0.0   -5.685931613003104e-05
-2.6854746281390526e-05   3.988309806553556e-06   -4.80310661755959e-06
-2.6854746281390526e-05   3.988309806553556e-06   -4.80310661755959e-06
-2.6854746281390526e-05   3.988309806553556e-06   -4.80310661755959e-06
-2.6854746281390526e-05   3.988309806553556e-06   -4.80310661755959e-06
-1.080417983937213e-05   2.2510763419080786e-06   -3.0511710608802944e-05
-1.080417983937213e-05   2.2510763419080786e-06   -3.0511710608802944e-05
-1.080417983937213e-05   2.2510763419080786e-06   -3.0511710608802944e-05
-1.080417983937213e-05   2.2510763419080786e-06   -3.0511710608802944e-05
3.791196713615593e-06   0.0   -5.719802604028675e-05
3.791196713615593e-06   0.0   -5.719802604028675e-05
3.791196713615593e-06   0.0   -5.719802604028675e-05
3.791196713615593e-06   0.0   -5.719802604028675e-05
3.955856125895639e-05   -4.6398075445205325e-06   -3.696363247641574e-07
3.955856125895639e-05   -4.6398075445205325e-06   -3.696363247641574e-07
3.955856125895639e-05   -4.6398075445205325e-06   -3.696363247641574e-07
3.955856125895639e-05   -4.6398075445205325e-06   -3.696363247641574e-07
3.9626477783453293e-05   0.0   -6.030164446849262e-05
3.9626477783453293e-05   0.0   -6.030164446849262e-05
3.9626477783453293e-05   0.0   -6.030164446849262e-05
3.9626477783453293e-05   0.0   -6.030164446849262e-05
4.500907538904764e-06   -3.4982094311908e-06   3.3989826446938116e-07
4.500907538904764e-06   -3.4982094311908e-06   3.3989826446938116e-07
4.500907538904764e-06   -3.4982094311908e-06   3.3989826446938116e-07
4.500907538904764e-06   -3.4982094311908e-06   3.3989826446938116e-07
2.1708837248534445e-05   -2.5863486901715635e-06   -2.888710102952492e-05
2.1708837248534445e-05   -2.5863486901715635e-06   -2.888710102952492e-05
2.1708837248534445e-05   -2.5863486901715635e-06   -2.888710102952492e-05
2.1708837248534445e-05   -2.5863486901715635e-06   -2.888710102952492e-05
4.500907538904771e-06   0.0   -5.820271880977815e-05
4.500907538904771e-06   0.0   -5.820271880977815e-05
4.500907538904771e-06   0.0   -5.820271880977815e-05
4.500907538904771e-06   0.0   -5.820271880977815e-05
3.9626477783453226e-05   -3.4982094311908e-06   -1.759027394245097e-06
3.9626477783453226e-05   -3.4982094311908e-06   -1.759027394245097e-06
3.9626477783453226e-05   -3.4982094311908e-06   -1.759027394245097e-06
3.9626477783453226e-05   -3.4982094311908e-06   -1.759027394245097e-06
3.945467328914819e-05   0.0   -5.94405423785275e-05
3.945467328914819e-05   0.0   -5.94405423785275e-05
3.945467328914819e-05   0.0   -5.94405423785275e-05
3.945467328914819e-05   0.0   -5.94405423785275e-05
5.060864738226948e-06   -2.2016333898926873e-06   -7.965480930565079e-07
5.060864738226948e-06   -2.2016333898926873e-06   -7.965480930565079e-07
5.060864738226948e-06   -2.2016333898926873e-06   -7.965480930565079e-07
5.060864738226948e-06   -2.2016333898926873e-06   -7.965480930565079e-07
2.197779041402648e-05   -1.031519640624466e-06   -2.969349246894996e-05
2.197779041402648e-05   -1.031519640624466e-06   -2.969349246894996e-05
2.197779041402648e-05   -1.031519640624466e-06   -2.969349246894996e-05
2.197779041402648e-05   -1.031519640624466e-06   -2.969349246894996e-05
5.060864738226948e-06   0.0   -5.8119562344591896e-05
5.060864738226948e-06   0.0   -5.8119562344591896e-05
5.060864738226948e-06   0.0   -5.8119562344591896e-05
5.060864738226948e-06   0.0   -5.8119562344591896e-05
3.945467328914812e-05   -2.20163338989266e-06   -2.117528126992097e-06
3.945467328914812e-05   -2.20163338989266e-06   -2.117528126992097e-06
3.945467328914812e-05   -2.20163338989266e-06   -2.117528126992097e-06
3.945467328914812e-05   -2.20163338989266e-06   -2.117528126992097e-06
4.0216783342155724e-05   0.0   -5.7134834526802e-05
4.0216783342155724e-05   0.0   -5.7134834526802e-05
4.0216783342155724e-05   0.0   -5.7134834526802e-05
4.0216783342155724e-05   0.0   -5.7134834526802e-05
5.8147709564516345e-06   -4.591973279514407e-07   4.773711794756687e-07
5.8147709564516345e-06   -4.591973279514407e-07   4.773711794756687e-07
5.8147709564516345e-06   -4.591973279514407e-07   4.773711794756687e-07
5.8147709564516345e-06   -4.591973279514407e-07   4.773711794756687e-07
2.2638824040191337e-05   8.206065148249109e-07   -2.8330599599089615e-05
2.2638824040191337e-05   8.206065148249109e-07   -2.8330599599089615e-05
2.2638824040191337e-05   8.206065148249109e-07   -2.8330599599089615e-05
2.2638824040191337e-05   8.206065148249109e-07   -2.8330599599089615e-05
3.955856125895652e-05   0.0   -5.9981910566999074e-05
3.955856125895652e-05   0.0   -5.9981910566999074e-05
3.955856125895652e-05   0.0   -5.9981910566999074e-05
3.955856125895652e-05   0.0   -5.9981910566999074e-05
8.929627765713388e-05   -1.1760259147573446e-05   1.585812794141939e-05
8.929627765713388e-05   -1.1760259147573446e-05   1.585812794141939e-05
8.929627765713388e-05   -1.1760259147573446e-05   1.585812794141939e-05
8.929627765713388e-05   -1.1760259147573446e-05   1.585812794141939e-05
8.386046499695576e-05   0.0   -6.630607853842128e-05
8.386046499695576e-05   0.0   -6.630607853842128e-05
8.386046499695576e-05   0.0   -6.630607853842128e-05
8.386046499695576e-05   0.0   -6.630607853842128e-05
3.9626477783453226e-05   -1.0007390116547723e-05   1.342166755401145e-05
3.9626477783453226e-05   -1.0007390116547723e-05   1.342166755401145e-05
3.9626477783453226e-05   -1.0007390116547723e-05   1.342166755401145e-05
3.9626477783453226e-05   -1.0007390116547723e-05   1.342166755401145e-05
6.170951312795614e-05   -5.2701399761851655e-06   -2.6225741437710795e-05
6.170951312795614e-05   -5.2701399761851655e-06   -2.6225741437710795e-05
6.170951312795614e-05   -5.2701399761851655e-06   -2.6225741437710795e-05
6.170951312795614e-05   -5.2701399761851655e-06   -2.6225741437710795e-05
3.962647778345326e-05   0.0   -6.0301644468492574e-05
3.962647778345326e-05   0.0   -6.0301644468492574e-05
3.962647778345326e-05   0.0   -6.0301644468492574e-05
3.962647778345326e-05   0.0   -6.0301644468492574e-05
8.386046499695576e-05   -1.0007390116547737e-05   7.41723348408283e-06
8.386046499695576e-05   -1.0007390116547737e-05   7.41723348408283e-06
8.386046499695576e-05   -1.0007390116547737e-05   7.41723348408283e-06
8.386046499695576e-05   -1.0007390116547737e-05   7.41723348408283e-06
8.13528503823749e-05   0.0   -6.492751596793454e-05
8.13528503823749e-05   0.0   -6.492751596793454e-05
8.13528503823749e-05   0.0   -6.492751596793454e-05
8.13528503823749e-05   0.0   -6.492751596793454e-05
3.945467328914812e-05   -9.144955982345063e-06   1.038975277685032e-05
3.945467328914812e-05   -9.144955982345063e-06   1.038975277685032e-05
3.945467328914812e-05   -9.144955982345063e-06   1.038975277685032e-05
3.945467328914812e-05   -9.144955982345063e-06   1.038975277685032e-05
6.048966408291406e-05   -3.854892916201604e-06   -2.7842603052445527e-05
6.048966408291406e-05   -3.854892916201604e-06   -2.7842603052445527e-05
6.048966408291406e-05   -3.854892916201604e-06   -2.7842603052445527e-05
6.048966408291406e-05   -3.854892916201604e-06   -2.7842603052445527e-05
3.945467328914819e-05   0.0   -5.94405423785275e-05
3.945467328914819e-05   0.0   -5.94405423785275e-05
3.945467328914819e-05   0.0   -5.94405423785275e-05
3.945467328914819e-05   0.0   -5.94405423785275e-05
8.135285038237475e-05   -9.144955982345063e-06   4.902779187443288e-06
8.135285038237475e-05   -9.144955982345063e-06   4.902779187443288e-06
8.135285038237475e-05   -9.144955982345063e-06   4.902779187443288e-06
8.135285038237475e-05   -9.144955982345063e-06   4.902779187443288e-06
7.762117838159592e-05   0.0   -6.140034601265423e-05
7.762117838159592e-05   0.0   -6.140034601265423e-05
7.762117838159592e-05   0.0   -6.140034601265423e-05
7.762117838159592e-05   0.0   -6.140034601265423e-05
4.0216783342155616e-05   -7.109185809753694e-06   5.205823872265035e-06
4.0216783342155616e-05   -7.109185809753694e-06   5.205823872265035e-06
4.0216783342155616e-05   -7.109185809753694e-06   5.205823872265035e-06
4.0216783342155616e-05   -7.109185809753694e-06   5.205823872265035e-06
5.853792583537195e-05   -1.6331696951056061e-06   -2.8615023285217677e-05
5.853792583537195e-05   -1.6331696951056061e-06   -2.8615023285217677e-05
5.853792583537195e-05   -1.6331696951056061e-06   -2.8615023285217677e-05
5.853792583537195e-05   -1.6331696951056061e-06   -2.8615023285217677e-05
-8.732498610903799e-05   1.1150327294092246e-05   -5.7285230754086396e-05
-8.732498610903799e-05   1.1150327294092246e-05   -5.7285230754086396e-05
-8.732498610903799e-05   1.1150327294092246e-05   -5.7285230754086396e-05
-8.732498610903799e-05   1.1150327294092246e-05   -5.7285230754086396e-05
-5.5929815838518364e-05   1.0028055668603007e-05   -5.633309945180556e-06
-5.5929815838518364e-05   1.0028055668603007e-05   -5.633309945180556e-06
-5.5929815838518364e-05   1.0028055668603007e-05   -5.633309945180556e-06
-5.5929815838518364e-05   1.0028055668603007e-05   -5.633309945180556e-06
-5.73380215719393e-05   1.337989060927087e-05   -4.8109325993730826e-05
-5.73380215719393e-05   1.337989060927087e-05   -4.8109325993730826e-05
-5.73380215719393e-05   1.337989060927087e-05   -4.8109325993730826e-05
-5.73380215719393e-05   1.337989060927087e-05   -4.8109325993730826e-05
-8.827235720686212e-05   1.2035256989492758e-05   4.254680236340783e-06
-8.827235720686212e-05   1.2035256989492758e-05   4.254680236340783e-06
-8.827235720686212e-05   1.2035256989492758e-05   4.254680236340783e-06
-8.827235720686212e-05   1.2035256989492758e-05   4.254680236340783e-06
-6.935606293817623e-05   1.1646582634443082e-05   -2.7039272265106097e-05
-6.935606293817623e-05   1.1646582634443082e-05   -2.7039272265106097e-05
-6.935606293817623e-05   1.1646582634443082e-05   -2.7039272265106097e-05
-6.935606293817623e-05   1.1646582634443082e-05   -2.7039272265106097e-05
-8.827235720686212e-05   1.337989060927087e-05   -4.73025458218639e-05
-8.827235720686212e-05   1.337989060927087e-05   -4.73025458218639e-05
-8.827235720686212e-05   1.337989060927087e-05   -4.73025458218639e-05
-8.827235720686212e-05   1.337989060927087e-05   -4.73025458218639e-05
-5.7338021571939505e-05   1.2035256989492758e-05   3.447900064474052e-06
-5.7338021571939505e-05   1.2035256989492758e-05   3.447900064474052e-06
-5.7338021571939505e-05   1.2035256989492758e-05   3.447900064474052e-06
-5.7338021571939505e-05   1.2035256989492758e-05   3.447900064474052e-06
-5.763408526893247e-05   1.4334244199164378e-05   -4.325226655998228e-05
-5.763408526893247e-05   1.4334244199164378e-05   -4.325226655998228e-05
-5.763408526893247e-05   1.4334244199164378e-05   -4.325226655998228e-05
-5.763408526893247e-05   1.4334244199164378e-05   -4.325226655998228e-05
-8.889537337016048e-05   1.2941135353880051e-05   9.685745582568205e-06
-8.889537337016048e-05   1.2941135353880051e-05   9.685745582568205e-06
-8.889537337016048e-05   1.2941135353880051e-05   9.685745582568205e-06
-8.889537337016048e-05   1.2941135353880051e-05   9.685745582568205e-06
-7.139672849427015e-05   1.2908709167932283e-05   -1.945920683234693e-05
-7.139672849427015e-05   1.2908709167932283e-05   -1.945920683234693e-05
-7.139672849427015e-05   1.2908709167932283e-05   -1.945920683234693e-05
-7.139672849427015e-05   1.2908709167932283e-05   -1.945920683234693e-05
-8.889537337016032e-05   1.4334244199164378e-05   -4.2416401252811666e-05
-8.889537337016032e-05   1.4334244199164378e-05   -4.2416401252811666e-05
-8.889537337016032e-05   1.4334244199164378e-05   -4.2416401252811666e-05
-8.889537337016032e-05   1.4334244199164378e-05   -4.2416401252811666e-05
-5.7634085268932564e-05   1.2941135353880051e-05   8.849880275397479e-06
-5.7634085268932564e-05   1.2941135353880051e-05   8.849880275397479e-06
-5.7634085268932564e-05   1.2941135353880051e-05   8.849880275397479e-06
-5.7634085268932564e-05   1.2941135353880051e-05   8.849880275397479e-06
-5.73078457437054e-05   1.632873015299301e-05   -3.195599738067508e-05
-5.73078457437054e-05   1.632873015299301e-05   -3.195599738067508e-05
-5.73078457437054e-05   1.632873015299301e-05   -3.195599738067508e-05
-5.73078457437054e-05   1.632873015299301e-05   -3.195599738067508e-05
-8.64329199321062e-05   1.3661093701862611e-05   1.818637480400427e-05
-8.64329199321062e-05   1.3661093701862611e-05   1.818637480400427e-05
-8.64329199321062e-05   1.3661093701862611e-05   1.818637480400427e-05
-8.64329199321062e-05   1.3661093701862611e-05   1.818637480400427e-05
-6.954124708250356e-05   1.415859464055527e-05   -1.0264913841882338e-05
-6.954124708250356e-05   1.415859464055527e-05   -1.0264913841882338e-05
-6.954124708250356e-05   1.415859464055527e-05   -1.0264913841882338e-05
-6.954124708250356e-05   1.415859464055527e-05   -1.0264913841882338e-05
-5.5929815838518364e-05   4.089934337523076e-06   -6.08269743260748e-05
-5.5929815838518364e-05   4.089934337523076e-06   -6.08269743260748e-05
-5.5929815838518364e-05   4.089934337523076e-06   -6.08269743260748e-05
-5.5929815838518364e-05   4.089934337523076e-06   -6.08269743260748e-05
-2.6500709736980084e-05   4.6661849839067316e-06   -1.1432713769013995e-05
-2.6500709736980084e-05   4.6661849839067316e-06   -1.1432713769013995e-05
-2.6500709736980084e-05   4.6661849839067316e-06   -1.1432713769013995e-05
-2.6500709736980084e-05   4.6661849839067316e-06   -1.1432713769013995e-05
-2.71349145871165e-05   5.822060736336668e-06   -6.073548489428978e-05
-2.71349145871165e-05   5.822060736336668e-06   -6.073548489428978e-05
-2.71349145871165e-05   5.822060736336668e-06   -6.073548489428978e-05
-2.71349145871165e-05   5.822060736336668e-06   -6.073548489428978e-05
-5.73380215719393e-05   6.511953172149451e-06   -1.0810908714405901e-05
-5.73380215719393e-05   6.511953172149451e-06   -1.0810908714405901e-05
-5.73380215719393e-05   6.511953172149451e-06   -1.0810908714405901e-05
-5.73380215719393e-05   6.511953172149451e-06   -1.0810908714405901e-05
-4.160843844011046e-05   5.243553250342393e-06   -3.6265840647703256e-05
-4.160843844011046e-05   5.243553250342393e-06   -3.6265840647703256e-05
-4.160843844011046e-05   5.243553250342393e-06   -3.6265840647703256e-05
-4.160843844011046e-05   5.243553250342393e-06   -3.6265840647703256e-05
-5.733802157193925e-05   5.8220607363366545e-06   -6.114942035577727e-05
-5.733802157193925e-05   5.8220607363366545e-06   -6.114942035577727e-05
-5.733802157193925e-05   5.8220607363366545e-06   -6.114942035577727e-05
-5.733802157193925e-05   5.8220607363366545e-06   -6.114942035577727e-05
-2.7134914587116454e-05   6.511953172149451e-06   -1.0396973252918138e-05
-2.7134914587116454e-05   6.511953172149451e-06   -1.0396973252918138e-05
-2.7134914587116454e-05   6.511953172149451e-06   -1.0396973252918138e-05
-2.7134914587116454e-05   6.511953172149451e-06   -1.0396973252918138e-05
-2.7335316248527953e-05   7.133682132772577e-06   -5.9598852410049075e-05
-2.7335316248527953e-05   7.133682132772577e-06   -5.9598852410049075e-05
-2.7335316248527953e-05   7.133682132772577e-06   -5.9598852410049075e-05
-2.7335316248527953e-05   7.133682132772577e-06   -5.9598852410049075e-05
-5.763408526893247e-05   8.039661354547782e-06   -9.644491575773215e-06
-5.763408526893247e-05   8.039661354547782e-06   -9.644491575773215e-06
-5.763408526893247e-05   8.039661354547782e-06   -9.644491575773215e-06
-5.763408526893247e-05   8.039661354547782e-06   -9.644491575773215e-06
-4.193519987293201e-05   6.6548196190459536e-06   -3.497839552780615e-05
-4.193519987293201e-05   6.6548196190459536e-06   -3.497839552780615e-05
-4.193519987293201e-05   6.6548196190459536e-06   -3.497839552780615e-05
-4.193519987293201e-05   6.6548196190459536e-06   -3.497839552780615e-05
-5.763408526893247e-05   7.1336821327725635e-06   -6.014243994311416e-05
-5.763408526893247e-05   7.1336821327725635e-06   -6.014243994311416e-05
-5.763408526893247e-05   7.1336821327725635e-06   -6.014243994311416e-05
-5.763408526893247e-05   7.1336821327725635e-06   -6.014243994311416e-05
-2.7335316248528e-05   8.039661354547836e-06   -9.100904042708157e-06
-2.7335316248528e-05   8.039661354547836e-06   -9.100904042708157e-06
-2.7335316248528e-05   8.039661354547836e-06   -9.100904042708157e-06
-2.7335316248528e-05   8.039661354547836e-06   -9.100904042708157e-06
-2.727018124915795e-05   8.300527944879883e-06   -5.898947838046286e-05
-2.727018124915795e-05   8.300527944879883e-06   -5.898947838046286e-05
-2.727018124915795e-05   8.300527944879883e-06   -5.898947838046286e-05
-2.727018124915795e-05   8.300527944879883e-06   -5.898947838046286e-05
-5.730784574370544e-05   9.683332390793189e-06   -9.75638689043174e-06
-5.730784574370544e-05   9.683332390793189e-06   -9.75638689043174e-06
-5.730784574370544e-05   9.683332390793189e-06   -9.75638689043174e-06
-5.730784574370544e-05   9.683332390793189e-06   -9.75638689043174e-06
-4.218366786987701e-05   7.93216914890165e-06   -3.3912652068344195e-05
-4.218366786987701e-05   7.93216914890165e-06   -3.3912652068344195e-05
-4.218366786987701e-05   7.93216914890165e-06   -3.3912652068344195e-05
-4.218366786987701e-05   7.93216914890165e-06   -3.3912652068344195e-05
-2.650070973698004e-05   -5.236549873284481e-07   -6.368696929945897e-05
-2.650070973698004e-05   -5.236549873284481e-07   -6.368696929945897e-05
-2.650070973698004e-05   -5.236549873284481e-07   -6.368696929945897e-05
-2.650070973698004e-05   -5.236549873284481e-07   -6.368696929945897e-05
2.5573491567254126e-06   -1.3878206930916567e-07   -1.5025947392471601e-05
2.5573491567254126e-06   -1.3878206930916567e-07   -1.5025947392471601e-05
2.5573491567254126e-06   -1.3878206930916567e-07   -1.5025947392471601e-05
2.5573491567254126e-06   -1.3878206930916567e-07   -1.5025947392471601e-05
2.43631883563259e-06   1.032025384829519e-06   -6.404183181571848e-05
2.43631883563259e-06   1.032025384829519e-06   -6.404183181571848e-05
2.43631883563259e-06   1.032025384829519e-06   -6.404183181571848e-05
2.43631883563259e-06   1.032025384829519e-06   -6.404183181571848e-05
-2.7134914587116454e-05   1.5617860466266812e-06   -1.5074299174881705e-05
-2.7134914587116454e-05   1.5617860466266812e-06   -1.5074299174881705e-05
-2.7134914587116454e-05   1.5617860466266812e-06   -1.5074299174881705e-05
-2.7134914587116454e-05   1.5617860466266812e-06   -1.5074299174881705e-05
-1.2233806065154524e-05   5.1849591986981e-07   -3.928350596876412e-05
-1.2233806065154524e-05   5.1849591986981e-07   -3.928350596876412e-05
-1.2233806065154524e-05   5.1849591986981e-07   -3.928350596876412e-05
-1.2233806065154524e-05   5.1849591986981e-07   -3.928350596876412e-05
-2.7134914587116454e-05   1.032025384829519e-06   -6.435968821279682e-05
-2.7134914587116454e-05   1.032025384829519e-06   -6.435968821279682e-05
-2.7134914587116454e-05   1.032025384829519e-06   -6.435968821279682e-05
-2.7134914587116454e-05   1.032025384829519e-06   -6.435968821279682e-05
2.4363188356325952e-06   1.5617860466267354e-06   -1.4756442777803306e-05
2.4363188356325952e-06   1.5617860466267354e-06   -1.4756442777803306e-05
2.4363188356325952e-06   1.5617860466267354e-06   -1.4756442777803306e-05
2.4363188356325952e-06   1.5617860466267354e-06   -1.4756442777803306e-05
2.271987046394556e-06   2.4017423262148946e-06   -6.417584279455252e-05
2.271987046394556e-06   2.4017423262148946e-06   -6.417584279455252e-05
2.271987046394556e-06   2.4017423262148946e-06   -6.417584279455252e-05
2.271987046394556e-06   2.4017423262148946e-06   -6.417584279455252e-05
-2.7335316248527906e-05   3.223334196291632e-06   -1.5323292425061063e-05
-2.7335316248527906e-05   3.223334196291632e-06   -1.5323292425061063e-05
-2.7335316248527906e-05   3.223334196291632e-06   -1.5323292425061063e-05
-2.7335316248527906e-05   3.223334196291632e-06   -1.5323292425061063e-05
-1.2463717389472021e-05   1.9596817571455015e-06   -3.935109905999983e-05
-1.2463717389472021e-05   1.9596817571455015e-06   -3.935109905999983e-05
-1.2463717389472021e-05   1.9596817571455015e-06   -3.935109905999983e-05
-1.2463717389472021e-05   1.9596817571455015e-06   -3.935109905999983e-05
-2.7335316248527906e-05   2.4017423262148946e-06   -6.466879791659851e-05
-2.7335316248527906e-05   2.4017423262148946e-06   -6.466879791659851e-05
-2.7335316248527906e-05   2.4017423262148946e-06   -6.466879791659851e-05
-2.7335316248527906e-05   2.4017423262148946e-06   -6.466879791659851e-05
2.271987046394556e-06   3.2233341962915776e-06   -1.4830337303015114e-05
2.271987046394556e-06   3.2233341962915776e-06   -1.4830337303015114e-05
2.271987046394556e-06   3.2233341962915776e-06   -1.4830337303015114e-05
2.271987046394556e-06   3.2233341962915776e-06   -1.4830337303015114e-05
1.9426383424000657e-06   3.988309806553543e-06   -6.406536440568738e-05
1.9426383424000657e-06   3.988309806553543e-06   -6.406536440568738e-05
1.9426383424000657e-06   3.988309806553543e-06   -6.406536440568738e-05
1.9426383424000657e-06   3.988309806553543e-06   -6.406536440568738e-05
-2.7270181249157926e-05   4.954544814087284e-06   -1.5957072757611035e-05
-2.7270181249157926e-05   4.954544814087284e-06   -1.5957072757611035e-05
-2.7270181249157926e-05   4.954544814087284e-06   -1.5957072757611035e-05
-2.7270181249157926e-05   4.954544814087284e-06   -1.5957072757611035e-05
-1.2603578020854257e-05   3.4402180693389207e-06   -3.9492815424601404e-05
-1.2603578020854257e-05   3.4402180693389207e-06   -3.9492815424601404e-05
-1.2603578020854257e-05   3.4402180693389207e-06   -3.9492815424601404e-05
-1.2603578020854257e-05   3.4402180693389207e-06   -3.9492815424601404e-05
2.5573491567254126e-06   -4.6398075445205325e-06   -5.8763311040756905e-05
2.5573491567254126e-06   -4.6398075445205325e-06   -5.8763311040756905e-05
2.5573491567254126e-06   -4.6398075445205325e-06   -5.8763311040756905e-05
2.5573491567254126e-06   -4.6398075445205325e-06   -5.8763311040756905e-05
3.2502174088877653e-05   -4.770261890123381e-06   -8.93354209453154e-06
3.2502174088877653e-05   -4.770261890123381e-06   -8.93354209453154e-06
3.2502174088877653e-05   -4.770261890123381e-06   -8.93354209453154e-06
3.2502174088877653e-05   -4.770261890123381e-06   -8.93354209453154e-06
3.276681397255603e-05   -3.4982094311907864e-06   -5.958293807848349e-05
3.276681397255603e-05   -3.4982094311907864e-06   -5.958293807848349e-05
3.276681397255603e-05   -3.4982094311907864e-06   -5.958293807848349e-05
3.276681397255603e-05   -3.4982094311907864e-06   -5.958293807848349e-05
2.4363188356325952e-06   -3.2252410716421243e-06   -9.195893866006904e-06
2.4363188356325952e-06   -3.2252410716421243e-06   -9.195893866006904e-06
2.4363188356325952e-06   -3.2252410716421243e-06   -9.195893866006904e-06
2.4363188356325952e-06   -3.2252410716421243e-06   -9.195893866006904e-06
1.7341184414244518e-05   -3.860650045971702e-06   -3.365609111242906e-05
1.7341184414244518e-05   -3.860650045971702e-06   -3.365609111242906e-05
1.7341184414244518e-05   -3.860650045971702e-06   -3.365609111242906e-05
1.7341184414244518e-05   -3.860650045971702e-06   -3.365609111242906e-05
2.43631883563259e-06   -3.4982094311907864e-06   -5.9746719094212704e-05
2.43631883563259e-06   -3.4982094311907864e-06   -5.9746719094212704e-05
2.43631883563259e-06   -3.4982094311907864e-06   -5.9746719094212704e-05
2.43631883563259e-06   -3.4982094311907864e-06   -5.9746719094212704e-05
3.276681397255603e-05   -3.2252410716421785e-06   -9.032112850277589e-06
3.276681397255603e-05   -3.2252410716421785e-06   -9.032112850277589e-06
3.276681397255603e-05   -3.2252410716421785e-06   -9.032112850277589e-06
3.276681397255603e-05   -3.2252410716421785e-06   -9.032112850277589e-06
3.2602967487872494e-05   -2.2016333898926737e-06   -6.069888834411423e-05
3.2602967487872494e-05   -2.2016333898926737e-06   -6.069888834411423e-05
3.2602967487872494e-05   -2.2016333898926737e-06   -6.069888834411423e-05
3.2602967487872494e-05   -2.2016333898926737e-06   -6.069888834411423e-05
2.271987046394556e-06   -1.711745909990835e-06   -1.0441186762925421e-05
2.271987046394556e-06   -1.711745909990835e-06   -1.0441186762925421e-05
2.271987046394556e-06   -1.711745909990835e-06   -1.0441186762925421e-05
2.271987046394556e-06   -1.711745909990835e-06   -1.0441186762925421e-05
1.715376231493891e-05   -2.6270600998661242e-06   -3.469495702990746e-05
1.715376231493891e-05   -2.6270600998661242e-06   -3.469495702990746e-05
1.715376231493891e-05   -2.6270600998661242e-06   -3.469495702990746e-05
1.715376231493891e-05   -2.6270600998661242e-06   -3.469495702990746e-05
2.271987046394556e-06   -2.2016333898926737e-06   -6.099282083205524e-05
2.271987046394556e-06   -2.2016333898926737e-06   -6.099282083205524e-05
2.271987046394556e-06   -2.2016333898926737e-06   -6.099282083205524e-05
2.271987046394556e-06   -2.2016333898926737e-06   -6.099282083205524e-05
3.2602967487872494e-05   -1.7117459099907808e-06   -1.0147254274984379e-05
3.2602967487872494e-05   -1.7117459099907808e-06   -1.0147254274984379e-05
3.2602967487872494e-05   -1.7117459099907808e-06   -1.0147254274984379e-05
3.2602967487872494e-05   -1.7117459099907808e-06   -1.0147254274984379e-05
3.164810136051497e-05   -4.5919732795142714e-07   -6.0806144182714095e-05
3.164810136051497e-05   -4.5919732795142714e-07   -6.0806144182714095e-05
3.164810136051497e-05   -4.5919732795142714e-07   -6.0806144182714095e-05
3.164810136051497e-05   -4.5919732795142714e-07   -6.0806144182714095e-05
1.9426383424000657e-06   1.6034985516564246e-07   -1.1668767462392916e-05
1.9426383424000657e-06   1.6034985516564246e-07   -1.1668767462392916e-05
1.9426383424000657e-06   1.6034985516564246e-07   -1.1668767462392916e-05
1.9426383424000657e-06   1.6034985516564246e-07   -1.1668767462392916e-05
1.6964146120846192e-05   -1.1862456994471822e-06   -3.5896656427035365e-05
1.6964146120846192e-05   -1.1862456994471822e-06   -3.5896656427035365e-05
1.6964146120846192e-05   -1.1862456994471822e-06   -3.5896656427035365e-05
1.6964146120846192e-05   -1.1862456994471822e-06   -3.5896656427035365e-05
3.2502174088877653e-05   -1.1760259147573432e-05   -3.555766389339108e-05
3.2502174088877653e-05   -1.1760259147573432e-05   -3.555766389339108e-05
3.2502174088877653e-05   -1.1760259147573432e-05   -3.555766389339108e-05
3.2502174088877653e-05   -1.1760259147573432e-05   -3.555766389339108e-05
6.20588913614483e-05   -8.867058020846288e-06   1.5439452236929612e-05
6.20588913614483e-05   -8.867058020846288e-06   1.5439452236929612e-05
6.20588913614483e-05   -8.867058020846288e-06   1.5439452236929612e-05
6.20588913614483e-05   -8.867058020846288e-06   1.5439452236929612e-05
6.441408385189487e-05   -1.0007390116547737e-05   -4.322477657726007e-05
6.441408385189487e-05   -1.0007390116547737e-05   -4.322477657726007e-05
6.441408385189487e-05   -1.0007390116547737e-05   -4.322477657726007e-05
6.441408385189487e-05   -1.0007390116547737e-05   -4.322477657726007e-05
3.2766813972556096e-05   -8.04494586160282e-06   8.343206668670958e-06
3.2766813972556096e-05   -8.04494586160282e-06   8.343206668670958e-06
3.2766813972556096e-05   -8.04494586160282e-06   8.343206668670958e-06
3.2766813972556096e-05   -8.04494586160282e-06   8.343206668670958e-06
4.570626437804876e-05   -9.629016889902737e-06   -1.2272101390170213e-05
4.570626437804876e-05   -9.629016889902737e-06   -1.2272101390170213e-05
4.570626437804876e-05   -9.629016889902737e-06   -1.2272101390170213e-05
4.570626437804876e-05   -9.629016889902737e-06   -1.2272101390170213e-05
3.2766813972556015e-05   -1.000739011654771e-05   -4.440224313022689e-05
3.2766813972556015e-05   -1.000739011654771e-05   -4.440224313022689e-05
3.2766813972556015e-05   -1.000739011654771e-05   -4.440224313022689e-05
3.2766813972556015e-05   -1.000739011654771e-05   -4.440224313022689e-05
6.441408385189474e-05   -8.044945861602766e-06   9.520673221638054e-06
6.441408385189474e-05   -8.044945861602766e-06   9.520673221638054e-06
6.441408385189474e-05   -8.044945861602766e-06   9.520673221638054e-06
6.441408385189474e-05   -8.044945861602766e-06   9.520673221638054e-06
6.416871754747225e-05   -9.144955982345063e-06   -4.7009002143375514e-05
6.416871754747225e-05   -9.144955982345063e-06   -4.7009002143375514e-05
6.416871754747225e-05   -9.144955982345063e-06   -4.7009002143375514e-05
6.416871754747225e-05   -9.144955982345063e-06   -4.7009002143375514e-05
3.2602967487872494e-05   -7.173947154184585e-06   4.417975992394483e-06
3.2602967487872494e-05   -7.173947154184585e-06   4.417975992394483e-06
3.2602967487872494e-05   -7.173947154184585e-06   4.417975992394483e-06
3.2602967487872494e-05   -7.173947154184585e-06   4.417975992394483e-06
4.729986069987622e-05   -8.50429150446488e-06   -1.9278639417443622e-05
4.729986069987622e-05   -8.50429150446488e-06   -1.9278639417443622e-05
4.729986069987622e-05   -8.50429150446488e-06   -1.9278639417443622e-05
4.729986069987622e-05   -8.50429150446488e-06   -1.9278639417443622e-05
3.260296748787244e-05   -9.144955982345036e-06   -4.8191607440271694e-05
3.260296748787244e-05   -9.144955982345036e-06   -4.8191607440271694e-05
3.260296748787244e-05   -9.144955982345036e-06   -4.8191607440271694e-05
3.260296748787244e-05   -9.144955982345036e-06   -4.8191607440271694e-05
6.416871754747214e-05   -7.173947154184585e-06   5.6005812892906555e-06
6.416871754747214e-05   -7.173947154184585e-06   5.6005812892906555e-06
6.416871754747214e-05   -7.173947154184585e-06   5.6005812892906555e-06
6.416871754747214e-05   -7.173947154184585e-06   5.6005812892906555e-06
6.3775721577669e-05   -7.109185809753708e-06   -5.471637462066252e-05
6.3775721577669e-05   -7.109185809753708e-06   -5.471637462066252e-05
6.3775721577669e-05   -7.109185809753708e-06   -5.471637462066252e-05
6.3775721577669e-05   -7.109185809753708e-06   -5.471637462066252e-05
3.164810136051494e-05   -5.299521688934678e-06   -2.256139397897156e-06
3.164810136051494e-05   -5.299521688934678e-06   -2.256139397897156e-06
3.164810136051494e-05   -5.299521688934678e-06   -2.256139397897156e-06
3.164810136051494e-05   -5.299521688934678e-06   -2.256139397897156e-06
4.594245350587754e-05   -7.323012916115955e-06   -2.486596490385937e-05
4.594245350587754e-05   -7.323012916115955e-06   -2.486596490385937e-05
4.594245350587754e-05   -7.323012916115955e-06   -2.486596490385937e-05
4.594245350587754e-05   -7.323012916115955e-06   -2.486596490385937e-05
-6.957255501999527e-05   1.0028055668603007e-05   -4.80137860748448e-05
-6.957255501999527e-05   1.0028055668603007e-05   -4.80137860748448e-05
-6.957255501999527e-05   1.0028055668603007e-05   -4.80137860748448e-05
-6.957255501999527e-05   1.0028055668603007e-05   -4.80137860748448e-05
-4.560868121606622e-05   7.66332698874596e-06   -9.492833609543966e-06
-4.560868121606622e-05   7.66332698874596e-06   -9.492833609543966e-06
-4.560868121606622e-05   7.66332698874596e-06   -9.492833609543966e-06
-4.560868121606622e-05   7.66332698874596e-06   -9.492833609543966e-06
-4.5829964119080996e-05   1.2035256989492758e-05   -3.986550920733161e-05
-4.5829964119080996e-05   1.2035256989492758e-05   -3.986550920733161e-05
-4.5829964119080996e-05   1.2035256989492758e-05   -3.986550920733161e-05
-4.5829964119080996e-05   1.2035256989492758e-05   -3.986550920733161e-05
-6.852066864654878e-05   9.269952634665389e-06   -3.884857153221399e-07
-6.852066864654878e-05   9.269952634665389e-06   -3.884857153221399e-07
-6.852066864654878e-05   9.269952634665389e-06   -3.884857153221399e-07
-6.852066864654878e-05   9.269952634665389e-06   -3.884857153221399e-07
-5.495623598502413e-05   1.0196821539436247e-05   -2.35519948273927e-05
-5.495623598502413e-05   1.0196821539436247e-05   -2.35519948273927e-05
-5.495623598502413e-05   1.0196821539436247e-05   -2.35519948273927e-05
-5.495623598502413e-05   1.0196821539436247e-05   -2.35519948273927e-05
-6.852066864654878e-05   1.2035256989492758e-05   -3.820632659443514e-05
-6.852066864654878e-05   1.2035256989492758e-05   -3.820632659443514e-05
-6.852066864654878e-05   1.2035256989492758e-05   -3.820632659443514e-05
-6.852066864654878e-05   1.2035256989492758e-05   -3.820632659443514e-05
-4.5829964119080996e-05   9.269952634665389e-06   -2.0476683282186702e-06
-4.5829964119080996e-05   9.269952634665389e-06   -2.0476683282186702e-06
-4.5829964119080996e-05   9.269952634665389e-06   -2.0476683282186702e-06
-4.5829964119080996e-05   9.269952634665389e-06   -2.0476683282186702e-06
-4.578438040646584e-05   1.2941135353880051e-05   -3.4105090234927914e-05
-4.578438040646584e-05   1.2941135353880051e-05   -3.4105090234927914e-05
-4.578438040646584e-05   1.2941135353880051e-05   -3.4105090234927914e-05
-4.578438040646584e-05   1.2941135353880051e-05   -3.4105090234927914e-05
-6.749492512308743e-05   9.97575785912242e-06   3.858377456295985e-06
-6.749492512308743e-05   9.97575785912242e-06   3.858377456295985e-06
-6.749492512308743e-05   9.97575785912242e-06   3.858377456295985e-06
-6.749492512308743e-05   9.97575785912242e-06   3.858377456295985e-06
-5.543255554972754e-05   1.1128201535776409e-05   -1.693703803862952e-05
-5.543255554972754e-05   1.1128201535776409e-05   -1.693703803862952e-05
-5.543255554972754e-05   1.1128201535776409e-05   -1.693703803862952e-05
-5.543255554972754e-05   1.1128201535776409e-05   -1.693703803862952e-05
-6.749492512308743e-05   1.2941135353880051e-05   -3.232586373807335e-05
-6.749492512308743e-05   1.2941135353880051e-05   -3.232586373807335e-05
-6.749492512308743e-05   1.2941135353880051e-05   -3.232586373807335e-05
-6.749492512308743e-05   1.2941135353880051e-05   -3.232586373807335e-05
-4.57843804064659e-05   9.97575785912253e-06   2.0791509594415126e-06
-4.57843804064659e-05   9.97575785912253e-06   2.0791509594415126e-06
-4.57843804064659e-05   9.97575785912253e-06   2.0791509594415126e-06
-4.57843804064659e-05   9.97575785912253e-06   2.0791509594415126e-06
-4.5831665550791103e-05   1.3661093701862611e-05   -2.603795588434262e-05
-4.5831665550791103e-05   1.3661093701862611e-05   -2.603795588434262e-05
-4.5831665550791103e-05   1.3661093701862611e-05   -2.603795588434262e-05
-4.5831665550791103e-05   1.3661093701862611e-05   -2.603795588434262e-05
-6.61548995109682e-05   1.067022751878523e-05   9.628620425798868e-06
-6.61548995109682e-05   1.067022751878523e-05   9.628620425798868e-06
-6.61548995109682e-05   1.067022751878523e-05   9.628620425798868e-06
-6.61548995109682e-05   1.067022751878523e-05   9.628620425798868e-06
-5.417103981892346e-05   1.161810574482549e-05   -1.0913205996566044e-05
-5.417103981892346e-05   1.161810574482549e-05   -1.0913205996566044e-05
-5.417103981892346e-05   1.161810574482549e-05   -1.0913205996566044e-05
-5.417103981892346e-05   1.161810574482549e-05   -1.0913205996566044e-05
-4.560868121606622e-05   4.666184983906786e-06   -5.557777749442274e-05
-4.560868121606622e-05   4.666184983906786e-06   -5.557777749442274e-05
-4.560868121606622e-05   4.666184983906786e-06   -5.557777749442274e-05
-4.560868121606622e-05   4.666184983906786e-06   -5.557777749442274e-05
-2.321048142736985e-05   3.8208406331337146e-06   -1.8754651123725884e-05
-2.321048142736985e-05   3.8208406331337146e-06   -1.8754651123725884e-05
-2.321048142736985e-05   3.8208406331337146e-06   -1.8754651123725884e-05
-2.321048142736985e-05   3.8208406331337146e-06   -1.8754651123725884e-05
-2.349310253494046e-05   6.511953172149451e-06   -5.479096552124134e-05
-2.349310253494046e-05   6.511953172149451e-06   -5.479096552124134e-05
-2.349310253494046e-05   6.511953172149451e-06   -5.479096552124134e-05
-2.349310253494046e-05   6.511953172149451e-06   -5.479096552124134e-05
-4.5829964119080996e-05   5.4008739470996076e-06   -1.6896215345977292e-05
-4.5829964119080996e-05   5.4008739470996076e-06   -1.6896215345977292e-05
-4.5829964119080996e-05   5.4008739470996076e-06   -1.6896215345977292e-05
-4.5829964119080996e-05   5.4008739470996076e-06   -1.6896215345977292e-05
-3.4239964661154066e-05   5.381059015820139e-06   -3.6200992150421124e-05
-3.4239964661154066e-05   5.381059015820139e-06   -3.6200992150421124e-05
-3.4239964661154066e-05   5.381059015820139e-06   -3.6200992150421124e-05
-3.4239964661154066e-05   5.381059015820139e-06   -3.6200992150421124e-05
-4.582996411908093e-05   6.511953172149451e-06   -5.4124317986211376e-05
-4.582996411908093e-05   6.511953172149451e-06   -5.4124317986211376e-05
-4.582996411908093e-05   6.511953172149451e-06   -5.4124317986211376e-05
-4.582996411908093e-05   6.511953172149451e-06   -5.4124317986211376e-05
-2.34931025349405e-05   5.4008739470996076e-06   -1.7562862881007226e-05
-2.34931025349405e-05   5.4008739470996076e-06   -1.7562862881007226e-05
-2.34931025349405e-05   5.4008739470996076e-06   -1.7562862881007226e-05
-2.34931025349405e-05   5.4008739470996076e-06   -1.7562862881007226e-05
-2.3676622441328726e-05   8.039661354547836e-06   -5.3340555729598706e-05
-2.3676622441328726e-05   8.039661354547836e-06   -5.3340555729598706e-05
-2.3676622441328726e-05   8.039661354547836e-06   -5.3340555729598706e-05
-2.3676622441328726e-05   8.039661354547836e-06   -5.3340555729598706e-05
-4.578438040646584e-05   6.804505282047768e-06   -1.5753198810870188e-05
-4.578438040646584e-05   6.804505282047768e-06   -1.5753198810870188e-05
-4.578438040646584e-05   6.804505282047768e-06   -1.5753198810870188e-05
-4.578438040646584e-05   6.804505282047768e-06   -1.5753198810870188e-05
-3.430399322511233e-05   6.680886768602298e-06   -3.4813006338391895e-05
-3.430399322511233e-05   6.680886768602298e-06   -3.4813006338391895e-05
-3.430399322511233e-05   6.680886768602298e-06   -3.4813006338391895e-05
-3.430399322511233e-05   6.680886768602298e-06   -3.4813006338391895e-05
-4.578438040646584e-05   8.039661354547836e-06   -5.259946208609866e-05
-4.578438040646584e-05   8.039661354547836e-06   -5.259946208609866e-05
-4.578438040646584e-05   8.039661354547836e-06   -5.259946208609866e-05
-4.578438040646584e-05   8.039661354547836e-06   -5.259946208609866e-05
-2.3676622441328767e-05   6.804505282047768e-06   -1.649429245437011e-05
-2.3676622441328767e-05   6.804505282047768e-06   -1.649429245437011e-05
-2.3676622441328767e-05   6.804505282047768e-06   -1.649429245437011e-05
-2.3676622441328767e-05   6.804505282047768e-06   -1.649429245437011e-05
-2.3913830702707786e-05   9.683332390793189e-06   -5.321162512418441e-05
-2.3913830702707786e-05   9.683332390793189e-06   -5.321162512418441e-05
-2.3913830702707786e-05   9.683332390793189e-06   -5.321162512418441e-05
-2.3913830702707786e-05   9.683332390793189e-06   -5.321162512418441e-05
-4.583166555079105e-05   8.297516697319688e-06   -1.5850410961294948e-05
-4.583166555079105e-05   8.297516697319688e-06   -1.5850410961294948e-05
-4.583166555079105e-05   8.297516697319688e-06   -1.5850410961294948e-05
-4.583166555079105e-05   8.297516697319688e-06   -1.5850410961294948e-05
-3.471119242834709e-05   7.968268990266736e-06   -3.418698420780278e-05
-3.471119242834709e-05   7.968268990266736e-06   -3.418698420780278e-05
-3.471119242834709e-05   7.968268990266736e-06   -3.418698420780278e-05
-3.471119242834709e-05   7.968268990266736e-06   -3.418698420780278e-05
-2.3210481427369808e-05   -1.3878206930911146e-07   -5.9909141479155775e-05
-2.3210481427369808e-05   -1.3878206930911146e-07   -5.9909141479155775e-05
-2.3210481427369808e-05   -1.3878206930911146e-07   -5.9909141479155775e-05
-2.3210481427369808e-05   -1.3878206930911146e-07   -5.9909141479155775e-05
-1.0636091957069497e-06   2.0335722828368138e-07   -2.2792404181161977e-05
-1.0636091957069497e-06   2.0335722828368138e-07   -2.2792404181161977e-05
-1.0636091957069497e-06   2.0335722828368138e-07   -2.2792404181161977e-05
-1.0636091957069497e-06   2.0335722828368138e-07   -2.2792404181161977e-05
-1.2904650669412305e-06   1.5617860466267354e-06   -5.9350212828035746e-05
-1.2904650669412305e-06   1.5617860466267354e-06   -5.9350212828035746e-05
-1.2904650669412305e-06   1.5617860466267354e-06   -5.9350212828035746e-05
-1.2904650669412305e-06   1.5617860466267354e-06   -5.9350212828035746e-05
-2.3493102534940418e-05   1.7585837385753053e-06   -2.2463895663206137e-05
-2.3493102534940418e-05   1.7585837385753053e-06   -2.2463895663206137e-05
-2.3493102534940418e-05   1.7585837385753053e-06   -2.2463895663206137e-05
-2.3493102534940418e-05   1.7585837385753053e-06   -2.2463895663206137e-05
-1.2195496597114522e-05   1.0245629478115989e-06   -4.0852826418457845e-05
-1.2195496597114522e-05   1.0245629478115989e-06   -4.0852826418457845e-05
-1.2195496597114522e-05   1.0245629478115989e-06   -4.0852826418457845e-05
-1.2195496597114522e-05   1.0245629478115989e-06   -4.0852826418457845e-05
-2.349310253494046e-05   1.5617860466267354e-06   -5.946829144320488e-05
-2.349310253494046e-05   1.5617860466267354e-06   -5.946829144320488e-05
-2.349310253494046e-05   1.5617860466267354e-06   -5.946829144320488e-05
-2.349310253494046e-05   1.5617860466267354e-06   -5.946829144320488e-05
-1.2904650669412305e-06   1.7585837385751969e-06   -2.2345817048037006e-05
-1.2904650669412305e-06   1.7585837385751969e-06   -2.2345817048037006e-05
-1.2904650669412305e-06   1.7585837385751969e-06   -2.2345817048037006e-05
-1.2904650669412305e-06   1.7585837385751969e-06   -2.2345817048037006e-05
-1.4546357141518054e-06   3.2233341962915776e-06   -5.951144473554634e-05
-1.4546357141518054e-06   3.2233341962915776e-06   -5.951144473554634e-05
-1.4546357141518054e-06   3.2233341962915776e-06   -5.951144473554634e-05
-1.4546357141518054e-06   3.2233341962915776e-06   -5.951144473554634e-05
-2.3676622441328726e-05   3.309166490300555e-06   -2.252629956665689e-05
-2.3676622441328726e-05   3.309166490300555e-06   -2.252629956665689e-05
-2.3676622441328726e-05   3.309166490300555e-06   -2.252629956665689e-05
-2.3676622441328726e-05   3.309166490300555e-06   -2.252629956665689e-05
-1.2488087807570496e-05   2.3960953862422216e-06   -4.062601462715226e-05
-1.2488087807570496e-05   2.3960953862422216e-06   -4.062601462715226e-05
-1.2488087807570496e-05   2.3960953862422216e-06   -4.062601462715226e-05
-1.2488087807570496e-05   2.3960953862422216e-06   -4.062601462715226e-05
-2.3676622441328726e-05   3.2233341962915776e-06   -5.956294411195173e-05
-2.3676622441328726e-05   3.2233341962915776e-06   -5.956294411195173e-05
-2.3676622441328726e-05   3.2233341962915776e-06   -5.956294411195173e-05
-2.3676622441328726e-05   3.2233341962915776e-06   -5.956294411195173e-05
-1.4546357141518054e-06   3.309166490300555e-06   -2.2474800190251356e-05
-1.4546357141518054e-06   3.309166490300555e-06   -2.2474800190251356e-05
-1.4546357141518054e-06   3.309166490300555e-06   -2.2474800190251356e-05
-1.4546357141518054e-06   3.309166490300555e-06   -2.2474800190251356e-05
-1.7121746819543464e-06   4.954544814087338e-06   -6.0277237709922566e-05
-1.7121746819543464e-06   4.954544814087338e-06   -6.0277237709922566e-05
-1.7121746819543464e-06   4.954544814087338e-06   -6.0277237709922566e-05
-1.7121746819543464e-06   4.954544814087338e-06   -6.0277237709922566e-05
-2.3913830702707806e-05   4.895804729069283e-06   -2.3239233624322835e-05
-2.3913830702707806e-05   4.895804729069283e-06   -2.3239233624322835e-05
-2.3913830702707806e-05   4.895804729069283e-06   -2.3239233624322835e-05
-2.3913830702707806e-05   4.895804729069283e-06   -2.3239233624322835e-05
-1.2798879481114107e-05   3.783919616526688e-06   -4.109702125945309e-05
-1.2798879481114107e-05   3.783919616526688e-06   -4.109702125945309e-05
-1.2798879481114107e-05   3.783919616526688e-06   -4.109702125945309e-05
-1.2798879481114107e-05   3.783919616526688e-06   -4.109702125945309e-05
-1.0636091957069514e-06   -4.770261890123435e-06   -5.353317999529829e-05
-1.0636091957069514e-06   -4.770261890123435e-06   -5.353317999529829e-05
-1.0636091957069514e-06   -4.770261890123435e-06   -5.353317999529829e-05
-1.0636091957069514e-06   -4.770261890123435e-06   -5.353317999529829e-05
2.097237058949823e-05   -3.1991122015339333e-06   -1.5863857206802686e-05
2.097237058949823e-05   -3.1991122015339333e-06   -1.5863857206802686e-05
2.097237058949823e-05   -3.1991122015339333e-06   -1.5863857206802686e-05
2.097237058949823e-05   -3.1991122015339333e-06   -1.5863857206802686e-05
2.095556956137657e-05   -3.2252410716421785e-06   -5.2918715649638885e-05
2.095556956137657e-05   -3.2252410716421785e-06   -5.2918715649638885e-05
2.095556956137657e-05   -3.2252410716421785e-06   -5.2918715649638885e-05
2.095556956137657e-05   -3.2252410716421785e-06   -5.2918715649638885e-05
-1.2904650669412305e-06   -1.7736606273082269e-06   -1.6712939535709593e-05
-1.2904650669412305e-06   -1.7736606273082269e-06   -1.6712939535709593e-05
-1.2904650669412305e-06   -1.7736606273082269e-06   -1.6712939535709593e-05
-1.2904650669412305e-06   -1.7736606273082269e-06   -1.6712939535709593e-05
9.817918134824208e-06   -3.1299699483593863e-06   -3.441312594602127e-05
9.817918134824208e-06   -3.1299699483593863e-06   -3.441312594602127e-05
9.817918134824208e-06   -3.1299699483593863e-06   -3.441312594602127e-05
9.817918134824208e-06   -3.1299699483593863e-06   -3.441312594602127e-05
-1.2904650669412305e-06   -3.2252410716421785e-06   -5.3789663916239256e-05
-1.2904650669412305e-06   -3.2252410716421785e-06   -5.3789663916239256e-05
-1.2904650669412305e-06   -3.2252410716421785e-06   -5.3789663916239256e-05
-1.2904650669412305e-06   -3.2252410716421785e-06   -5.3789663916239256e-05
2.095556956137661e-05   -1.7736606273083353e-06   -1.5841991269109276e-05
2.095556956137661e-05   -1.7736606273083353e-06   -1.5841991269109276e-05
2.095556956137661e-05   -1.7736606273083353e-06   -1.5841991269109276e-05
2.095556956137661e-05   -1.7736606273083353e-06   -1.5841991269109276e-05
2.1053668194729992e-05   -1.7117459099907808e-06   -5.43189741176594e-05
2.1053668194729992e-05   -1.7117459099907808e-06   -5.43189741176594e-05
2.1053668194729992e-05   -1.7117459099907808e-06   -5.43189741176594e-05
2.1053668194729992e-05   -1.7117459099907808e-06   -5.43189741176594e-05
-1.454635714151808e-06   -3.7287911366196917e-07   -1.7608454347320412e-05
-1.454635714151808e-06   -3.7287911366196917e-07   -1.7608454347320412e-05
-1.454635714151808e-06   -3.7287911366196917e-07   -1.7608454347320412e-05
-1.454635714151808e-06   -3.7287911366196917e-07   -1.7608454347320412e-05
9.515963369357953e-06   -1.8939236738432395e-06   -3.498015941706124e-05
9.515963369357953e-06   -1.8939236738432395e-06   -3.498015941706124e-05
9.515963369357953e-06   -1.8939236738432395e-06   -3.498015941706124e-05
9.515963369357953e-06   -1.8939236738432395e-06   -3.498015941706124e-05
-1.4546357141518054e-06   -1.7117459099907808e-06   -5.512229419545671e-05
-1.4546357141518054e-06   -1.7117459099907808e-06   -5.512229419545671e-05
-1.4546357141518054e-06   -1.7117459099907808e-06   -5.512229419545671e-05
-1.4546357141518054e-06   -1.7117459099907808e-06   -5.512229419545671e-05
2.1053668194730032e-05   -3.7287911366196917e-07   -1.6805134269523017e-05
2.1053668194730032e-05   -3.7287911366196917e-07   -1.6805134269523017e-05
2.1053668194730032e-05   -3.7287911366196917e-07   -1.6805134269523017e-05
2.1053668194730032e-05   -3.7287911366196917e-07   -1.6805134269523017e-05
2.0891224356044905e-05   1.6034985516564246e-07   -5.590585380525886e-05
2.0891224356044905e-05   1.6034985516564246e-07   -5.590585380525886e-05
2.0891224356044905e-05   1.6034985516564246e-07   -5.590585380525886e-05
2.0891224356044905e-05   1.6034985516564246e-07   -5.590585380525886e-05
-1.7121746819543497e-06   1.2650492117755735e-06   -1.8896341689226246e-05
-1.7121746819543497e-06   1.2650492117755735e-06   -1.8896341689226246e-05
-1.7121746819543497e-06   1.2650492117755735e-06   -1.8896341689226246e-05
-1.7121746819543497e-06   1.2650492117755735e-06   -1.8896341689226246e-05
9.409637526656457e-06   -5.712843847748082e-07   -3.633089521231373e-05
9.409637526656457e-06   -5.712843847748082e-07   -3.633089521231373e-05
9.409637526656457e-06   -5.712843847748082e-07   -3.633089521231373e-05
9.409637526656457e-06   -5.712843847748082e-07   -3.633089521231373e-05
2.0972370589498205e-05   -8.867058020846288e-06   -2.9953416526719626e-05
2.0972370589498205e-05   -8.867058020846288e-06   -2.9953416526719626e-05
2.0972370589498205e-05   -8.867058020846288e-06   -2.9953416526719626e-05
2.0972370589498205e-05   -8.867058020846288e-06   -2.9953416526719626e-05
4.160938303184291e-05   -5.802786453509151e-06   6.280167150923962e-06
4.160938303184291e-05   -5.802786453509151e-06   6.280167150923962e-06
4.160938303184291e-05   -5.802786453509151e-06   6.280167150923962e-06
4.160938303184291e-05   -5.802786453509151e-06   6.280167150923962e-06
4.3010353021920246e-05   -8.04494586160282e-06   -3.370534024290612e-05
4.3010353021920246e-05   -8.04494586160282e-06   -3.370534024290612e-05
4.3010353021920246e-05   -8.04494586160282e-06   -3.370534024290612e-05
4.3010353021920246e-05   -8.04494586160282e-06   -3.370534024290612e-05
2.095556956137657e-05   -4.981519381962716e-06   1.2145763035493215e-06
2.095556956137657e-05   -4.981519381962716e-06   1.2145763035493215e-06
2.095556956137657e-05   -4.981519381962716e-06   1.2145763035493215e-06
2.095556956137657e-05   -4.981519381962716e-06   1.2145763035493215e-06
3.028477351675573e-05   -6.8420820131759135e-06   -1.321775937668809e-05
3.028477351675573e-05   -6.8420820131759135e-06   -1.321775937668809e-05
3.028477351675573e-05   -6.8420820131759135e-06   -1.321775937668809e-05
3.028477351675573e-05   -6.8420820131759135e-06   -1.321775937668809e-05
2.0955569561376556e-05   -8.044945861602766e-06   -3.554339613069007e-05
2.0955569561376556e-05   -8.044945861602766e-06   -3.554339613069007e-05
2.0955569561376556e-05   -8.044945861602766e-06   -3.554339613069007e-05
2.0955569561376556e-05   -8.044945861602766e-06   -3.554339613069007e-05
4.3010353021920246e-05   -4.981519381962716e-06   3.0526321913333784e-06
4.3010353021920246e-05   -4.981519381962716e-06   3.0526321913333784e-06
4.3010353021920246e-05   -4.981519381962716e-06   3.0526321913333784e-06
4.3010353021920246e-05   -4.981519381962716e-06   3.0526321913333784e-06
4.40868322568132e-05   -7.173947154184639e-06   -3.8015571456379824e-05
4.40868322568132e-05   -7.173947154184639e-06   -3.8015571456379824e-05
4.40868322568132e-05   -7.173947154184639e-06   -3.8015571456379824e-05
4.40868322568132e-05   -7.173947154184639e-06   -3.8015571456379824e-05
2.105366819472995e-05   -4.276993164349912e-06   -1.3651370801419675e-06
2.105366819472995e-05   -4.276993164349912e-06   -1.3651370801419675e-06
2.105366819472995e-05   -4.276993164349912e-06   -1.3651370801419675e-06
2.105366819472995e-05   -4.276993164349912e-06   -1.3651370801419675e-06
3.131253593908741e-05   -6.3121899181700744e-06   -1.724213193511221e-05
3.131253593908741e-05   -6.3121899181700744e-06   -1.724213193511221e-05
3.131253593908741e-05   -6.3121899181700744e-06   -1.724213193511221e-05
3.131253593908741e-05   -6.3121899181700744e-06   -1.724213193511221e-05
2.1053668194729992e-05   -7.173947154184639e-06   -3.975374385028062e-05
2.1053668194729992e-05   -7.173947154184639e-06   -3.975374385028062e-05
2.1053668194729992e-05   -7.173947154184639e-06   -3.975374385028062e-05
2.1053668194729992e-05   -7.173947154184639e-06   -3.975374385028062e-05
4.408683225681312e-05   -4.276993164349912e-06   3.7303531375887985e-07
4.408683225681312e-05   -4.276993164349912e-06   3.7303531375887985e-07
4.408683225681312e-05   -4.276993164349912e-06   3.7303531375887985e-07
4.408683225681312e-05   -4.276993164349912e-06   3.7303531375887985e-07
4.5233691733979604e-05   -5.299521688934678e-06   -4.5348371399889176e-05
4.5233691733979604e-05   -5.299521688934678e-06   -4.5348371399889176e-05
4.5233691733979604e-05   -5.299521688934678e-06   -4.5348371399889176e-05
4.5233691733979604e-05   -5.299521688934678e-06   -4.5348371399889176e-05
2.089122435604485e-05   -2.771883937694353e-06   -6.294175087408823e-06
2.089122435604485e-05   -2.771883937694353e-06   -6.294175087408823e-06
2.089122435604485e-05   -2.771883937694353e-06   -6.294175087408823e-06
2.089122435604485e-05   -2.771883937694353e-06   -6.294175087408823e-06
3.1177724016238743e-05   -5.437935301466168e-06   -2.183871036946886e-05
3.1177724016238743e-05   -5.437935301466168e-06   -2.183871036946886e-05
3.1177724016238743e-05   -5.437935301466168e-06   -2.183871036946886e-05
3.1177724016238743e-05   -5.437935301466168e-06   -2.183871036946886e-05
-5.000310829407023e-05   7.66332698874596e-06   -3.803748522499331e-05
-5.000310829407023e-05   7.66332698874596e-06   -3.803748522499331e-05
-5.000310829407023e-05   7.66332698874596e-06   -3.803748522499331e-05
-5.000310829407023e-05   7.66332698874596e-06   -3.803748522499331e-05
-3.4044445628066594e-05   4.875606638450082e-06   -1.3112346325164716e-05
-3.4044445628066594e-05   4.875606638450082e-06   -1.3112346325164716e-05
-3.4044445628066594e-05   4.875606638450082e-06   -1.3112346325164716e-05
-3.4044445628066594e-05   4.875606638450082e-06   -1.3112346325164716e-05
-3.392057173269721e-05   9.269952634665389e-06   -3.231428620090724e-05
-3.392057173269721e-05   9.269952634665389e-06   -3.231428620090724e-05
-3.392057173269721e-05   9.269952634665389e-06   -3.231428620090724e-05
-3.392057173269721e-05   9.269952634665389e-06   -3.231428620090724e-05
-4.850812711295694e-05   6.205619680093384e-06   -6.163094127731056e-06
-4.850812711295694e-05   6.205619680093384e-06   -6.163094127731056e-06
-4.850812711295694e-05   6.205619680093384e-06   -6.163094127731056e-06
-4.850812711295694e-05   6.205619680093384e-06   -6.163094127731056e-06
-3.9853401067100225e-05   7.37919748098996e-06   -2.129178421803026e-05
-3.9853401067100225e-05   7.37919748098996e-06   -2.129178421803026e-05
-3.9853401067100225e-05   7.37919748098996e-06   -2.129178421803026e-05
-3.9853401067100225e-05   7.37919748098996e-06   -2.129178421803026e-05
-4.850812711295694e-05   9.269952634665389e-06   -3.0475686428164007e-05
-4.850812711295694e-05   9.269952634665389e-06   -3.0475686428164007e-05
-4.850812711295694e-05   9.269952634665389e-06   -3.0475686428164007e-05
-4.850812711295694e-05   9.269952634665389e-06   -3.0475686428164007e-05
-3.392057173269729e-05   6.205619680093384e-06   -8.001693900474403e-06
-3.392057173269729e-05   6.205619680093384e-06   -8.001693900474403e-06
-3.392057173269729e-05   6.205619680093384e-06   -8.001693900474403e-06
-3.392057173269729e-05   6.205619680093384e-06   -8.001693900474403e-06
-3.366335954372546e-05   9.97575785912242e-06   -2.8177886939686515e-05
-3.366335954372546e-05   9.97575785912242e-06   -2.8177886939686515e-05
-3.366335954372546e-05   9.97575785912242e-06   -2.8177886939686515e-05
-3.366335954372546e-05   9.97575785912242e-06   -2.8177886939686515e-05
-4.7390491452324764e-05   6.825249197699385e-06   -3.4090285618336783e-06
-4.7390491452324764e-05   6.825249197699385e-06   -3.4090285618336783e-06
-4.7390491452324764e-05   6.825249197699385e-06   -3.4090285618336783e-06
-4.7390491452324764e-05   6.825249197699385e-06   -3.4090285618336783e-06
-3.985585425698453e-05   8.121329622412196e-06   -1.6744405475561846e-05
-3.985585425698453e-05   8.121329622412196e-06   -1.6744405475561846e-05
-3.985585425698453e-05   8.121329622412196e-06   -1.6744405475561846e-05
-3.985585425698453e-05   8.121329622412196e-06   -1.6744405475561846e-05
-4.7390491452324764e-05   9.97575785912242e-06   -2.6287581742832618e-05
-4.7390491452324764e-05   9.97575785912242e-06   -2.6287581742832618e-05
-4.7390491452324764e-05   9.97575785912242e-06   -2.6287581742832618e-05
-4.7390491452324764e-05   9.97575785912242e-06   -2.6287581742832618e-05
-3.366335954372554e-05   6.825249197699385e-06   -5.299333758687459e-06
-3.366335954372554e-05   6.825249197699385e-06   -5.299333758687459e-06
-3.366335954372554e-05   6.825249197699385e-06   -5.299333758687459e-06
-3.366335954372554e-05   6.825249197699385e-06   -5.299333758687459e-06
-3.3560333342560746e-05   1.067022751878512e-05   -2.2451821010445005e-05
-3.3560333342560746e-05   1.067022751878512e-05   -2.2451821010445005e-05
-3.3560333342560746e-05   1.067022751878512e-05   -2.2451821010445005e-05
-3.3560333342560746e-05   1.067022751878512e-05   -2.2451821010445005e-05
-4.5928045199585324e-05   7.6043337663220115e-06   5.683360737866912e-10
-4.5928045199585324e-05   7.6043337663220115e-06   5.683360737866912e-10
-4.5928045199585324e-05   7.6043337663220115e-06   5.683360737866912e-10
-4.5928045199585324e-05   7.6043337663220115e-06   5.683360737866912e-10
-3.867681225764918e-05   8.523348466516899e-06   -1.2636228720603206e-05
-3.867681225764918e-05   8.523348466516899e-06   -1.2636228720603206e-05
-3.867681225764918e-05   8.523348466516899e-06   -1.2636228720603206e-05
-3.867681225764918e-05   8.523348466516899e-06   -1.2636228720603206e-05
-3.404444562806654e-05   3.8208406331337146e-06   -4.8464728338888836e-05
-3.404444562806654e-05   3.8208406331337146e-06   -4.8464728338888836e-05
-3.404444562806654e-05   3.8208406331337146e-06   -4.8464728338888836e-05
-3.404444562806654e-05   3.8208406331337146e-06   -4.8464728338888836e-05
-1.958017199560519e-05   2.5203158787988084e-06   -2.5137920470720966e-05
-1.958017199560519e-05   2.5203158787988084e-06   -2.5137920470720966e-05
-1.958017199560519e-05   2.5203158787988084e-06   -2.5137920470720966e-05
-1.958017199560519e-05   2.5203158787988084e-06   -2.5137920470720966e-05
-1.9589659096033723e-05   5.400873947099499e-06   -4.8048712404373745e-05
-1.9589659096033723e-05   5.400873947099499e-06   -4.8048712404373745e-05
-1.9589659096033723e-05   5.400873947099499e-06   -4.8048712404373745e-05
-1.9589659096033723e-05   5.400873947099499e-06   -4.8048712404373745e-05
-3.392057173269721e-05   3.924408637586427e-06   -2.3277978824226683e-05
-3.392057173269721e-05   3.924408637586427e-06   -2.3277978824226683e-05
-3.392057173269721e-05   3.924408637586427e-06   -2.3277978824226683e-05
-3.392057173269721e-05   3.924408637586427e-06   -2.3277978824226683e-05
-2.653679424997882e-05   4.1790424797922415e-06   -3.573705493408079e-05
-2.653679424997882e-05   4.1790424797922415e-06   -3.573705493408079e-05
-2.653679424997882e-05   4.1790424797922415e-06   -3.573705493408079e-05
-2.653679424997882e-05   4.1790424797922415e-06   -3.573705493408079e-05
-3.392057173269718e-05   5.4008739470996076e-06   -4.7162833218665674e-05
-3.392057173269718e-05   5.4008739470996076e-06   -4.7162833218665674e-05
-3.392057173269718e-05   5.4008739470996076e-06   -4.7162833218665674e-05
-3.392057173269718e-05   5.4008739470996076e-06   -4.7162833218665674e-05
-1.9589659096033723e-05   3.924408637586427e-06   -2.416385800993462e-05
-1.9589659096033723e-05   3.924408637586427e-06   -2.416385800993462e-05
-1.9589659096033723e-05   3.924408637586427e-06   -2.416385800993462e-05
-1.9589659096033723e-05   3.924408637586427e-06   -2.416385800993462e-05
-1.9575119208024828e-05   6.804505282047768e-06   -4.697175126804217e-05
-1.9575119208024828e-05   6.804505282047768e-06   -4.697175126804217e-05
-1.9575119208024828e-05   6.804505282047768e-06   -4.697175126804217e-05
-1.9575119208024828e-05   6.804505282047768e-06   -4.697175126804217e-05
-3.366335954372546e-05   5.20198101864103e-06   -2.2529836150497013e-05
-3.366335954372546e-05   5.20198101864103e-06   -2.2529836150497013e-05
-3.366335954372546e-05   5.20198101864103e-06   -2.2529836150497013e-05
-3.366335954372546e-05   5.20198101864103e-06   -2.2529836150497013e-05
-2.641309722477018e-05   5.332068335674612e-06   -3.469165907230896e-05
-2.641309722477018e-05   5.332068335674612e-06   -3.469165907230896e-05
-2.641309722477018e-05   5.332068335674612e-06   -3.469165907230896e-05
-2.641309722477018e-05   5.332068335674612e-06   -3.469165907230896e-05
-3.366335954372546e-05   6.804505282047768e-06   -4.6010236709998094e-05
-3.366335954372546e-05   6.804505282047768e-06   -4.6010236709998094e-05
-3.366335954372546e-05   6.804505282047768e-06   -4.6010236709998094e-05
-3.366335954372546e-05   6.804505282047768e-06   -4.6010236709998094e-05
-1.9575119208024828e-05   5.20198101864103e-06   -2.34913507085409e-05
-1.9575119208024828e-05   5.20198101864103e-06   -2.34913507085409e-05
-1.9575119208024828e-05   5.20198101864103e-06   -2.34913507085409e-05
-1.9575119208024828e-05   5.20198101864103e-06   -2.34913507085409e-05
-1.9590696602431344e-05   8.297516697319688e-06   -4.716105921252279e-05
-1.9590696602431344e-05   8.297516697319688e-06   -4.716105921252279e-05
-1.9590696602431344e-05   8.297516697319688e-06   -4.716105921252279e-05
-1.9590696602431344e-05   8.297516697319688e-06   -4.716105921252279e-05
-3.356033334256072e-05   6.589639155935739e-06   -2.2853604787476643e-05
-3.356033334256072e-05   6.589639155935739e-06   -2.2853604787476643e-05
-3.356033334256072e-05   6.589639155935739e-06   -2.2853604787476643e-05
-3.356033334256072e-05   6.589639155935739e-06   -2.2853604787476643e-05
-2.658407650536556e-05   6.472682327266345e-06   -3.4410525418933694e-05
-2.658407650536556e-05   6.472682327266345e-06   -3.4410525418933694e-05
-2.658407650536556e-05   6.472682327266345e-06   -3.4410525418933694e-05
-2.658407650536556e-05   6.472682327266345e-06   -3.4410525418933694e-05
-1.958017199560523e-05   2.0335722828357296e-07   -5.348807982748162e-05
-1.958017199560523e-05   2.0335722828357296e-07   -5.348807982748162e-05
-1.958017199560523e-05   2.0335722828357296e-07   -5.348807982748162e-05
-1.958017199560523e-05   2.0335722828357296e-07   -5.348807982748162e-05
-5.317235840504397e-06   4.3366821579485845e-07   -2.957833297647348e-05
-5.317235840504397e-06   4.3366821579485845e-07   -2.957833297647348e-05
-5.317235840504397e-06   4.3366821579485845e-07   -2.957833297647348e-05
-5.317235840504397e-06   4.3366821579485845e-07   -2.957833297647348e-05
-5.327290054604714e-06   1.7585837385751969e-06   -5.2897703941335065e-05
-5.327290054604714e-06   1.7585837385751969e-06   -5.2897703941335065e-05
-5.327290054604714e-06   1.7585837385751969e-06   -5.2897703941335065e-05
-5.327290054604714e-06   1.7585837385751969e-06   -5.2897703941335065e-05
-1.9589659096033723e-05   1.8453191473046058e-06   -2.917913011752423e-05
-1.9589659096033723e-05   1.8453191473046058e-06   -2.917913011752423e-05
-1.9589659096033723e-05   1.8453191473046058e-06   -2.917913011752423e-05
-1.9589659096033723e-05   1.8453191473046058e-06   -2.917913011752423e-05
-1.2370871756895788e-05   1.2427857546371771e-06   -4.084892231382038e-05
-1.2370871756895788e-05   1.2427857546371771e-06   -4.084892231382038e-05
-1.2370871756895788e-05   1.2427857546371771e-06   -4.084892231382038e-05
-1.2370871756895788e-05   1.2427857546371771e-06   -4.084892231382038e-05
-1.958965909603375e-05   1.7585837385751969e-06   -5.2949745186572615e-05
-1.958965909603375e-05   1.7585837385751969e-06   -5.2949745186572615e-05
-1.958965909603375e-05   1.7585837385751969e-06   -5.2949745186572615e-05
-1.958965909603375e-05   1.7585837385751969e-06   -5.2949745186572615e-05
-5.327290054604714e-06   1.8453191473046058e-06   -2.912708887228664e-05
-5.327290054604714e-06   1.8453191473046058e-06   -2.912708887228664e-05
-5.327290054604714e-06   1.8453191473046058e-06   -2.912708887228664e-05
-5.327290054604714e-06   1.8453191473046058e-06   -2.912708887228664e-05
-5.308471244425871e-06   3.309166490300555e-06   -5.303236908740116e-05
-5.308471244425871e-06   3.309166490300555e-06   -5.303236908740116e-05
-5.308471244425871e-06   3.309166490300555e-06   -5.303236908740116e-05
-5.308471244425871e-06   3.309166490300555e-06   -5.303236908740116e-05
-1.9575119208024828e-05   3.2614819785131526e-06   -2.9226011774330515e-05
-1.9575119208024828e-05   3.2614819785131526e-06   -2.9226011774330515e-05
-1.9575119208024828e-05   3.2614819785131526e-06   -2.9226011774330515e-05
-1.9575119208024828e-05   3.2614819785131526e-06   -2.9226011774330515e-05
-1.2453609223665328e-05   2.4776442344016892e-06   -4.0624892435129386e-05
-1.2453609223665328e-05   2.4776442344016892e-06   -4.0624892435129386e-05
-1.2453609223665328e-05   2.4776442344016892e-06   -4.0624892435129386e-05
-1.2453609223665328e-05   2.4776442344016892e-06   -4.0624892435129386e-05
-1.9575119208024828e-05   3.309166490300555e-06   -5.300375838032876e-05
-1.9575119208024828e-05   3.309166490300555e-06   -5.300375838032876e-05
-1.9575119208024828e-05   3.309166490300555e-06   -5.300375838032876e-05
-1.9575119208024828e-05   3.309166490300555e-06   -5.300375838032876e-05
-5.308471244425871e-06   3.261481978513261e-06   -2.9254622481402783e-05
-5.308471244425871e-06   3.261481978513261e-06   -2.9254622481402783e-05
-5.308471244425871e-06   3.261481978513261e-06   -2.9254622481402783e-05
-5.308471244425871e-06   3.261481978513261e-06   -2.9254622481402783e-05
-5.316783583622705e-06   4.895804729069283e-06   -5.383443227104795e-05
-5.316783583622705e-06   4.895804729069283e-06   -5.383443227104795e-05
-5.316783583622705e-06   4.895804729069283e-06   -5.383443227104795e-05
-5.316783583622705e-06   4.895804729069283e-06   -5.383443227104795e-05
-1.959069660243137e-05   4.7024050431003885e-06   -2.9928537428118693e-05
-1.959069660243137e-05   4.7024050431003885e-06   -2.9928537428118693e-05
-1.959069660243137e-05   4.7024050431003885e-06   -2.9928537428118693e-05
-1.959069660243137e-05   4.7024050431003885e-06   -2.9928537428118693e-05
-1.256059766850807e-05   3.728719235986458e-06   -4.1061157500389255e-05
-1.256059766850807e-05   3.728719235986458e-06   -4.1061157500389255e-05
-1.256059766850807e-05   3.728719235986458e-06   -4.1061157500389255e-05
-1.256059766850807e-05   3.728719235986458e-06   -4.1061157500389255e-05
-5.317235840504388e-06   -3.199112201533825e-06   -4.736403607376923e-05
-5.317235840504388e-06   -3.199112201533825e-06   -4.736403607376923e-05
-5.317235840504388e-06   -3.199112201533825e-06   -4.736403607376923e-05
-5.317235840504388e-06   -3.199112201533825e-06   -4.736403607376923e-05
8.738622512055897e-06   -1.4747326976142843e-06   -2.2902977783817013e-05
8.738622512055897e-06   -1.4747326976142843e-06   -2.2902977783817013e-05
8.738622512055897e-06   -1.4747326976142843e-06   -2.2902977783817013e-05
8.738622512055897e-06   -1.4747326976142843e-06   -2.2902977783817013e-05
8.853405500239714e-06   -1.7736606273082269e-06   -4.6287727225718554e-05
8.853405500239714e-06   -1.7736606273082269e-06   -4.6287727225718554e-05
8.853405500239714e-06   -1.7736606273082269e-06   -4.6287727225718554e-05
8.853405500239714e-06   -1.7736606273082269e-06   -4.6287727225718554e-05
-5.327290054604706e-06   -1.4516195515979283e-07   -2.3630333837600266e-05
-5.327290054604706e-06   -1.4516195515979283e-07   -2.3630333837600266e-05
-5.327290054604706e-06   -1.4516195515979283e-07   -2.3630333837600266e-05
-5.327290054604706e-06   -1.4516195515979283e-07   -2.3630333837600266e-05
1.7450502034133846e-06   -1.5254773008947136e-06   -3.458937839352278e-05
1.7450502034133846e-06   -1.5254773008947136e-06   -3.458937839352278e-05
1.7450502034133846e-06   -1.5254773008947136e-06   -3.458937839352278e-05
1.7450502034133846e-06   -1.5254773008947136e-06   -3.458937839352278e-05
-5.327290054604714e-06   -1.7736606273082269e-06   -4.7264826429007544e-05
-5.327290054604714e-06   -1.7736606273082269e-06   -4.7264826429007544e-05
-5.327290054604714e-06   -1.7736606273082269e-06   -4.7264826429007544e-05
-5.327290054604714e-06   -1.7736606273082269e-06   -4.7264826429007544e-05
8.853405500239728e-06   -1.4516195515979283e-07   -2.2653234634311195e-05
8.853405500239728e-06   -1.4516195515979283e-07   -2.2653234634311195e-05
8.853405500239728e-06   -1.4516195515979283e-07   -2.2653234634311195e-05
8.853405500239728e-06   -1.4516195515979283e-07   -2.2653234634311195e-05
9.123814965517e-06   -3.7287911366196917e-07   -4.726190142730763e-05
9.123814965517e-06   -3.7287911366196917e-07   -4.726190142730763e-05
9.123814965517e-06   -3.7287911366196917e-07   -4.726190142730763e-05
9.123814965517e-06   -3.7287911366196917e-07   -4.726190142730763e-05
-5.308471244425862e-06   1.1339905816087686e-06   -2.411221289456522e-05
-5.308471244425862e-06   1.1339905816087686e-06   -2.411221289456522e-05
-5.308471244425862e-06   1.1339905816087686e-06   -2.411221289456522e-05
-5.308471244425862e-06   1.1339905816087686e-06   -2.411221289456522e-05
1.6637589012017217e-06   -4.194336072505661e-07   -3.480054195729564e-05
1.6637589012017217e-06   -4.194336072505661e-07   -3.480054195729564e-05
1.6637589012017217e-06   -4.194336072505661e-07   -3.480054195729564e-05
1.6637589012017217e-06   -4.194336072505661e-07   -3.480054195729564e-05
-5.308471244425871e-06   -3.7287911366196917e-07   -4.816602324447003e-05
-5.308471244425871e-06   -3.7287911366196917e-07   -4.816602324447003e-05
-5.308471244425871e-06   -3.7287911366196917e-07   -4.816602324447003e-05
-5.308471244425871e-06   -3.7287911366196917e-07   -4.816602324447003e-05
9.123814965517014e-06   1.1339905816087686e-06   -2.3208091077402712e-05
9.123814965517014e-06   1.1339905816087686e-06   -2.3208091077402712e-05
9.123814965517014e-06   1.1339905816087686e-06   -2.3208091077402712e-05
9.123814965517014e-06   1.1339905816087686e-06   -2.3208091077402712e-05
9.256128898371137e-06   1.2650492117755735e-06   -4.865523921031246e-05
9.256128898371137e-06   1.2650492117755735e-06   -4.865523921031246e-05
9.256128898371137e-06   1.2650492117755735e-06   -4.865523921031246e-05
9.256128898371137e-06   1.2650492117755735e-06   -4.865523921031246e-05
-5.316783583622705e-06   2.600144336155504e-06   -2.516810881495054e-05
-5.316783583622705e-06   2.600144336155504e-06   -2.516810881495054e-05
-5.316783583622705e-06   2.600144336155504e-06   -2.516810881495054e-05
-5.316783583622705e-06   2.600144336155504e-06   -2.516810881495054e-05
1.7127195972412438e-06   7.637084934420074e-07   -3.578208594409574e-05
1.7127195972412438e-06   7.637084934420074e-07   -3.578208594409574e-05
1.7127195972412438e-06   7.637084934420074e-07   -3.578208594409574e-05
1.7127195972412438e-06   7.637084934420074e-07   -3.578208594409574e-05
8.738622512055884e-06   -5.802786453509151e-06   -2.6023946954093283e-05
8.738622512055884e-06   -5.802786453509151e-06   -2.6023946954093283e-05
8.738622512055884e-06   -5.802786453509151e-06   -2.6023946954093283e-05
8.738622512055884e-06   -5.802786453509151e-06   -2.6023946954093283e-05
2.1223911099120746e-05   -2.7102839316817205e-06   -3.3596311292218885e-06
2.1223911099120746e-05   -2.7102839316817205e-06   -3.3596311292218885e-06
2.1223911099120746e-05   -2.7102839316817205e-06   -3.3596311292218885e-06
2.1223911099120746e-05   -2.7102839316817205e-06   -3.3596311292218885e-06
2.2706257286827256e-05   -4.981519381962716e-06   -2.732813982866646e-05
2.2706257286827256e-05   -4.981519381962716e-06   -2.732813982866646e-05
2.2706257286827256e-05   -4.981519381962716e-06   -2.732813982866646e-05
2.2706257286827256e-05   -4.981519381962716e-06   -2.732813982866646e-05
8.853405500239714e-06   -1.8098196746400884e-06   -6.143073342080739e-06
8.853405500239714e-06   -1.8098196746400884e-06   -6.143073342080739e-06
8.853405500239714e-06   -1.8098196746400884e-06   -6.143073342080739e-06
8.853405500239714e-06   -1.8098196746400884e-06   -6.143073342080739e-06
1.4724737119587567e-05   -3.7075837025080235e-06   -1.4789967624273117e-05
1.4724737119587567e-05   -3.7075837025080235e-06   -1.4789967624273117e-05
1.4724737119587567e-05   -3.7075837025080235e-06   -1.4789967624273117e-05
1.4724737119587567e-05   -3.7075837025080235e-06   -1.4789967624273117e-05
8.853405500239701e-06   -4.981519381962716e-06   -2.9231159653059983e-05
8.853405500239701e-06   -4.981519381962716e-06   -2.9231159653059983e-05
8.853405500239701e-06   -4.981519381962716e-06   -2.9231159653059983e-05
8.853405500239701e-06   -4.981519381962716e-06   -2.9231159653059983e-05
2.270625728682723e-05   -1.8098196746400884e-06   -4.240053517687217e-06
2.270625728682723e-05   -1.8098196746400884e-06   -4.240053517687217e-06
2.270625728682723e-05   -1.8098196746400884e-06   -4.240053517687217e-06
2.270625728682723e-05   -1.8098196746400884e-06   -4.240053517687217e-06
2.3847193683158965e-05   -4.276993164349912e-06   -2.996856478090082e-05
2.3847193683158965e-05   -4.276993164349912e-06   -2.996856478090082e-05
2.3847193683158965e-05   -4.276993164349912e-06   -2.996856478090082e-05
2.3847193683158965e-05   -4.276993164349912e-06   -2.996856478090082e-05
9.123814965517014e-06   -1.188094069307197e-06   -7.2829397085232375e-06
9.123814965517014e-06   -1.188094069307197e-06   -7.2829397085232375e-06
9.123814965517014e-06   -1.188094069307197e-06   -7.2829397085232375e-06
9.123814965517014e-06   -1.188094069307197e-06   -7.2829397085232375e-06
1.5630824922461596e-05   -3.2452197984746416e-06   -1.6893680865930384e-05
1.5630824922461596e-05   -3.2452197984746416e-06   -1.6893680865930384e-05
1.5630824922461596e-05   -3.2452197984746416e-06   -1.6893680865930384e-05
1.5630824922461596e-05   -3.2452197984746416e-06   -1.6893680865930384e-05
9.123814965517e-06   -4.276993164349912e-06   -3.182190423792658e-05
9.123814965517e-06   -4.276993164349912e-06   -3.182190423792658e-05
9.123814965517e-06   -4.276993164349912e-06   -3.182190423792658e-05
9.123814965517e-06   -4.276993164349912e-06   -3.182190423792658e-05
2.384719368315891e-05   -1.188094069307197e-06   -5.429600251497424e-06
2.384719368315891e-05   -1.188094069307197e-06   -5.429600251497424e-06
2.384719368315891e-05   -1.188094069307197e-06   -5.429600251497424e-06
2.384719368315891e-05   -1.188094069307197e-06   -5.429600251497424e-06
2.53633675688576e-05   -2.7718839376944613e-06   -3.503220251930311e-05
2.53633675688576e-05   -2.7718839376944613e-06   -3.503220251930311e-05
2.53633675688576e-05   -2.7718839376944613e-06   -3.503220251930311e-05
2.53633675688576e-05   -2.7718839376944613e-06   -3.503220251930311e-05
9.256128898371151e-06   3.4265567569230666e-08   -9.87049443831688e-06
9.256128898371151e-06   3.4265567569230666e-08   -9.87049443831688e-06
9.256128898371151e-06   3.4265567569230666e-08   -9.87049443831688e-06
9.256128898371151e-06   3.4265567569230666e-08   -9.87049443831688e-06
1.593228697699704e-05   -2.5571752016405585e-06   -1.944256010783447e-05
1.593228697699704e-05   -2.5571752016405585e-06   -1.944256010783447e-05
1.593228697699704e-05   -2.5571752016405585e-06   -1.944256010783447e-05
1.593228697699704e-05   -2.5571752016405585e-06   -1.944256010783447e-05
-3.027291076069486e-05   4.875606638450082e-06   -2.8367707718517153e-05
-3.027291076069486e-05   4.875606638450082e-06   -2.8367707718517153e-05
-3.027291076069486e-05   4.875606638450082e-06   -2.8367707718517153e-05
-3.027291076069486e-05   4.875606638450082e-06   -2.8367707718517153e-05
-2.235163485948458e-05   1.9866917272009545e-06   -1.6898930163249565e-05
-2.235163485948458e-05   1.9866917272009545e-06   -1.6898930163249565e-05
-2.235163485948458e-05   1.9866917272009545e-06   -1.6898930163249565e-05
-2.235163485948458e-05   1.9866917272009545e-06   -1.6898930163249565e-05
-2.2022819296991565e-05   6.205619680093276e-06   -2.5025437375371514e-05
-2.2022819296991565e-05   6.205619680093276e-06   -2.5025437375371514e-05
-2.2022819296991565e-05   6.205619680093276e-06   -2.5025437375371514e-05
-2.2022819296991565e-05   6.205619680093276e-06   -2.5025437375371514e-05
-2.862812182919625e-05   3.0934447339397986e-06   -1.214929485400442e-05
-2.862812182919625e-05   3.0934447339397986e-06   -1.214929485400442e-05
-2.862812182919625e-05   3.0934447339397986e-06   -1.214929485400442e-05
-2.862812182919625e-05   3.0934447339397986e-06   -1.214929485400442e-05
-2.47249797254317e-05   4.3733792690826725e-06   -1.942249241469896e-05
-2.47249797254317e-05   4.3733792690826725e-06   -1.942249241469896e-05
-2.47249797254317e-05   4.3733792690826725e-06   -1.942249241469896e-05
-2.47249797254317e-05   4.3733792690826725e-06   -1.942249241469896e-05
-2.862812182919625e-05   6.205619680093276e-06   -2.3158132407679125e-05
-2.862812182919625e-05   6.205619680093276e-06   -2.3158132407679125e-05
-2.862812182919625e-05   6.205619680093276e-06   -2.3158132407679125e-05
-2.862812182919625e-05   6.205619680093276e-06   -2.3158132407679125e-05
-2.2022819296991592e-05   3.0934447339397986e-06   -1.401659982169673e-05
-2.2022819296991592e-05   3.0934447339397986e-06   -1.401659982169673e-05
-2.2022819296991592e-05   3.0934447339397986e-06   -1.401659982169673e-05
-2.2022819296991592e-05   3.0934447339397986e-06   -1.401659982169673e-05
-2.15535432805262e-05   6.825249197699385e-06   -2.2346387622829145e-05
-2.15535432805262e-05   6.825249197699385e-06   -2.2346387622829145e-05
-2.15535432805262e-05   6.825249197699385e-06   -2.2346387622829145e-05
-2.15535432805262e-05   6.825249197699385e-06   -2.2346387622829145e-05
-2.731607371384844e-05   3.6526044982130267e-06   -1.0838583414267194e-05
-2.731607371384844e-05   3.6526044982130267e-06   -1.0838583414267194e-05
-2.731607371384844e-05   3.6526044982130267e-06   -1.0838583414267194e-05
-2.731607371384844e-05   3.6526044982130267e-06   -1.0838583414267194e-05
-2.4291155219334796e-05   4.9705624942532984e-06   -1.6670889036080635e-05
-2.4291155219334796e-05   4.9705624942532984e-06   -1.6670889036080635e-05
-2.4291155219334796e-05   4.9705624942532984e-06   -1.6670889036080635e-05
-2.4291155219334796e-05   4.9705624942532984e-06   -1.6670889036080635e-05
-2.7316073713848387e-05   6.825249197699385e-06   -2.044280080313758e-05
-2.7316073713848387e-05   6.825249197699385e-06   -2.044280080313758e-05
-2.7316073713848387e-05   6.825249197699385e-06   -2.044280080313758e-05
-2.7316073713848387e-05   6.825249197699385e-06   -2.044280080313758e-05
-2.1553543280526227e-05   3.6526044982130267e-06   -1.2742170233958814e-05
-2.1553543280526227e-05   3.6526044982130267e-06   -1.2742170233958814e-05
-2.1553543280526227e-05   3.6526044982130267e-06   -1.2742170233958814e-05
-2.1553543280526227e-05   3.6526044982130267e-06   -1.2742170233958814e-05
-2.123377905895044e-05   7.60433376632212e-06   -1.8909467442172322e-05
-2.123377905895044e-05   7.60433376632212e-06   -1.8909467442172322e-05
-2.123377905895044e-05   7.60433376632212e-06   -1.8909467442172322e-05
-2.123377905895044e-05   7.60433376632212e-06   -1.8909467442172322e-05
-2.564535437382849e-05   4.538325487085312e-06   -9.717236949833576e-06
-2.564535437382849e-05   4.538325487085312e-06   -9.717236949833576e-06
-2.564535437382849e-05   4.538325487085312e-06   -9.717236949833576e-06
-2.564535437382849e-05   4.538325487085312e-06   -9.717236949833576e-06
-2.315603627239327e-05   5.384541188353396e-06   -1.4373829872986376e-05
-2.315603627239327e-05   5.384541188353396e-06   -1.4373829872986376e-05
-2.315603627239327e-05   5.384541188353396e-06   -1.4373829872986376e-05
-2.315603627239327e-05   5.384541188353396e-06   -1.4373829872986376e-05
-2.235163485948458e-05   2.5203158787988084e-06   -4.134631595822198e-05
-2.235163485948458e-05   2.5203158787988084e-06   -4.134631595822198e-05
-2.235163485948458e-05   2.5203158787988084e-06   -4.134631595822198e-05
-2.235163485948458e-05   2.5203158787988084e-06   -4.134631595822198e-05
-1.5915618072551648e-05   1.1404452929537207e-06   -3.1447543664840725e-05
-1.5915618072551648e-05   1.1404452929537207e-06   -3.1447543664840725e-05
-1.5915618072551648e-05   1.1404452929537207e-06   -3.1447543664840725e-05
-1.5915618072551648e-05   1.1404452929537207e-06   -3.1447543664840725e-05
-1.5700279605703732e-05   3.924408637586427e-06   -4.121067065292075e-05
-1.5700279605703732e-05   3.924408637586427e-06   -4.121067065292075e-05
-1.5700279605703732e-05   3.924408637586427e-06   -4.121067065292075e-05
-1.5700279605703732e-05   3.924408637586427e-06   -4.121067065292075e-05
-2.2022819296991592e-05   2.4094947145916496e-06   -2.9764156146977016e-05
-2.2022819296991592e-05   2.4094947145916496e-06   -2.9764156146977016e-05
-2.2022819296991592e-05   2.4094947145916496e-06   -2.9764156146977016e-05
-2.2022819296991592e-05   2.4094947145916496e-06   -2.9764156146977016e-05
-1.8812379618421735e-05   2.742128862130678e-06   -3.5314469433117806e-05
-1.8812379618421735e-05   2.742128862130678e-06   -3.5314469433117806e-05
-1.8812379618421735e-05   2.742128862130678e-06   -3.5314469433117806e-05
-1.8812379618421735e-05   2.742128862130678e-06   -3.5314469433117806e-05
-2.2022819296991538e-05   3.924408637586427e-06   -4.03017222991235e-05
-2.2022819296991538e-05   3.924408637586427e-06   -4.03017222991235e-05
-2.2022819296991538e-05   3.924408637586427e-06   -4.03017222991235e-05
-2.2022819296991538e-05   3.924408637586427e-06   -4.03017222991235e-05
-1.5700279605703745e-05   2.4094947145914328e-06   -3.067310450077408e-05
-1.5700279605703745e-05   2.4094947145914328e-06   -3.067310450077408e-05
-1.5700279605703745e-05   2.4094947145914328e-06   -3.067310450077408e-05
-1.5700279605703745e-05   2.4094947145914328e-06   -3.067310450077408e-05
-1.5462463670068996e-05   5.201981018640922e-06   -4.05443857368164e-05
-1.5462463670068996e-05   5.201981018640922e-06   -4.05443857368164e-05
-1.5462463670068996e-05   5.201981018640922e-06   -4.05443857368164e-05
-1.5462463670068996e-05   5.201981018640922e-06   -4.05443857368164e-05
-2.155354328052628e-05   3.5894881483449024e-06   -2.9425090663876604e-05
-2.155354328052628e-05   3.5894881483449024e-06   -2.9425090663876604e-05
-2.155354328052628e-05   3.5894881483449024e-06   -2.9425090663876604e-05
-2.155354328052628e-05   3.5894881483449024e-06   -2.9425090663876604e-05
-1.8529229388420895e-05   3.7681639213993715e-06   -3.4572819281217785e-05
-1.8529229388420895e-05   3.7681639213993715e-06   -3.4572819281217785e-05
-1.8529229388420895e-05   3.7681639213993715e-06   -3.4572819281217785e-05
-1.8529229388420895e-05   3.7681639213993715e-06   -3.4572819281217785e-05
-2.15535432805262e-05   5.20198101864103e-06   -3.957689001463861e-05
-2.15535432805262e-05   5.20198101864103e-06   -3.957689001463861e-05
-2.15535432805262e-05   5.20198101864103e-06   -3.957689001463861e-05
-2.15535432805262e-05   5.20198101864103e-06   -3.957689001463861e-05
-1.5462463670068996e-05   3.5894881483449024e-06   -3.0392586386054042e-05
-1.5462463670068996e-05   3.5894881483449024e-06   -3.0392586386054042e-05
-1.5462463670068996e-05   3.5894881483449024e-06   -3.0392586386054042e-05
-1.5462463670068996e-05   3.5894881483449024e-06   -3.0392586386054042e-05
-1.5250953546554574e-05   6.589639155935739e-06   -4.093750321792621e-05
-1.5250953546554574e-05   6.589639155935739e-06   -4.093750321792621e-05
-1.5250953546554574e-05   6.589639155935739e-06   -4.093750321792621e-05
-1.5250953546554574e-05   6.589639155935739e-06   -4.093750321792621e-05
-2.1233779058950494e-05   4.9006409831337146e-06   -2.995272846025162e-05
-2.1233779058950494e-05   4.9006409831337146e-06   -2.995272846025162e-05
-2.1233779058950494e-05   4.9006409831337146e-06   -2.995272846025162e-05
-2.1233779058950494e-05   4.9006409831337146e-06   -2.995272846025162e-05
-1.8418598643613196e-05   4.80738305697325e-06   -3.458874106345084e-05
-1.8418598643613196e-05   4.80738305697325e-06   -3.458874106345084e-05
-1.8418598643613196e-05   4.80738305697325e-06   -3.458874106345084e-05
-1.8418598643613196e-05   4.80738305697325e-06   -3.458874106345084e-05
-1.5915618072551594e-05   4.3366821579485845e-07   -4.675283740798817e-05
-1.5915618072551594e-05   4.3366821579485845e-07   -4.675283740798817e-05
-1.5915618072551594e-05   4.3366821579485845e-07   -4.675283740798817e-05
-1.5915618072551594e-05   4.3366821579485845e-07   -4.675283740798817e-05
-9.64412823334077e-06   6.535145441999811e-07   -3.616844654559385e-05
-9.64412823334077e-06   6.535145441999811e-07   -3.616844654559385e-05
-9.64412823334077e-06   6.535145441999811e-07   -3.616844654559385e-05
-9.64412823334077e-06   6.535145441999811e-07   -3.616844654559385e-05
-9.434255931018423e-06   1.8453191473046058e-06   -4.616551115625971e-05
-9.434255931018423e-06   1.8453191473046058e-06   -4.616551115625971e-05
-9.434255931018423e-06   1.8453191473046058e-06   -4.616551115625971e-05
-9.434255931018423e-06   1.8453191473046058e-06   -4.616551115625971e-05
-1.5700279605703732e-05   1.9460384877224065e-06   -3.5782569969367755e-05
-1.5700279605703732e-05   1.9460384877224065e-06   -3.5782569969367755e-05
-1.5700279605703732e-05   1.9460384877224065e-06   -3.5782569969367755e-05
-1.5700279605703732e-05   1.9460384877224065e-06   -3.5782569969367755e-05
-1.2592361290411743e-05   1.3995552486191823e-06   -4.063454388472681e-05
-1.2592361290411743e-05   1.3995552486191823e-06   -4.063454388472681e-05
-1.2592361290411743e-05   1.3995552486191823e-06   -4.063454388472681e-05
-1.2592361290411743e-05   1.3995552486191823e-06   -4.063454388472681e-05
-1.570027960570369e-05   1.8453191473046058e-06   -4.6225942760510214e-05
-1.570027960570369e-05   1.8453191473046058e-06   -4.6225942760510214e-05
-1.570027960570369e-05   1.8453191473046058e-06   -4.6225942760510214e-05
-1.570027960570369e-05   1.8453191473046058e-06   -4.6225942760510214e-05
-9.434255931018408e-06   1.9460384877224065e-06   -3.572213836511729e-05
-9.434255931018408e-06   1.9460384877224065e-06   -3.572213836511729e-05
-9.434255931018408e-06   1.9460384877224065e-06   -3.572213836511729e-05
-9.434255931018408e-06   1.9460384877224065e-06   -3.572213836511729e-05
-9.198144525267771e-06   3.261481978513261e-06   -4.62860039485523e-05
-9.198144525267771e-06   3.261481978513261e-06   -4.62860039485523e-05
-9.198144525267771e-06   3.261481978513261e-06   -4.62860039485523e-05
-9.198144525267771e-06   3.261481978513261e-06   -4.62860039485523e-05
-1.5462463670068956e-05   3.24988673526907e-06   -3.583851489460347e-05
-1.5462463670068956e-05   3.24988673526907e-06   -3.583851489460347e-05
-1.5462463670068956e-05   3.24988673526907e-06   -3.583851489460347e-05
-1.5462463670068956e-05   3.24988673526907e-06   -3.583851489460347e-05
-1.2451616657836299e-05   2.5100289960700863e-06   -4.04126786048053e-05
-1.2451616657836299e-05   2.5100289960700863e-06   -4.04126786048053e-05
-1.2451616657836299e-05   2.5100289960700863e-06   -4.04126786048053e-05
-1.2451616657836299e-05   2.5100289960700863e-06   -4.04126786048053e-05
-1.546246367006893e-05   3.261481978513261e-06   -4.6279046802605596e-05
-1.546246367006893e-05   3.261481978513261e-06   -4.6279046802605596e-05
-1.546246367006893e-05   3.261481978513261e-06   -4.6279046802605596e-05
-1.546246367006893e-05   3.261481978513261e-06   -4.6279046802605596e-05
-9.198144525267756e-06   3.24988673526907e-06   -3.5845472040550047e-05
-9.198144525267756e-06   3.24988673526907e-06   -3.5845472040550047e-05
-9.198144525267756e-06   3.24988673526907e-06   -3.5845472040550047e-05
-9.198144525267756e-06   3.24988673526907e-06   -3.5845472040550047e-05
-8.986013351680374e-06   4.7024050431003885e-06   -4.706510591461735e-05
-8.986013351680374e-06   4.7024050431003885e-06   -4.706510591461735e-05
-8.986013351680374e-06   4.7024050431003885e-06   -4.706510591461735e-05
-8.986013351680374e-06   4.7024050431003885e-06   -4.706510591461735e-05
-1.5250953546554587e-05   4.5734107416344014e-06   -3.654614234228058e-05
-1.5250953546554587e-05   4.5734107416344014e-06   -3.654614234228058e-05
-1.5250953546554587e-05   4.5734107416344014e-06   -3.654614234228058e-05
-1.5250953546554587e-05   4.5734107416344014e-06   -3.654614234228058e-05
-1.2335252255954111e-05   3.635265764906706e-06   -4.084275750724478e-05
-1.2335252255954111e-05   3.635265764906706e-06   -4.084275750724478e-05
-1.2335252255954111e-05   3.635265764906706e-06   -4.084275750724478e-05
-1.2335252255954111e-05   3.635265764906706e-06   -4.084275750724478e-05
-9.644128233340736e-06   -1.4747326976142843e-06   -4.098020212064038e-05
-9.644128233340736e-06   -1.4747326976142843e-06   -4.098020212064038e-05
-9.644128233340736e-06   -1.4747326976142843e-06   -4.098020212064038e-05
-9.644128233340736e-06   -1.4747326976142843e-06   -4.098020212064038e-05
-3.561854876474801e-06   2.791732485968399e-07   -2.9790736291470635e-05
-3.561854876474801e-06   2.791732485968399e-07   -2.9790736291470635e-05
-3.561854876474801e-06   2.791732485968399e-07   -2.9790736291470635e-05
-3.561854876474801e-06   2.791732485968399e-07   -2.9790736291470635e-05
-3.2483004568091247e-06   -1.4516195515990125e-07   -3.966295470276052e-05
-3.2483004568091247e-06   -1.4516195515990125e-07   -3.966295470276052e-05
-3.2483004568091247e-06   -1.4516195515990125e-07   -3.966295470276052e-05
-3.2483004568091247e-06   -1.4516195515990125e-07   -3.966295470276052e-05
-9.434255931018408e-06   1.5311737428616058e-06   -3.0358830331224103e-05
-9.434255931018408e-06   1.5311737428616058e-06   -3.0358830331224103e-05
-9.434255931018408e-06   1.5311737428616058e-06   -3.0358830331224103e-05
-9.434255931018408e-06   1.5311737428616058e-06   -3.0358830331224103e-05
-6.406830370387135e-06   1.7835892549060385e-07   -3.459285070852089e-05
-6.406830370387135e-06   1.7835892549060385e-07   -3.459285070852089e-05
-6.406830370387135e-06   1.7835892549060385e-07   -3.459285070852089e-05
-6.406830370387135e-06   1.7835892549060385e-07   -3.459285070852089e-05
-9.434255931018392e-06   -1.4516195515979283e-07   -4.066875612157315e-05
-9.434255931018392e-06   -1.4516195515979283e-07   -4.066875612157315e-05
-9.434255931018392e-06   -1.4516195515979283e-07   -4.066875612157315e-05
-9.434255931018392e-06   -1.4516195515979283e-07   -4.066875612157315e-05
-3.2483004568091247e-06   1.5311737428618227e-06   -2.9353028912411502e-05
-3.2483004568091247e-06   1.5311737428618227e-06   -2.9353028912411502e-05
-3.2483004568091247e-06   1.5311737428618227e-06   -2.9353028912411502e-05
-3.2483004568091247e-06   1.5311737428618227e-06   -2.9353028912411502e-05
-2.7827995566025415e-06   1.1339905816087686e-06   -4.0197377882229476e-05
-2.7827995566025415e-06   1.1339905816087686e-06   -4.0197377882229476e-05
-2.7827995566025415e-06   1.1339905816087686e-06   -4.0197377882229476e-05
-2.7827995566025415e-06   1.1339905816087686e-06   -4.0197377882229476e-05
-9.198144525267756e-06   2.7110180474173694e-06   -3.0451352747272388e-05
-9.198144525267756e-06   2.7110180474173694e-06   -3.0451352747272388e-05
-9.198144525267756e-06   2.7110180474173694e-06   -3.0451352747272388e-05
-9.198144525267756e-06   2.7110180474173694e-06   -3.0451352747272388e-05
-6.217235970515675e-06   1.189196809081095e-06   -3.4506440928857456e-05
-6.217235970515675e-06   1.189196809081095e-06   -3.4506440928857456e-05
-6.217235970515675e-06   1.189196809081095e-06   -3.4506440928857456e-05
-6.217235970515675e-06   1.189196809081095e-06   -3.4506440928857456e-05
-9.198144525267741e-06   1.1339905816087686e-06   -4.11435943617146e-05
-9.198144525267741e-06   1.1339905816087686e-06   -4.11435943617146e-05
-9.198144525267741e-06   1.1339905816087686e-06   -4.11435943617146e-05
-9.198144525267741e-06   1.1339905816087686e-06   -4.11435943617146e-05
-2.7827995566025415e-06   2.7110180474173694e-06   -2.9505136267787293e-05
-2.7827995566025415e-06   2.7110180474173694e-06   -2.9505136267787293e-05
-2.7827995566025415e-06   2.7110180474173694e-06   -2.9505136267787293e-05
-2.7827995566025415e-06   2.7110180474173694e-06   -2.9505136267787293e-05
-2.4577811078592003e-06   2.600144336155504e-06   -4.132164247299633e-05
-2.4577811078592003e-06   2.600144336155504e-06   -4.132164247299633e-05
-2.4577811078592003e-06   2.600144336155504e-06   -4.132164247299633e-05
-2.4577811078592003e-06   2.600144336155504e-06   -4.132164247299633e-05
-8.986013351680374e-06   4.045136030941332e-06   -3.130825041683242e-05
-8.986013351680374e-06   4.045136030941332e-06   -3.130825041683242e-05
-8.986013351680374e-06   4.045136030941332e-06   -3.130825041683242e-05
-8.986013351680374e-06   4.045136030941332e-06   -3.130825041683242e-05
-6.0187589102693735e-06   2.2486831819970815e-06   -3.5175802776484313e-05
-6.0187589102693735e-06   2.2486831819970815e-06   -3.5175802776484313e-05
-6.0187589102693735e-06   2.2486831819970815e-06   -3.5175802776484313e-05
-6.0187589102693735e-06   2.2486831819970815e-06   -3.5175802776484313e-05
-3.5618548764747873e-06   -2.7102839316817205e-06   -2.224001341141513e-05
-3.5618548764747873e-06   -2.7102839316817205e-06   -2.224001341141513e-05
-3.5618548764747873e-06   -2.7102839316817205e-06   -2.224001341141513e-05
-3.5618548764747873e-06   -2.7102839316817205e-06   -2.224001341141513e-05
9.375208205564224e-07   3.8693824110157087e-07   -1.2882720612693082e-05
9.375208205564224e-07   3.8693824110157087e-07   -1.2882720612693082e-05
9.375208205564224e-07   3.8693824110157087e-07   -1.2882720612693082e-05
9.375208205564224e-07   3.8693824110157087e-07   -1.2882720612693082e-05
2.591746639789386e-06   -1.80981967463998e-06   -2.124101556164878e-05
2.591746639789386e-06   -1.80981967463998e-06   -2.124101556164878e-05
2.591746639789386e-06   -1.80981967463998e-06   -2.124101556164878e-05
2.591746639789386e-06   -1.80981967463998e-06   -2.124101556164878e-05
-3.2483004568091247e-06   1.376476740161869e-06   -1.3419381582865431e-05
-3.2483004568091247e-06   1.376476740161869e-06   -1.3419381582865431e-05
-3.2483004568091247e-06   1.376476740161869e-06   -1.3419381582865431e-05
-3.2483004568091247e-06   1.376476740161869e-06   -1.3419381582865431e-05
-7.989752984353981e-07   -5.555503169878996e-07   -1.634237394586562e-05
-7.989752984353981e-07   -5.555503169878996e-07   -1.634237394586562e-05
-7.989752984353981e-07   -5.555503169878996e-07   -1.634237394586562e-05
-7.989752984353981e-07   -5.555503169878996e-07   -1.634237394586562e-05
-3.248300456809111e-06   -1.8098196746400884e-06   -2.3152793410529738e-05
-3.248300456809111e-06   -1.8098196746400884e-06   -2.3152793410529738e-05
-3.248300456809111e-06   -1.8098196746400884e-06   -2.3152793410529738e-05
-3.248300456809111e-06   -1.8098196746400884e-06   -2.3152793410529738e-05
2.591746639789386e-06   1.376476740161869e-06   -1.1507603733984365e-05
2.591746639789386e-06   1.376476740161869e-06   -1.1507603733984365e-05
2.591746639789386e-06   1.376476740161869e-06   -1.1507603733984365e-05
2.591746639789386e-06   1.376476740161869e-06   -1.1507603733984365e-05
3.897912041209449e-06   -1.188094069307197e-06   -2.239956284193407e-05
3.897912041209449e-06   -1.188094069307197e-06   -2.239956284193407e-05
3.897912041209449e-06   -1.188094069307197e-06   -2.239956284193407e-05
3.897912041209449e-06   -1.188094069307197e-06   -2.239956284193407e-05
-2.7827995566025415e-06   1.933012049719048e-06   -1.3137707183662954e-05
-2.7827995566025415e-06   1.933012049719048e-06   -1.3137707183662954e-05
-2.7827995566025415e-06   1.933012049719048e-06   -1.3137707183662954e-05
-2.7827995566025415e-06   1.933012049719048e-06   -1.3137707183662954e-05
4.0594588489615896e-08   -8.178916561477501e-08   -1.663448336294951e-05
4.0594588489615896e-08   -8.178916561477501e-08   -1.663448336294951e-05
4.0594588489615896e-08   -8.178916561477501e-08   -1.663448336294951e-05
4.0594588489615896e-08   -8.178916561477501e-08   -1.663448336294951e-05
-2.782799556602528e-06   -1.188094069307197e-06   -2.427222651334984e-05
-2.782799556602528e-06   -1.188094069307197e-06   -2.427222651334984e-05
-2.782799556602528e-06   -1.188094069307197e-06   -2.427222651334984e-05
-2.782799556602528e-06   -1.188094069307197e-06   -2.427222651334984e-05
3.897912041209449e-06   1.933012049719048e-06   -1.1265043512247185e-05
3.897912041209449e-06   1.933012049719048e-06   -1.1265043512247185e-05
3.897912041209449e-06   1.933012049719048e-06   -1.1265043512247185e-05
3.897912041209449e-06   1.933012049719048e-06   -1.1265043512247185e-05
5.545989978988897e-06   3.4265567569230666e-08   -2.5093612049279814e-05
5.545989978988897e-06   3.4265567569230666e-08   -2.5093612049279814e-05
5.545989978988897e-06   3.4265567569230666e-08   -2.5093612049279814e-05
5.545989978988897e-06   3.4265567569230666e-08   -2.5093612049279814e-05
-2.4577811078592003e-06   2.920054103754035e-06   -1.3485466692910266e-05
-2.4577811078592003e-06   2.920054103754035e-06   -1.3485466692910266e-05
-2.4577811078592003e-06   2.920054103754035e-06   -1.3485466692910266e-05
-2.4577811078592003e-06   2.920054103754035e-06   -1.3485466692910266e-05
7.622208974251521e-07   4.5908200743406376e-07   -1.7375553443925836e-05
7.622208974251521e-07   4.5908200743406376e-07   -1.7375553443925836e-05
7.622208974251521e-07   4.5908200743406376e-07   -1.7375553443925836e-05
7.622208974251521e-07   4.5908200743406376e-07   -1.7375553443925836e-05
-1.05495844553732e-05   1.9866917272009545e-06   -1.891103534976509e-05
-1.05495844553732e-05   1.9866917272009545e-06   -1.891103534976509e-05
-1.05495844553732e-05   1.9866917272009545e-06   -1.891103534976509e-05
-1.05495844553732e-05   1.9866917272009545e-06   -1.891103534976509e-05
-1.0688393983472247e-05   -9.235425299568365e-07   -2.08885251175581e-05
-1.0688393983472247e-05   -9.235425299568365e-07   -2.08885251175581e-05
-1.0688393983472247e-05   -9.235425299568365e-07   -2.08885251175581e-05
-1.0688393983472247e-05   -9.235425299568365e-07   -2.08885251175581e-05
-1.0152855916324775e-05   3.0934447339397986e-06   -1.776822163948458e-05
-1.0152855916324775e-05   3.0934447339397986e-06   -1.776822163948458e-05
-1.0152855916324775e-05   3.0934447339397986e-06   -1.776822163948458e-05
-1.0152855916324775e-05   3.0934447339397986e-06   -1.776822163948458e-05
-8.707134280443803e-06   -2.8163948306110173e-08   -1.83047924899386e-05
-8.707134280443803e-06   -2.8163948306110173e-08   -1.83047924899386e-05
-8.707134280443803e-06   -2.8163948306110173e-08   -1.83047924899386e-05
-8.707134280443803e-06   -2.8163948306110173e-08   -1.83047924899386e-05
-9.586321566940244e-06   1.3676946032792478e-06   -1.767699547672972e-05
-9.586321566940244e-06   1.3676946032792478e-06   -1.767699547672972e-05
-9.586321566940244e-06   1.3676946032792478e-06   -1.767699547672972e-05
-9.586321566940244e-06   1.3676946032792478e-06   -1.767699547672972e-05
-8.707134280443749e-06   3.0934447339397986e-06   -1.5895256430137035e-05
-8.707134280443749e-06   3.0934447339397986e-06   -1.5895256430137035e-05
-8.707134280443749e-06   3.0934447339397986e-06   -1.5895256430137035e-05
-8.707134280443749e-06   3.0934447339397986e-06   -1.5895256430137035e-05
-1.0152855916324802e-05   -2.8163948306110173e-08   -2.0177757699286363e-05
-1.0152855916324802e-05   -2.8163948306110173e-08   -2.0177757699286363e-05
-1.0152855916324802e-05   -2.8163948306110173e-08   -2.0177757699286363e-05
-1.0152855916324802e-05   -2.8163948306110173e-08   -2.0177757699286363e-05
-9.4773412646776e-06   3.6526044982132435e-06   -1.648906776429977e-05
-9.4773412646776e-06   3.6526044982132435e-06   -1.648906776429977e-05
-9.4773412646776e-06   3.6526044982132435e-06   -1.648906776429977e-05
-9.4773412646776e-06   3.6526044982132435e-06   -1.648906776429977e-05
-7.183424152314307e-06   4.783077856653807e-07   -1.8407684924043387e-05
-7.183424152314307e-06   4.783077856653807e-07   -1.8407684924043387e-05
-7.183424152314307e-06   4.783077856653807e-07   -1.8407684924043387e-05
-7.183424152314307e-06   4.783077856653807e-07   -1.8407684924043387e-05
-8.713946486475495e-06   1.827372709592174e-06   -1.6666253321464912e-05
-8.713946486475495e-06   1.827372709592174e-06   -1.6666253321464912e-05
-8.713946486475495e-06   1.827372709592174e-06   -1.6666253321464912e-05
-8.713946486475495e-06   1.827372709592174e-06   -1.6666253321464912e-05
-7.183424152314307e-06   3.6526044982132435e-06   -1.4584489736771313e-05
-7.183424152314307e-06   3.6526044982132435e-06   -1.4584489736771313e-05
-7.183424152314307e-06   3.6526044982132435e-06   -1.4584489736771313e-05
-7.183424152314307e-06   3.6526044982132435e-06   -1.4584489736771313e-05
-9.477341264677627e-06   4.783077856653807e-07   -2.0312262951571953e-05
-9.477341264677627e-06   4.783077856653807e-07   -2.0312262951571953e-05
-9.477341264677627e-06   4.783077856653807e-07   -2.0312262951571953e-05
-9.477341264677627e-06   4.783077856653807e-07   -2.0312262951571953e-05
-8.95038199918348e-06   4.538325487085312e-06   -1.5299582764184434e-05
-8.95038199918348e-06   4.538325487085312e-06   -1.5299582764184434e-05
-8.95038199918348e-06   4.538325487085312e-06   -1.5299582764184434e-05
-8.95038199918348e-06   4.538325487085312e-06   -1.5299582764184434e-05
-5.302131651310944e-06   1.4884435130975687e-06   -1.955007082624625e-05
-5.302131651310944e-06   1.4884435130975687e-06   -1.955007082624625e-05
-5.302131651310944e-06   1.4884435130975687e-06   -1.955007082624625e-05
-5.302131651310944e-06   1.4884435130975687e-06   -1.955007082624625e-05
-7.623490520964834e-06   2.2678525954053248e-06   -1.614878482620707e-05
-7.623490520964834e-06   2.2678525954053248e-06   -1.614878482620707e-05
-7.623490520964834e-06   2.2678525954053248e-06   -1.614878482620707e-05
-7.623490520964834e-06   2.2678525954053248e-06   -1.614878482620707e-05
-1.0688393983472193e-05   1.1404452929537207e-06   -3.437786705414388e-05
-1.0688393983472193e-05   1.1404452929537207e-06   -3.437786705414388e-05
-1.0688393983472193e-05   1.1404452929537207e-06   -3.437786705414388e-05
-1.0688393983472193e-05   1.1404452929537207e-06   -3.437786705414388e-05
-1.2312892007422177e-05   -2.001669779296434e-07   -3.788973112325725e-05
-1.2312892007422177e-05   -2.001669779296434e-07   -3.788973112325725e-05
-1.2312892007422177e-05   -2.001669779296434e-07   -3.788973112325725e-05
-1.2312892007422177e-05   -2.001669779296434e-07   -3.788973112325725e-05
-1.1880134216622477e-05   2.4094947145914328e-06   -3.4403743143387447e-05
-1.1880134216622477e-05   2.4094947145914328e-06   -3.4403743143387447e-05
-1.1880134216622477e-05   2.4094947145914328e-06   -3.4403743143387447e-05
-1.1880134216622477e-05   2.4094947145914328e-06   -3.4403743143387447e-05
-1.0152855916324802e-05   9.295527502210191e-07   -3.6394575131927574e-05
-1.0152855916324802e-05   9.295527502210191e-07   -3.6394575131927574e-05
-1.0152855916324802e-05   9.295527502210191e-07   -3.6394575131927574e-05
-1.0152855916324802e-05   9.295527502210191e-07   -3.6394575131927574e-05
-1.1127425033697491e-05   1.3177425228751366e-06   -3.5003207133233014e-05
-1.1127425033697491e-05   1.3177425228751366e-06   -3.5003207133233014e-05
-1.1127425033697491e-05   1.3177425228751366e-06   -3.5003207133233014e-05
-1.1127425033697491e-05   1.3177425228751366e-06   -3.5003207133233014e-05
-1.0152855916324775e-05   2.4094947145914328e-06   -3.3515777964764705e-05
-1.0152855916324775e-05   2.4094947145914328e-06   -3.3515777964764705e-05
-1.0152855916324775e-05   2.4094947145914328e-06   -3.3515777964764705e-05
-1.0152855916324775e-05   2.4094947145914328e-06   -3.3515777964764705e-05
-1.188013421662245e-05   9.295527502210191e-07   -3.728254031055002e-05
-1.188013421662245e-05   9.295527502210191e-07   -3.728254031055002e-05
-1.188013421662245e-05   9.295527502210191e-07   -3.728254031055002e-05
-1.188013421662245e-05   9.295527502210191e-07   -3.728254031055002e-05
-1.1430051272610077e-05   3.5894881483449024e-06   -3.411536143176053e-05
-1.1430051272610077e-05   3.5894881483449024e-06   -3.411536143176053e-05
-1.1430051272610077e-05   3.5894881483449024e-06   -3.411536143176053e-05
-1.1430051272610077e-05   3.5894881483449024e-06   -3.411536143176053e-05
-9.477341264677627e-06   2.017199419106653e-06   -3.6426504874104864e-05
-9.477341264677627e-06   2.017199419106653e-06   -3.6426504874104864e-05
-9.477341264677627e-06   2.017199419106653e-06   -3.6426504874104864e-05
-9.477341264677627e-06   2.017199419106653e-06   -3.6426504874104864e-05
-1.0693771539773328e-05   2.2284995014877585e-06   -3.4525901131707433e-05
-1.0693771539773328e-05   2.2284995014877585e-06   -3.4525901131707433e-05
-1.0693771539773328e-05   2.2284995014877585e-06   -3.4525901131707433e-05
-1.0693771539773328e-05   2.2284995014877585e-06   -3.4525901131707433e-05
-9.4773412646776e-06   3.5894881483449024e-06   -3.3171988194217344e-05
-9.4773412646776e-06   3.5894881483449024e-06   -3.3171988194217344e-05
-9.4773412646776e-06   3.5894881483449024e-06   -3.3171988194217344e-05
-9.4773412646776e-06   3.5894881483449024e-06   -3.3171988194217344e-05
-1.1430051272610063e-05   2.017199419106653e-06   -3.736987811164762e-05
-1.1430051272610063e-05   2.017199419106653e-06   -3.736987811164762e-05
-1.1430051272610063e-05   2.017199419106653e-06   -3.736987811164762e-05
-1.1430051272610063e-05   2.017199419106653e-06   -3.736987811164762e-05
-1.1006135776397418e-05   4.9006409831337146e-06   -3.468036225852422e-05
-1.1006135776397418e-05   4.9006409831337146e-06   -3.468036225852422e-05
-1.1006135776397418e-05   4.9006409831337146e-06   -3.468036225852422e-05
-1.1006135776397418e-05   4.9006409831337146e-06   -3.468036225852422e-05
-8.950381999183507e-06   3.259152730694442e-06   -3.7121725602416895e-05
-8.950381999183507e-06   3.259152730694442e-06   -3.7121725602416895e-05
-8.950381999183507e-06   3.259152730694442e-06   -3.7121725602416895e-05
-8.950381999183507e-06   3.259152730694442e-06   -3.7121725602416895e-05
-1.0312215799640993e-05   3.1838563985496504e-06   -3.480682480236705e-05
-1.0312215799640993e-05   3.1838563985496504e-06   -3.480682480236705e-05
-1.0312215799640993e-05   3.1838563985496504e-06   -3.480682480236705e-05
-1.0312215799640993e-05   3.1838563985496504e-06   -3.480682480236705e-05
-1.2312892007422136e-05   6.535145442001979e-07   -4.003504509446995e-05
-1.2312892007422136e-05   6.535145442001979e-07   -4.003504509446995e-05
-1.2312892007422136e-05   6.535145442001979e-07   -4.003504509446995e-05
-1.2312892007422136e-05   6.535145442001979e-07   -4.003504509446995e-05
-1.4023811289146876e-05   9.367109804613461e-07   -4.271665936892127e-05
-1.4023811289146876e-05   9.367109804613461e-07   -4.271665936892127e-05
-1.4023811289146876e-05   9.367109804613461e-07   -4.271665936892127e-05
-1.4023811289146876e-05   9.367109804613461e-07   -4.271665936892127e-05
-1.3598501268285734e-05   1.9460384877224065e-06   -3.9418226373694144e-05
-1.3598501268285734e-05   1.9460384877224065e-06   -3.9418226373694144e-05
-1.3598501268285734e-05   1.9460384877224065e-06   -3.9418226373694144e-05
-1.3598501268285734e-05   1.9460384877224065e-06   -3.9418226373694144e-05
-1.188013421662245e-05   2.104342218200994e-06   -4.2377153698086394e-05
-1.188013421662245e-05   2.104342218200994e-06   -4.2377153698086394e-05
-1.188013421662245e-05   2.104342218200994e-06   -4.2377153698086394e-05
-1.188013421662245e-05   2.104342218200994e-06   -4.2377153698086394e-05
-1.287585400874343e-05   1.592007035744838e-06   -4.04102196017451e-05
-1.287585400874343e-05   1.592007035744838e-06   -4.04102196017451e-05
-1.287585400874343e-05   1.592007035744838e-06   -4.04102196017451e-05
-1.287585400874343e-05   1.592007035744838e-06   -4.04102196017451e-05
-1.1880134216622437e-05   1.9460384877224065e-06   -3.951320861198121e-05
-1.1880134216622437e-05   1.9460384877224065e-06   -3.951320861198121e-05
-1.1880134216622437e-05   1.9460384877224065e-06   -3.951320861198121e-05
-1.1880134216622437e-05   1.9460384877224065e-06   -3.951320861198121e-05
-1.3598501268285734e-05   2.104342218200994e-06   -4.2282171459799523e-05
-1.3598501268285734e-05   2.104342218200994e-06   -4.2282171459799523e-05
-1.3598501268285734e-05   2.104342218200994e-06   -4.2282171459799523e-05
-1.3598501268285734e-05   2.104342218200994e-06   -4.2282171459799523e-05
-1.3151187624612964e-05   3.24988673526907e-06   -3.9532634352629236e-05
-1.3151187624612964e-05   3.24988673526907e-06   -3.9532634352629236e-05
-1.3151187624612964e-05   3.24988673526907e-06   -3.9532634352629236e-05
-1.3151187624612964e-05   3.24988673526907e-06   -3.9532634352629236e-05
-1.1430051272610063e-05   3.297646048070488e-06   -4.242985052698139e-05
-1.1430051272610063e-05   3.297646048070488e-06   -4.242985052698139e-05
-1.1430051272610063e-05   3.297646048070488e-06   -4.242985052698139e-05
-1.1430051272610063e-05   3.297646048070488e-06   -4.242985052698139e-05
-1.2518917777910328e-05   2.5908213201013535e-06   -4.019097818136664e-05
-1.2518917777910328e-05   2.5908213201013535e-06   -4.019097818136664e-05
-1.2518917777910328e-05   2.5908213201013535e-06   -4.019097818136664e-05
-1.2518917777910328e-05   2.5908213201013535e-06   -4.019097818136664e-05
-1.143005127261005e-05   3.24988673526907e-06   -3.9561289940310025e-05
-1.143005127261005e-05   3.24988673526907e-06   -3.9561289940310025e-05
-1.143005127261005e-05   3.24988673526907e-06   -3.9561289940310025e-05
-1.143005127261005e-05   3.24988673526907e-06   -3.9561289940310025e-05
-1.3151187624612942e-05   3.297646048070488e-06   -4.240119493930045e-05
-1.3151187624612942e-05   3.297646048070488e-06   -4.240119493930045e-05
-1.3151187624612942e-05   3.297646048070488e-06   -4.240119493930045e-05
-1.3151187624612942e-05   3.297646048070488e-06   -4.240119493930045e-05
-1.2729305893778799e-05   4.5734107416344014e-06   -4.029994617290092e-05
-1.2729305893778799e-05   4.5734107416344014e-06   -4.029994617290092e-05
-1.2729305893778799e-05   4.5734107416344014e-06   -4.029994617290092e-05
-1.2729305893778799e-05   4.5734107416344014e-06   -4.029994617290092e-05
-1.1006135776397432e-05   4.507462514919758e-06   -4.3132327432507736e-05
-1.1006135776397432e-05   4.507462514919758e-06   -4.3132327432507736e-05
-1.1006135776397432e-05   4.507462514919758e-06   -4.3132327432507736e-05
-1.1006135776397432e-05   4.507462514919758e-06   -4.3132327432507736e-05
-1.2190381803237372e-05   3.6036108225240976e-06   -4.061627303900302e-05
-1.2190381803237372e-05   3.6036108225240976e-06   -4.061627303900302e-05
-1.2190381803237372e-05   3.6036108225240976e-06   -4.061627303900302e-05
-1.2190381803237372e-05   3.6036108225240976e-06   -4.061627303900302e-05
-1.4023811289146853e-05   2.7917324859662307e-07   -3.453976054631686e-05
-1.4023811289146853e-05   2.7917324859662307e-07   -3.453976054631686e-05
-1.4023811289146853e-05   2.7917324859662307e-07   -3.453976054631686e-05
-1.4023811289146853e-05   2.7917324859662307e-07   -3.453976054631686e-05
-1.583024086086175e-05   2.0820134130961933e-06   -3.64687724004754e-05
-1.583024086086175e-05   2.0820134130961933e-06   -3.64687724004754e-05
-1.583024086086175e-05   2.0820134130961933e-06   -3.64687724004754e-05
-1.583024086086175e-05   2.0820134130961933e-06   -3.64687724004754e-05
-1.5315654752135957e-05   1.5311737428616058e-06   -3.302147943608604e-05
-1.5315654752135957e-05   1.5311737428616058e-06   -3.302147943608604e-05
-1.5315654752135957e-05   1.5311737428616058e-06   -3.302147943608604e-05
-1.5315654752135957e-05   1.5311737428616058e-06   -3.302147943608604e-05
-1.3598501268285734e-05   3.2535719157202308e-06   -3.69168408128845e-05
-1.3598501268285734e-05   3.2535719157202308e-06   -3.69168408128845e-05
-1.3598501268285734e-05   3.2535719157202308e-06   -3.69168408128845e-05
-1.3598501268285734e-05   3.2535719157202308e-06   -3.69168408128845e-05
-1.4578507987281964e-05   1.91700488381128e-06   -3.448155606207941e-05
-1.4578507987281964e-05   1.91700488381128e-06   -3.448155606207941e-05
-1.4578507987281964e-05   1.91700488381128e-06   -3.448155606207941e-05
-1.4578507987281964e-05   1.91700488381128e-06   -3.448155606207941e-05
-1.3598501268285709e-05   1.5311737428616058e-06   -3.405491833980093e-05
-1.3598501268285709e-05   1.5311737428616058e-06   -3.405491833980093e-05
-1.3598501268285709e-05   1.5311737428616058e-06   -3.405491833980093e-05
-1.3598501268285709e-05   1.5311737428616058e-06   -3.405491833980093e-05
-1.5315654752135957e-05   3.253571915720014e-06   -3.588340190916958e-05
-1.5315654752135957e-05   3.253571915720014e-06   -3.588340190916958e-05
-1.5315654752135957e-05   3.253571915720014e-06   -3.588340190916958e-05
-1.5315654752135957e-05   3.253571915720014e-06   -3.588340190916958e-05
-1.4650717559882325e-05   2.7110180474173694e-06   -3.3164502490690465e-05
-1.4650717559882325e-05   2.7110180474173694e-06   -3.3164502490690465e-05
-1.4650717559882325e-05   2.7110180474173694e-06   -3.3164502490690465e-05
-1.4650717559882325e-05   2.7110180474173694e-06   -3.3164502490690465e-05
-1.3151187624612942e-05   4.3343723285190795e-06   -3.663773161813365e-05
-1.3151187624612942e-05   4.3343723285190795e-06   -3.663773161813365e-05
-1.3151187624612942e-05   4.3343723285190795e-06   -3.663773161813365e-05
-1.3151187624612942e-05   4.3343723285190795e-06   -3.663773161813365e-05
-1.4118622893561271e-05   2.846479879056664e-06   -3.4132604033542833e-05
-1.4118622893561271e-05   2.846479879056664e-06   -3.4132604033542833e-05
-1.4118622893561271e-05   2.846479879056664e-06   -3.4132604033542833e-05
-1.4118622893561271e-05   2.846479879056664e-06   -3.4132604033542833e-05
-1.3151187624612919e-05   2.7110180474173694e-06   -3.413851505935131e-05
-1.3151187624612919e-05   2.7110180474173694e-06   -3.413851505935131e-05
-1.3151187624612919e-05   2.7110180474173694e-06   -3.413851505935131e-05
-1.3151187624612919e-05   2.7110180474173694e-06   -3.413851505935131e-05
-1.4650717559882366e-05   4.3343723285190795e-06   -3.5663719049472756e-05
-1.4650717559882366e-05   4.3343723285190795e-06   -3.5663719049472756e-05
-1.4650717559882366e-05   4.3343723285190795e-06   -3.5663719049472756e-05
-1.4650717559882366e-05   4.3343723285190795e-06   -3.5663719049472756e-05
-1.4128330651243308e-05   4.045136030941332e-06   -3.408435036825761e-05
-1.4128330651243308e-05   4.045136030941332e-06   -3.408435036825761e-05
-1.4128330651243308e-05   4.045136030941332e-06   -3.408435036825761e-05
-1.4128330651243308e-05   4.045136030941332e-06   -3.408435036825761e-05
-1.2729305893778799e-05   5.545648194800598e-06   -3.73163655956807e-05
-1.2729305893778799e-05   5.545648194800598e-06   -3.73163655956807e-05
-1.2729305893778799e-05   5.545648194800598e-06   -3.73163655956807e-05
-1.2729305893778799e-05   5.545648194800598e-06   -3.73163655956807e-05
-1.3774111594056045e-05   3.796415548780311e-06   -3.452548317427266e-05
-1.3774111594056045e-05   3.796415548780311e-06   -3.452548317427266e-05
-1.3774111594056045e-05   3.796415548780311e-06   -3.452548317427266e-05
-1.3774111594056045e-05   3.796415548780311e-06   -3.452548317427266e-05
-1.5830240860861708e-05   3.8693824110157087e-07   -1.8408374072509815e-05
-1.5830240860861708e-05   3.8693824110157087e-07   -1.8408374072509815e-05
-1.5830240860861708e-05   3.8693824110157087e-07   -1.8408374072509815e-05
-1.5830240860861708e-05   3.8693824110157087e-07   -1.8408374072509815e-05
-1.917084498943768e-05   3.498565097833327e-06   -2.210907150609724e-05
-1.917084498943768e-05   3.498565097833327e-06   -2.210907150609724e-05
-1.917084498943768e-05   3.498565097833327e-06   -2.210907150609724e-05
-1.917084498943768e-05   3.498565097833327e-06   -2.210907150609724e-05
-1.7343589026662853e-05   1.376476740161869e-06   -1.5177317493125222e-05
-1.7343589026662853e-05   1.376476740161869e-06   -1.5177317493125222e-05
-1.7343589026662853e-05   1.376476740161869e-06   -1.5177317493125222e-05
-1.7343589026662853e-05   1.376476740161869e-06   -1.5177317493125222e-05
-1.5315654752135917e-05   4.560667762520216e-06   -2.046772256408488e-05
-1.5315654752135917e-05   4.560667762520216e-06   -2.046772256408488e-05
-1.5315654752135917e-05   4.560667762520216e-06   -2.046772256408488e-05
-1.5315654752135917e-05   4.560667762520216e-06   -2.046772256408488e-05
-1.623050042407132e-05   2.5842143076433826e-06   -1.7757107704600094e-05
-1.623050042407132e-05   2.5842143076433826e-06   -1.7757107704600094e-05
-1.623050042407132e-05   2.5842143076433826e-06   -1.7757107704600094e-05
-1.623050042407132e-05   2.5842143076433826e-06   -1.7757107704600094e-05
-1.5315654752135876e-05   1.376476740161869e-06   -1.708783210654008e-05
-1.5315654752135876e-05   1.376476740161869e-06   -1.708783210654008e-05
-1.5315654752135876e-05   1.376476740161869e-06   -1.708783210654008e-05
-1.5315654752135876e-05   1.376476740161869e-06   -1.708783210654008e-05
-1.7343589026662853e-05   4.560667762520433e-06   -1.8557207950669913e-05
-1.7343589026662853e-05   4.560667762520433e-06   -1.8557207950669913e-05
-1.7343589026662853e-05   4.560667762520433e-06   -1.8557207950669913e-05
-1.7343589026662853e-05   4.560667762520433e-06   -1.8557207950669913e-05
-1.5857371887559925e-05   1.933012049719048e-06   -1.4928694910684107e-05
-1.5857371887559925e-05   1.933012049719048e-06   -1.4928694910684107e-05
-1.5857371887559925e-05   1.933012049719048e-06   -1.4928694910684107e-05
-1.5857371887559925e-05   1.933012049719048e-06   -1.4928694910684107e-05
-1.4650717559882325e-05   5.046976209522594e-06   -1.880816395269532e-05
-1.4650717559882325e-05   5.046976209522594e-06   -1.880816395269532e-05
-1.4650717559882325e-05   5.046976209522594e-06   -1.880816395269532e-05
-1.4650717559882325e-05   5.046976209522594e-06   -1.880816395269532e-05
-1.545039227295172e-05   3.0759113723300953e-06   -1.6292733861931075e-05
-1.545039227295172e-05   3.0759113723300953e-06   -1.6292733861931075e-05
-1.545039227295172e-05   3.0759113723300953e-06   -1.6292733861931075e-05
-1.545039227295172e-05   3.0759113723300953e-06   -1.6292733861931075e-05
-1.4650717559882312e-05   1.9330120497192647e-06   -1.6797073406566235e-05
-1.4650717559882312e-05   1.9330120497192647e-06   -1.6797073406566235e-05
-1.4650717559882312e-05   1.9330120497192647e-06   -1.6797073406566235e-05
-1.4650717559882312e-05   1.9330120497192647e-06   -1.6797073406566235e-05
-1.5857371887559952e-05   5.046976209522594e-06   -1.693978545681341e-05
-1.5857371887559952e-05   5.046976209522594e-06   -1.693978545681341e-05
-1.5857371887559952e-05   5.046976209522594e-06   -1.693978545681341e-05
-1.5857371887559952e-05   5.046976209522594e-06   -1.693978545681341e-05
-1.4039715163474779e-05   2.920054103754035e-06   -1.5400236946582846e-05
-1.4039715163474779e-05   2.920054103754035e-06   -1.5400236946582846e-05
-1.4039715163474779e-05   2.920054103754035e-06   -1.5400236946582846e-05
-1.4039715163474779e-05   2.920054103754035e-06   -1.5400236946582846e-05
-1.4128330651243308e-05   5.800595294794611e-06   -1.6980869181592684e-05
-1.4128330651243308e-05   5.800595294794611e-06   -1.6980869181592684e-05
-1.4128330651243308e-05   5.800595294794611e-06   -1.6980869181592684e-05
-1.4128330651243308e-05   5.800595294794611e-06   -1.6980869181592684e-05
-1.4303060930928531e-05   3.4734650413069347e-06   -1.5293373896691485e-05
-1.4303060930928531e-05   3.4734650413069347e-06   -1.5293373896691485e-05
-1.4303060930928531e-05   3.4734650413069347e-06   -1.5293373896691485e-05
-1.4303060930928531e-05   3.4734650413069347e-06   -1.5293373896691485e-05
9.33484513710505e-06   -9.235425299568365e-07   -9.577850979269507e-06
9.33484513710505e-06   -9.235425299568365e-07   -9.577850979269507e-06
9.33484513710505e-06   -9.235425299568365e-07   -9.577850979269507e-06
9.33484513710505e-06   -9.235425299568365e-07   -9.577850979269507e-06
9.572427686014976e-07   -3.8859186137617935e-06   -2.531794724372515e-05
9.572427686014976e-07   -3.8859186137617935e-06   -2.531794724372515e-05
9.572427686014976e-07   -3.8859186137617935e-06   -2.531794724372515e-05
9.572427686014976e-07   -3.8859186137617935e-06   -2.531794724372515e-05
1.691492045942383e-06   -2.8163948306110173e-08   -1.0580860009456712e-05
1.691492045942383e-06   -2.8163948306110173e-08   -1.0580860009456712e-05
1.691492045942383e-06   -2.8163948306110173e-08   -1.0580860009456712e-05
1.691492045942383e-06   -2.8163948306110173e-08   -1.0580860009456712e-05
1.138547437543779e-05   -3.1933150166263587e-06   -2.4838406584290116e-05
1.138547437543779e-05   -3.1933150166263587e-06   -2.4838406584290116e-05
1.138547437543779e-05   -3.1933150166263587e-06   -2.4838406584290116e-05
1.138547437543779e-05   -3.1933150166263587e-06   -2.4838406584290116e-05
5.624611156541416e-06   -1.6212567782253546e-06   -1.6180202829169988e-05
5.624611156541416e-06   -1.6212567782253546e-06   -1.6180202829169988e-05
5.624611156541416e-06   -1.6212567782253546e-06   -1.6180202829169988e-05
5.624611156541416e-06   -1.6212567782253546e-06   -1.6180202829169988e-05
1.138547437543779e-05   -2.8163948306110173e-08   -8.68176936846452e-06
1.138547437543779e-05   -2.8163948306110173e-08   -8.68176936846452e-06
1.138547437543779e-05   -2.8163948306110173e-08   -8.68176936846452e-06
1.138547437543779e-05   -2.8163948306110173e-08   -8.68176936846452e-06
1.691492045942356e-06   -3.1933150166263587e-06   -2.6737497225282308e-05
1.691492045942356e-06   -3.1933150166263587e-06   -2.6737497225282308e-05
1.691492045942356e-06   -3.1933150166263587e-06   -2.6737497225282308e-05
1.691492045942356e-06   -3.1933150166263587e-06   -2.6737497225282308e-05
2.557021531232834e-06   4.783077856653807e-07   -1.0661725520669935e-05
2.557021531232834e-06   4.783077856653807e-07   -1.0661725520669935e-05
2.557021531232834e-06   4.783077856653807e-07   -1.0661725520669935e-05
2.557021531232834e-06   4.783077856653807e-07   -1.0661725520669935e-05
1.3118881401464352e-05   -2.7316147503629856e-06   -2.6338871782772264e-05
1.3118881401464352e-05   -2.7316147503629856e-06   -2.6338871782772264e-05
1.3118881401464352e-05   -2.7316147503629856e-06   -2.6338871782772264e-05
1.3118881401464352e-05   -2.7316147503629856e-06   -2.6338871782772264e-05
6.925441501179331e-06   -1.2976513966150719e-06   -1.6876849961213424e-05
6.925441501179331e-06   -1.2976513966150719e-06   -1.6876849961213424e-05
6.925441501179331e-06   -1.2976513966150719e-06   -1.6876849961213424e-05
6.925441501179331e-06   -1.2976513966150719e-06   -1.6876849961213424e-05
1.3118881401464352e-05   4.783077856653807e-07   -8.735771999053121e-06
1.3118881401464352e-05   4.783077856653807e-07   -8.735771999053121e-06
1.3118881401464352e-05   4.783077856653807e-07   -8.735771999053121e-06
1.3118881401464352e-05   4.783077856653807e-07   -8.735771999053121e-06
2.5570215312328067e-06   -2.7316147503629856e-06   -2.826482530438935e-05
2.5570215312328067e-06   -2.7316147503629856e-06   -2.826482530438935e-05
2.5570215312328067e-06   -2.7316147503629856e-06   -2.826482530438935e-05
2.5570215312328067e-06   -2.7316147503629856e-06   -2.826482530438935e-05
3.2695913103197177e-06   1.4884435130977855e-06   -1.1681983077823938e-05
3.2695913103197177e-06   1.4884435130977855e-06   -1.1681983077823938e-05
3.2695913103197177e-06   1.4884435130977855e-06   -1.1681983077823938e-05
3.2695913103197177e-06   1.4884435130977855e-06   -1.1681983077823938e-05
1.5201130966777956e-05   -1.5682001386029248e-06   -2.973389631423409e-05
1.5201130966777956e-05   -1.5682001386029248e-06   -2.973389631423409e-05
1.5201130966777956e-05   -1.5682001386029248e-06   -2.973389631423409e-05
1.5201130966777956e-05   -1.5682001386029248e-06   -2.973389631423409e-05
7.960482292921473e-06   -8.224834080091921e-07   -1.811357856282926e-05
7.960482292921473e-06   -8.224834080091921e-07   -1.811357856282926e-05
7.960482292921473e-06   -8.224834080091921e-07   -1.811357856282926e-05
7.960482292921473e-06   -8.224834080091921e-07   -1.811357856282926e-05
9.572427686014976e-07   -2.0016697792942656e-07   -2.7552115272721595e-05
9.572427686014976e-07   -2.0016697792942656e-07   -2.7552115272721595e-05
9.572427686014976e-07   -2.0016697792942656e-07   -2.7552115272721595e-05
9.572427686014976e-07   -2.0016697792942656e-07   -2.7552115272721595e-05
-8.820292969326574e-06   -1.5372647864848616e-06   -4.4650266854401235e-05
-8.820292969326574e-06   -1.5372647864848616e-06   -4.4650266854401235e-05
-8.820292969326574e-06   -1.5372647864848616e-06   -4.4650266854401235e-05
-8.820292969326574e-06   -1.5372647864848616e-06   -4.4650266854401235e-05
-8.176180826481133e-06   9.295527502210191e-07   -2.770805225225763e-05
-8.176180826481133e-06   9.295527502210191e-07   -2.770805225225763e-05
-8.176180826481133e-06   9.295527502210191e-07   -2.770805225225763e-05
-8.176180826481133e-06   9.295527502210191e-07   -2.770805225225763e-05
1.691492045942356e-06   -5.877386000450839e-07   -4.324379889613717e-05
1.691492045942356e-06   -5.877386000450839e-07   -4.324379889613717e-05
1.691492045942356e-06   -5.877386000450839e-07   -4.324379889613717e-05
1.691492045942356e-06   -5.877386000450839e-07   -4.324379889613717e-05
-3.5040201007638123e-06   -5.816828617876638e-08   -3.490235417328007e-05
-3.5040201007638123e-06   -5.816828617876638e-08   -3.490235417328007e-05
-3.5040201007638123e-06   -5.816828617876638e-08   -3.490235417328007e-05
-3.5040201007638123e-06   -5.816828617876638e-08   -3.490235417328007e-05
1.691492045942383e-06   9.295527502210191e-07   -2.6797677442097923e-05
1.691492045942383e-06   9.295527502210191e-07   -2.6797677442097923e-05
1.691492045942383e-06   9.295527502210191e-07   -2.6797677442097923e-05
1.691492045942383e-06   9.295527502210191e-07   -2.6797677442097923e-05
-8.176180826481133e-06   -5.877386000450839e-07   -4.4154173706296984e-05
-8.176180826481133e-06   -5.877386000450839e-07   -4.4154173706296984e-05
-8.176180826481133e-06   -5.877386000450839e-07   -4.4154173706296984e-05
-8.176180826481133e-06   -5.877386000450839e-07   -4.4154173706296984e-05
-7.5283969657739184e-06   2.017199419106653e-06   -2.774984133691364e-05
-7.5283969657739184e-06   2.017199419106653e-06   -2.774984133691364e-05
-7.5283969657739184e-06   2.017199419106653e-06   -2.774984133691364e-05
-7.5283969657739184e-06   2.017199419106653e-06   -2.774984133691364e-05
2.5570215312328067e-06   3.9407626292210785e-07   -4.3584998271547614e-05
2.5570215312328067e-06   3.9407626292210785e-07   -4.3584998271547614e-05
2.5570215312328067e-06   3.9407626292210785e-07   -4.3584998271547614e-05
2.5570215312328067e-06   3.9407626292210785e-07   -4.3584998271547614e-05
-2.933486259039023e-06   7.216667254369806e-07   -3.463070623193677e-05
-2.933486259039023e-06   7.216667254369806e-07   -3.463070623193677e-05
-2.933486259039023e-06   7.216667254369806e-07   -3.463070623193677e-05
-2.933486259039023e-06   7.216667254369806e-07   -3.463070623193677e-05
2.557021531232834e-06   2.017199419106653e-06   -2.6775967443202792e-05
2.557021531232834e-06   2.017199419106653e-06   -2.6775967443202792e-05
2.557021531232834e-06   2.017199419106653e-06   -2.6775967443202792e-05
2.557021531232834e-06   2.017199419106653e-06   -2.6775967443202792e-05
-7.5283969657739184e-06   3.9407626292210785e-07   -4.45588721652583e-05
-7.5283969657739184e-06   3.9407626292210785e-07   -4.45588721652583e-05
-7.5283969657739184e-06   3.9407626292210785e-07   -4.45588721652583e-05
-7.5283969657739184e-06   3.9407626292210785e-07   -4.45588721652583e-05
-6.909439453407675e-06   3.259152730694442e-06   -2.844513848520528e-05
-6.909439453407675e-06   3.259152730694442e-06   -2.844513848520528e-05
-6.909439453407675e-06   3.259152730694442e-06   -2.844513848520528e-05
-6.909439453407675e-06   3.259152730694442e-06   -2.844513848520528e-05
3.2695913103197177e-06   1.5567697046897384e-06   -4.4388759942481253e-05
3.2695913103197177e-06   1.5567697046897384e-06   -4.4388759942481253e-05
3.2695913103197177e-06   1.5567697046897384e-06   -4.4388759942481253e-05
3.2695913103197177e-06   1.5567697046897384e-06   -4.4388759942481253e-05
-2.2982081248316564e-06   1.5860867725216036e-06   -3.5126684457928014e-05
-2.2982081248316564e-06   1.5860867725216036e-06   -3.5126684457928014e-05
-2.2982081248316564e-06   1.5860867725216036e-06   -3.5126684457928014e-05
-2.2982081248316564e-06   1.5860867725216036e-06   -3.5126684457928014e-05
-8.820292969326574e-06   9.367109804611293e-07   -3.335122006527556e-05
-8.820292969326574e-06   9.367109804611293e-07   -3.335122006527556e-05
-8.820292969326574e-06   9.367109804611293e-07   -3.335122006527556e-05
-8.820292969326574e-06   9.367109804611293e-07   -3.335122006527556e-05
-1.8513012086353982e-05   1.1808060545253577e-06   -4.935929488254938e-05
-1.8513012086353982e-05   1.1808060545253577e-06   -4.935929488254938e-05
-1.8513012086353982e-05   1.1808060545253577e-06   -4.935929488254938e-05
-1.8513012086353982e-05   1.1808060545253577e-06   -4.935929488254938e-05
-1.7864314182360897e-05   2.104342218200994e-06   -3.275403538934626e-05
-1.7864314182360897e-05   2.104342218200994e-06   -3.275403538934626e-05
-1.7864314182360897e-05   2.104342218200994e-06   -3.275403538934626e-05
-1.7864314182360897e-05   2.104342218200994e-06   -3.275403538934626e-05
-8.17618082648116e-06   2.1853926356145935e-06   -4.89495545662606e-05
-8.17618082648116e-06   2.1853926356145935e-06   -4.89495545662606e-05
-8.17618082648116e-06   2.1853926356145935e-06   -4.89495545662606e-05
-8.17618082648116e-06   2.1853926356145935e-06   -4.89495545662606e-05
-1.3266184831702506e-05   1.8067395399910162e-06   -4.023902270018431e-05
-1.3266184831702506e-05   1.8067395399910162e-06   -4.023902270018431e-05
-1.3266184831702506e-05   1.8067395399910162e-06   -4.023902270018431e-05
-1.3266184831702506e-05   1.8067395399910162e-06   -4.023902270018431e-05
-8.17618082648116e-06   2.104342218200994e-06   -3.280266563979424e-05
-8.17618082648116e-06   2.104342218200994e-06   -3.280266563979424e-05
-8.17618082648116e-06   2.104342218200994e-06   -3.280266563979424e-05
-8.17618082648116e-06   2.104342218200994e-06   -3.280266563979424e-05
-1.7864314182360863e-05   2.1853926356145935e-06   -4.890092431581263e-05
-1.7864314182360863e-05   2.1853926356145935e-06   -4.890092431581263e-05
-1.7864314182360863e-05   2.1853926356145935e-06   -4.890092431581263e-05
-1.7864314182360863e-05   2.1853926356145935e-06   -4.890092431581263e-05
-1.7205205468910565e-05   3.297646048070705e-06   -3.2839009095138707e-05
-1.7205205468910565e-05   3.297646048070705e-06   -3.2839009095138707e-05
-1.7205205468910565e-05   3.297646048070705e-06   -3.2839009095138707e-05
-1.7205205468910565e-05   3.297646048070705e-06   -3.2839009095138707e-05
-7.5283969657739455e-06   3.2489871432518722e-06   -4.893782792414188e-05
-7.5283969657739455e-06   3.2489871432518722e-06   -4.893782792414188e-05
-7.5283969657739455e-06   3.2489871432518722e-06   -4.893782792414188e-05
-7.5283969657739455e-06   3.2489871432518722e-06   -4.893782792414188e-05
-1.269533465515828e-05   2.6836009966326293e-06   -3.998703342053024e-05
-1.269533465515828e-05   2.6836009966326293e-06   -3.998703342053024e-05
-1.269533465515828e-05   2.6836009966326293e-06   -3.998703342053024e-05
-1.269533465515828e-05   2.6836009966326293e-06   -3.998703342053024e-05
-7.5283969657739455e-06   3.297646048070705e-06   -3.280981375224735e-05
-7.5283969657739455e-06   3.297646048070705e-06   -3.280981375224735e-05
-7.5283969657739455e-06   3.297646048070705e-06   -3.280981375224735e-05
-7.5283969657739455e-06   3.297646048070705e-06   -3.280981375224735e-05
-1.7205205468910534e-05   3.2489871432518722e-06   -4.896702326703285e-05
-1.7205205468910534e-05   3.2489871432518722e-06   -4.896702326703285e-05
-1.7205205468910534e-05   3.2489871432518722e-06   -4.896702326703285e-05
-1.7205205468910534e-05   3.2489871432518722e-06   -4.896702326703285e-05
-1.6576703779033835e-05   4.507462514919758e-06   -3.3576746600274014e-05
-1.6576703779033835e-05   4.507462514919758e-06   -3.3576746600274014e-05
-1.6576703779033835e-05   4.507462514919758e-06   -3.3576746600274014e-05
-1.6576703779033835e-05   4.507462514919758e-06   -3.3576746600274014e-05
-6.9094394534077025e-06   4.3309637875166805e-06   -4.9582954573208836e-05
-6.9094394534077025e-06   4.3309637875166805e-06   -4.9582954573208836e-05
-6.9094394534077025e-06   4.3309637875166805e-06   -4.9582954573208836e-05
-6.9094394534077025e-06   4.3309637875166805e-06   -4.9582954573208836e-05
-1.2164270475136077e-05   3.573777193506913e-06   -4.037059091392247e-05
-1.2164270475136077e-05   3.573777193506913e-06   -4.037059091392247e-05
-1.2164270475136077e-05   3.573777193506913e-06   -4.037059091392247e-05
-1.2164270475136077e-05   3.573777193506913e-06   -4.037059091392247e-05
-1.851301208635401e-05   2.0820134130961933e-06   -2.8038580151090666e-05
-1.851301208635401e-05   2.0820134130961933e-06   -2.8038580151090666e-05
-1.851301208635401e-05   2.0820134130961933e-06   -2.8038580151090666e-05
-1.851301208635401e-05   2.0820134130961933e-06   -2.8038580151090666e-05
-2.8090101842370336e-05   3.818858088821403e-06   -4.2958289605683026e-05
-2.8090101842370336e-05   3.818858088821403e-06   -4.2958289605683026e-05
-2.8090101842370336e-05   3.818858088821403e-06   -4.2958289605683026e-05
-2.8090101842370336e-05   3.818858088821403e-06   -4.2958289605683026e-05
-2.7348919866390595e-05   3.2535719157202308e-06   -2.6406155364569386e-05
-2.7348919866390595e-05   3.2535719157202308e-06   -2.6406155364569386e-05
-2.7348919866390595e-05   3.2535719157202308e-06   -2.6406155364569386e-05
-2.7348919866390595e-05   3.2535719157202308e-06   -2.6406155364569386e-05
-1.7864314182360863e-05   4.8911542121566395e-06   -4.319638088248095e-05
-1.7864314182360863e-05   4.8911542121566395e-06   -4.319638088248095e-05
-1.7864314182360863e-05   4.8911542121566395e-06   -4.319638088248095e-05
-1.7864314182360863e-05   4.8911542121566395e-06   -4.319638088248095e-05
-2.279510289908049e-05   3.6507492162542567e-06   -3.423415669040659e-05
-2.279510289908049e-05   3.6507492162542567e-06   -3.423415669040659e-05
-2.279510289908049e-05   3.6507492162542567e-06   -3.423415669040659e-05
-2.279510289908049e-05   3.6507492162542567e-06   -3.423415669040659e-05
-1.7864314182360897e-05   3.2535719157202308e-06   -2.7388704742431448e-05
-1.7864314182360897e-05   3.2535719157202308e-06   -2.7388704742431448e-05
-1.7864314182360897e-05   3.2535719157202308e-06   -2.7388704742431448e-05
-1.7864314182360897e-05   3.2535719157202308e-06   -2.7388704742431448e-05
-2.7348919866390635e-05   4.891154212156856e-06   -4.221383150461921e-05
-2.7348919866390635e-05   4.891154212156856e-06   -4.221383150461921e-05
-2.7348919866390635e-05   4.891154212156856e-06   -4.221383150461921e-05
-2.7348919866390635e-05   4.891154212156856e-06   -4.221383150461921e-05
-2.646155220275498e-05   4.3343723285190795e-06   -2.6161940765977512e-05
-2.646155220275498e-05   4.3343723285190795e-06   -2.6161940765977512e-05
-2.646155220275498e-05   4.3343723285190795e-06   -2.6161940765977512e-05
-2.646155220275498e-05   4.3343723285190795e-06   -2.6161940765977512e-05
-1.7205205468910565e-05   5.857047341843074e-06   -4.250279033037919e-05
-1.7205205468910565e-05   5.857047341843074e-06   -4.250279033037919e-05
-1.7205205468910565e-05   5.857047341843074e-06   -4.250279033037919e-05
-1.7205205468910565e-05   5.857047341843074e-06   -4.250279033037919e-05
-2.204813489774478e-05   4.497391283571632e-06   -3.361544764735969e-05
-2.204813489774478e-05   4.497391283571632e-06   -3.361544764735969e-05
-2.204813489774478e-05   4.497391283571632e-06   -3.361544764735969e-05
-2.204813489774478e-05   4.497391283571632e-06   -3.361544764735969e-05
-1.7205205468910565e-05   4.3343723285190795e-06   -2.7075545773971746e-05
-1.7205205468910565e-05   4.3343723285190795e-06   -2.7075545773971746e-05
-1.7205205468910565e-05   4.3343723285190795e-06   -2.7075545773971746e-05
-1.7205205468910565e-05   4.3343723285190795e-06   -2.7075545773971746e-05
-2.646155220275498e-05   5.857047341843074e-06   -4.158918532238469e-05
-2.646155220275498e-05   5.857047341843074e-06   -4.158918532238469e-05
-2.646155220275498e-05   5.857047341843074e-06   -4.158918532238469e-05
-2.646155220275498e-05   5.857047341843074e-06   -4.158918532238469e-05
-2.5722248653293135e-05   5.545648194800381e-06   -2.6885943561569302e-05
-2.5722248653293135e-05   5.545648194800381e-06   -2.6885943561569302e-05
-2.5722248653293135e-05   5.545648194800381e-06   -2.6885943561569302e-05
-2.5722248653293135e-05   5.545648194800381e-06   -2.6885943561569302e-05
-1.6576703779033835e-05   6.937768637881904e-06   -4.2963790617850405e-05
-1.6576703779033835e-05   6.937768637881904e-06   -4.2963790617850405e-05
-1.6576703779033835e-05   6.937768637881904e-06   -4.2963790617850405e-05
-1.6576703779033835e-05   6.937768637881904e-06   -4.2963790617850405e-05
-2.154782692832733e-05   5.3316228476215895e-06   -3.3714897894871637e-05
-2.154782692832733e-05   5.3316228476215895e-06   -3.3714897894871637e-05
-2.154782692832733e-05   5.3316228476215895e-06   -3.3714897894871637e-05
-2.154782692832733e-05   5.3316228476215895e-06   -3.3714897894871637e-05
-2.8090101842370336e-05   3.4985650978335437e-06   -1.4503748565316578e-05
-2.8090101842370336e-05   3.4985650978335437e-06   -1.4503748565316578e-05
-2.8090101842370336e-05   3.4985650978335437e-06   -1.4503748565316578e-05
-2.8090101842370336e-05   3.4985650978335437e-06   -1.4503748565316578e-05
-3.900479075555493e-05   6.565499300351975e-06   -3.0854736232446616e-05
-3.900479075555493e-05   6.565499300351975e-06   -3.0854736232446616e-05
-3.900479075555493e-05   6.565499300351975e-06   -3.0854736232446616e-05
-3.900479075555493e-05   6.565499300351975e-06   -3.0854736232446616e-05
-3.696824711747025e-05   4.560667762520216e-06   -9.119630545584853e-06
-3.696824711747025e-05   4.560667762520216e-06   -9.119630545584853e-06
-3.696824711747025e-05   4.560667762520216e-06   -9.119630545584853e-06
-3.696824711747025e-05   4.560667762520216e-06   -9.119630545584853e-06
-2.7348919866390595e-05   7.67874355235348e-06   -2.7022688104617475e-05
-2.7348919866390595e-05   7.67874355235348e-06   -2.7022688104617475e-05
-2.7348919866390595e-05   7.67874355235348e-06   -2.7022688104617475e-05
-2.7348919866390595e-05   7.67874355235348e-06   -2.7022688104617475e-05
-3.15164250332048e-05   5.703188539076952e-06   -1.8891513151961345e-05
-3.15164250332048e-05   5.703188539076952e-06   -1.8891513151961345e-05
-3.15164250332048e-05   5.703188539076952e-06   -1.8891513151961345e-05
-3.15164250332048e-05   5.703188539076952e-06   -1.8891513151961345e-05
-2.7348919866390615e-05   4.560667762520216e-06   -1.0990476019484628e-05
-2.7348919866390615e-05   4.560667762520216e-06   -1.0990476019484628e-05
-2.7348919866390615e-05   4.560667762520216e-06   -1.0990476019484628e-05
-2.7348919866390615e-05   4.560667762520216e-06   -1.0990476019484628e-05
-3.696824711747011e-05   7.678743552353264e-06   -2.5151842630717755e-05
-3.696824711747011e-05   7.678743552353264e-06   -2.5151842630717755e-05
-3.696824711747011e-05   7.678743552353264e-06   -2.5151842630717755e-05
-3.696824711747011e-05   7.678743552353264e-06   -2.5151842630717755e-05
-3.528502401112981e-05   5.046976209522594e-06   -7.4879977275761535e-06
-3.528502401112981e-05   5.046976209522594e-06   -7.4879977275761535e-06
-3.528502401112981e-05   5.046976209522594e-06   -7.4879977275761535e-06
-3.528502401112981e-05   5.046976209522594e-06   -7.4879977275761535e-06
-2.6461552202754947e-05   8.077622778895942e-06   -2.4012172016491667e-05
-2.6461552202754947e-05   8.077622778895942e-06   -2.4012172016491667e-05
-2.6461552202754947e-05   8.077622778895942e-06   -2.4012172016491667e-05
-2.6461552202754947e-05   8.077622778895942e-06   -2.4012172016491667e-05
-3.0770210918439335e-05   6.203773283941852e-06   -1.5706764460045222e-05
-3.0770210918439335e-05   6.203773283941852e-06   -1.5706764460045222e-05
-3.0770210918439335e-05   6.203773283941852e-06   -1.5706764460045222e-05
-3.0770210918439335e-05   6.203773283941852e-06   -1.5706764460045222e-05
-2.646155220275498e-05   5.046976209522594e-06   -9.306385669200076e-06
-2.646155220275498e-05   5.046976209522594e-06   -9.306385669200076e-06
-2.646155220275498e-05   5.046976209522594e-06   -9.306385669200076e-06
-2.646155220275498e-05   5.046976209522594e-06   -9.306385669200076e-06
-3.528502401112975e-05   8.077622778895725e-06   -2.2193784074867745e-05
-3.528502401112975e-05   8.077622778895725e-06   -2.2193784074867745e-05
-3.528502401112975e-05   8.077622778895725e-06   -2.2193784074867745e-05
-3.528502401112975e-05   8.077622778895725e-06   -2.2193784074867745e-05
-3.329451534740975e-05   5.800595294794828e-06   -5.780975566912127e-06
-3.329451534740975e-05   5.800595294794828e-06   -5.780975566912127e-06
-3.329451534740975e-05   5.800595294794828e-06   -5.780975566912127e-06
-3.329451534740975e-05   5.800595294794828e-06   -5.780975566912127e-06
-2.5722248653293107e-05   8.583560092936164e-06   -2.007119893599103e-05
-2.5722248653293107e-05   8.583560092936164e-06   -2.007119893599103e-05
-2.5722248653293107e-05   8.583560092936164e-06   -2.007119893599103e-05
-2.5722248653293107e-05   8.583560092936164e-06   -2.007119893599103e-05
-2.9188243436609255e-05   6.445543230529241e-06   -1.3011730846353815e-05
-2.9188243436609255e-05   6.445543230529241e-06   -1.3011730846353815e-05
-2.9188243436609255e-05   6.445543230529241e-06   -1.3011730846353815e-05
-2.9188243436609255e-05   6.445543230529241e-06   -1.3011730846353815e-05
2.962215005118988e-05   -3.8859186137617935e-06   -2.3000791814865645e-07
2.962215005118988e-05   -3.8859186137617935e-06   -2.3000791814865645e-07
2.962215005118988e-05   -3.8859186137617935e-06   -2.3000791814865645e-07
2.962215005118988e-05   -3.8859186137617935e-06   -2.3000791814865645e-07
1.262555351113899e-05   -7.0105420199432535e-06   -3.0432442861942264e-05
1.262555351113899e-05   -7.0105420199432535e-06   -3.0432442861942264e-05
1.262555351113899e-05   -7.0105420199432535e-06   -3.0432442861942264e-05
1.262555351113899e-05   -7.0105420199432535e-06   -3.0432442861942264e-05
1.3521144656125953e-05   -3.1933150166263587e-06   -3.3490711118992853e-06
1.3521144656125953e-05   -3.1933150166263587e-06   -3.3490711118992853e-06
1.3521144656125953e-05   -3.1933150166263587e-06   -3.3490711118992853e-06
1.3521144656125953e-05   -3.1933150166263587e-06   -3.3490711118992853e-06
3.186452590200358e-05   -6.519734932960812e-06   -3.192552123856135e-05
3.186452590200358e-05   -6.519734932960812e-06   -3.192552123856135e-05
3.186452590200358e-05   -6.519734932960812e-06   -3.192552123856135e-05
3.186452590200358e-05   -6.519734932960812e-06   -3.192552123856135e-05
2.1024899938179662e-05   -4.6200933225466236e-06   -1.4999262931769967e-05
2.1024899938179662e-05   -4.6200933225466236e-06   -1.4999262931769967e-05
2.1024899938179662e-05   -4.6200933225466236e-06   -1.4999262931769967e-05
2.1024899938179662e-05   -4.6200933225466236e-06   -1.4999262931769967e-05
3.186452590200363e-05   -3.1933150166263587e-06   -1.3532191620982447e-06
3.186452590200363e-05   -3.1933150166263587e-06   -1.3532191620982447e-06
3.186452590200363e-05   -3.1933150166263587e-06   -1.3532191620982447e-06
3.186452590200363e-05   -3.1933150166263587e-06   -1.3532191620982447e-06
1.3521144656125926e-05   -6.519734932960812e-06   -3.3921373188361957e-05
1.3521144656125926e-05   -6.519734932960812e-06   -3.3921373188361957e-05
1.3521144656125926e-05   -6.519734932960812e-06   -3.3921373188361957e-05
1.3521144656125926e-05   -6.519734932960812e-06   -3.3921373188361957e-05
1.4513213728758095e-05   -2.7316147503629856e-06   -4.716315888335333e-06
1.4513213728758095e-05   -2.7316147503629856e-06   -4.716315888335333e-06
1.4513213728758095e-05   -2.7316147503629856e-06   -4.716315888335333e-06
1.4513213728758095e-05   -2.7316147503629856e-06   -4.716315888335333e-06
3.374846495251264e-05   -6.098088041420029e-06   -3.4755183953291864e-05
3.374846495251264e-05   -6.098088041420029e-06   -3.4755183953291864e-05
3.374846495251264e-05   -6.098088041420029e-06   -3.4755183953291864e-05
3.374846495251264e-05   -6.098088041420029e-06   -3.4755183953291864e-05
2.2709124592856854e-05   -4.432419870569696e-06   -1.7355684256375775e-05
2.2709124592856854e-05   -4.432419870569696e-06   -1.7355684256375775e-05
2.2709124592856854e-05   -4.432419870569696e-06   -1.7355684256375775e-05
2.2709124592856854e-05   -4.432419870569696e-06   -1.7355684256375775e-05
3.374846495251269e-05   -2.7316147503629856e-06   -2.696431913701096e-06
3.374846495251269e-05   -2.7316147503629856e-06   -2.696431913701096e-06
3.374846495251269e-05   -2.7316147503629856e-06   -2.696431913701096e-06
3.374846495251269e-05   -2.7316147503629856e-06   -2.696431913701096e-06
1.4513213728758095e-05   -6.098088041420029e-06   -3.677506792792637e-05
1.4513213728758095e-05   -6.098088041420029e-06   -3.677506792792637e-05
1.4513213728758095e-05   -6.098088041420029e-06   -3.677506792792637e-05
1.4513213728758095e-05   -6.098088041420029e-06   -3.677506792792637e-05
1.5333432919476523e-05   -1.5682001386029248e-06   -7.872407955147442e-06
1.5333432919476523e-05   -1.5682001386029248e-06   -7.872407955147442e-06
1.5333432919476523e-05   -1.5682001386029248e-06   -7.872407955147442e-06
1.5333432919476523e-05   -1.5682001386029248e-06   -7.872407955147442e-06
3.5935897956758606e-05   -4.764490132025661e-06   -4.0292075687897505e-05
3.5935897956758606e-05   -4.764490132025661e-06   -4.0292075687897505e-05
3.5935897956758606e-05   -4.764490132025661e-06   -4.0292075687897505e-05
3.5935897956758606e-05   -4.764490132025661e-06   -4.0292075687897505e-05
2.3622354979910645e-05   -3.911570934345045e-06   -2.0281255578426726e-05
2.3622354979910645e-05   -3.911570934345045e-06   -2.0281255578426726e-05
2.3622354979910645e-05   -3.911570934345045e-06   -2.0281255578426726e-05
2.3622354979910645e-05   -3.911570934345045e-06   -2.0281255578426726e-05
1.2625553511139018e-05   -1.5372647864848616e-06   -2.0634842887400968e-05
1.2625553511139018e-05   -1.5372647864848616e-06   -2.0634842887400968e-05
1.2625553511139018e-05   -1.5372647864848616e-06   -2.0634842887400968e-05
1.2625553511139018e-05   -1.5372647864848616e-06   -2.0634842887400968e-05
-5.367421385846048e-06   -3.2839135782371243e-06   -5.167112365742749e-05
-5.367421385846048e-06   -3.2839135782371243e-06   -5.167112365742749e-05
-5.367421385846048e-06   -3.2839135782371243e-06   -5.167112365742749e-05
-5.367421385846048e-06   -3.2839135782371243e-06   -5.167112365742749e-05
-4.534022889617306e-06   -5.877386000450839e-07   -2.1064191216140903e-05
-4.534022889617306e-06   -5.877386000450839e-07   -2.1064191216140903e-05
-4.534022889617306e-06   -5.877386000450839e-07   -2.1064191216140903e-05
-4.534022889617306e-06   -5.877386000450839e-07   -2.1064191216140903e-05
1.3521144656125953e-05   -2.6024359890226487e-06   -4.994731869232649e-05
1.3521144656125953e-05   -2.6024359890226487e-06   -4.994731869232649e-05
1.3521144656125953e-05   -2.6024359890226487e-06   -4.994731869232649e-05
1.3521144656125953e-05   -2.6024359890226487e-06   -4.994731869232649e-05
4.106145671689125e-06   -1.5880151920157895e-06   -3.486430619646934e-05
4.106145671689125e-06   -1.5880151920157895e-06   -3.486430619646934e-05
4.106145671689125e-06   -1.5880151920157895e-06   -3.486430619646934e-05
4.106145671689125e-06   -1.5880151920157895e-06   -3.486430619646934e-05
1.3521144656125953e-05   -5.877386000450839e-07   -1.9855372782754093e-05
1.3521144656125953e-05   -5.877386000450839e-07   -1.9855372782754093e-05
1.3521144656125953e-05   -5.877386000450839e-07   -1.9855372782754093e-05
1.3521144656125953e-05   -5.877386000450839e-07   -1.9855372782754093e-05
-4.534022889617306e-06   -2.6024359890226487e-06   -5.115613712571292e-05
-4.534022889617306e-06   -2.6024359890226487e-06   -5.115613712571292e-05
-4.534022889617306e-06   -2.6024359890226487e-06   -5.115613712571292e-05
-4.534022889617306e-06   -2.6024359890226487e-06   -5.115613712571292e-05
-3.7382949619296476e-06   3.9407626292210785e-07   -2.1334575461475803e-05
-3.7382949619296476e-06   3.9407626292210785e-07   -2.1334575461475803e-05
-3.7382949619296476e-06   3.9407626292210785e-07   -2.1334575461475803e-05
-3.7382949619296476e-06   3.9407626292210785e-07   -2.1334575461475803e-05
1.4513213728758095e-05   -1.7694014137151909e-06   -5.045567000663983e-05
1.4513213728758095e-05   -1.7694014137151909e-06   -5.045567000663983e-05
1.4513213728758095e-05   -1.7694014137151909e-06   -5.045567000663983e-05
1.4513213728758095e-05   -1.7694014137151909e-06   -5.045567000663983e-05
4.767518235683293e-06   -9.853150357879347e-07   -3.468329601160388e-05
4.767518235683293e-06   -9.853150357879347e-07   -3.468329601160388e-05
4.767518235683293e-06   -9.853150357879347e-07   -3.468329601160388e-05
4.767518235683293e-06   -9.853150357879347e-07   -3.468329601160388e-05
1.4513213728758095e-05   3.9407626292210785e-07   -2.0036488855493598e-05
1.4513213728758095e-05   3.9407626292210785e-07   -2.0036488855493598e-05
1.4513213728758095e-05   3.9407626292210785e-07   -2.0036488855493598e-05
1.4513213728758095e-05   3.9407626292210785e-07   -2.0036488855493598e-05
-3.7382949619296476e-06   -1.7694014137147572e-06   -5.1753756612621924e-05
-3.7382949619296476e-06   -1.7694014137147572e-06   -5.1753756612621924e-05
-3.7382949619296476e-06   -1.7694014137147572e-06   -5.1753756612621924e-05
-3.7382949619296476e-06   -1.7694014137147572e-06   -5.1753756612621924e-05
-2.9908220692858776e-06   1.5567697046897384e-06   -2.2060128571124195e-05
-2.9908220692858776e-06   1.5567697046897384e-06   -2.2060128571124195e-05
-2.9908220692858776e-06   1.5567697046897384e-06   -2.2060128571124195e-05
-2.9908220692858776e-06   1.5567697046897384e-06   -2.2060128571124195e-05
1.5333432919476496e-05   -7.213022598932979e-07   -5.123371037364503e-05
1.5333432919476496e-05   -7.213022598932979e-07   -5.123371037364503e-05
1.5333432919476496e-05   -7.213022598932979e-07   -5.123371037364503e-05
1.5333432919476496e-05   -7.213022598932979e-07   -5.123371037364503e-05
5.592390532631553e-06   -2.4203984281927216e-07   -3.528619717914881e-05
5.592390532631553e-06   -2.4203984281927216e-07   -3.528619717914881e-05
5.592390532631553e-06   -2.4203984281927216e-07   -3.528619717914881e-05
5.592390532631553e-06   -2.4203984281927216e-07   -3.528619717914881e-05
-5.367421385846075e-06   1.1808060545253577e-06   -2.6538317235038676e-05
-5.367421385846075e-06   1.1808060545253577e-06   -2.6538317235038676e-05
-5.367421385846075e-06   1.1808060545253577e-06   -2.6538317235038676e-05
-5.367421385846075e-06   1.1808060545253577e-06   -2.6538317235038676e-05
-2.3043477899383576e-05   5.960865089860157e-07   -5.634924315159155e-05
-2.3043477899383576e-05   5.960865089860157e-07   -5.634924315159155e-05
-2.3043477899383576e-05   5.960865089860157e-07   -5.634924315159155e-05
-2.3043477899383576e-05   5.960865089860157e-07   -5.634924315159155e-05
-2.2146434201113e-05   2.1853926356145935e-06   -2.6353939478817017e-05
-2.2146434201113e-05   2.1853926356145935e-06   -2.6353939478817017e-05
-2.2146434201113e-05   2.1853926356145935e-06   -2.6353939478817017e-05
-2.2146434201113e-05   2.1853926356145935e-06   -2.6353939478817017e-05
-4.534022889617306e-06   1.3614469644264784e-06   -5.521359092859721e-05
-4.534022889617306e-06   1.3614469644264784e-06   -5.521359092859721e-05
-4.534022889617306e-06   1.3614469644264784e-06   -5.521359092859721e-05
-4.534022889617306e-06   1.3614469644264784e-06   -5.521359092859721e-05
-1.3678516168764455e-05   1.6189374066014495e-06   -4.012726306199031e-05
-1.3678516168764455e-05   1.6189374066014495e-06   -4.012726306199031e-05
-1.3678516168764455e-05   1.6189374066014495e-06   -4.012726306199031e-05
-1.3678516168764455e-05   1.6189374066014495e-06   -4.012726306199031e-05
-4.534022889617306e-06   2.1853926356145935e-06   -2.58595720761048e-05
-4.534022889617306e-06   2.1853926356145935e-06   -2.58595720761048e-05
-4.534022889617306e-06   2.1853926356145935e-06   -2.58595720761048e-05
-4.534022889617306e-06   2.1853926356145935e-06   -2.58595720761048e-05
-2.2146434201113e-05   1.3614469644264784e-06   -5.5707958331309817e-05
-2.2146434201113e-05   1.3614469644264784e-06   -5.5707958331309817e-05
-2.2146434201113e-05   1.3614469644264784e-06   -5.5707958331309817e-05
-2.2146434201113e-05   1.3614469644264784e-06   -5.5707958331309817e-05
-2.1281238322482336e-05   3.2489871432518722e-06   -2.6314236853531084e-05
-2.1281238322482336e-05   3.2489871432518722e-06   -2.6314236853531084e-05
-2.1281238322482336e-05   3.2489871432518722e-06   -2.6314236853531084e-05
-2.1281238322482336e-05   3.2489871432518722e-06   -2.6314236853531084e-05
-3.7382949619296476e-06   2.2478110879649467e-06   -5.495177015461361e-05
-3.7382949619296476e-06   2.2478110879649467e-06   -5.495177015461361e-05
-3.7382949619296476e-06   2.2478110879649467e-06   -5.495177015461361e-05
-3.7382949619296476e-06   2.2478110879649467e-06   -5.495177015461361e-05
-1.2906609687140687e-05   2.3354666890521058e-06   -3.972383897324751e-05
-1.2906609687140687e-05   2.3354666890521058e-06   -3.972383897324751e-05
-1.2906609687140687e-05   2.3354666890521058e-06   -3.972383897324751e-05
-1.2906609687140687e-05   2.3354666890521058e-06   -3.972383897324751e-05
-3.7382949619296476e-06   3.2489871432518722e-06   -2.5713531220359167e-05
-3.7382949619296476e-06   3.2489871432518722e-06   -2.5713531220359167e-05
-3.7382949619296476e-06   3.2489871432518722e-06   -2.5713531220359167e-05
-3.7382949619296476e-06   3.2489871432518722e-06   -2.5713531220359167e-05
-2.1281238322482336e-05   2.2478110879649467e-06   -5.555247578778585e-05
-2.1281238322482336e-05   2.2478110879649467e-06   -5.555247578778585e-05
-2.1281238322482336e-05   2.2478110879649467e-06   -5.555247578778585e-05
-2.1281238322482336e-05   2.2478110879649467e-06   -5.555247578778585e-05
-2.0481747499051497e-05   4.3309637875166805e-06   -2.693316126677189e-05
-2.0481747499051497e-05   4.3309637875166805e-06   -2.693316126677189e-05
-2.0481747499051497e-05   4.3309637875166805e-06   -2.693316126677189e-05
-2.0481747499051497e-05   4.3309637875166805e-06   -2.693316126677189e-05
-2.9908220692858776e-06   3.1638506533117165e-06   -5.5384435769191684e-05
-2.9908220692858776e-06   3.1638506533117165e-06   -5.5384435769191684e-05
-2.9908220692858776e-06   3.1638506533117165e-06   -5.5384435769191684e-05
-2.9908220692858776e-06   3.1638506533117165e-06   -5.5384435769191684e-05
-1.2216969244467516e-05   3.070694909975357e-06   -3.9951630364554484e-05
-1.2216969244467516e-05   3.070694909975357e-06   -3.9951630364554484e-05
-1.2216969244467516e-05   3.070694909975357e-06   -3.9951630364554484e-05
-1.2216969244467516e-05   3.070694909975357e-06   -3.9951630364554484e-05
-2.3043477899383616e-05   3.818858088821403e-06   -2.1530250490931022e-05
-2.3043477899383616e-05   3.818858088821403e-06   -2.1530250490931022e-05
-2.3043477899383616e-05   3.818858088821403e-06   -2.1530250490931022e-05
-2.3043477899383616e-05   3.818858088821403e-06   -2.1530250490931022e-05
-4.03912403150265e-05   4.614886854446224e-06   -4.9965570590961104e-05
-4.03912403150265e-05   4.614886854446224e-06   -4.9965570590961104e-05
-4.03912403150265e-05   4.614886854446224e-06   -4.9965570590961104e-05
-4.03912403150265e-05   4.614886854446224e-06   -4.9965570590961104e-05
-3.931007537366639e-05   4.891154212156856e-06   -2.023195666803223e-05
-3.931007537366639e-05   4.891154212156856e-06   -2.023195666803223e-05
-3.931007537366639e-05   4.891154212156856e-06   -2.023195666803223e-05
-3.931007537366639e-05   4.891154212156856e-06   -2.023195666803223e-05
-2.2146434201113033e-05   5.58688650791235e-06   -4.925546466640822e-05
-2.2146434201113033e-05   5.58688650791235e-06   -4.925546466640822e-05
-2.2146434201113033e-05   5.58688650791235e-06   -4.925546466640822e-05
-2.2146434201113033e-05   5.58688650791235e-06   -4.925546466640822e-05
-3.099467152323991e-05   4.9310701326682384e-06   -3.411491263771661e-05
-3.099467152323991e-05   4.9310701326682384e-06   -3.411491263771661e-05
-3.099467152323991e-05   4.9310701326682384e-06   -3.411491263771661e-05
-3.099467152323991e-05   4.9310701326682384e-06   -3.411491263771661e-05
-2.2146434201113033e-05   4.891154212156856e-06   -2.0649396045485752e-05
-2.2146434201113033e-05   4.891154212156856e-06   -2.0649396045485752e-05
-2.2146434201113033e-05   4.891154212156856e-06   -2.0649396045485752e-05
-2.2146434201113033e-05   4.891154212156856e-06   -2.0649396045485752e-05
-3.931007537366639e-05   5.58688650791235e-06   -4.883802528895479e-05
-3.931007537366639e-05   5.58688650791235e-06   -4.883802528895479e-05
-3.931007537366639e-05   5.58688650791235e-06   -4.883802528895479e-05
-3.931007537366639e-05   5.58688650791235e-06   -4.883802528895479e-05
-3.8113833527216154e-05   5.857047341843074e-06   -1.950984238681527e-05
-3.8113833527216154e-05   5.857047341843074e-06   -1.950984238681527e-05
-3.8113833527216154e-05   5.857047341843074e-06   -1.950984238681527e-05
-3.8113833527216154e-05   5.857047341843074e-06   -1.950984238681527e-05
-2.1281238322482376e-05   6.423983225279598e-06   -4.7904329258100474e-05
-2.1281238322482376e-05   6.423983225279598e-06   -4.7904329258100474e-05
-2.1281238322482376e-05   6.423983225279598e-06   -4.7904329258100474e-05
-2.1281238322482376e-05   6.423983225279598e-06   -4.7904329258100474e-05
-2.990120609425877e-05   5.687818353931158e-06   -3.309601738233053e-05
-2.990120609425877e-05   5.687818353931158e-06   -3.309601738233053e-05
-2.990120609425877e-05   5.687818353931158e-06   -3.309601738233053e-05
-2.990120609425877e-05   5.687818353931158e-06   -3.309601738233053e-05
-2.1281238322482376e-05   5.857047341843074e-06   -1.9850003916877396e-05
-2.1281238322482376e-05   5.857047341843074e-06   -1.9850003916877396e-05
-2.1281238322482376e-05   5.857047341843074e-06   -1.9850003916877396e-05
-2.1281238322482376e-05   5.857047341843074e-06   -1.9850003916877396e-05
-3.8113833527216154e-05   6.423983225280032e-06   -4.756416772803843e-05
-3.8113833527216154e-05   6.423983225280032e-06   -4.756416772803843e-05
-3.8113833527216154e-05   6.423983225280032e-06   -4.756416772803843e-05
-3.8113833527216154e-05   6.423983225280032e-06   -4.756416772803843e-05
-3.710298038569363e-05   6.937768637881904e-06   -1.99606944448216e-05
-3.710298038569363e-05   6.937768637881904e-06   -1.99606944448216e-05
-3.710298038569363e-05   6.937768637881904e-06   -1.99606944448216e-05
-3.710298038569363e-05   6.937768637881904e-06   -1.99606944448216e-05
-2.048174749905153e-05   7.350108021465188e-06   -4.79101528860419e-05
-2.048174749905153e-05   7.350108021465188e-06   -4.79101528860419e-05
-2.048174749905153e-05   7.350108021465188e-06   -4.79101528860419e-05
-2.048174749905153e-05   7.350108021465188e-06   -4.79101528860419e-05
-2.922080829152096e-05   6.384885153888457e-06   -3.276591784471389e-05
-2.922080829152096e-05   6.384885153888457e-06   -3.276591784471389e-05
-2.922080829152096e-05   6.384885153888457e-06   -3.276591784471389e-05
-2.922080829152096e-05   6.384885153888457e-06   -3.276591784471389e-05
-4.03912403150265e-05   6.565499300352192e-06   -1.0789240379831201e-05
-4.03912403150265e-05   6.565499300352192e-06   -1.0789240379831201e-05
-4.03912403150265e-05   6.565499300352192e-06   -1.0789240379831201e-05
-4.03912403150265e-05   6.565499300352192e-06   -1.0789240379831201e-05
-5.866276390515075e-05   9.071283455053952e-06   -3.973830920388395e-05
-5.866276390515075e-05   9.071283455053952e-06   -3.973830920388395e-05
-5.866276390515075e-05   9.071283455053952e-06   -3.973830920388395e-05
-5.866276390515075e-05   9.071283455053952e-06   -3.973830920388395e-05
-5.618026485703872e-05   7.67874355235348e-06   -3.43041128397629e-06
-5.618026485703872e-05   7.67874355235348e-06   -3.43041128397629e-06
-5.618026485703872e-05   7.67874355235348e-06   -3.43041128397629e-06
-5.618026485703872e-05   7.67874355235348e-06   -3.43041128397629e-06
-3.931007537366632e-05   1.036274685911132e-05   -3.315779574031806e-05
-3.931007537366632e-05   1.036274685911132e-05   -3.315779574031806e-05
-3.931007537366632e-05   1.036274685911132e-05   -3.315779574031806e-05
-3.931007537366632e-05   1.036274685911132e-05   -3.315779574031806e-05
-4.662532230826456e-05   8.642172679098562e-06   -1.993337300798038e-05
-4.662532230826456e-05   8.642172679098562e-06   -1.993337300798038e-05
-4.662532230826456e-05   8.642172679098562e-06   -1.993337300798038e-05
-4.662532230826456e-05   8.642172679098562e-06   -1.993337300798038e-05
-3.931007537366635e-05   7.678743552353264e-06   -5.0408132680307654e-06
-3.931007537366635e-05   7.678743552353264e-06   -5.0408132680307654e-06
-3.931007537366635e-05   7.678743552353264e-06   -5.0408132680307654e-06
-3.931007537366635e-05   7.678743552353264e-06   -5.0408132680307654e-06
-5.618026485703864e-05   1.0362746859110886e-05   -3.154739375626353e-05
-5.618026485703864e-05   1.0362746859110886e-05   -3.154739375626353e-05
-5.618026485703864e-05   1.0362746859110886e-05   -3.154739375626353e-05
-5.618026485703864e-05   1.0362746859110886e-05   -3.154739375626353e-05
-5.413742188985214e-05   8.077622778895942e-06   -3.5795685005891344e-07
-5.413742188985214e-05   8.077622778895942e-06   -3.5795685005891344e-07
-5.413742188985214e-05   8.077622778895942e-06   -3.5795685005891344e-07
-5.413742188985214e-05   8.077622778895942e-06   -3.5795685005891344e-07
-3.8113833527216154e-05   1.0702409830335487e-05   -2.863880968531564e-05
-3.8113833527216154e-05   1.0702409830335487e-05   -2.863880968531564e-05
-3.8113833527216154e-05   1.0702409830335487e-05   -2.863880968531564e-05
-3.8113833527216154e-05   1.0702409830335487e-05   -2.863880968531564e-05
-4.5779059890086e-05   9.156428120397821e-06   -1.493584338790291e-05
-4.5779059890086e-05   9.156428120397821e-06   -1.493584338790291e-05
-4.5779059890086e-05   9.156428120397821e-06   -1.493584338790291e-05
-4.5779059890086e-05   9.156428120397821e-06   -1.493584338790291e-05
-3.8113833527216154e-05   8.077622778895942e-06   -1.932829080922413e-06
-3.8113833527216154e-05   8.077622778895942e-06   -1.932829080922413e-06
-3.8113833527216154e-05   8.077622778895942e-06   -1.932829080922413e-06
-3.8113833527216154e-05   8.077622778895942e-06   -1.932829080922413e-06
-5.413742188985195e-05   1.0702409830335054e-05   -2.706393745445187e-05
-5.413742188985195e-05   1.0702409830335054e-05   -2.706393745445187e-05
-5.413742188985195e-05   1.0702409830335054e-05   -2.706393745445187e-05
-5.413742188985195e-05   1.0702409830335054e-05   -2.706393745445187e-05
-5.193373031472756e-05   8.583560092936164e-06   3.5435929161766085e-06
-5.193373031472756e-05   8.583560092936164e-06   3.5435929161766085e-06
-5.193373031472756e-05   8.583560092936164e-06   3.5435929161766085e-06
-5.193373031472756e-05   8.583560092936164e-06   3.5435929161766085e-06
-3.71029803856936e-05   1.0995173334582987e-05   -2.262129157720098e-05
-3.71029803856936e-05   1.0995173334582987e-05   -2.262129157720098e-05
-3.71029803856936e-05   1.0995173334582987e-05   -2.262129157720098e-05
-3.71029803856936e-05   1.0995173334582987e-05   -2.262129157720098e-05
-4.370838902536957e-05   9.24040727904717e-06   -1.0559417544420634e-05
-4.370838902536957e-05   9.24040727904717e-06   -1.0559417544420634e-05
-4.370838902536957e-05   9.24040727904717e-06   -1.0559417544420634e-05
-4.370838902536957e-05   9.24040727904717e-06   -1.0559417544420634e-05
5.027244424807368e-05   -7.0105420199432535e-06   9.958861099435695e-06
5.027244424807368e-05   -7.0105420199432535e-06   9.958861099435695e-06
5.027244424807368e-05   -7.0105420199432535e-06   9.958861099435695e-06
5.027244424807368e-05   -7.0105420199432535e-06   9.958861099435695e-06
2.422883482625199e-05   -1.0381776875554184e-05   -3.5469895516967e-05
2.422883482625199e-05   -1.0381776875554184e-05   -3.5469895516967e-05
2.422883482625199e-05   -1.0381776875554184e-05   -3.5469895516967e-05
2.422883482625199e-05   -1.0381776875554184e-05   -3.5469895516967e-05
2.5221429038045808e-05   -6.519734932960812e-06   4.798369344779672e-06
2.5221429038045808e-05   -6.519734932960812e-06   4.798369344779672e-06
2.5221429038045808e-05   -6.519734932960812e-06   4.798369344779672e-06
2.5221429038045808e-05   -6.519734932960812e-06   4.798369344779672e-06
5.257607849332727e-05   -1.0139180530882932e-05   -3.862104572193684e-05
5.257607849332727e-05   -1.0139180530882932e-05   -3.862104572193684e-05
5.257607849332727e-05   -1.0139180530882932e-05   -3.862104572193684e-05
5.257607849332727e-05   -1.0139180530882932e-05   -3.862104572193684e-05
3.652679687466803e-05   -7.676271137577965e-06   -1.3349988660154243e-05
3.652679687466803e-05   -7.676271137577965e-06   -1.3349988660154243e-05
3.652679687466803e-05   -7.676271137577965e-06   -1.3349988660154243e-05
3.652679687466803e-05   -7.676271137577965e-06   -1.3349988660154243e-05
5.257607849332738e-05   -6.519734932960812e-06   6.970036703532543e-06
5.257607849332738e-05   -6.519734932960812e-06   6.970036703532543e-06
5.257607849332738e-05   -6.519734932960812e-06   6.970036703532543e-06
5.257607849332738e-05   -6.519734932960812e-06   6.970036703532543e-06
2.5221429038045753e-05   -1.0139180530882932e-05   -4.0792713080689763e-05
2.5221429038045753e-05   -1.0139180530882932e-05   -4.0792713080689763e-05
2.5221429038045753e-05   -1.0139180530882932e-05   -4.0792713080689763e-05
2.5221429038045753e-05   -1.0139180530882932e-05   -4.0792713080689763e-05
2.620882510916375e-05   -6.098088041420462e-06   2.27398979638126e-06
2.620882510916375e-05   -6.098088041420462e-06   2.27398979638126e-06
2.620882510916375e-05   -6.098088041420462e-06   2.27398979638126e-06
2.620882510916375e-05   -6.098088041420462e-06   2.27398979638126e-06
5.4344408651435126e-05   -9.787225813648846e-06   -4.24051667774004e-05
5.4344408651435126e-05   -9.787225813648846e-06   -4.24051667774004e-05
5.4344408651435126e-05   -9.787225813648846e-06   -4.24051667774004e-05
5.4344408651435126e-05   -9.787225813648846e-06   -4.24051667774004e-05
3.8466771589783054e-05   -7.6509499890875e-06   -1.7224203836050506e-05
3.8466771589783054e-05   -7.6509499890875e-06   -1.7224203836050506e-05
3.8466771589783054e-05   -7.6509499890875e-06   -1.7224203836050506e-05
3.8466771589783054e-05   -7.6509499890875e-06   -1.7224203836050506e-05
5.4344408651435126e-05   -6.098088041420462e-06   4.487472459718605e-06
5.4344408651435126e-05   -6.098088041420462e-06   4.487472459718605e-06
5.4344408651435126e-05   -6.098088041420462e-06   4.487472459718605e-06
5.4344408651435126e-05   -6.098088041420462e-06   4.487472459718605e-06
2.620882510916375e-05   -9.787225813648846e-06   -4.461864944073769e-05
2.620882510916375e-05   -9.787225813648846e-06   -4.461864944073769e-05
2.620882510916375e-05   -9.787225813648846e-06   -4.461864944073769e-05
2.620882510916375e-05   -9.787225813648846e-06   -4.461864944073769e-05
2.6879596380716158e-05   -4.764490132025661e-06   -2.81124546601722e-06
2.6879596380716158e-05   -4.764490132025661e-06   -2.81124546601722e-06
2.6879596380716158e-05   -4.764490132025661e-06   -2.81124546601722e-06
2.6879596380716158e-05   -4.764490132025661e-06   -2.81124546601722e-06
5.621426001976016e-05   -8.414259369418295e-06   -4.951248998865494e-05
5.621426001976016e-05   -8.414259369418295e-06   -4.951248998865494e-05
5.621426001976016e-05   -8.414259369418295e-06   -4.951248998865494e-05
5.621426001976016e-05   -8.414259369418295e-06   -4.951248998865494e-05
3.900980165322796e-05   -7.062996072482262e-06   -2.164915068926347e-05
3.900980165322796e-05   -7.062996072482262e-06   -2.164915068926347e-05
3.900980165322796e-05   -7.062996072482262e-06   -2.164915068926347e-05
3.900980165322796e-05   -7.062996072482262e-06   -2.164915068926347e-05
2.4228834826252045e-05   -3.2839135782371243e-06   -1.2254571334364511e-05
2.4228834826252045e-05   -3.2839135782371243e-06   -1.2254571334364511e-05
2.4228834826252045e-05   -3.2839135782371243e-06   -1.2254571334364511e-05
2.4228834826252045e-05   -3.2839135782371243e-06   -1.2254571334364511e-05
-1.4625985591174527e-06   -6.73031976965166e-06   -5.7141470691495465e-05
-1.4625985591174527e-06   -6.73031976965166e-06   -5.7141470691495465e-05
-1.4625985591174527e-06   -6.73031976965166e-06   -5.7141470691495465e-05
-1.4625985591174527e-06   -6.73031976965166e-06   -5.7141470691495465e-05
-4.4362300658784266e-07   -2.6024359890230823e-06   -1.351119153100884e-05
-4.4362300658784266e-07   -2.6024359890230823e-06   -1.351119153100884e-05
-4.4362300658784266e-07   -2.6024359890230823e-06   -1.351119153100884e-05
-4.4362300658784266e-07   -2.6024359890230823e-06   -1.351119153100884e-05
2.5221429038045808e-05   -6.408461608728953e-06   -5.4002662900241036e-05
2.5221429038045808e-05   -6.408461608728953e-06   -5.4002662900241036e-05
2.5221429038045808e-05   -6.408461608728953e-06   -5.4002662900241036e-05
2.5221429038045808e-05   -6.408461608728953e-06   -5.4002662900241036e-05
1.1921889946381288e-05   -4.071702826803289e-06   -3.3238819683288905e-05
1.1921889946381288e-05   -4.071702826803289e-06   -3.3238819683288905e-05
1.1921889946381288e-05   -4.071702826803289e-06   -3.3238819683288905e-05
1.1921889946381288e-05   -4.071702826803289e-06   -3.3238819683288905e-05
2.522142903804578e-05   -2.6024359890230823e-06   -1.1227576159184672e-05
2.522142903804578e-05   -2.6024359890230823e-06   -1.1227576159184672e-05
2.522142903804578e-05   -2.6024359890230823e-06   -1.1227576159184672e-05
2.522142903804578e-05   -2.6024359890230823e-06   -1.1227576159184672e-05
-4.4362300658784266e-07   -6.408461608728953e-06   -5.6286278272064906e-05
-4.4362300658784266e-07   -6.408461608728953e-06   -5.6286278272064906e-05
-4.4362300658784266e-07   -6.408461608728953e-06   -5.6286278272064906e-05
-4.4362300658784266e-07   -6.408461608728953e-06   -5.6286278272064906e-05
4.5418979980984034e-07   -1.7694014137147572e-06   -1.3830356566630437e-05
4.5418979980984034e-07   -1.7694014137147572e-06   -1.3830356566630437e-05
4.5418979980984034e-07   -1.7694014137147572e-06   -1.3830356566630437e-05
4.5418979980984034e-07   -1.7694014137147572e-06   -1.3830356566630437e-05
2.620882510916375e-05   -5.808975220879253e-06   -5.433100446458855e-05
2.620882510916375e-05   -5.808975220879253e-06   -5.433100446458855e-05
2.620882510916375e-05   -5.808975220879253e-06   -5.433100446458855e-05
2.620882510916375e-05   -5.808975220879253e-06   -5.433100446458855e-05
1.2615732235040722e-05   -3.7380213078871873e-06   -3.291842202217811e-05
1.2615732235040722e-05   -3.7380213078871873e-06   -3.291842202217811e-05
1.2615732235040722e-05   -3.7380213078871873e-06   -3.291842202217811e-05
1.2615732235040722e-05   -3.7380213078871873e-06   -3.291842202217811e-05
2.620882510916375e-05   -1.7694014137147572e-06   -1.1406612282331951e-05
2.620882510916375e-05   -1.7694014137147572e-06   -1.1406612282331951e-05
2.620882510916375e-05   -1.7694014137147572e-06   -1.1406612282331951e-05
2.620882510916375e-05   -1.7694014137147572e-06   -1.1406612282331951e-05
4.5418979980986745e-07   -5.808975220879253e-06   -5.675474874888733e-05
4.5418979980986745e-07   -5.808975220879253e-06   -5.675474874888733e-05
4.5418979980986745e-07   -5.808975220879253e-06   -5.675474874888733e-05
4.5418979980986745e-07   -5.808975220879253e-06   -5.675474874888733e-05
1.0935106331013658e-06   -7.213022598932979e-07   -1.4375961845851078e-05
1.0935106331013658e-06   -7.213022598932979e-07   -1.4375961845851078e-05
1.0935106331013658e-06   -7.213022598932979e-07   -1.4375961845851078e-05
1.0935106331013658e-06   -7.213022598932979e-07   -1.4375961845851078e-05
2.6879596380716212e-05   -4.956061743459708e-06   -5.4811915735069466e-05
2.6879596380716212e-05   -4.956061743459708e-06   -5.4811915735069466e-05
2.6879596380716212e-05   -4.956061743459708e-06   -5.4811915735069466e-05
2.6879596380716212e-05   -4.956061743459708e-06   -5.4811915735069466e-05
1.3445989424990619e-05   -3.149869678232241e-06   -3.3506286047997234e-05
1.3445989424990619e-05   -3.149869678232241e-06   -3.3506286047997234e-05
1.3445989424990619e-05   -3.149869678232241e-06   -3.3506286047997234e-05
1.3445989424990619e-05   -3.149869678232241e-06   -3.3506286047997234e-05
-1.4625985591174527e-06   5.960865089860157e-07   -1.8649702816053528e-05
-1.4625985591174527e-06   5.960865089860157e-07   -1.8649702816053528e-05
-1.4625985591174527e-06   5.960865089860157e-07   -1.8649702816053528e-05
-1.4625985591174527e-06   5.960865089860157e-07   -1.8649702816053528e-05
-2.6774498299743087e-05   -3.538058946120099e-06   -6.331668965682698e-05
-2.6774498299743087e-05   -3.538058946120099e-06   -6.331668965682698e-05
-2.6774498299743087e-05   -3.538058946120099e-06   -6.331668965682698e-05
-2.6774498299743087e-05   -3.538058946120099e-06   -6.331668965682698e-05
-2.555195160152558e-05   1.3614469644269121e-06   -2.028087750876391e-05
-2.555195160152558e-05   1.3614469644269121e-06   -2.028087750876391e-05
-2.555195160152558e-05   1.3614469644269121e-06   -2.028087750876391e-05
-2.555195160152558e-05   1.3614469644269121e-06   -2.028087750876391e-05
-4.4362300658784266e-07   -3.1589399936914585e-06   -5.9415859658789195e-05
-4.4362300658784266e-07   -3.1589399936914585e-06   -5.9415859658789195e-05
-4.4362300658784266e-07   -3.1589399936914585e-06   -5.9415859658789195e-05
-4.4362300658784266e-07   -3.1589399936914585e-06   -5.9415859658789195e-05
-1.3397040854585523e-05   -6.86751689818639e-07   -3.9310142894449936e-05
-1.3397040854585523e-05   -6.86751689818639e-07   -3.9310142894449936e-05
-1.3397040854585523e-05   -6.86751689818639e-07   -3.9310142894449936e-05
-1.3397040854585523e-05   -6.86751689818639e-07   -3.9310142894449936e-05
-4.4362300658784266e-07   1.3614469644269121e-06   -1.756864533389299e-05
-4.4362300658784266e-07   1.3614469644269121e-06   -1.756864533389299e-05
-4.4362300658784266e-07   1.3614469644269121e-06   -1.756864533389299e-05
-4.4362300658784266e-07   1.3614469644269121e-06   -1.756864533389299e-05
-2.555195160152558e-05   -3.1589399936914585e-06   -6.212809183366009e-05
-2.555195160152558e-05   -3.1589399936914585e-06   -6.212809183366009e-05
-2.555195160152558e-05   -3.1589399936914585e-06   -6.212809183366009e-05
-2.555195160152558e-05   -3.1589399936914585e-06   -6.212809183366009e-05
-2.4430323527541178e-05   2.2478110879649467e-06   -1.991807937049483e-05
-2.4430323527541178e-05   2.2478110879649467e-06   -1.991807937049483e-05
-2.4430323527541178e-05   2.2478110879649467e-06   -1.991807937049483e-05
-2.4430323527541178e-05   2.2478110879649467e-06   -1.991807937049483e-05
4.5418979980986745e-07   -2.5683710151553317e-06   -5.850255898754071e-05
4.5418979980986745e-07   -2.5683710151553317e-06   -5.850255898754071e-05
4.5418979980986745e-07   -2.5683710151553317e-06   -5.850255898754071e-05
4.5418979980986745e-07   -2.5683710151553317e-06   -5.850255898754071e-05
-1.2401218372683873e-05   -2.525518220295418e-07   -3.846637021592684e-05
-1.2401218372683873e-05   -2.525518220295418e-07   -3.846637021592684e-05
-1.2401218372683873e-05   -2.525518220295418e-07   -3.846637021592684e-05
-1.2401218372683873e-05   -2.525518220295418e-07   -3.846637021592684e-05
4.5418979980986745e-07   2.2478110879649467e-06   -1.7028370108622434e-05
4.5418979980986745e-07   2.2478110879649467e-06   -1.7028370108622434e-05
4.5418979980986745e-07   2.2478110879649467e-06   -1.7028370108622434e-05
4.5418979980986745e-07   2.2478110879649467e-06   -1.7028370108622434e-05
-2.4430323527541178e-05   -2.5683710151557654e-06   -6.139226824941309e-05
-2.4430323527541178e-05   -2.5683710151557654e-06   -6.139226824941309e-05
-2.4430323527541178e-05   -2.5683710151557654e-06   -6.139226824941309e-05
-2.4430323527541178e-05   -2.5683710151557654e-06   -6.139226824941309e-05
-2.3674028990357692e-05   3.1638506533117165e-06   -2.0263189782189278e-05
-2.3674028990357692e-05   3.1638506533117165e-06   -2.0263189782189278e-05
-2.3674028990357692e-05   3.1638506533117165e-06   -2.0263189782189278e-05
-2.3674028990357692e-05   3.1638506533117165e-06   -2.0263189782189278e-05
1.0935106331013658e-06   -2.008392212590488e-06   -5.8439076768413e-05
1.0935106331013658e-06   -2.008392212590488e-06   -5.8439076768413e-05
1.0935106331013658e-06   -2.008392212590488e-06   -5.8439076768413e-05
1.0935106331013658e-06   -2.008392212590488e-06   -5.8439076768413e-05
-1.1690858643857314e-05   2.3497849984126414e-07   -3.84778170676081e-05
-1.1690858643857314e-05   2.3497849984126414e-07   -3.84778170676081e-05
-1.1690858643857314e-05   2.3497849984126414e-07   -3.84778170676081e-05
-1.1690858643857314e-05   2.3497849984126414e-07   -3.84778170676081e-05
-2.6774498299743087e-05   4.6148868544457905e-06   -1.5224134787861514e-05
-2.6774498299743087e-05   4.6148868544457905e-06   -1.5224134787861514e-05
-2.6774498299743087e-05   4.6148868544457905e-06   -1.5224134787861514e-05
-2.6774498299743087e-05   4.6148868544457905e-06   -1.5224134787861514e-05
-5.2438795510803825e-05   8.894684213993365e-07   -6.0233214532790435e-05
-5.2438795510803825e-05   8.894684213993365e-07   -6.0233214532790435e-05
-5.2438795510803825e-05   8.894684213993365e-07   -6.0233214532790435e-05
-5.2438795510803825e-05   8.894684213993365e-07   -6.0233214532790435e-05
-5.069840472841521e-05   5.58688650791235e-06   -1.6225887970522553e-05
-5.069840472841521e-05   5.58688650791235e-06   -1.6225887970522553e-05
-5.069840472841521e-05   5.58688650791235e-06   -1.6225887970522553e-05
-5.069840472841521e-05   5.58688650791235e-06   -1.6225887970522553e-05
-2.555195160152558e-05   1.5910462968114422e-06   -5.5739139055344675e-05
-2.555195160152558e-05   1.5910462968114422e-06   -5.5739139055344675e-05
-2.555195160152558e-05   1.5910462968114422e-06   -5.5739139055344675e-05
-2.555195160152558e-05   1.5910462968114422e-06   -5.5739139055344675e-05
-3.84622857792493e-05   3.504520876656571e-06   -3.537000017371202e-05
-3.84622857792493e-05   3.504520876656571e-06   -3.537000017371202e-05
-3.84622857792493e-05   3.504520876656571e-06   -3.537000017371202e-05
-3.84622857792493e-05   3.504520876656571e-06   -3.537000017371202e-05
-2.555195160152558e-05   5.58688650791235e-06   -1.3828383843861793e-05
-2.555195160152558e-05   5.58688650791235e-06   -1.3828383843861793e-05
-2.555195160152558e-05   5.58688650791235e-06   -1.3828383843861793e-05
-2.555195160152558e-05   5.58688650791235e-06   -1.3828383843861793e-05
-5.06984047284153e-05   1.5910462968114422e-06   -5.8136643182004916e-05
-5.06984047284153e-05   1.5910462968114422e-06   -5.8136643182004916e-05
-5.06984047284153e-05   1.5910462968114422e-06   -5.8136643182004916e-05
-5.06984047284153e-05   1.5910462968114422e-06   -5.8136643182004916e-05
-4.9016156721528285e-05   6.423983225279598e-06   -1.4782151972142195e-05
-4.9016156721528285e-05   6.423983225279598e-06   -1.4782151972142195e-05
-4.9016156721528285e-05   6.423983225279598e-06   -1.4782151972142195e-05
-4.9016156721528285e-05   6.423983225279598e-06   -1.4782151972142195e-05
-2.443032352754122e-05   2.2369513397249574e-06   -5.324632149745459e-05
-2.443032352754122e-05   2.2369513397249574e-06   -5.324632149745459e-05
-2.443032352754122e-05   2.2369513397249574e-06   -5.324632149745459e-05
-2.443032352754122e-05   2.2369513397249574e-06   -5.324632149745459e-05
-3.688960340771132e-05   4.114931554652368e-06   -3.360764315946086e-05
-3.688960340771132e-05   4.114931554652368e-06   -3.360764315946086e-05
-3.688960340771132e-05   4.114931554652368e-06   -3.360764315946086e-05
-3.688960340771132e-05   4.114931554652368e-06   -3.360764315946086e-05
-2.4430323527541178e-05   6.423983225279598e-06   -1.2269932840809319e-05
-2.4430323527541178e-05   6.423983225279598e-06   -1.2269932840809319e-05
-2.4430323527541178e-05   6.423983225279598e-06   -1.2269932840809319e-05
-2.4430323527541178e-05   6.423983225279598e-06   -1.2269932840809319e-05
-4.9016156721528367e-05   2.2369513397249574e-06   -5.575854062878777e-05
-4.9016156721528367e-05   2.2369513397249574e-06   -5.575854062878777e-05
-4.9016156721528367e-05   2.2369513397249574e-06   -5.575854062878777e-05
-4.9016156721528367e-05   2.2369513397249574e-06   -5.575854062878777e-05
-4.773979567107166e-05   7.350108021465622e-06   -1.482863748407631e-05
-4.773979567107166e-05   7.350108021465622e-06   -1.482863748407631e-05
-4.773979567107166e-05   7.350108021465622e-06   -1.482863748407631e-05
-4.773979567107166e-05   7.350108021465622e-06   -1.482863748407631e-05
-2.3674028990357726e-05   2.7834439121983585e-06   -5.2198250153039603e-05
-2.3674028990357726e-05   2.7834439121983585e-06   -5.2198250153039603e-05
-2.3674028990357726e-05   2.7834439121983585e-06   -5.2198250153039603e-05
-2.3674028990357726e-05   2.7834439121983585e-06   -5.2198250153039603e-05
-3.600807737769354e-05   4.54095224950205e-06   -3.2696007843195955e-05
-3.600807737769354e-05   4.54095224950205e-06   -3.2696007843195955e-05
-3.600807737769354e-05   4.54095224950205e-06   -3.2696007843195955e-05
-3.600807737769354e-05   4.54095224950205e-06   -3.2696007843195955e-05
-5.2438795510803825e-05   9.071283455054386e-06   -8.735594953433582e-06
-5.2438795510803825e-05   9.071283455054386e-06   -8.735594953433582e-06
-5.2438795510803825e-05   9.071283455054386e-06   -8.735594953433582e-06
-5.2438795510803825e-05   9.071283455054386e-06   -8.735594953433582e-06
-7.925101169813914e-05   8.562355015039654e-06   -5.372797899633533e-05
-7.925101169813914e-05   8.562355015039654e-06   -5.372797899633533e-05
-7.925101169813914e-05   8.562355015039654e-06   -5.372797899633533e-05
-7.925101169813914e-05   8.562355015039654e-06   -5.372797899633533e-05
-7.581905295166939e-05   1.0362746859110886e-05   -2.5841551940354937e-07
-7.581905295166939e-05   1.0362746859110886e-05   -2.5841551940354937e-07
-7.581905295166939e-05   1.0362746859110886e-05   -2.5841551940354937e-07
-7.581905295166939e-05   1.0362746859110886e-05   -2.5841551940354937e-07
-5.069840472841513e-05   1.0841485029914385e-05   -4.241340546064297e-05
-5.069840472841513e-05   1.0841485029914385e-05   -4.241340546064297e-05
-5.069840472841513e-05   1.0841485029914385e-05   -4.241340546064297e-05
-5.069840472841513e-05   1.0841485029914385e-05   -4.241340546064297e-05
-6.176782690009254e-05   1.022272765448533e-05   -2.359311408258976e-05
-6.176782690009254e-05   1.022272765448533e-05   -2.359311408258976e-05
-6.176782690009254e-05   1.022272765448533e-05   -2.359311408258976e-05
-6.176782690009254e-05   1.022272765448533e-05   -2.359311408258976e-05
-5.069840472841526e-05   1.0362746859110886e-05   -5.456584218860121e-07
-5.069840472841526e-05   1.0362746859110886e-05   -5.456584218860121e-07
-5.069840472841526e-05   1.0362746859110886e-05   -5.456584218860121e-07
-5.069840472841526e-05   1.0362746859110886e-05   -5.456584218860121e-07
-7.581905295166925e-05   1.0841485029914385e-05   -4.2126162558160695e-05
-7.581905295166925e-05   1.0841485029914385e-05   -4.2126162558160695e-05
-7.581905295166925e-05   1.0841485029914385e-05   -4.2126162558160695e-05
-7.581905295166925e-05   1.0841485029914385e-05   -4.2126162558160695e-05
-7.297239855630389e-05   1.0702409830335487e-05   4.533919309699904e-06
-7.297239855630389e-05   1.0702409830335487e-05   4.533919309699904e-06
-7.297239855630389e-05   1.0702409830335487e-05   4.533919309699904e-06
-7.297239855630389e-05   1.0702409830335487e-05   4.533919309699904e-06
-4.9016156721528285e-05   1.1353598562201077e-05   -3.5783863654045584e-05
-4.9016156721528285e-05   1.1353598562201077e-05   -3.5783863654045584e-05
-4.9016156721528285e-05   1.1353598562201077e-05   -3.5783863654045584e-05
-4.9016156721528285e-05   1.1353598562201077e-05   -3.5783863654045584e-05
-6.0467412340318034e-05   1.0965589504262829e-05   -1.6465632187965726e-05
-6.0467412340318034e-05   1.0965589504262829e-05   -1.6465632187965726e-05
-6.0467412340318034e-05   1.0965589504262829e-05   -1.6465632187965726e-05
-6.0467412340318034e-05   1.0965589504262829e-05   -1.6465632187965726e-05
-4.9016156721528367e-05   1.0702409830335487e-05   4.143206070580485e-06
-4.9016156721528367e-05   1.0702409830335487e-05   4.143206070580485e-06
-4.9016156721528367e-05   1.0702409830335487e-05   4.143206070580485e-06
-4.9016156721528367e-05   1.0702409830335487e-05   4.143206070580485e-06
-7.297239855630401e-05   1.1353598562201077e-05   -3.539315041492606e-05
-7.297239855630401e-05   1.1353598562201077e-05   -3.539315041492606e-05
-7.297239855630401e-05   1.1353598562201077e-05   -3.539315041492606e-05
-7.297239855630401e-05   1.1353598562201077e-05   -3.539315041492606e-05
-6.999542909632143e-05   1.0995173334582987e-05   1.095597473374033e-05
-6.999542909632143e-05   1.0995173334582987e-05   1.095597473374033e-05
-6.999542909632143e-05   1.0995173334582987e-05   1.095597473374033e-05
-6.999542909632143e-05   1.0995173334582987e-05   1.095597473374033e-05
-4.77397956710717e-05   1.2233764233126818e-05   -2.687990218080234e-05
-4.77397956710717e-05   1.2233764233126818e-05   -2.687990218080234e-05
-4.77397956710717e-05   1.2233764233126818e-05   -2.687990218080234e-05
-4.77397956710717e-05   1.2233764233126818e-05   -2.687990218080234e-05
-5.759398079652171e-05   1.1215509600637913e-05   -9.845307525560218e-06
-5.759398079652171e-05   1.1215509600637913e-05   -9.845307525560218e-06
-5.759398079652171e-05   1.1215509600637913e-05   -9.845307525560218e-06
-5.759398079652171e-05   1.1215509600637913e-05   -9.845307525560218e-06
6.911485445610947e-05   -1.0381776875554184e-05   2.3572088423318605e-05
6.911485445610947e-05   -1.0381776875554184e-05   2.3572088423318605e-05
6.911485445610947e-05   -1.0381776875554184e-05   2.3572088423318605e-05
6.911485445610947e-05   -1.0381776875554184e-05   2.3572088423318605e-05
3.474334606167072e-05   -1.3130406431336589e-05   -3.536293663421522e-05
3.474334606167072e-05   -1.3130406431336589e-05   -3.536293663421522e-05
3.474334606167072e-05   -1.3130406431336589e-05   -3.536293663421522e-05
3.474334606167072e-05   -1.3130406431336589e-05   -3.536293663421522e-05
3.559292580579282e-05   -1.0139180530882932e-05   1.690674960951803e-05
3.559292580579282e-05   -1.0139180530882932e-05   1.690674960951803e-05
3.559292580579282e-05   -1.0139180530882932e-05   1.690674960951803e-05
3.559292580579282e-05   -1.0139180530882932e-05   1.690674960951803e-05
7.083801876857148e-05   -1.3458870557782592e-05   -3.9843257978972946e-05
7.083801876857148e-05   -1.3458870557782592e-05   -3.9843257978972946e-05
7.083801876857148e-05   -1.3458870557782592e-05   -3.9843257978972946e-05
7.083801876857148e-05   -1.3458870557782592e-05   -3.9843257978972946e-05
5.0478230345829555e-05   -1.0604761644936785e-05   -7.622742622110713e-06
5.0478230345829555e-05   -1.0604761644936785e-05   -7.622742622110713e-06
5.0478230345829555e-05   -1.0604761644936785e-05   -7.622742622110713e-06
5.0478230345829555e-05   -1.0604761644936785e-05   -7.622742622110713e-06
7.083801876857148e-05   -1.0139180530882932e-05   1.8898563625658346e-05
7.083801876857148e-05   -1.0139180530882932e-05   1.8898563625658346e-05
7.083801876857148e-05   -1.0139180530882932e-05   1.8898563625658346e-05
7.083801876857148e-05   -1.0139180530882932e-05   1.8898563625658346e-05
3.559292580579282e-05   -1.3458870557782592e-05   -4.183507199511326e-05
3.559292580579282e-05   -1.3458870557782592e-05   -4.183507199511326e-05
3.559292580579282e-05   -1.3458870557782592e-05   -4.183507199511326e-05
3.559292580579282e-05   -1.3458870557782592e-05   -4.183507199511326e-05
3.6311046595695454e-05   -9.787225813648846e-06   1.3339384067004995e-05
3.6311046595695454e-05   -9.787225813648846e-06   1.3339384067004995e-05
3.6311046595695454e-05   -9.787225813648846e-06   1.3339384067004995e-05
3.6311046595695454e-05   -9.787225813648846e-06   1.3339384067004995e-05
7.191198311338117e-05   -1.333707708705157e-05   -4.386559936509632e-05
7.191198311338117e-05   -1.333707708705157e-05   -4.386559936509632e-05
7.191198311338117e-05   -1.333707708705157e-05   -4.386559936509632e-05
7.191198311338117e-05   -1.333707708705157e-05   -4.386559936509632e-05
5.225838542717614e-05   -1.093988820737306e-05   -1.2547916549228238e-05
5.225838542717614e-05   -1.093988820737306e-05   -1.2547916549228238e-05
5.225838542717614e-05   -1.093988820737306e-05   -1.2547916549228238e-05
5.225838542717614e-05   -1.093988820737306e-05   -1.2547916549228238e-05
7.191198311338117e-05   -9.787225813648846e-06   1.5469294831046347e-05
7.191198311338117e-05   -9.787225813648846e-06   1.5469294831046347e-05
7.191198311338117e-05   -9.787225813648846e-06   1.5469294831046347e-05
7.191198311338117e-05   -9.787225813648846e-06   1.5469294831046347e-05
3.6311046595695454e-05   -1.333707708705157e-05   -4.599551012913778e-05
3.6311046595695454e-05   -1.333707708705157e-05   -4.599551012913778e-05
3.6311046595695454e-05   -1.333707708705157e-05   -4.599551012913778e-05
3.6311046595695454e-05   -1.333707708705157e-05   -4.599551012913778e-05
3.7061420114379255e-05   -8.414259369417861e-06   6.4166393326191545e-06
3.7061420114379255e-05   -8.414259369417861e-06   6.4166393326191545e-06
3.7061420114379255e-05   -8.414259369417861e-06   6.4166393326191545e-06
3.7061420114379255e-05   -8.414259369417861e-06   6.4166393326191545e-06
7.296946000697659e-05   -1.2595519040153099e-05   -5.092133801926839e-05
7.296946000697659e-05   -1.2595519040153099e-05   -5.092133801926839e-05
7.296946000697659e-05   -1.2595519040153099e-05   -5.092133801926839e-05
7.296946000697659e-05   -1.2595519040153099e-05   -5.092133801926839e-05
5.228496070264617e-05   -1.052867519790615e-05   -1.768727881739946e-05
5.228496070264617e-05   -1.052867519790615e-05   -1.768727881739946e-05
5.228496070264617e-05   -1.052867519790615e-05   -1.768727881739946e-05
5.228496070264617e-05   -1.052867519790615e-05   -1.768727881739946e-05
3.474334606167072e-05   -6.73031976965166e-06   2.3191792301692287e-06
3.474334606167072e-05   -6.73031976965166e-06   2.3191792301692287e-06
3.474334606167072e-05   -6.73031976965166e-06   2.3191792301692287e-06
3.474334606167072e-05   -6.73031976965166e-06   2.3191792301692287e-06
4.128164898015949e-06   -1.3179457458204445e-05   -5.257560532238685e-05
4.128164898015949e-06   -1.3179457458204445e-05   -5.257560532238685e-05
4.128164898015949e-06   -1.3179457458204445e-05   -5.257560532238685e-05
4.128164898015949e-06   -1.3179457458204445e-05   -5.257560532238685e-05
5.118415518231206e-06   -6.40846160872852e-06   -3.2531346497188286e-07
5.118415518231206e-06   -6.40846160872852e-06   -3.2531346497188286e-07
5.118415518231206e-06   -6.40846160872852e-06   -3.2531346497188286e-07
5.118415518231206e-06   -6.40846160872852e-06   -3.2531346497188286e-07
3.5592925805792876e-05   -1.3111983700294077e-05   -4.7094050689302494e-05
3.5592925805792876e-05   -1.3111983700294077e-05   -4.7094050689302494e-05
3.5592925805792876e-05   -1.3111983700294077e-05   -4.7094050689302494e-05
3.5592925805792876e-05   -1.3111983700294077e-05   -4.7094050689302494e-05
1.997335549686806e-05   -8.891119898799893e-06   -2.3593951788657467e-05
1.997335549686806e-05   -8.891119898799893e-06   -2.3593951788657467e-05
1.997335549686806e-05   -8.891119898799893e-06   -2.3593951788657467e-05
1.997335549686806e-05   -8.891119898799893e-06   -2.3593951788657467e-05
3.5592925805792795e-05   -6.40846160872852e-06   3.6967997899668118e-06
3.5592925805792795e-05   -6.40846160872852e-06   3.6967997899668118e-06
3.5592925805792795e-05   -6.40846160872852e-06   3.6967997899668118e-06
3.5592925805792795e-05   -6.40846160872852e-06   3.6967997899668118e-06
5.118415518231206e-06   -1.3111983700294077e-05   -5.1116163944241134e-05
5.118415518231206e-06   -1.3111983700294077e-05   -5.1116163944241134e-05
5.118415518231206e-06   -1.3111983700294077e-05   -5.1116163944241134e-05
5.118415518231206e-06   -1.3111983700294077e-05   -5.1116163944241134e-05
6.012288610449053e-06   -5.808975220879253e-06   -6.492846829730774e-07
6.012288610449053e-06   -5.808975220879253e-06   -6.492846829730774e-07
6.012288610449053e-06   -5.808975220879253e-06   -6.492846829730774e-07
6.012288610449053e-06   -5.808975220879253e-06   -6.492846829730774e-07
3.6311046595695454e-05   -1.2936164764424177e-05   -4.687090093225682e-05
3.6311046595695454e-05   -1.2936164764424177e-05   -4.687090093225682e-05
3.6311046595695454e-05   -1.2936164764424177e-05   -4.687090093225682e-05
3.6311046595695454e-05   -1.2936164764424177e-05   -4.687090093225682e-05
2.053573839187376e-05   -8.989153208233906e-06   -2.2946927526267306e-05
2.053573839187376e-05   -8.989153208233906e-06   -2.2946927526267306e-05
2.053573839187376e-05   -8.989153208233906e-06   -2.2946927526267306e-05
2.053573839187376e-05   -8.989153208233906e-06   -2.2946927526267306e-05
3.6311046595695454e-05   -5.808975220879253e-06   3.627029043153947e-06
3.6311046595695454e-05   -5.808975220879253e-06   3.627029043153947e-06
3.6311046595695454e-05   -5.808975220879253e-06   3.627029043153947e-06
3.6311046595695454e-05   -5.808975220879253e-06   3.627029043153947e-06
6.012288610449053e-06   -1.2936164764424177e-05   -5.114721465838382e-05
6.012288610449053e-06   -1.2936164764424177e-05   -5.114721465838382e-05
6.012288610449053e-06   -1.2936164764424177e-05   -5.114721465838382e-05
6.012288610449053e-06   -1.2936164764424177e-05   -5.114721465838382e-05
7.346313496306585e-06   -4.956061743460142e-06   -1.27015967033863e-06
7.346313496306585e-06   -4.956061743460142e-06   -1.27015967033863e-06
7.346313496306585e-06   -4.956061743460142e-06   -1.27015967033863e-06
7.346313496306585e-06   -4.956061743460142e-06   -1.27015967033863e-06
3.706142011437923e-05   -1.2584786408425305e-05   -4.621810256814733e-05
3.706142011437923e-05   -1.2584786408425305e-05   -4.621810256814733e-05
3.706142011437923e-05   -1.2584786408425305e-05   -4.621810256814733e-05
3.706142011437923e-05   -1.2584786408425305e-05   -4.621810256814733e-05
2.1607776380728626e-05   -8.849887784323496e-06   -2.2702968853190696e-05
2.1607776380728626e-05   -8.849887784323496e-06   -2.2702968853190696e-05
2.1607776380728626e-05   -8.849887784323496e-06   -2.2702968853190696e-05
2.1607776380728626e-05   -8.849887784323496e-06   -2.2702968853190696e-05
4.128164898015949e-06   -3.538058946120099e-06   -5.245035075229743e-06
4.128164898015949e-06   -3.538058946120099e-06   -5.245035075229743e-06
4.128164898015949e-06   -3.538058946120099e-06   -5.245035075229743e-06
4.128164898015949e-06   -3.538058946120099e-06   -5.245035075229743e-06
-2.6170703398387322e-05   -1.59062756741918e-05   -6.316407893941153e-05
-2.6170703398387322e-05   -1.59062756741918e-05   -6.316407893941153e-05
-2.6170703398387322e-05   -1.59062756741918e-05   -6.316407893941153e-05
-2.6170703398387322e-05   -1.59062756741918e-05   -6.316407893941153e-05
-2.4628261156824026e-05   -3.158939993691892e-06   -1.1314532139241858e-05
-2.4628261156824026e-05   -3.158939993691892e-06   -1.1314532139241858e-05
-2.4628261156824026e-05   -3.158939993691892e-06   -1.1314532139241858e-05
-2.4628261156824026e-05   -3.158939993691892e-06   -1.1314532139241858e-05
5.118415518231206e-06   -1.6258335472933618e-05   -5.3032689310121735e-05
5.118415518231206e-06   -1.6258335472933618e-05   -5.3032689310121735e-05
5.118415518231206e-06   -1.6258335472933618e-05   -5.3032689310121735e-05
5.118415518231206e-06   -1.6258335472933618e-05   -5.3032689310121735e-05
-1.0038028330824111e-05   -8.99535757486027e-06   -3.2129736300540385e-05
-1.0038028330824111e-05   -8.99535757486027e-06   -3.2129736300540385e-05
-1.0038028330824111e-05   -8.99535757486027e-06   -3.2129736300540385e-05
-1.0038028330824111e-05   -8.99535757486027e-06   -3.2129736300540385e-05
5.118415518231206e-06   -3.158939993691892e-06   -3.4548948516963617e-06
5.118415518231206e-06   -3.158939993691892e-06   -3.4548948516963617e-06
5.118415518231206e-06   -3.158939993691892e-06   -3.4548948516963617e-06
5.118415518231206e-06   -3.158939993691892e-06   -3.4548948516963617e-06
-2.4628261156824053e-05   -1.6258335472933618e-05   -6.0892326597667204e-05
-2.4628261156824053e-05   -1.6258335472933618e-05   -6.0892326597667204e-05
-2.4628261156824053e-05   -1.6258335472933618e-05   -6.0892326597667204e-05
-2.4628261156824053e-05   -1.6258335472933618e-05   -6.0892326597667204e-05
-2.3299175840182755e-05   -2.5683710151557654e-06   -1.0565646152724565e-05
-2.3299175840182755e-05   -2.5683710151557654e-06   -1.0565646152724565e-05
-2.3299175840182755e-05   -2.5683710151557654e-06   -1.0565646152724565e-05
-2.3299175840182755e-05   -2.5683710151557654e-06   -1.0565646152724565e-05
6.012288610449053e-06   -1.6182623066985594e-05   -5.1249535672679564e-05
6.012288610449053e-06   -1.6182623066985594e-05   -5.1249535672679564e-05
6.012288610449053e-06   -1.6182623066985594e-05   -5.1249535672679564e-05
6.012288610449053e-06   -1.6182623066985594e-05   -5.1249535672679564e-05
-8.942717632801813e-06   -9.199455277985767e-06   -3.0514425940661363e-05
-8.942717632801813e-06   -9.199455277985767e-06   -3.0514425940661363e-05
-8.942717632801813e-06   -9.199455277985767e-06   -3.0514425940661363e-05
-8.942717632801813e-06   -9.199455277985767e-06   -3.0514425940661363e-05
6.012288610449053e-06   -2.5683710151557654e-06   -2.3970949216265325e-06
6.012288610449053e-06   -2.5683710151557654e-06   -2.3970949216265325e-06
6.012288610449053e-06   -2.5683710151557654e-06   -2.3970949216265325e-06
6.012288610449053e-06   -2.5683710151557654e-06   -2.3970949216265325e-06
-2.3299175840182836e-05   -1.6182623066985594e-05   -5.941808690377768e-05
-2.3299175840182836e-05   -1.6182623066985594e-05   -5.941808690377768e-05
-2.3299175840182836e-05   -1.6182623066985594e-05   -5.941808690377768e-05
-2.3299175840182836e-05   -1.6182623066985594e-05   -5.941808690377768e-05
-2.1006060821115405e-05   -2.008392212590488e-06   -1.0520778407700033e-05
-2.1006060821115405e-05   -2.008392212590488e-06   -1.0520778407700033e-05
-2.1006060821115405e-05   -2.008392212590488e-06   -1.0520778407700033e-05
-2.1006060821115405e-05   -2.008392212590488e-06   -1.0520778407700033e-05
7.346313496306585e-06   -1.5615581202852846e-05   -4.961042220924614e-05
7.346313496306585e-06   -1.5615581202852846e-05   -4.961042220924614e-05
7.346313496306585e-06   -1.5615581202852846e-05   -4.961042220924614e-05
7.346313496306585e-06   -1.5615581202852846e-05   -4.961042220924614e-05
-7.5193383019706185e-06   -8.995750639385859e-06   -2.8806234216864038e-05
-7.5193383019706185e-06   -8.995750639385859e-06   -2.8806234216864038e-05
-7.5193383019706185e-06   -8.995750639385859e-06   -2.8806234216864038e-05
-7.5193383019706185e-06   -8.995750639385859e-06   -2.8806234216864038e-05
-2.6170703398387268e-05   8.894684213989028e-07   -7.34723892820854e-06
-2.6170703398387268e-05   8.894684213989028e-07   -7.34723892820854e-06
-2.6170703398387268e-05   8.894684213989028e-07   -7.34723892820854e-06
-2.6170703398387268e-05   8.894684213989028e-07   -7.34723892820854e-06
-5.99773077873337e-05   -1.983978258540296e-05   -7.612913018053354e-05
-5.99773077873337e-05   -1.983978258540296e-05   -7.612913018053354e-05
-5.99773077873337e-05   -1.983978258540296e-05   -7.612913018053354e-05
-5.99773077873337e-05   -1.983978258540296e-05   -7.612913018053354e-05
-5.813578128541959e-05   1.591046296811876e-06   -1.917034054373665e-05
-5.813578128541959e-05   1.591046296811876e-06   -1.917034054373665e-05
-5.813578128541959e-05   1.591046296811876e-06   -1.917034054373665e-05
-5.813578128541959e-05   1.591046296811876e-06   -1.917034054373665e-05
-2.4628261156824026e-05   -2.215022234120607e-05   -6.0771446241918896e-05
-2.4628261156824026e-05   -2.215022234120607e-05   -6.0771446241918896e-05
-2.4628261156824026e-05   -2.215022234120607e-05   -6.0771446241918896e-05
-2.4628261156824026e-05   -2.215022234120607e-05   -6.0771446241918896e-05
-4.162015456498807e-05   -1.0093126700822007e-05   -3.968588127920914e-05
-4.162015456498807e-05   -1.0093126700822007e-05   -3.968588127920914e-05
-4.162015456498807e-05   -1.0093126700822007e-05   -3.968588127920914e-05
-4.162015456498807e-05   -1.0093126700822007e-05   -3.968588127920914e-05
-2.4628261156824026e-05   1.591046296811876e-06   -4.925579360926168e-06
-2.4628261156824026e-05   1.591046296811876e-06   -4.925579360926168e-06
-2.4628261156824026e-05   1.591046296811876e-06   -4.925579360926168e-06
-2.4628261156824026e-05   1.591046296811876e-06   -4.925579360926168e-06
-5.813578128541969e-05   -2.215022234120607e-05   -7.501620742472975e-05
-5.813578128541969e-05   -2.215022234120607e-05   -7.501620742472975e-05
-5.813578128541969e-05   -2.215022234120607e-05   -7.501620742472975e-05
-5.813578128541969e-05   -2.215022234120607e-05   -7.501620742472975e-05
-5.637044998125971e-05   2.2369513397249574e-06   -1.712636755252868e-05
-5.637044998125971e-05   2.2369513397249574e-06   -1.712636755252868e-05
-5.637044998125971e-05   2.2369513397249574e-06   -1.712636755252868e-05
-5.637044998125971e-05   2.2369513397249574e-06   -1.712636755252868e-05
-2.329917584018281e-05   -2.2274162246546138e-05   -5.75384896358941e-05
-2.329917584018281e-05   -2.2274162246546138e-05   -5.75384896358941e-05
-2.329917584018281e-05   -2.2274162246546138e-05   -5.75384896358941e-05
-2.329917584018281e-05   -2.2274162246546138e-05   -5.75384896358941e-05
-3.9824594848775e-05   -1.0127660008808206e-05   -3.728402596421662e-05
-3.9824594848775e-05   -1.0127660008808206e-05   -3.728402596421662e-05
-3.9824594848775e-05   -1.0127660008808206e-05   -3.728402596421662e-05
-3.9824594848775e-05   -1.0127660008808206e-05   -3.728402596421662e-05
-2.329917584018281e-05   2.2369513397249574e-06   -2.4196994007659586e-06
-2.329917584018281e-05   2.2369513397249574e-06   -2.4196994007659586e-06
-2.329917584018281e-05   2.2369513397249574e-06   -2.4196994007659586e-06
-2.329917584018281e-05   2.2369513397249574e-06   -2.4196994007659586e-06
-5.637044998125981e-05   -2.2274162246546138e-05   -7.224515778765693e-05
-5.637044998125981e-05   -2.2274162246546138e-05   -7.224515778765693e-05
-5.637044998125981e-05   -2.2274162246546138e-05   -7.224515778765693e-05
-5.637044998125981e-05   -2.2274162246546138e-05   -7.224515778765693e-05
-5.347730901547894e-05   2.7834439121983585e-06   -1.5044528465383731e-05
-5.347730901547894e-05   2.7834439121983585e-06   -1.5044528465383731e-05
-5.347730901547894e-05   2.7834439121983585e-06   -1.5044528465383731e-05
-5.347730901547894e-05   2.7834439121983585e-06   -1.5044528465383731e-05
-2.1006060821115473e-05   -2.0329760075466462e-05   -5.529535306339093e-05
-2.1006060821115473e-05   -2.0329760075466462e-05   -5.529535306339093e-05
-2.1006060821115473e-05   -2.0329760075466462e-05   -5.529535306339093e-05
-2.1006060821115473e-05   -2.0329760075466462e-05   -5.529535306339093e-05
-3.805122694958142e-05   -8.94664736746857e-06   -3.371661047407964e-05
-3.805122694958142e-05   -8.94664736746857e-06   -3.371661047407964e-05
-3.805122694958142e-05   -8.94664736746857e-06   -3.371661047407964e-05
-3.805122694958142e-05   -8.94664736746857e-06   -3.371661047407964e-05
-5.99773077873337e-05   8.562355015039654e-06   -1.2974196931825496e-05
-5.99773077873337e-05   8.562355015039654e-06   -1.2974196931825496e-05
-5.99773077873337e-05   8.562355015039654e-06   -1.2974196931825496e-05
-5.99773077873337e-05   8.562355015039654e-06   -1.2974196931825496e-05
-0.00010327728352272462   0.0   -9.027823616650091e-05
-0.00010327728352272462   0.0   -9.027823616650091e-05
-0.00010327728352272462   0.0   -9.027823616650091e-05
-0.00010327728352272462   0.0   -9.027823616650091e-05
-0.00010058238159632956   1.0841485029914819e-05   -9.95199384032342e-06
-0.00010058238159632956   1.0841485029914819e-05   -9.95199384032342e-06
-0.00010058238159632956   1.0841485029914819e-05   -9.95199384032342e-06
-0.00010058238159632956   1.0841485029914819e-05   -9.95199384032342e-06
-5.813578128541959e-05   0.0   -7.419143667389098e-05
-5.813578128541959e-05   0.0   -7.419143667389098e-05
-5.813578128541959e-05   0.0   -7.419143667389098e-05
-5.813578128541959e-05   0.0   -7.419143667389098e-05
-7.707296337864686e-05   3.3124189509933614e-06   -4.461691788910829e-05
-7.707296337864686e-05   3.3124189509933614e-06   -4.461691788910829e-05
-7.707296337864686e-05   3.3124189509933614e-06   -4.461691788910829e-05
-7.707296337864686e-05   3.3124189509933614e-06   -4.461691788910829e-05
-5.813578128541964e-05   1.0841485029914819e-05   -3.4471028223746273e-06
-5.813578128541964e-05   1.0841485029914819e-05   -3.4471028223746273e-06
-5.813578128541964e-05   1.0841485029914819e-05   -3.4471028223746273e-06
-5.813578128541964e-05   1.0841485029914819e-05   -3.4471028223746273e-06
-0.00010058238159632938   0.0   -8.069632769184014e-05
-0.00010058238159632938   0.0   -8.069632769184014e-05
-0.00010058238159632938   0.0   -8.069632769184014e-05
-0.00010058238159632938   0.0   -8.069632769184014e-05
-9.830287323206026e-05   1.135359856220151e-05   -3.963849715107144e-06
-9.830287323206026e-05   1.135359856220151e-05   -3.963849715107144e-06
-9.830287323206026e-05   1.135359856220151e-05   -3.963849715107144e-06
-9.830287323206026e-05   1.135359856220151e-05   -3.963849715107144e-06
-5.637044998125981e-05   0.0   -6.703906266245429e-05
-5.637044998125981e-05   0.0   -6.703906266245429e-05
-5.637044998125981e-05   0.0   -6.703906266245429e-05
-5.637044998125981e-05   0.0   -6.703906266245429e-05
-7.626913476245907e-05   5.24971800688976e-06   -3.702441883125481e-05
-7.626913476245907e-05   5.24971800688976e-06   -3.702441883125481e-05
-7.626913476245907e-05   5.24971800688976e-06   -3.702441883125481e-05
-7.626913476245907e-05   5.24971800688976e-06   -3.702441883125481e-05
-5.637044998125981e-05   1.1353598562201077e-05   2.848309422213421e-06
-5.637044998125981e-05   1.1353598562201077e-05   2.848309422213421e-06
-5.637044998125981e-05   1.1353598562201077e-05   2.848309422213421e-06
-5.637044998125981e-05   1.1353598562201077e-05   2.848309422213421e-06
-9.830287323206009e-05   0.0   -7.385122179977472e-05
-9.830287323206009e-05   0.0   -7.385122179977472e-05
-9.830287323206009e-05   0.0   -7.385122179977472e-05
-9.830287323206009e-05   0.0   -7.385122179977472e-05
-9.375503943391504e-05   1.2233764233126818e-05   5.673559432537063e-06
-9.375503943391504e-05   1.2233764233126818e-05   5.673559432537063e-06
-9.375503943391504e-05   1.2233764233126818e-05   5.673559432537063e-06
-9.375503943391504e-05   1.2233764233126818e-05   5.673559432537063e-06
-5.347730901547898e-05   0.0   -5.4115732724980495e-05
-5.347730901547898e-05   0.0   -5.4115732724980495e-05
-5.347730901547898e-05   0.0   -5.4115732724980495e-05
-5.347730901547898e-05   0.0   -5.4115732724980495e-05
-7.230062839042134e-05   6.475511080806075e-06   -2.6628840415227105e-05
-7.230062839042134e-05   6.475511080806075e-06   -2.6628840415227105e-05
-7.230062839042134e-05   6.475511080806075e-06   -2.6628840415227105e-05
-7.230062839042134e-05   6.475511080806075e-06   -2.6628840415227105e-05
7.646463340367466e-05   -1.3130406431336589e-05   4.56440150768076e-05
7.646463340367466e-05   -1.3130406431336589e-05   4.56440150768076e-05
7.646463340367466e-05   -1.3130406431336589e-05   4.56440150768076e-05
7.646463340367466e-05   -1.3130406431336589e-05   4.56440150768076e-05
3.967337125170398e-05   -1.0117396433150655e-05   -1.3866949177565287e-05
3.967337125170398e-05   -1.0117396433150655e-05   -1.3866949177565287e-05
3.967337125170398e-05   -1.0117396433150655e-05   -1.3866949177565287e-05
3.967337125170398e-05   -1.0117396433150655e-05   -1.3866949177565287e-05
3.86751003646574e-05   -1.3458870557782592e-05   4.0312854900288395e-05
3.86751003646574e-05   -1.3458870557782592e-05   4.0312854900288395e-05
3.86751003646574e-05   -1.3458870557782592e-05   4.0312854900288395e-05
3.86751003646574e-05   -1.3458870557782592e-05   4.0312854900288395e-05
7.564656239660758e-05   -1.1123821331371006e-05   -2.2707278022142483e-05
7.564656239660758e-05   -1.1123821331371006e-05   -2.2707278022142483e-05
7.564656239660758e-05   -1.1123821331371006e-05   -2.2707278022142483e-05
7.564656239660758e-05   -1.1123821331371006e-05   -2.2707278022142483e-05
5.525741481487451e-05   -1.1313794004738035e-05   1.1388618218099631e-05
5.525741481487451e-05   -1.1313794004738035e-05   1.1388618218099631e-05
5.525741481487451e-05   -1.1313794004738035e-05   1.1388618218099631e-05
5.525741481487451e-05   -1.1313794004738035e-05   1.1388618218099631e-05
7.564656239660758e-05   -1.3458870557782592e-05   3.891182536444116e-05
7.564656239660758e-05   -1.3458870557782592e-05   3.891182536444116e-05
7.564656239660758e-05   -1.3458870557782592e-05   3.891182536444116e-05
7.564656239660758e-05   -1.3458870557782592e-05   3.891182536444116e-05
3.86751003646574e-05   -1.1123821331371006e-05   -2.130624848629514e-05
3.86751003646574e-05   -1.1123821331371006e-05   -2.130624848629514e-05
3.86751003646574e-05   -1.1123821331371006e-05   -2.130624848629514e-05
3.86751003646574e-05   -1.1123821331371006e-05   -2.130624848629514e-05
3.777205570218805e-05   -1.333707708705157e-05   3.6194505940714264e-05
3.777205570218805e-05   -1.333707708705157e-05   3.6194505940714264e-05
3.777205570218805e-05   -1.333707708705157e-05   3.6194505940714264e-05
3.777205570218805e-05   -1.333707708705157e-05   3.6194505940714264e-05
7.470049839993643e-05   -1.1216454733889956e-05   -2.6625271967430086e-05
7.470049839993643e-05   -1.1216454733889956e-05   -2.6625271967430086e-05
7.470049839993643e-05   -1.1216454733889956e-05   -2.6625271967430086e-05
7.470049839993643e-05   -1.1216454733889956e-05   -2.6625271967430086e-05
5.521524001698695e-05   -1.1512214918826206e-05   6.027614781780851e-06
5.521524001698695e-05   -1.1512214918826206e-05   6.027614781780851e-06
5.521524001698695e-05   -1.1512214918826206e-05   6.027614781780851e-06
5.521524001698695e-05   -1.1512214918826206e-05   6.027614781780851e-06
7.470049839993657e-05   -1.333707708705157e-05   3.492213252881719e-05
7.470049839993657e-05   -1.333707708705157e-05   3.492213252881719e-05
7.470049839993657e-05   -1.333707708705157e-05   3.492213252881719e-05
7.470049839993657e-05   -1.333707708705157e-05   3.492213252881719e-05
3.777205570218805e-05   -1.1216454733889956e-05   -2.5352898555533118e-05
3.777205570218805e-05   -1.1216454733889956e-05   -2.5352898555533118e-05
3.777205570218805e-05   -1.1216454733889956e-05   -2.5352898555533118e-05
3.777205570218805e-05   -1.1216454733889956e-05   -2.5352898555533118e-05
3.6670325140908676e-05   -1.2595519040153099e-05   2.949432161315291e-05
3.6670325140908676e-05   -1.2595519040153099e-05   2.949432161315291e-05
3.6670325140908676e-05   -1.2595519040153099e-05   2.949432161315291e-05
3.6670325140908676e-05   -1.2595519040153099e-05   2.949432161315291e-05
7.321818854353456e-05   -1.0982500509927866e-05   -3.2386595176025785e-05
7.321818854353456e-05   -1.0982500509927866e-05   -3.2386595176025785e-05
7.321818854353456e-05   -1.0982500509927866e-05   -3.2386595176025785e-05
7.321818854353456e-05   -1.0982500509927866e-05   -3.2386595176025785e-05
5.3330119171732737e-05   -1.0946994385850964e-05   7.38883435864846e-07
5.3330119171732737e-05   -1.0946994385850964e-05   7.38883435864846e-07
5.3330119171732737e-05   -1.0946994385850964e-05   7.38883435864846e-07
5.3330119171732737e-05   -1.0946994385850964e-05   7.38883435864846e-07
3.967337125170398e-05   -1.3179457458204445e-05   3.4108635000679134e-05
3.967337125170398e-05   -1.3179457458204445e-05   3.4108635000679134e-05
3.967337125170398e-05   -1.3179457458204445e-05   3.4108635000679134e-05
3.967337125170398e-05   -1.3179457458204445e-05   3.4108635000679134e-05
8.453078254443678e-06   -6.256508088893498e-06   -1.3771417039834836e-05
8.453078254443678e-06   -6.256508088893498e-06   -1.3771417039834836e-05
8.453078254443678e-06   -6.256508088893498e-06   -1.3771417039834836e-05
8.453078254443678e-06   -6.256508088893498e-06   -1.3771417039834836e-05
6.873174973451486e-06   -1.3111983700294077e-05   3.893949521090352e-05
6.873174973451486e-06   -1.3111983700294077e-05   3.893949521090352e-05
6.873174973451486e-06   -1.3111983700294077e-05   3.893949521090352e-05
6.873174973451486e-06   -1.3111983700294077e-05   3.893949521090352e-05
3.86751003646574e-05   -6.635952025619424e-06   -1.7949332779244008e-05
3.86751003646574e-05   -6.635952025619424e-06   -1.7949332779244008e-05
3.86751003646574e-05   -6.635952025619424e-06   -1.7949332779244008e-05
3.86751003646574e-05   -6.635952025619424e-06   -1.7949332779244008e-05
2.3386083257541428e-05   -9.433365251183346e-06   9.210810334620858e-06
2.3386083257541428e-05   -9.433365251183346e-06   9.210810334620858e-06
2.3386083257541428e-05   -9.433365251183346e-06   9.210810334620858e-06
2.3386083257541428e-05   -9.433365251183346e-06   9.210810334620858e-06
3.867510036465736e-05   -1.3111983700294077e-05   3.5053876206099245e-05
3.867510036465736e-05   -1.3111983700294077e-05   3.5053876206099245e-05
3.867510036465736e-05   -1.3111983700294077e-05   3.5053876206099245e-05
3.867510036465736e-05   -1.3111983700294077e-05   3.5053876206099245e-05
6.873174973451486e-06   -6.635952025619424e-06   -1.4063713774439867e-05
6.873174973451486e-06   -6.635952025619424e-06   -1.4063713774439867e-05
6.873174973451486e-06   -6.635952025619424e-06   -1.4063713774439867e-05
6.873174973451486e-06   -6.635952025619424e-06   -1.4063713774439867e-05
5.7465533138881925e-06   -1.2936164764424177e-05   3.899799769358338e-05
5.7465533138881925e-06   -1.2936164764424177e-05   3.899799769358338e-05
5.7465533138881925e-06   -1.2936164764424177e-05   3.899799769358338e-05
5.7465533138881925e-06   -1.2936164764424177e-05   3.899799769358338e-05
3.777205570218805e-05   -6.8046938377771746e-06   -1.8056722176237666e-05
3.777205570218805e-05   -6.8046938377771746e-06   -1.8056722176237666e-05
3.777205570218805e-05   -6.8046938377771746e-06   -1.8056722176237666e-05
3.777205570218805e-05   -6.8046938377771746e-06   -1.8056722176237666e-05
2.203183417418316e-05   -9.240104478650544e-06   9.638226754961885e-06
2.203183417418316e-05   -9.240104478650544e-06   9.638226754961885e-06
2.203183417418316e-05   -9.240104478650544e-06   9.638226754961885e-06
2.203183417418316e-05   -9.240104478650544e-06   9.638226754961885e-06
3.777205570218809e-05   -1.2936164764424177e-05   3.5319115137595386e-05
3.777205570218809e-05   -1.2936164764424177e-05   3.5319115137595386e-05
3.777205570218809e-05   -1.2936164764424177e-05   3.5319115137595386e-05
3.777205570218809e-05   -1.2936164764424177e-05   3.5319115137595386e-05
5.7465533138881925e-06   -6.8046938377771746e-06   -1.4377839620249508e-05
5.7465533138881925e-06   -6.8046938377771746e-06   -1.4377839620249508e-05
5.7465533138881925e-06   -6.8046938377771746e-06   -1.4377839620249508e-05
5.7465533138881925e-06   -6.8046938377771746e-06   -1.4377839620249508e-05
4.49328510720843e-06   -1.2584786408425305e-05   4.0266413621658365e-05
4.49328510720843e-06   -1.2584786408425305e-05   4.0266413621658365e-05
4.49328510720843e-06   -1.2584786408425305e-05   4.0266413621658365e-05
4.49328510720843e-06   -1.2584786408425305e-05   4.0266413621658365e-05
3.6670325140908635e-05   -6.6512851501863285e-06   -1.6922087189451783e-05
3.6670325140908635e-05   -6.6512851501863285e-06   -1.6922087189451783e-05
3.6670325140908635e-05   -6.6512851501863285e-06   -1.6922087189451783e-05
3.6670325140908635e-05   -6.6512851501863285e-06   -1.6922087189451783e-05
2.1203592423012766e-05   -8.834732456134689e-06   1.016586905727701e-05
2.1203592423012766e-05   -8.834732456134689e-06   1.016586905727701e-05
2.1203592423012766e-05   -8.834732456134689e-06   1.016586905727701e-05
2.1203592423012766e-05   -8.834732456134689e-06   1.016586905727701e-05
8.453078254443705e-06   -1.59062756741918e-05   3.5094861042084285e-05
8.453078254443705e-06   -1.59062756741918e-05   3.5094861042084285e-05
8.453078254443705e-06   -1.59062756741918e-05   3.5094861042084285e-05
8.453078254443705e-06   -1.59062756741918e-05   3.5094861042084285e-05
-2.1537776925588e-05   -2.6319434707042406e-06   -6.925298269209535e-06
-2.1537776925588e-05   -2.6319434707042406e-06   -6.925298269209535e-06
-2.1537776925588e-05   -2.6319434707042406e-06   -6.925298269209535e-06
-2.1537776925588e-05   -2.6319434707042406e-06   -6.925298269209535e-06
-2.3995519175032314e-05   -1.6258335472933618e-05   4.5110437558188365e-05
-2.3995519175032314e-05   -1.6258335472933618e-05   4.5110437558188365e-05
-2.3995519175032314e-05   -1.6258335472933618e-05   4.5110437558188365e-05
-2.3995519175032314e-05   -1.6258335472933618e-05   4.5110437558188365e-05
6.873174973451486e-06   -2.7792226176583112e-06   -1.4424853735783318e-05
6.873174973451486e-06   -2.7792226176583112e-06   -1.4424853735783318e-05
6.873174973451486e-06   -2.7792226176583112e-06   -1.4424853735783318e-05
6.873174973451486e-06   -2.7792226176583112e-06   -1.4424853735783318e-05
-7.283104851040357e-06   -9.091868502514614e-06   1.295653350261714e-05
-7.283104851040357e-06   -9.091868502514614e-06   1.295653350261714e-05
-7.283104851040357e-06   -9.091868502514614e-06   1.295653350261714e-05
-7.283104851040357e-06   -9.091868502514614e-06   1.295653350261714e-05
6.873174973451486e-06   -1.6258335472933618e-05   3.702296984502295e-05
6.873174973451486e-06   -1.6258335472933618e-05   3.702296984502295e-05
6.873174973451486e-06   -1.6258335472933618e-05   3.702296984502295e-05
6.873174973451486e-06   -1.6258335472933618e-05   3.702296984502295e-05
-2.399551917503226e-05   -2.7792226176583112e-06   -6.337386022617873e-06
-2.399551917503226e-05   -2.7792226176583112e-06   -6.337386022617873e-06
-2.399551917503226e-05   -2.7792226176583112e-06   -6.337386022617873e-06
-2.399551917503226e-05   -2.7792226176583112e-06   -6.337386022617873e-06
-2.549767084796525e-05   -1.6182623066985594e-05   4.682948568849872e-05
-2.549767084796525e-05   -1.6182623066985594e-05   4.682948568849872e-05
-2.549767084796525e-05   -1.6182623066985594e-05   4.682948568849872e-05
-2.549767084796525e-05   -1.6182623066985594e-05   4.682948568849872e-05
5.7465533138881925e-06   -2.9596080516336443e-06   -1.317803025713488e-05
5.7465533138881925e-06   -2.9596080516336443e-06   -1.317803025713488e-05
5.7465533138881925e-06   -2.9596080516336443e-06   -1.317803025713488e-05
5.7465533138881925e-06   -2.9596080516336443e-06   -1.317803025713488e-05
-8.94697929687118e-06   -9.063017845912374e-06   1.4973236637364808e-05
-8.94697929687118e-06   -9.063017845912374e-06   1.4973236637364808e-05
-8.94697929687118e-06   -9.063017845912374e-06   1.4973236637364808e-05
-8.94697929687118e-06   -9.063017845912374e-06   1.4973236637364808e-05
5.7465533138881925e-06   -1.618262306698516e-05   3.8895676679287744e-05
5.7465533138881925e-06   -1.618262306698516e-05   3.8895676679287744e-05
5.7465533138881925e-06   -1.618262306698516e-05   3.8895676679287744e-05
5.7465533138881925e-06   -1.618262306698516e-05   3.8895676679287744e-05
-2.5497670847965208e-05   -2.9596080516336443e-06   -5.244221247923796e-06
-2.5497670847965208e-05   -2.9596080516336443e-06   -5.244221247923796e-06
-2.5497670847965208e-05   -2.9596080516336443e-06   -5.244221247923796e-06
-2.5497670847965208e-05   -2.9596080516336443e-06   -5.244221247923796e-06
-2.726445417286227e-05   -1.5615581202852846e-05   4.905536896159901e-05
-2.726445417286227e-05   -1.5615581202852846e-05   4.905536896159901e-05
-2.726445417286227e-05   -1.5615581202852846e-05   4.905536896159901e-05
-2.726445417286227e-05   -1.5615581202852846e-05   4.905536896159901e-05
4.49328510720843e-06   -2.9421808994192777e-06   -1.147823668724542e-05
4.49328510720843e-06   -2.9421808994192777e-06   -1.147823668724542e-05
4.49328510720843e-06   -2.9421808994192777e-06   -1.147823668724542e-05
4.49328510720843e-06   -2.9421808994192777e-06   -1.147823668724542e-05
-1.0301857559519512e-05   -8.702394316235885e-06   1.6636462474057742e-05
-1.0301857559519512e-05   -8.702394316235885e-06   1.6636462474057742e-05
-1.0301857559519512e-05   -8.702394316235885e-06   1.6636462474057742e-05
-1.0301857559519512e-05   -8.702394316235885e-06   1.6636462474057742e-05
-2.153777692558804e-05   -1.983978258540296e-05   4.2531959727135955e-05
-2.153777692558804e-05   -1.983978258540296e-05   4.2531959727135955e-05
-2.153777692558804e-05   -1.983978258540296e-05   4.2531959727135955e-05
-2.153777692558804e-05   -1.983978258540296e-05   4.2531959727135955e-05
-5.56904448309918e-05   2.827269092581502e-06   -7.889224417465153e-07
-5.56904448309918e-05   2.827269092581502e-06   -7.889224417465153e-07
-5.56904448309918e-05   2.827269092581502e-06   -7.889224417465153e-07
-5.56904448309918e-05   2.827269092581502e-06   -7.889224417465153e-07
-5.864375493204163e-05   -2.215022234120607e-05   6.0116364745280235e-05
-5.864375493204163e-05   -2.215022234120607e-05   6.0116364745280235e-05
-5.864375493204163e-05   -2.215022234120607e-05   6.0116364745280235e-05
-5.864375493204163e-05   -2.215022234120607e-05   6.0116364745280235e-05
-2.399551917503226e-05   2.658189044366533e-06   -1.2515741681078801e-05
-2.399551917503226e-05   2.658189044366533e-06   -1.2515741681078801e-05
-2.399551917503226e-05   2.658189044366533e-06   -1.2515741681078801e-05
-2.399551917503226e-05   2.658189044366533e-06   -1.2515741681078801e-05
-3.9408136021724116e-05   -8.237525801213898e-06   1.9709381970755722e-05
-3.9408136021724116e-05   -8.237525801213898e-06   1.9709381970755722e-05
-3.9408136021724116e-05   -8.237525801213898e-06   1.9709381970755722e-05
-3.9408136021724116e-05   -8.237525801213898e-06   1.9709381970755722e-05
-2.399551917503226e-05   -2.215022234120607e-05   4.5231317913936754e-05
-2.399551917503226e-05   -2.215022234120607e-05   4.5231317913936754e-05
-2.399551917503226e-05   -2.215022234120607e-05   4.5231317913936754e-05
-2.399551917503226e-05   -2.215022234120607e-05   4.5231317913936754e-05
-5.864375493204152e-05   2.658189044366533e-06   2.3693051502645442e-06
-5.864375493204152e-05   2.658189044366533e-06   2.3693051502645442e-06
-5.864375493204152e-05   2.658189044366533e-06   2.3693051502645442e-06
-5.864375493204152e-05   2.658189044366533e-06   2.3693051502645442e-06
-6.0443854124389004e-05   -2.2274162246546138e-05   6.3481605486465e-05
-6.0443854124389004e-05   -2.2274162246546138e-05   6.3481605486465e-05
-6.0443854124389004e-05   -2.2274162246546138e-05   6.3481605486465e-05
-6.0443854124389004e-05   -2.2274162246546138e-05   6.3481605486465e-05
-2.5497670847965208e-05   2.3467086369254736e-06   -9.53455583765743e-06
-2.5497670847965208e-05   2.3467086369254736e-06   -9.53455583765743e-06
-2.5497670847965208e-05   2.3467086369254736e-06   -9.53455583765743e-06
-2.5497670847965208e-05   2.3467086369254736e-06   -9.53455583765743e-06
-4.132680293568439e-05   -9.48385185573072e-06   2.394566727080159e-05
-4.132680293568439e-05   -9.48385185573072e-06   2.394566727080159e-05
-4.132680293568439e-05   -9.48385185573072e-06   2.394566727080159e-05
-4.132680293568439e-05   -9.48385185573072e-06   2.394566727080159e-05
-2.5497670847965208e-05   -2.2274162246546138e-05   4.8709082956382104e-05
-2.5497670847965208e-05   -2.2274162246546138e-05   4.8709082956382104e-05
-2.5497670847965208e-05   -2.2274162246546138e-05   4.8709082956382104e-05
-2.5497670847965208e-05   -2.2274162246546138e-05   4.8709082956382104e-05
-6.044385412438891e-05   2.3467086369254736e-06   5.237966692425494e-06
-6.044385412438891e-05   2.3467086369254736e-06   5.237966692425494e-06
-6.044385412438891e-05   2.3467086369254736e-06   5.237966692425494e-06
-6.044385412438891e-05   2.3467086369254736e-06   5.237966692425494e-06
-6.23833516941717e-05   -2.0329760075466462e-05   6.492904890146385e-05
-6.23833516941717e-05   -2.0329760075466462e-05   6.492904890146385e-05
-6.23833516941717e-05   -2.0329760075466462e-05   6.492904890146385e-05
-6.23833516941717e-05   -2.0329760075466462e-05   6.492904890146385e-05
-2.726445417286227e-05   1.9940689242872386e-06   -6.996744367237552e-06
-2.726445417286227e-05   1.9940689242872386e-06   -6.996744367237552e-06
-2.726445417286227e-05   1.9940689242872386e-06   -6.996744367237552e-06
-2.726445417286227e-05   1.9940689242872386e-06   -6.996744367237552e-06
-4.330348281946227e-05   -9.55484635012209e-06   2.6664319208407998e-05
-4.330348281946227e-05   -9.55484635012209e-06   2.6664319208407998e-05
-4.330348281946227e-05   -9.55484635012209e-06   2.6664319208407998e-05
-4.330348281946227e-05   -9.55484635012209e-06   2.6664319208407998e-05
-5.56904448309916e-05   0.0   4.712049775698263e-05
-5.56904448309916e-05   0.0   4.712049775698263e-05
-5.56904448309916e-05   0.0   4.712049775698263e-05
-5.56904448309916e-05   0.0   4.712049775698263e-05
-9.808630492296717e-05   1.2860704803446463e-05   -1.5822846180908734e-05
-9.808630492296717e-05   1.2860704803446463e-05   -1.5822846180908734e-05
-9.808630492296717e-05   1.2860704803446463e-05   -1.5822846180908734e-05
-9.808630492296717e-05   1.2860704803446463e-05   -1.5822846180908734e-05
-0.0001021594699945533   0.0   6.838857696419881e-05
-0.0001021594699945533   0.0   6.838857696419881e-05
-0.0001021594699945533   0.0   6.838857696419881e-05
-0.0001021594699945533   0.0   6.838857696419881e-05
-5.864375493204152e-05   1.2412402446800985e-05   -1.1585056274735026e-05
-5.864375493204152e-05   1.2412402446800985e-05   -1.1585056274735026e-05
-5.864375493204152e-05   1.2412402446800985e-05   -1.1585056274735026e-05
-5.864375493204152e-05   1.2412402446800985e-05   -1.1585056274735026e-05
-7.529138838734725e-05   7.630152046498879e-06   1.90303497242892e-05
-7.529138838734725e-05   7.630152046498879e-06   1.90303497242892e-05
-7.529138838734725e-05   7.630152046498879e-06   1.90303497242892e-05
-7.529138838734725e-05   7.630152046498879e-06   1.90303497242892e-05
-5.864375493204147e-05   0.0   6.09411354961185e-05
-5.864375493204147e-05   0.0   6.09411354961185e-05
-5.864375493204147e-05   0.0   6.09411354961185e-05
-5.864375493204147e-05   0.0   6.09411354961185e-05
-0.00010215946999455347   1.2412402446800985e-05   -4.137614806654349e-06
-0.00010215946999455347   1.2412402446800985e-05   -4.137614806654349e-06
-0.00010215946999455347   1.2412402446800985e-05   -4.137614806654349e-06
-0.00010215946999455347   1.2412402446800985e-05   -4.137614806654349e-06
-0.00010421087586172468   0.0   7.594410075121107e-05
-0.00010421087586172468   0.0   7.594410075121107e-05
-0.00010421087586172468   0.0   7.594410075121107e-05
-0.00010421087586172468   0.0   7.594410075121107e-05
-6.044385412438891e-05   1.2094000232572462e-05   -4.2573356172255494e-06
-6.044385412438891e-05   1.2094000232572462e-05   -4.2573356172255494e-06
-6.044385412438891e-05   1.2094000232572462e-05   -4.2573356172255494e-06
-6.044385412438891e-05   1.2094000232572462e-05   -4.2573356172255494e-06
-7.92200343705476e-05   6.371134861645313e-06   3.0470017348929257e-05
-7.92200343705476e-05   6.371134861645313e-06   3.0470017348929257e-05
-7.92200343705476e-05   6.371134861645313e-06   3.0470017348929257e-05
-7.92200343705476e-05   6.371134861645313e-06   3.0470017348929257e-05
-6.044385412438891e-05   0.0   6.868770061166761e-05
-6.044385412438891e-05   0.0   6.868770061166761e-05
-6.044385412438891e-05   0.0   6.868770061166761e-05
-6.044385412438891e-05   0.0   6.868770061166761e-05
-0.00010421087586172487   1.2094000232572462e-05   2.9990645223178843e-06
-0.00010421087586172487   1.2094000232572462e-05   2.9990645223178843e-06
-0.00010421087586172487   1.2094000232572462e-05   2.9990645223178843e-06
-0.00010421087586172487   1.2094000232572462e-05   2.9990645223178843e-06
-0.0001064953571685289   0.0   8.60193204002299e-05
-0.0001064953571685289   0.0   8.60193204002299e-05
-0.0001064953571685289   0.0   8.60193204002299e-05
-0.0001064953571685289   0.0   8.60193204002299e-05
-6.238335169417163e-05   1.0071214612928075e-05   6.456582508543958e-06
-6.238335169417163e-05   1.0071214612928075e-05   6.456582508543958e-06
-6.238335169417163e-05   1.0071214612928075e-05   6.456582508543958e-06
-6.238335169417163e-05   1.0071214612928075e-05   6.456582508543958e-06
-7.988014291311079e-05   4.472286675612442e-06   3.897725796916463e-05
-7.988014291311079e-05   4.472286675612442e-06   3.897725796916463e-05
-7.988014291311079e-05   4.472286675612442e-06   3.897725796916463e-05
-7.988014291311079e-05   4.472286675612442e-06   3.897725796916463e-05
6.725199076968369e-05   -1.0117396433150655e-05   4.774843955853466e-05
6.725199076968369e-05   -1.0117396433150655e-05   4.774843955853466e-05
6.725199076968369e-05   -1.0117396433150655e-05   4.774843955853466e-05
6.725199076968369e-05   -1.0117396433150655e-05   4.774843955853466e-05
3.4013866077863006e-05   -7.630057605616681e-06   -6.1560316313128034e-06
3.4013866077863006e-05   -7.630057605616681e-06   -6.1560316313128034e-06
3.4013866077863006e-05   -7.630057605616681e-06   -6.1560316313128034e-06
3.4013866077863006e-05   -7.630057605616681e-06   -6.1560316313128034e-06
3.3116086148371666e-05   -1.1123821331370572e-05   4.16788384169438e-05
3.3116086148371666e-05   -1.1123821331370572e-05   4.16788384169438e-05
3.3116086148371666e-05   -1.1123821331370572e-05   4.16788384169438e-05
3.3116086148371666e-05   -1.1123821331370572e-05   4.16788384169438e-05
6.564905978696671e-05   -8.64792456186942e-06   -1.4028322375748623e-05
6.564905978696671e-05   -8.64792456186942e-06   -1.4028322375748623e-05
6.564905978696671e-05   -8.64792456186942e-06   -1.4028322375748623e-05
6.564905978696671e-05   -8.64792456186942e-06   -1.4028322375748623e-05
4.778148644974642e-05   -9.004854252249624e-06   1.596512433384666e-05
4.778148644974642e-05   -9.004854252249624e-06   1.596512433384666e-05
4.778148644974642e-05   -9.004854252249624e-06   1.596512433384666e-05
4.778148644974642e-05   -9.004854252249624e-06   1.596512433384666e-05
6.564905978696662e-05   -1.1123821331370572e-05   4.01933003552429e-05
6.564905978696662e-05   -1.1123821331370572e-05   4.01933003552429e-05
6.564905978696662e-05   -1.1123821331370572e-05   4.01933003552429e-05
6.564905978696662e-05   -1.1123821331370572e-05   4.01933003552429e-05
3.311608614837172e-05   -8.64792456186942e-06   -1.2542784314047888e-05
3.311608614837172e-05   -8.64792456186942e-06   -1.2542784314047888e-05
3.311608614837172e-05   -8.64792456186942e-06   -1.2542784314047888e-05
3.311608614837172e-05   -8.64792456186942e-06   -1.2542784314047888e-05
3.195923911495995e-05   -1.1216454733889956e-05   3.741122188799452e-05
3.195923911495995e-05   -1.1216454733889956e-05   3.741122188799452e-05
3.195923911495995e-05   -1.1216454733889956e-05   3.741122188799452e-05
3.195923911495995e-05   -1.1216454733889956e-05   3.741122188799452e-05
6.402794130416572e-05   -8.799262132521725e-06   -1.74869306548359e-05
6.402794130416572e-05   -8.799262132521725e-06   -1.74869306548359e-05
6.402794130416572e-05   -8.799262132521725e-06   -1.74869306548359e-05
6.402794130416572e-05   -8.799262132521725e-06   -1.74869306548359e-05
4.733159008565326e-05   -9.398094073920617e-06   1.0699620540857496e-05
4.733159008565326e-05   -9.398094073920617e-06   1.0699620540857496e-05
4.733159008565326e-05   -9.398094073920617e-06   1.0699620540857496e-05
4.733159008565326e-05   -9.398094073920617e-06   1.0699620540857496e-05
6.402794130416572e-05   -1.1216454733889956e-05   3.596090632717363e-05
6.402794130416572e-05   -1.1216454733889956e-05   3.596090632717363e-05
6.402794130416572e-05   -1.1216454733889956e-05   3.596090632717363e-05
6.402794130416572e-05   -1.1216454733889956e-05   3.596090632717363e-05
3.195923911495995e-05   -8.799262132521725e-06   -1.603661509401509e-05
3.195923911495995e-05   -8.799262132521725e-06   -1.603661509401509e-05
3.195923911495995e-05   -8.799262132521725e-06   -1.603661509401509e-05
3.195923911495995e-05   -8.799262132521725e-06   -1.603661509401509e-05
3.074551340882273e-05   -1.0982500509927866e-05   3.108103843294939e-05
3.074551340882273e-05   -1.0982500509927866e-05   3.108103843294939e-05
3.074551340882273e-05   -1.0982500509927866e-05   3.108103843294939e-05
3.074551340882273e-05   -1.0982500509927866e-05   3.108103843294939e-05
6.19986578921872e-05   -8.743790107493613e-06   -2.235076194745194e-05
6.19986578921872e-05   -8.743790107493613e-06   -2.235076194745194e-05
6.19986578921872e-05   -8.743790107493613e-06   -2.235076194745194e-05
6.19986578921872e-05   -8.743790107493613e-06   -2.235076194745194e-05
4.522172440536572e-05   -9.152137113960061e-06   5.855802067797843e-06
4.522172440536572e-05   -9.152137113960061e-06   5.855802067797843e-06
4.522172440536572e-05   -9.152137113960061e-06   5.855802067797843e-06
4.522172440536572e-05   -9.152137113960061e-06   5.855802067797843e-06
3.4013866077863006e-05   -6.256508088893498e-06   4.5182605371198674e-05
3.4013866077863006e-05   -6.256508088893498e-06   4.5182605371198674e-05
3.4013866077863006e-05   -6.256508088893498e-06   4.5182605371198674e-05
3.4013866077863006e-05   -6.256508088893498e-06   4.5182605371198674e-05
3.730510150570408e-06   -2.692384429171975e-06   -3.1511803117892194e-06
3.730510150570408e-06   -2.692384429171975e-06   -3.1511803117892194e-06
3.730510150570408e-06   -2.692384429171975e-06   -3.1511803117892194e-06
3.730510150570408e-06   -2.692384429171975e-06   -3.1511803117892194e-06
2.8386846909665643e-06   -6.635952025619424e-06   4.707369344765966e-05
2.8386846909665643e-06   -6.635952025619424e-06   4.707369344765966e-05
2.8386846909665643e-06   -6.635952025619424e-06   4.707369344765966e-05
2.8386846909665643e-06   -6.635952025619424e-06   4.707369344765966e-05
3.311608614837172e-05   -3.2393864861780634e-06   -5.426581638347076e-06
3.311608614837172e-05   -3.2393864861780634e-06   -5.426581638347076e-06
3.311608614837172e-05   -3.2393864861780634e-06   -5.426581638347076e-06
3.311608614837172e-05   -3.2393864861780634e-06   -5.426581638347076e-06
1.824826933240564e-05   -4.375862071291344e-06   2.0034998405997788e-05
1.824826933240564e-05   -4.375862071291344e-06   2.0034998405997788e-05
1.824826933240564e-05   -4.375862071291344e-06   2.0034998405997788e-05
1.824826933240564e-05   -4.375862071291344e-06   2.0034998405997788e-05
3.311608614837169e-05   -6.635952025619424e-06   4.503575412399477e-05
3.311608614837169e-05   -6.635952025619424e-06   4.503575412399477e-05
3.311608614837169e-05   -6.635952025619424e-06   4.503575412399477e-05
3.311608614837169e-05   -6.635952025619424e-06   4.503575412399477e-05
2.8386846909665643e-06   -3.2393864861780634e-06   -3.38864231468213e-06
2.8386846909665643e-06   -3.2393864861780634e-06   -3.38864231468213e-06
2.8386846909665643e-06   -3.2393864861780634e-06   -3.38864231468213e-06
2.8386846909665643e-06   -3.2393864861780634e-06   -3.38864231468213e-06
1.7002242124058986e-06   -6.8046938377771746e-06   4.663134613288374e-05
1.7002242124058986e-06   -6.8046938377771746e-06   4.663134613288374e-05
1.7002242124058986e-06   -6.8046938377771746e-06   4.663134613288374e-05
1.7002242124058986e-06   -6.8046938377771746e-06   4.663134613288374e-05
3.195923911495995e-05   -3.5981140617878486e-06   -5.7242932369669635e-06
3.195923911495995e-05   -3.5981140617878486e-06   -5.7242932369669635e-06
3.195923911495995e-05   -3.5981140617878486e-06   -5.7242932369669635e-06
3.195923911495995e-05   -3.5981140617878486e-06   -5.7242932369669635e-06
1.7117374016752213e-05   -4.582937469744782e-06   1.9603042638154382e-05
1.7117374016752213e-05   -4.582937469744782e-06   1.9603042638154382e-05
1.7117374016752213e-05   -4.582937469744782e-06   1.9603042638154382e-05
1.7117374016752213e-05   -4.582937469744782e-06   1.9603042638154382e-05
3.195923911495991e-05   -6.8046938377771746e-06   4.470739826729011e-05
3.195923911495991e-05   -6.8046938377771746e-06   4.470739826729011e-05
3.195923911495991e-05   -6.8046938377771746e-06   4.470739826729011e-05
3.195923911495991e-05   -6.8046938377771746e-06   4.470739826729011e-05
1.7002242124058986e-06   -3.5981140617878486e-06   -3.8003453713731945e-06
1.7002242124058986e-06   -3.5981140617878486e-06   -3.8003453713731945e-06
1.7002242124058986e-06   -3.5981140617878486e-06   -3.8003453713731945e-06
1.7002242124058986e-06   -3.5981140617878486e-06   -3.8003453713731945e-06
4.425798981204967e-07   -6.6512851501863285e-06   4.731739682145857e-05
4.425798981204967e-07   -6.6512851501863285e-06   4.731739682145857e-05
4.425798981204967e-07   -6.6512851501863285e-06   4.731739682145857e-05
4.425798981204967e-07   -6.6512851501863285e-06   4.731739682145857e-05
3.07455134088227e-05   -3.751849283401606e-06   -4.9271538831159416e-06
3.07455134088227e-05   -3.751849283401606e-06   -4.9271538831159416e-06
3.07455134088227e-05   -3.751849283401606e-06   -4.9271538831159416e-06
3.07455134088227e-05   -3.751849283401606e-06   -4.9271538831159416e-06
1.619606270215455e-05   -4.539527353324656e-06   1.979453746995196e-05
1.619606270215455e-05   -4.539527353324656e-06   1.979453746995196e-05
1.619606270215455e-05   -4.539527353324656e-06   1.979453746995196e-05
1.619606270215455e-05   -4.539527353324656e-06   1.979453746995196e-05
3.730510150570381e-06   -2.6319434707042406e-06   4.620259901556503e-05
3.730510150570381e-06   -2.6319434707042406e-06   4.620259901556503e-05
3.730510150570381e-06   -2.6319434707042406e-06   4.620259901556503e-05
3.730510150570381e-06   -2.6319434707042406e-06   4.620259901556503e-05
-2.5607308221602077e-05   2.3925221635510453e-06   3.2091444249725265e-07
-2.5607308221602077e-05   2.3925221635510453e-06   3.2091444249725265e-07
-2.5607308221602077e-05   2.3925221635510453e-06   3.2091444249725265e-07
-2.5607308221602077e-05   2.3925221635510453e-06   3.2091444249725265e-07
-2.66121376144491e-05   -2.7792226176583112e-06   4.9564404597898576e-05
-2.66121376144491e-05   -2.7792226176583112e-06   4.9564404597898576e-05
-2.66121376144491e-05   -2.7792226176583112e-06   4.9564404597898576e-05
-2.66121376144491e-05   -2.7792226176583112e-06   4.9564404597898576e-05
2.8386846909665643e-06   1.9738625683120813e-06   -2.372150356043422e-06
2.8386846909665643e-06   1.9738625683120813e-06   -2.372150356043422e-06
2.8386846909665643e-06   1.9738625683120813e-06   -2.372150356043422e-06
2.8386846909665643e-06   1.9738625683120813e-06   -2.372150356043422e-06
-1.1391617606911468e-05   -4.073429509194107e-08   2.2553778258462584e-05
-1.1391617606911468e-05   -4.073429509194107e-08   2.2553778258462584e-05
-1.1391617606911468e-05   -4.073429509194107e-08   2.2553778258462584e-05
-1.1391617606911468e-05   -4.073429509194107e-08   2.2553778258462584e-05
2.8386846909665643e-06   -2.7792226176583112e-06   4.671255348631624e-05
2.8386846909665643e-06   -2.7792226176583112e-06   4.671255348631624e-05
2.8386846909665643e-06   -2.7792226176583112e-06   4.671255348631624e-05
2.8386846909665643e-06   -2.7792226176583112e-06   4.671255348631624e-05
-2.66121376144491e-05   1.9738625683120813e-06   4.797007555389435e-07
-2.66121376144491e-05   1.9738625683120813e-06   4.797007555389435e-07
-2.66121376144491e-05   1.9738625683120813e-06   4.797007555389435e-07
-2.66121376144491e-05   1.9738625683120813e-06   4.797007555389435e-07
-2.7959286559784698e-05   -2.9596080516336443e-06   5.055740340324517e-05
-2.7959286559784698e-05   -2.9596080516336443e-06   5.055740340324517e-05
-2.7959286559784698e-05   -2.9596080516336443e-06   5.055740340324517e-05
-2.7959286559784698e-05   -2.9596080516336443e-06   5.055740340324517e-05
1.7002242124058986e-06   1.5841384604442857e-06   -1.6013624576525966e-06
1.7002242124058986e-06   1.5841384604442857e-06   -1.6013624576525966e-06
1.7002242124058986e-06   1.5841384604442857e-06   -1.6013624576525966e-06
1.7002242124058986e-06   1.5841384604442857e-06   -1.6013624576525966e-06
-1.238279730070822e-05   -1.584393863741755e-07   2.291588677229533e-05
-1.238279730070822e-05   -1.584393863741755e-07   2.291588677229533e-05
-1.238279730070822e-05   -1.584393863741755e-07   2.291588677229533e-05
-1.238279730070822e-05   -1.584393863741755e-07   2.291588677229533e-05
1.7002242124058986e-06   -2.9596080516336443e-06   4.783115549599837e-05
1.7002242124058986e-06   -2.9596080516336443e-06   4.783115549599837e-05
1.7002242124058986e-06   -2.9596080516336443e-06   4.783115549599837e-05
1.7002242124058986e-06   -2.9596080516336443e-06   4.783115549599837e-05
-2.7959286559784698e-05   1.5841384604442857e-06   1.1248854495942047e-06
-2.7959286559784698e-05   1.5841384604442857e-06   1.1248854495942047e-06
-2.7959286559784698e-05   1.5841384604442857e-06   1.1248854495942047e-06
-2.7959286559784698e-05   1.5841384604442857e-06   1.1248854495942047e-06
-2.939457718282047e-05   -2.9421808994192777e-06   5.174850965081971e-05
-2.939457718282047e-05   -2.9421808994192777e-06   5.174850965081971e-05
-2.939457718282047e-05   -2.9421808994192777e-06   5.174850965081971e-05
-2.939457718282047e-05   -2.9421808994192777e-06   5.174850965081971e-05
4.425798981204967e-07   1.3034242374110674e-06   -5.274485661800263e-07
4.425798981204967e-07   1.3034242374110674e-06   -5.274485661800263e-07
4.425798981204967e-07   1.3034242374110674e-06   -5.274485661800263e-07
4.425798981204967e-07   1.3034242374110674e-06   -5.274485661800263e-07
-1.3646841174348408e-05   -2.4291965444885565e-07   2.3882726223051556e-05
-1.3646841174348408e-05   -2.4291965444885565e-07   2.3882726223051556e-05
-1.3646841174348408e-05   -2.4291965444885565e-07   2.3882726223051556e-05
-1.3646841174348408e-05   -2.4291965444885565e-07   2.3882726223051556e-05
-2.560730822160197e-05   2.8272690925819355e-06   4.17534232167905e-05
-2.560730822160197e-05   2.8272690925819355e-06   4.17534232167905e-05
-2.560730822160197e-05   2.8272690925819355e-06   4.17534232167905e-05
-2.560730822160197e-05   2.8272690925819355e-06   4.17534232167905e-05
-5.4348480597319633e-05   7.79446963907306e-06   -3.168210414844193e-06
-5.4348480597319633e-05   7.79446963907306e-06   -3.168210414844193e-06
-5.4348480597319633e-05   7.79446963907306e-06   -3.168210414844193e-06
-5.4348480597319633e-05   7.79446963907306e-06   -3.168210414844193e-06
-5.5811981882058175e-05   2.658189044366533e-06   4.6215991931661217e-05
-5.5811981882058175e-05   2.658189044366533e-06   4.6215991931661217e-05
-5.5811981882058175e-05   2.658189044366533e-06   4.6215991931661217e-05
-5.5811981882058175e-05   2.658189044366533e-06   4.6215991931661217e-05
-2.6612137614449074e-05   7.374760698072337e-06   -5.280358173243753e-06
-2.6612137614449074e-05   7.374760698072337e-06   -5.280358173243753e-06
-2.6612137614449074e-05   7.374760698072337e-06   -5.280358173243753e-06
-2.6612137614449074e-05   7.374760698072337e-06   -5.280358173243753e-06
-4.02747990705421e-05   5.253630827288828e-06   1.876342217604801e-05
-4.02747990705421e-05   5.253630827288828e-06   1.876342217604801e-05
-4.02747990705421e-05   5.253630827288828e-06   1.876342217604801e-05
-4.02747990705421e-05   5.253630827288828e-06   1.876342217604801e-05
-2.66121376144491e-05   2.658189044366533e-06   4.3386048939437756e-05
-2.66121376144491e-05   2.658189044366533e-06   4.3386048939437756e-05
-2.66121376144491e-05   2.658189044366533e-06   4.3386048939437756e-05
-2.66121376144491e-05   2.658189044366533e-06   4.3386048939437756e-05
-5.581198188205809e-05   7.374760698072771e-06   -2.450415181020184e-06
-5.581198188205809e-05   7.374760698072771e-06   -2.450415181020184e-06
-5.581198188205809e-05   7.374760698072771e-06   -2.450415181020184e-06
-5.581198188205809e-05   7.374760698072771e-06   -2.450415181020184e-06
-5.760549750960823e-05   2.3467086369254736e-06   4.905099810805706e-05
-5.760549750960823e-05   2.3467086369254736e-06   4.905099810805706e-05
-5.760549750960823e-05   2.3467086369254736e-06   4.905099810805706e-05
-5.760549750960823e-05   2.3467086369254736e-06   4.905099810805706e-05
-2.7959286559784698e-05   6.986590794501053e-06   -3.1432827695273505e-06
-2.7959286559784698e-05   6.986590794501053e-06   -3.1432827695273505e-06
-2.7959286559784698e-05   6.986590794501053e-06   -3.1432827695273505e-06
-2.7959286559784698e-05   6.986590794501053e-06   -3.1432827695273505e-06
-4.1364907607709724e-05   5.156823274720182e-06   2.0297279488882408e-05
-4.1364907607709724e-05   5.156823274720182e-06   2.0297279488882408e-05
-4.1364907607709724e-05   5.156823274720182e-06   2.0297279488882408e-05
-4.1364907607709724e-05   5.156823274720182e-06   2.0297279488882408e-05
-2.7959286559784698e-05   2.3467086369254736e-06   4.626706881351162e-05
-2.7959286559784698e-05   2.3467086369254736e-06   4.626706881351162e-05
-2.7959286559784698e-05   2.3467086369254736e-06   4.626706881351162e-05
-2.7959286559784698e-05   2.3467086369254736e-06   4.626706881351162e-05
-5.7605497509608124e-05   6.986590794501053e-06   -3.593534749820465e-07
-5.7605497509608124e-05   6.986590794501053e-06   -3.593534749820465e-07
-5.7605497509608124e-05   6.986590794501053e-06   -3.593534749820465e-07
-5.7605497509608124e-05   6.986590794501053e-06   -3.593534749820465e-07
-5.9503200352678434e-05   1.9940689242872386e-06   5.1308381070347495e-05
-5.9503200352678434e-05   1.9940689242872386e-06   5.1308381070347495e-05
-5.9503200352678434e-05   1.9940689242872386e-06   5.1308381070347495e-05
-5.9503200352678434e-05   1.9940689242872386e-06   5.1308381070347495e-05
-2.9394577182820388e-05   6.464767726920527e-06   -1.55507682766216e-06
-2.9394577182820388e-05   6.464767726920527e-06   -1.55507682766216e-06
-2.9394577182820388e-05   6.464767726920527e-06   -1.55507682766216e-06
-2.9394577182820388e-05   6.464767726920527e-06   -1.55507682766216e-06
-4.318057212706819e-05   4.841839746961641e-06   2.2395338200726896e-05
-4.318057212706819e-05   4.841839746961641e-06   2.2395338200726896e-05
-4.318057212706819e-05   4.841839746961641e-06   2.2395338200726896e-05
-4.318057212706819e-05   4.841839746961641e-06   2.2395338200726896e-05
-5.4348480597319633e-05   1.2860704803446463e-05   2.1983396923454712e-05
-5.4348480597319633e-05   1.2860704803446463e-05   2.1983396923454712e-05
-5.4348480597319633e-05   1.2860704803446463e-05   2.1983396923454712e-05
-5.4348480597319633e-05   1.2860704803446463e-05   2.1983396923454712e-05
-8.187383879926347e-05   1.2676334538368455e-05   -2.400282223883189e-05
-8.187383879926347e-05   1.2676334538368455e-05   -2.400282223883189e-05
-8.187383879926347e-05   1.2676334538368455e-05   -2.400282223883189e-05
-8.187383879926347e-05   1.2676334538368455e-05   -2.400282223883189e-05
-8.450096985622722e-05   1.2412402446800985e-05   3.256590136233896e-05
-8.450096985622722e-05   1.2412402446800985e-05   3.256590136233896e-05
-8.450096985622722e-05   1.2412402446800985e-05   3.256590136233896e-05
-8.450096985622722e-05   1.2412402446800985e-05   3.256590136233896e-05
-5.581198188205809e-05   1.2919520539596361e-05   -1.5553349450287248e-05
-5.581198188205809e-05   1.2919520539596361e-05   -1.5553349450287248e-05
-5.581198188205809e-05   1.2919520539596361e-05   -1.5553349450287248e-05
-5.581198188205809e-05   1.2919520539596361e-05   -1.5553349450287248e-05
-6.635108368661637e-05   1.291741415709066e-05   2.013084053480033e-06
-6.635108368661637e-05   1.291741415709066e-05   2.013084053480033e-06
-6.635108368661637e-05   1.291741415709066e-05   2.013084053480033e-06
-6.635108368661637e-05   1.291741415709066e-05   2.013084053480033e-06
-5.581198188205804e-05   1.2412402446800985e-05   3.2261630506661484e-05
-5.581198188205804e-05   1.2412402446800985e-05   3.2261630506661484e-05
-5.581198188205804e-05   1.2412402446800985e-05   3.2261630506661484e-05
-5.581198188205804e-05   1.2412402446800985e-05   3.2261630506661484e-05
-8.450096985622722e-05   1.2919520539596795e-05   -1.5249078594609935e-05
-8.450096985622722e-05   1.2919520539596795e-05   -1.5249078594609935e-05
-8.450096985622722e-05   1.2919520539596795e-05   -1.5249078594609935e-05
-8.450096985622722e-05   1.2919520539596795e-05   -1.5249078594609935e-05
-8.707726732349168e-05   1.2094000232572462e-05   3.999516512663537e-05
-8.707726732349168e-05   1.2094000232572462e-05   3.999516512663537e-05
-8.707726732349168e-05   1.2094000232572462e-05   3.999516512663537e-05
-8.707726732349168e-05   1.2094000232572462e-05   3.999516512663537e-05
-5.7605497509608124e-05   1.2826449112955662e-05   -9.563920558067034e-06
-5.7605497509608124e-05   1.2826449112955662e-05   -9.563920558067034e-06
-5.7605497509608124e-05   1.2826449112955662e-05   -9.563920558067034e-06
-5.7605497509608124e-05   1.2826449112955662e-05   -9.563920558067034e-06
-6.936299691385133e-05   1.29155143870996e-05   9.97847261785252e-06
-6.936299691385133e-05   1.29155143870996e-05   9.97847261785252e-06
-6.936299691385133e-05   1.29155143870996e-05   9.97847261785252e-06
-6.936299691385133e-05   1.29155143870996e-05   9.97847261785252e-06
-5.7605497509608124e-05   1.2094000232572462e-05   3.9555695798405746e-05
-5.7605497509608124e-05   1.2094000232572462e-05   3.9555695798405746e-05
-5.7605497509608124e-05   1.2094000232572462e-05   3.9555695798405746e-05
-5.7605497509608124e-05   1.2094000232572462e-05   3.9555695798405746e-05
-8.707726732349181e-05   1.2826449112955662e-05   -9.12445122983746e-06
-8.707726732349181e-05   1.2826449112955662e-05   -9.12445122983746e-06
-8.707726732349181e-05   1.2826449112955662e-05   -9.12445122983746e-06
-8.707726732349181e-05   1.2826449112955662e-05   -9.12445122983746e-06
-9.011563306866925e-05   1.0071214612928075e-05   5.240926192405515e-05
-9.011563306866925e-05   1.0071214612928075e-05   5.240926192405515e-05
-9.011563306866925e-05   1.0071214612928075e-05   5.240926192405515e-05
-9.011563306866925e-05   1.0071214612928075e-05   5.240926192405515e-05
-5.950320035267841e-05   1.1807633575892668e-05   3.466893529584236e-07
-5.950320035267841e-05   1.1807633575892668e-05   3.466893529584236e-07
-5.950320035267841e-05   1.1807633575892668e-05   3.466893529584236e-07
-5.950320035267841e-05   1.1807633575892668e-05   3.466893529584236e-07
-7.044359442430134e-05   1.2302326791799843e-05   1.8283863542785796e-05
-7.044359442430134e-05   1.2302326791799843e-05   1.8283863542785796e-05
-7.044359442430134e-05   1.2302326791799843e-05   1.8283863542785796e-05
-7.044359442430134e-05   1.2302326791799843e-05   1.8283863542785796e-05
5.453969728497005e-05   -7.630057605616681e-06   4.20884260618404e-05
5.453969728497005e-05   -7.630057605616681e-06   4.20884260618404e-05
5.453969728497005e-05   -7.630057605616681e-06   4.20884260618404e-05
5.453969728497005e-05   -7.630057605616681e-06   4.20884260618404e-05
2.700276739064707e-05   -5.593705539796642e-06   -2.5846458558728257e-06
2.700276739064707e-05   -5.593705539796642e-06   -2.5846458558728257e-06
2.700276739064707e-05   -5.593705539796642e-06   -2.5846458558728257e-06
2.700276739064707e-05   -5.593705539796642e-06   -2.5846458558728257e-06
2.5968609423839883e-05   -8.647924561868987e-06   3.660039065241593e-05
2.5968609423839883e-05   -8.647924561868987e-06   3.660039065241593e-05
2.5968609423839883e-05   -8.647924561868987e-06   3.660039065241593e-05
2.5968609423839883e-05   -8.647924561868987e-06   3.660039065241593e-05
5.263773808420319e-05   -6.490404331576955e-06   -9.142669253031427e-06
5.263773808420319e-05   -6.490404331576955e-06   -9.142669253031427e-06
5.263773808420319e-05   -6.490404331576955e-06   -9.142669253031427e-06
5.263773808420319e-05   -6.490404331576955e-06   -9.142669253031427e-06
3.8204176871736504e-05   -7.017974806406606e-06   1.5229808385977257e-05
3.8204176871736504e-05   -7.017974806406606e-06   1.5229808385977257e-05
3.8204176871736504e-05   -7.017974806406606e-06   1.5229808385977257e-05
3.8204176871736504e-05   -7.017974806406606e-06   1.5229808385977257e-05
5.26377380842031e-05   -8.64792456186942e-06   3.5305878514240645e-05
5.26377380842031e-05   -8.64792456186942e-06   3.5305878514240645e-05
5.26377380842031e-05   -8.64792456186942e-06   3.5305878514240645e-05
5.26377380842031e-05   -8.64792456186942e-06   3.5305878514240645e-05
2.5968609423839978e-05   -6.490404331576955e-06   -7.848157114856034e-06
2.5968609423839978e-05   -6.490404331576955e-06   -7.848157114856034e-06
2.5968609423839978e-05   -6.490404331576955e-06   -7.848157114856034e-06
2.5968609423839978e-05   -6.490404331576955e-06   -7.848157114856034e-06
2.4819483292451246e-05   -8.799262132521725e-06   3.280088186007144e-05
2.4819483292451246e-05   -8.799262132521725e-06   3.280088186007144e-05
2.4819483292451246e-05   -8.799262132521725e-06   3.280088186007144e-05
2.4819483292451246e-05   -8.799262132521725e-06   3.280088186007144e-05
5.091549737166988e-05   -6.6705857671781055e-06   -1.1969680757832396e-05
5.091549737166988e-05   -6.6705857671781055e-06   -1.1969680757832396e-05
5.091549737166988e-05   -6.6705857671781055e-06   -1.1969680757832396e-05
5.091549737166988e-05   -6.6705857671781055e-06   -1.1969680757832396e-05
3.748818704771181e-05   -7.36546933507152e-06   1.08260999228337e-05
3.748818704771181e-05   -7.36546933507152e-06   1.08260999228337e-05
3.748818704771181e-05   -7.36546933507152e-06   1.08260999228337e-05
3.748818704771181e-05   -7.36546933507152e-06   1.08260999228337e-05
5.0915497371669705e-05   -8.799262132521725e-06   3.152367604086526e-05
5.0915497371669705e-05   -8.799262132521725e-06   3.152367604086526e-05
5.0915497371669705e-05   -8.799262132521725e-06   3.152367604086526e-05
5.0915497371669705e-05   -8.799262132521725e-06   3.152367604086526e-05
2.4819483292451287e-05   -6.6705857671781055e-06   -1.0692474938626267e-05
2.4819483292451287e-05   -6.6705857671781055e-06   -1.0692474938626267e-05
2.4819483292451287e-05   -6.6705857671781055e-06   -1.0692474938626267e-05
2.4819483292451287e-05   -6.6705857671781055e-06   -1.0692474938626267e-05
2.3714272992905507e-05   -8.743790107493179e-06   2.7502803438717244e-05
2.3714272992905507e-05   -8.743790107493179e-06   2.7502803438717244e-05
2.3714272992905507e-05   -8.743790107493179e-06   2.7502803438717244e-05
2.3714272992905507e-05   -8.743790107493179e-06   2.7502803438717244e-05
4.8964957299405505e-05   -6.743614587078738e-06   -1.578177571769806e-05
4.8964957299405505e-05   -6.743614587078738e-06   -1.578177571769806e-05
4.8964957299405505e-05   -6.743614587078738e-06   -1.578177571769806e-05
4.8964957299405505e-05   -6.743614587078738e-06   -1.578177571769806e-05
3.5557661084079784e-05   -7.241075237885862e-06   6.862194364996052e-06
3.5557661084079784e-05   -7.241075237885862e-06   6.862194364996052e-06
3.5557661084079784e-05   -7.241075237885862e-06   6.862194364996052e-06
3.5557661084079784e-05   -7.241075237885862e-06   6.862194364996052e-06
2.700276739064707e-05   -2.692384429171975e-06   4.417661442502292e-05
2.700276739064707e-05   -2.692384429171975e-06   4.417661442502292e-05
2.700276739064707e-05   -2.692384429171975e-06   4.417661442502292e-05
2.700276739064707e-05   -2.692384429171975e-06   4.417661442502292e-05
1.1552241681098813e-06   -1.0698245899820429e-06   2.0709116243084434e-06
1.1552241681098813e-06   -1.0698245899820429e-06   2.0709116243084434e-06
1.1552241681098813e-06   -1.0698245899820429e-06   2.0709116243084434e-06
1.1552241681098813e-06   -1.0698245899820429e-06   2.0709116243084434e-06
1.6248443079086724e-07   -3.2393864861780634e-06   4.463679757807978e-05
1.6248443079086724e-07   -3.2393864861780634e-06   4.463679757807978e-05
1.6248443079086724e-07   -3.2393864861780634e-06   4.463679757807978e-05
1.6248443079086724e-07   -3.2393864861780634e-06   4.463679757807978e-05
2.5968609423839978e-05   -1.7057127362401017e-06   7.063850063684235e-07
2.5968609423839978e-05   -1.7057127362401017e-06   7.063850063684235e-07
2.5968609423839978e-05   -1.7057127362401017e-06   7.063850063684235e-07
2.5968609423839978e-05   -1.7057127362401017e-06   7.063850063684235e-07
1.3407597093653535e-05   -2.0962083382793963e-06   2.187570291790268e-05
1.3407597093653535e-05   -2.0962083382793963e-06   2.187570291790268e-05
1.3407597093653535e-05   -2.0962083382793963e-06   2.187570291790268e-05
1.3407597093653535e-05   -2.0962083382793963e-06   2.187570291790268e-05
2.596860942383995e-05   -3.2393864861780634e-06   4.371659332811677e-05
2.596860942383995e-05   -3.2393864861780634e-06   4.371659332811677e-05
2.596860942383995e-05   -3.2393864861780634e-06   4.371659332811677e-05
2.596860942383995e-05   -3.2393864861780634e-06   4.371659332811677e-05
1.6248443079086724e-07   -1.7057127362401017e-06   1.6265892563312439e-06
1.6248443079086724e-07   -1.7057127362401017e-06   1.6265892563312439e-06
1.6248443079086724e-07   -1.7057127362401017e-06   1.6265892563312439e-06
1.6248443079086724e-07   -1.7057127362401017e-06   1.6265892563312439e-06
-8.694037356549557e-07   -3.5981140617878486e-06   4.396518788892163e-05
-8.694037356549557e-07   -3.5981140617878486e-06   4.396518788892163e-05
-8.694037356549557e-07   -3.5981140617878486e-06   4.396518788892163e-05
-8.694037356549557e-07   -3.5981140617878486e-06   4.396518788892163e-05
2.4819483292451287e-05   -2.1781404421182538e-06   2.9839200360961583e-07
2.4819483292451287e-05   -2.1781404421182538e-06   2.9839200360961583e-07
2.4819483292451287e-05   -2.1781404421182538e-06   2.9839200360961583e-07
2.4819483292451287e-05   -2.1781404421182538e-06   2.9839200360961583e-07
1.2268014957881449e-05   -2.429399567170339e-06   2.1368261369591243e-05
1.2268014957881449e-05   -2.429399567170339e-06   2.1368261369591243e-05
1.2268014957881449e-05   -2.429399567170339e-06   2.1368261369591243e-05
1.2268014957881449e-05   -2.429399567170339e-06   2.1368261369591243e-05
2.4819483292451246e-05   -3.5981140617878486e-06   4.311320371711981e-05
2.4819483292451246e-05   -3.5981140617878486e-06   4.311320371711981e-05
2.4819483292451246e-05   -3.5981140617878486e-06   4.311320371711981e-05
2.4819483292451246e-05   -3.5981140617878486e-06   4.311320371711981e-05
-8.694037356549557e-07   -2.1781404421182538e-06   1.1503761754112427e-06
-8.694037356549557e-07   -2.1781404421182538e-06   1.1503761754112427e-06
-8.694037356549557e-07   -2.1781404421182538e-06   1.1503761754112427e-06
-8.694037356549557e-07   -2.1781404421182538e-06   1.1503761754112427e-06
-1.943670964666807e-06   -3.7518492834020395e-06   4.430376230416737e-05
-1.943670964666807e-06   -3.7518492834020395e-06   4.430376230416737e-05
-1.943670964666807e-06   -3.7518492834020395e-06   4.430376230416737e-05
-1.943670964666807e-06   -3.7518492834020395e-06   4.430376230416737e-05
2.3714272992905574e-05   -2.5508875457769253e-06   8.199453323050505e-07
2.3714272992905574e-05   -2.5508875457769253e-06   8.199453323050505e-07
2.3714272992905574e-05   -2.5508875457769253e-06   8.199453323050505e-07
2.3714272992905574e-05   -2.5508875457769253e-06   8.199453323050505e-07
1.1411100055432421e-05   -2.6083881043323896e-06   2.135973389656102e-05
1.1411100055432421e-05   -2.6083881043323896e-06   2.135973389656102e-05
1.1411100055432421e-05   -2.6083881043323896e-06   2.135973389656102e-05
1.1411100055432421e-05   -2.6083881043323896e-06   2.135973389656102e-05
1.1552241681098542e-06   2.3925221635506116e-06   4.56075657022701e-05
1.1552241681098542e-06   2.3925221635506116e-06   4.56075657022701e-05
1.1552241681098542e-06   2.3925221635506116e-06   4.56075657022701e-05
1.1552241681098542e-06   2.3925221635506116e-06   4.56075657022701e-05
-2.3937209656561532e-05   3.473271255220907e-06   4.435292116152997e-06
-2.3937209656561532e-05   3.473271255220907e-06   4.435292116152997e-06
-2.3937209656561532e-05   3.473271255220907e-06   4.435292116152997e-06
-2.3937209656561532e-05   3.473271255220907e-06   4.435292116152997e-06
-2.4974456331287924e-05   1.9738625683120813e-06   4.6235411738067625e-05
-2.4974456331287924e-05   1.9738625683120813e-06   4.6235411738067625e-05
-2.4974456331287924e-05   1.9738625683120813e-06   4.6235411738067625e-05
-2.4974456331287924e-05   1.9738625683120813e-06   4.6235411738067625e-05
1.6248443079086724e-07   2.9440662372278922e-06   3.7583882665870403e-06
1.6248443079086724e-07   2.9440662372278922e-06   3.7583882665870403e-06
1.6248443079086724e-07   2.9440662372278922e-06   3.7583882665870403e-06
1.6248443079086724e-07   2.9440662372278922e-06   3.7583882665870403e-06
-1.191692192318276e-05   2.7266914001901257e-06   2.402115709209914e-05
-1.191692192318276e-05   2.7266914001901257e-06   2.402115709209914e-05
-1.191692192318276e-05   2.7266914001901257e-06   2.402115709209914e-05
-1.191692192318276e-05   2.7266914001901257e-06   2.402115709209914e-05
1.6248443079086724e-07   1.9738625683120813e-06   4.565328953671832e-05
1.6248443079086724e-07   1.9738625683120813e-06   4.565328953671832e-05
1.6248443079086724e-07   1.9738625683120813e-06   4.565328953671832e-05
1.6248443079086724e-07   1.9738625683120813e-06   4.565328953671832e-05
-2.4974456331287924e-05   2.9440662372278922e-06   4.340510467936397e-06
-2.4974456331287924e-05   2.9440662372278922e-06   4.340510467936397e-06
-2.4974456331287924e-05   2.9440662372278922e-06   4.340510467936397e-06
-2.4974456331287924e-05   2.9440662372278922e-06   4.340510467936397e-06
-2.6069777361382578e-05   1.5841384604442857e-06   4.667181107648275e-05
-2.6069777361382578e-05   1.5841384604442857e-06   4.667181107648275e-05
-2.6069777361382578e-05   1.5841384604442857e-06   4.667181107648275e-05
-2.6069777361382578e-05   1.5841384604442857e-06   4.667181107648275e-05
-8.694037356549828e-07   2.4302055835123335e-06   4.163548093096036e-06
-8.694037356549828e-07   2.4302055835123335e-06   4.163548093096036e-06
-8.694037356549828e-07   2.4302055835123335e-06   4.163548093096036e-06
-8.694037356549828e-07   2.4302055835123335e-06   4.163548093096036e-06
-1.2880487064982475e-05   2.4245479077558436e-06   2.418541491409573e-05
-1.2880487064982475e-05   2.4245479077558436e-06   2.418541491409573e-05
-1.2880487064982475e-05   2.4245479077558436e-06   2.418541491409573e-05
-1.2880487064982475e-05   2.4245479077558436e-06   2.418541491409573e-05
-8.694037356549557e-07   1.5841384604442857e-06   4.616417080264212e-05
-8.694037356549557e-07   1.5841384604442857e-06   4.616417080264212e-05
-8.694037356549557e-07   1.5841384604442857e-06   4.616417080264212e-05
-8.694037356549557e-07   1.5841384604442857e-06   4.616417080264212e-05
-2.6069777361382578e-05   2.4302055835123335e-06   4.6711883669367776e-06
-2.6069777361382578e-05   2.4302055835123335e-06   4.6711883669367776e-06
-2.6069777361382578e-05   2.4302055835123335e-06   4.6711883669367776e-06
-2.6069777361382578e-05   2.4302055835123335e-06   4.6711883669367776e-06
-2.72000654575193e-05   1.3034242374110674e-06   4.736543398575787e-05
-2.72000654575193e-05   1.3034242374110674e-06   4.736543398575787e-05
-2.72000654575193e-05   1.3034242374110674e-06   4.736543398575787e-05
-2.72000654575193e-05   1.3034242374110674e-06   4.736543398575787e-05
-1.943670964666807e-06   1.972804045285905e-06   4.8698152796120605e-06
-1.943670964666807e-06   1.972804045285905e-06   4.8698152796120605e-06
-1.943670964666807e-06   1.972804045285905e-06   4.8698152796120605e-06
-1.943670964666807e-06   1.972804045285905e-06   4.8698152796120605e-06
-1.3923222440103441e-05   2.1350780112928524e-06   2.4738370025736566e-05
-1.3923222440103441e-05   2.1350780112928524e-06   2.4738370025736566e-05
-1.3923222440103441e-05   2.1350780112928524e-06   2.4738370025736566e-05
-1.3923222440103441e-05   2.1350780112928524e-06   2.4738370025736566e-05
-2.3937209656561614e-05   7.794469639073494e-06   3.9786569972035594e-05
-2.3937209656561614e-05   7.794469639073494e-06   3.9786569972035594e-05
-2.3937209656561614e-05   7.794469639073494e-06   3.9786569972035594e-05
-2.3937209656561614e-05   7.794469639073494e-06   3.9786569972035594e-05
-4.823865248202084e-05   7.893106341948838e-06   -6.566527153380793e-07
-4.823865248202084e-05   7.893106341948838e-06   -6.566527153380793e-07
-4.823865248202084e-05   7.893106341948838e-06   -6.566527153380793e-07
-4.823865248202084e-05   7.893106341948838e-06   -6.566527153380793e-07
-4.944283468123669e-05   7.374760698072337e-06   4.04831089248197e-05
-4.944283468123669e-05   7.374760698072337e-06   4.04831089248197e-05
-4.944283468123669e-05   7.374760698072337e-06   4.04831089248197e-05
-4.944283468123669e-05   7.374760698072337e-06   4.04831089248197e-05
-2.497445633128795e-05   7.387687557297313e-06   -3.0527777396282575e-07
-2.497445633128795e-05   7.387687557297313e-06   -3.0527777396282575e-07
-2.497445633128795e-05   7.387687557297313e-06   -3.0527777396282575e-07
-2.497445633128795e-05   7.387687557297313e-06   -3.0527777396282575e-07
-3.648451213355679e-05   7.594203086608818e-06   1.8754239245564715e-05
-3.648451213355679e-05   7.594203086608818e-06   1.8754239245564715e-05
-3.648451213355679e-05   7.594203086608818e-06   1.8754239245564715e-05
-3.648451213355679e-05   7.594203086608818e-06   1.8754239245564715e-05
-2.497445633128795e-05   7.374760698072337e-06   4.047535280928498e-05
-2.497445633128795e-05   7.374760698072337e-06   4.047535280928498e-05
-2.497445633128795e-05   7.374760698072337e-06   4.047535280928498e-05
-2.497445633128795e-05   7.374760698072337e-06   4.047535280928498e-05
-4.944283468123669e-05   7.387687557297313e-06   -2.975216584280571e-07
-4.944283468123669e-05   7.387687557297313e-06   -2.975216584280571e-07
-4.944283468123669e-05   7.387687557297313e-06   -2.975216584280571e-07
-4.944283468123669e-05   7.387687557297313e-06   -2.975216584280571e-07
-5.077748029737013e-05   6.986590794500619e-06   4.236477247631363e-05
-5.077748029737013e-05   6.986590794500619e-06   4.236477247631363e-05
-5.077748029737013e-05   6.986590794500619e-06   4.236477247631363e-05
-5.077748029737013e-05   6.986590794500619e-06   4.236477247631363e-05
-2.6069777361382632e-05   6.921806826088155e-06   1.224137964048579e-06
-2.6069777361382632e-05   6.921806826088155e-06   1.224137964048579e-06
-2.6069777361382632e-05   6.921806826088155e-06   1.224137964048579e-06
-2.6069777361382632e-05   6.921806826088155e-06   1.224137964048579e-06
-3.735524170111722e-05   7.308729321000001e-06   1.9801091699992715e-05
-3.735524170111722e-05   7.308729321000001e-06   1.9801091699992715e-05
-3.735524170111722e-05   7.308729321000001e-06   1.9801091699992715e-05
-3.735524170111722e-05   7.308729321000001e-06   1.9801091699992715e-05
-2.6069777361382632e-05   6.986590794500619e-06   4.240364285736136e-05
-2.6069777361382632e-05   6.986590794500619e-06   4.240364285736136e-05
-2.6069777361382632e-05   6.986590794500619e-06   4.240364285736136e-05
-2.6069777361382632e-05   6.986590794500619e-06   4.240364285736136e-05
-5.077748029737013e-05   6.921806826088155e-06   1.185267583001014e-06
-5.077748029737013e-05   6.921806826088155e-06   1.185267583001014e-06
-5.077748029737013e-05   6.921806826088155e-06   1.185267583001014e-06
-5.077748029737013e-05   6.921806826088155e-06   1.185267583001014e-06
-5.2049474303714714e-05   6.464767726920527e-06   4.372332877967066e-05
-5.2049474303714714e-05   6.464767726920527e-06   4.372332877967066e-05
-5.2049474303714714e-05   6.464767726920527e-06   4.372332877967066e-05
-5.2049474303714714e-05   6.464767726920527e-06   4.372332877967066e-05
-2.72000654575193e-05   6.352911289409218e-06   2.374761231851725e-06
-2.72000654575193e-05   6.352911289409218e-06   2.374761231851725e-06
-2.72000654575193e-05   6.352911289409218e-06   2.374761231851725e-06
-2.72000654575193e-05   6.352911289409218e-06   2.374761231851725e-06
-3.874016061340257e-05   6.938014142786287e-06   2.1257191446298705e-05
-3.874016061340257e-05   6.938014142786287e-06   2.1257191446298705e-05
-3.874016061340257e-05   6.938014142786287e-06   2.1257191446298705e-05
-3.874016061340257e-05   6.938014142786287e-06   2.1257191446298705e-05
-4.823865248202076e-05   1.2676334538368455e-05   1.912176232882017e-05
-4.823865248202076e-05   1.2676334538368455e-05   1.912176232882017e-05
-4.823865248202076e-05   1.2676334538368455e-05   1.912176232882017e-05
-4.823865248202076e-05   1.2676334538368455e-05   1.912176232882017e-05
-7.13286563278393e-05   1.1363387659721075e-05   -2.0149345541399326e-05
-7.13286563278393e-05   1.1363387659721075e-05   -2.0149345541399326e-05
-7.13286563278393e-05   1.1363387659721075e-05   -2.0149345541399326e-05
-7.13286563278393e-05   1.1363387659721075e-05   -2.0149345541399326e-05
-7.322495478496798e-05   1.2919520539596795e-05   2.6518647475209196e-05
-7.322495478496798e-05   1.2919520539596795e-05   2.6518647475209196e-05
-7.322495478496798e-05   1.2919520539596795e-05   2.6518647475209196e-05
-7.322495478496798e-05   1.2919520539596795e-05   2.6518647475209196e-05
-4.944283468123669e-05   1.148364190569056e-05   -1.2256692183999773e-05
-4.944283468123669e-05   1.148364190569056e-05   -1.2256692183999773e-05
-4.944283468123669e-05   1.148364190569056e-05   -1.2256692183999773e-05
-4.944283468123669e-05   1.148364190569056e-05   -1.2256692183999773e-05
-5.8239976979449946e-05   1.2040257788627955e-05   2.0712421165935664e-06
-5.8239976979449946e-05   1.2040257788627955e-05   2.0712421165935664e-06
-5.8239976979449946e-05   1.2040257788627955e-05   2.0712421165935664e-06
-5.8239976979449946e-05   1.2040257788627955e-05   2.0712421165935664e-06
-4.944283468123658e-05   1.2919520539596795e-05   2.7380174655552633e-05
-4.944283468123658e-05   1.2919520539596795e-05   2.7380174655552633e-05
-4.944283468123658e-05   1.2919520539596795e-05   2.7380174655552633e-05
-4.944283468123658e-05   1.2919520539596795e-05   2.7380174655552633e-05
-7.322495478496809e-05   1.148364190569056e-05   -1.3118219364343427e-05
-7.322495478496809e-05   1.148364190569056e-05   -1.3118219364343427e-05
-7.322495478496809e-05   1.148364190569056e-05   -1.3118219364343427e-05
-7.322495478496809e-05   1.148364190569056e-05   -1.3118219364343427e-05
-7.507663855890783e-05   1.2826449112955229e-05   3.2278640391058275e-05
-7.507663855890783e-05   1.2826449112955229e-05   3.2278640391058275e-05
-7.507663855890783e-05   1.2826449112955229e-05   3.2278640391058275e-05
-7.507663855890783e-05   1.2826449112955229e-05   3.2278640391058275e-05
-5.077748029737013e-05   1.1357174109338525e-05   -7.338391709334636e-06
-5.077748029737013e-05   1.1357174109338525e-05   -7.338391709334636e-06
-5.077748029737013e-05   1.1357174109338525e-05   -7.338391709334636e-06
-5.077748029737013e-05   1.1357174109338525e-05   -7.338391709334636e-06
-6.056949985100573e-05   1.2259937469568478e-05   8.439982863920844e-06
-6.056949985100573e-05   1.2259937469568478e-05   8.439982863920844e-06
-6.056949985100573e-05   1.2259937469568478e-05   8.439982863920844e-06
-6.056949985100573e-05   1.2259937469568478e-05   8.439982863920844e-06
-5.077748029737013e-05   1.2826449112955662e-05   3.31602053932287e-05
-5.077748029737013e-05   1.2826449112955662e-05   3.31602053932287e-05
-5.077748029737013e-05   1.2826449112955662e-05   3.31602053932287e-05
-5.077748029737013e-05   1.2826449112955662e-05   3.31602053932287e-05
-7.507663855890799e-05   1.1357174109338525e-05   -8.219956711504788e-06
-7.507663855890799e-05   1.1357174109338525e-05   -8.219956711504788e-06
-7.507663855890799e-05   1.1357174109338525e-05   -8.219956711504788e-06
-7.507663855890799e-05   1.1357174109338525e-05   -8.219956711504788e-06
-7.72392284759289e-05   1.1807633575892668e-05   4.2146846104095925e-05
-7.72392284759289e-05   1.1807633575892668e-05   4.2146846104095925e-05
-7.72392284759289e-05   1.1807633575892668e-05   4.2146846104095925e-05
-7.72392284759289e-05   1.1807633575892668e-05   4.2146846104095925e-05
-5.204947430371466e-05   1.0481250951533978e-05   9.597520583539895e-07
-5.204947430371466e-05   1.0481250951533978e-05   9.597520583539895e-07
-5.204947430371466e-05   1.0481250951533978e-05   9.597520583539895e-07
-5.204947430371466e-05   1.0481250951533978e-05   9.597520583539895e-07
-6.116171497286575e-05   1.1898576898526332e-05   1.5296424272076927e-05
-6.116171497286575e-05   1.1898576898526332e-05   1.5296424272076927e-05
-6.116171497286575e-05   1.1898576898526332e-05   1.5296424272076927e-05
-6.116171497286575e-05   1.1898576898526332e-05   1.5296424272076927e-05
4.13977090094421e-05   -5.593705539796642e-06   3.513646719389114e-05
4.13977090094421e-05   -5.593705539796642e-06   3.513646719389114e-05
4.13977090094421e-05   -5.593705539796642e-06   3.513646719389114e-05
4.13977090094421e-05   -5.593705539796642e-06   3.513646719389114e-05
1.9489556705878373e-05   -3.6960361233522206e-06   -2.3851832884821955e-07
1.9489556705878373e-05   -3.6960361233522206e-06   -2.3851832884821955e-07
1.9489556705878373e-05   -3.6960361233522206e-06   -2.3851832884821955e-07
1.9489556705878373e-05   -3.6960361233522206e-06   -2.3851832884821955e-07
1.856597071375901e-05   -6.490404331576955e-06   3.087369546753843e-05
1.856597071375901e-05   -6.490404331576955e-06   3.087369546753843e-05
1.856597071375901e-05   -6.490404331576955e-06   3.087369546753843e-05
1.856597071375901e-05   -6.490404331576955e-06   3.087369546753843e-05
3.9610817888343866e-05   -4.486289501648075e-06   -5.403518721393708e-06
3.9610817888343866e-05   -4.486289501648075e-06   -5.403518721393708e-06
3.9610817888343866e-05   -4.486289501648075e-06   -5.403518721393708e-06
3.9610817888343866e-05   -4.486289501648075e-06   -5.403518721393708e-06
2.8365763995912016e-05   -5.1052650807347465e-06   1.3709623113444835e-05
2.8365763995912016e-05   -5.1052650807347465e-06   1.3709623113444835e-05
2.8365763995912016e-05   -5.1052650807347465e-06   1.3709623113444835e-05
2.8365763995912016e-05   -5.1052650807347465e-06   1.3709623113444835e-05
3.96108178883438e-05   -6.490404331577389e-06   2.967122656958111e-05
3.96108178883438e-05   -6.490404331577389e-06   2.967122656958111e-05
3.96108178883438e-05   -6.490404331577389e-06   2.967122656958111e-05
3.96108178883438e-05   -6.490404331577389e-06   2.967122656958111e-05
1.8565970713759045e-05   -4.486289501648075e-06   -4.201049823436076e-06
1.8565970713759045e-05   -4.486289501648075e-06   -4.201049823436076e-06
1.8565970713759045e-05   -4.486289501648075e-06   -4.201049823436076e-06
1.8565970713759045e-05   -4.486289501648075e-06   -4.201049823436076e-06
1.7546621475616572e-05   -6.6705857671781055e-06   2.787722994541963e-05
1.7546621475616572e-05   -6.6705857671781055e-06   2.787722994541963e-05
1.7546621475616572e-05   -6.6705857671781055e-06   2.787722994541963e-05
1.7546621475616572e-05   -6.6705857671781055e-06   2.787722994541963e-05
3.804487873427241e-05   -4.697452104294227e-06   -7.470412350070411e-06
3.804487873427241e-05   -4.697452104294227e-06   -7.470412350070411e-06
3.804487873427241e-05   -4.697452104294227e-06   -7.470412350070411e-06
3.804487873427241e-05   -4.697452104294227e-06   -7.470412350070411e-06
2.7624853331937127e-05   -5.425863486058138e-06   1.033334348288055e-05
2.7624853331937127e-05   -5.425863486058138e-06   1.033334348288055e-05
2.7624853331937127e-05   -5.425863486058138e-06   1.033334348288055e-05
2.7624853331937127e-05   -5.425863486058138e-06   1.033334348288055e-05
3.804487873427234e-05   -6.6705857671781055e-06   2.6693349747689303e-05
3.804487873427234e-05   -6.6705857671781055e-06   2.6693349747689303e-05
3.804487873427234e-05   -6.6705857671781055e-06   2.6693349747689303e-05
3.804487873427234e-05   -6.6705857671781055e-06   2.6693349747689303e-05
1.75466214756166e-05   -4.697452104294227e-06   -6.286532152340084e-06
1.75466214756166e-05   -4.697452104294227e-06   -6.286532152340084e-06
1.75466214756166e-05   -4.697452104294227e-06   -6.286532152340084e-06
1.75466214756166e-05   -4.697452104294227e-06   -6.286532152340084e-06
1.660542608843406e-05   -6.743614587078305e-06   2.3819424231304826e-05
1.660542608843406e-05   -6.743614587078305e-06   2.3819424231304826e-05
1.660542608843406e-05   -6.743614587078305e-06   2.3819424231304826e-05
1.660542608843406e-05   -6.743614587078305e-06   2.3819424231304826e-05
3.629538231775294e-05   -4.895014894198274e-06   -1.0106329299954886e-05
3.629538231775294e-05   -4.895014894198274e-06   -1.0106329299954886e-05
3.629538231775294e-05   -4.895014894198274e-06   -1.0106329299954886e-05
3.629538231775294e-05   -4.895014894198274e-06   -1.0106329299954886e-05
2.5990593199504647e-05   -5.39492918564719e-06   7.368267805328262e-06
2.5990593199504647e-05   -5.39492918564719e-06   7.368267805328262e-06
2.5990593199504647e-05   -5.39492918564719e-06   7.368267805328262e-06
2.5990593199504647e-05   -5.39492918564719e-06   7.368267805328262e-06
1.9489556705878312e-05   -1.0698245899820429e-06   3.995709042042462e-05
1.9489556705878312e-05   -1.0698245899820429e-06   3.995709042042462e-05
1.9489556705878312e-05   -1.0698245899820429e-06   3.995709042042462e-05
1.9489556705878312e-05   -1.0698245899820429e-06   3.995709042042462e-05
-1.247228983168022e-06   -1.8545812960433367e-08   6.026548204893711e-06
-1.247228983168022e-06   -1.8545812960433367e-08   6.026548204893711e-06
-1.247228983168022e-06   -1.8545812960433367e-08   6.026548204893711e-06
-1.247228983168022e-06   -1.8545812960433367e-08   6.026548204893711e-06
-2.115492385290163e-06   -1.7057127362401017e-06   4.002805517251402e-05
-2.115492385290163e-06   -1.7057127362401017e-06   4.002805517251402e-05
-2.115492385290163e-06   -1.7057127362401017e-06   4.002805517251402e-05
-2.115492385290163e-06   -1.7057127362401017e-06   4.002805517251402e-05
1.8565970713759045e-05   -7.060167633212572e-07   4.959132423680871e-06
1.8565970713759045e-05   -7.060167633212572e-07   4.959132423680871e-06
1.8565970713759045e-05   -7.060167633212572e-07   4.959132423680871e-06
1.8565970713759045e-05   -7.060167633212572e-07   4.959132423680871e-06
8.532712457972737e-06   -8.999655299218087e-07   2.179759877661818e-05
8.532712457972737e-06   -8.999655299218087e-07   2.179759877661818e-05
8.532712457972737e-06   -8.999655299218087e-07   2.179759877661818e-05
8.532712457972737e-06   -8.999655299218087e-07   2.179759877661818e-05
1.8565970713758957e-05   -1.705712736239668e-06   3.94282375887627e-05
1.8565970713758957e-05   -1.705712736239668e-06   3.94282375887627e-05
1.8565970713758957e-05   -1.705712736239668e-06   3.94282375887627e-05
1.8565970713758957e-05   -1.705712736239668e-06   3.94282375887627e-05
-2.115492385290163e-06   -7.060167633212572e-07   5.558950007432005e-06
-2.115492385290163e-06   -7.060167633212572e-07   5.558950007432005e-06
-2.115492385290163e-06   -7.060167633212572e-07   5.558950007432005e-06
-2.115492385290163e-06   -7.060167633212572e-07   5.558950007432005e-06
-3.002214184408351e-06   -2.1781404421182538e-06   3.942617273563847e-05
-3.002214184408351e-06   -2.1781404421182538e-06   3.942617273563847e-05
-3.002214184408351e-06   -2.1781404421182538e-06   3.942617273563847e-05
-3.002214184408351e-06   -2.1781404421182538e-06   3.942617273563847e-05
1.75466214756166e-05   -1.2480140288121007e-06   4.62003745428023e-06
1.75466214756166e-05   -1.2480140288121007e-06   4.62003745428023e-06
1.75466214756166e-05   -1.2480140288121007e-06   4.62003745428023e-06
1.75466214756166e-05   -1.2480140288121007e-06   4.62003745428023e-06
7.558909360935726e-06   -1.3242892341711488e-06   2.1311989435298545e-05
7.558909360935726e-06   -1.3242892341711488e-06   2.1311989435298545e-05
7.558909360935726e-06   -1.3242892341711488e-06   2.1311989435298545e-05
7.558909360935726e-06   -1.3242892341711488e-06   2.1311989435298545e-05
1.7546621475616572e-05   -2.1781404421182538e-06   3.8868096887655133e-05
1.7546621475616572e-05   -2.1781404421182538e-06   3.8868096887655133e-05
1.7546621475616572e-05   -2.1781404421182538e-06   3.8868096887655133e-05
1.7546621475616572e-05   -2.1781404421182538e-06   3.8868096887655133e-05
-3.002214184408351e-06   -1.2480140288121007e-06   5.1781133022636185e-06
-3.002214184408351e-06   -1.2480140288121007e-06   5.1781133022636185e-06
-3.002214184408351e-06   -1.2480140288121007e-06   5.1781133022636185e-06
-3.002214184408351e-06   -1.2480140288121007e-06   5.1781133022636185e-06
-3.893737464038795e-06   -2.5508875457769253e-06   3.970150990596408e-05
-3.893737464038795e-06   -2.5508875457769253e-06   3.970150990596408e-05
-3.893737464038795e-06   -2.5508875457769253e-06   3.970150990596408e-05
-3.893737464038795e-06   -2.5508875457769253e-06   3.970150990596408e-05
1.6605426088434075e-05   -1.7501043176018811e-06   5.0557673816043446e-06
1.6605426088434075e-05   -1.7501043176018811e-06   5.0557673816043446e-06
1.6605426088434075e-05   -1.7501043176018811e-06   5.0557673816043446e-06
1.6605426088434075e-05   -1.7501043176018811e-06   5.0557673816043446e-06
6.815107432596004e-06   -1.6385182198209915e-06   2.1306013482665846e-05
6.815107432596004e-06   -1.6385182198209915e-06   2.1306013482665846e-05
6.815107432596004e-06   -1.6385182198209915e-06   2.1306013482665846e-05
6.815107432596004e-06   -1.6385182198209915e-06   2.1306013482665846e-05
-1.2472289831680491e-06   3.473271255220907e-06   4.2303788723480344e-05
-1.2472289831680491e-06   3.473271255220907e-06   4.2303788723480344e-05
-1.2472289831680491e-06   3.473271255220907e-06   4.2303788723480344e-05
-1.2472289831680491e-06   3.473271255220907e-06   4.2303788723480344e-05
-2.1548963766083735e-05   3.5748160279523537e-06   8.528490948926746e-06
-2.1548963766083735e-05   3.5748160279523537e-06   8.528490948926746e-06
-2.1548963766083735e-05   3.5748160279523537e-06   8.528490948926746e-06
-2.1548963766083735e-05   3.5748160279523537e-06   8.528490948926746e-06
-2.242186608723167e-05   2.9440662372278922e-06   4.217579482760671e-05
-2.242186608723167e-05   2.9440662372278922e-06   4.217579482760671e-05
-2.242186608723167e-05   2.9440662372278922e-06   4.217579482760671e-05
-2.242186608723167e-05   2.9440662372278922e-06   4.217579482760671e-05
-2.115492385290163e-06   2.9706339786227803e-06   8.315898012867251e-06
-2.115492385290163e-06   2.9706339786227803e-06   8.315898012867251e-06
-2.115492385290163e-06   2.9706339786227803e-06   8.315898012867251e-06
-2.115492385290163e-06   2.9706339786227803e-06   8.315898012867251e-06
-1.1864106845497287e-05   3.1841163616003025e-06   2.4435499350092694e-05
-1.1864106845497287e-05   3.1841163616003025e-06   2.4435499350092694e-05
-1.1864106845497287e-05   3.1841163616003025e-06   2.4435499350092694e-05
-1.1864106845497287e-05   3.1841163616003025e-06   2.4435499350092694e-05
-2.115492385290163e-06   2.9440662372278922e-06   4.2159854182770035e-05
-2.115492385290163e-06   2.9440662372278922e-06   4.2159854182770035e-05
-2.115492385290163e-06   2.9440662372278922e-06   4.2159854182770035e-05
-2.115492385290163e-06   2.9440662372278922e-06   4.2159854182770035e-05
-2.242186608723167e-05   2.9706339786227803e-06   8.33183865770414e-06
-2.242186608723167e-05   2.9706339786227803e-06   8.33183865770414e-06
-2.242186608723167e-05   2.9706339786227803e-06   8.33183865770414e-06
-2.242186608723167e-05   2.9706339786227803e-06   8.33183865770414e-06
-2.3316585544375877e-05   2.4302055835123335e-06   4.240684275779653e-05
-2.3316585544375877e-05   2.4302055835123335e-06   4.240684275779653e-05
-2.3316585544375877e-05   2.4302055835123335e-06   4.240684275779653e-05
-2.3316585544375877e-05   2.4302055835123335e-06   4.240684275779653e-05
-3.002214184408351e-06   2.376035757634381e-06   8.58205905337724e-06
-3.002214184408351e-06   2.376035757634381e-06   8.58205905337724e-06
-3.002214184408351e-06   2.376035757634381e-06   8.58205905337724e-06
-3.002214184408351e-06   2.376035757634381e-06   8.58205905337724e-06
-1.2674595996344028e-05   2.777840365979743e-06   2.4461612641597428e-05
-1.2674595996344028e-05   2.777840365979743e-06   2.4461612641597428e-05
-1.2674595996344028e-05   2.777840365979743e-06   2.4461612641597428e-05
-1.2674595996344028e-05   2.777840365979743e-06   2.4461612641597428e-05
-3.002214184408351e-06   2.4302055835123335e-06   4.2439344653323206e-05
-3.002214184408351e-06   2.4302055835123335e-06   4.2439344653323206e-05
-3.002214184408351e-06   2.4302055835123335e-06   4.2439344653323206e-05
-3.002214184408351e-06   2.4302055835123335e-06   4.2439344653323206e-05
-2.331658554437593e-05   2.376035757634381e-06   8.549557157850511e-06
-2.331658554437593e-05   2.376035757634381e-06   8.549557157850511e-06
-2.331658554437593e-05   2.376035757634381e-06   8.549557157850511e-06
-2.331658554437593e-05   2.376035757634381e-06   8.549557157850511e-06
-2.4210966378936956e-05   1.972804045285905e-06   4.2934202158052565e-05
-2.4210966378936956e-05   1.972804045285905e-06   4.2934202158052565e-05
-2.4210966378936956e-05   1.972804045285905e-06   4.2934202158052565e-05
-2.4210966378936956e-05   1.972804045285905e-06   4.2934202158052565e-05
-3.893737464038822e-06   1.8118029575472407e-06   9.168754619199313e-06
-3.893737464038822e-06   1.8118029575472407e-06   9.168754619199313e-06
-3.893737464038822e-06   1.8118029575472407e-06   9.168754619199313e-06
-3.893737464038822e-06   1.8118029575472407e-06   9.168754619199313e-06
-1.3523088558751382e-05   2.3819368380033085e-06   2.487559278211305e-05
-1.3523088558751382e-05   2.3819368380033085e-06   2.487559278211305e-05
-1.3523088558751382e-05   2.3819368380033085e-06   2.487559278211305e-05
-1.3523088558751382e-05   2.3819368380033085e-06   2.487559278211305e-05
-2.1548963766083735e-05   7.893106341948404e-06   3.721358873390345e-05
-2.1548963766083735e-05   7.893106341948404e-06   3.721358873390345e-05
-2.1548963766083735e-05   7.893106341948404e-06   3.721358873390345e-05
-2.1548963766083735e-05   7.893106341948404e-06   3.721358873390345e-05
-4.140128213842931e-05   7.032656431224613e-06   3.610121500226141e-06
-4.140128213842931e-05   7.032656431224613e-06   3.610121500226141e-06
-4.140128213842931e-05   7.032656431224613e-06   3.610121500226141e-06
-4.140128213842931e-05   7.032656431224613e-06   3.610121500226141e-06
-4.234051301468361e-05   7.387687557297313e-06   3.696975009822743e-05
-4.234051301468361e-05   7.387687557297313e-06   3.696975009822743e-05
-4.234051301468361e-05   7.387687557297313e-06   3.696975009822743e-05
-4.234051301468361e-05   7.387687557297313e-06   3.696975009822743e-05
-2.2421866087231698e-05   6.453926744830196e-06   4.332261706620688e-06
-2.2421866087231698e-05   6.453926744830196e-06   4.332261706620688e-06
-2.2421866087231698e-05   6.453926744830196e-06   4.332261706620688e-06
-2.2421866087231698e-05   6.453926744830196e-06   4.332261706620688e-06
-3.1822696117286055e-05   7.09819177239948e-06   1.9613752740169977e-05
-3.1822696117286055e-05   7.09819177239948e-06   1.9613752740169977e-05
-3.1822696117286055e-05   7.09819177239948e-06   1.9613752740169977e-05
-3.1822696117286055e-05   7.09819177239948e-06   1.9613752740169977e-05
-2.242186608723167e-05   7.387687557296879e-06   3.753000658570743e-05
-2.242186608723167e-05   7.387687557296879e-06   3.753000658570743e-05
-2.242186608723167e-05   7.387687557296879e-06   3.753000658570743e-05
-2.242186608723167e-05   7.387687557296879e-06   3.753000658570743e-05
-4.2340513014683554e-05   6.453926744830196e-06   3.7720052191408514e-06
-4.2340513014683554e-05   6.453926744830196e-06   3.7720052191408514e-06
-4.2340513014683554e-05   6.453926744830196e-06   3.7720052191408514e-06
-4.2340513014683554e-05   6.453926744830196e-06   3.7720052191408514e-06
-4.337451456716155e-05   6.921806826088155e-06   3.835558707616319e-05
-4.337451456716155e-05   6.921806826088155e-06   3.835558707616319e-05
-4.337451456716155e-05   6.921806826088155e-06   3.835558707616319e-05
-4.337451456716155e-05   6.921806826088155e-06   3.835558707616319e-05
-2.331658554437593e-05   5.914798028179222e-06   5.529910650265693e-06
-2.331658554437593e-05   5.914798028179222e-06   5.529910650265693e-06
-2.331658554437593e-05   5.914798028179222e-06   5.529910650265693e-06
-2.331658554437593e-05   5.914798028179222e-06   5.529910650265693e-06
-3.249712600700421e-05   6.728663377650454e-06   2.0342492211631387e-05
-3.249712600700421e-05   6.728663377650454e-06   2.0342492211631387e-05
-3.249712600700421e-05   6.728663377650454e-06   2.0342492211631387e-05
-3.249712600700421e-05   6.728663377650454e-06   2.0342492211631387e-05
-2.331658554437593e-05   6.921806826088155e-06   3.895979235490844e-05
-2.331658554437593e-05   6.921806826088155e-06   3.895979235490844e-05
-2.331658554437593e-05   6.921806826088155e-06   3.895979235490844e-05
-2.331658554437593e-05   6.921806826088155e-06   3.895979235490844e-05
-4.33745145671615e-05   5.914798028179222e-06   4.925705371520549e-06
-4.33745145671615e-05   5.914798028179222e-06   4.925705371520549e-06
-4.33745145671615e-05   5.914798028179222e-06   4.925705371520549e-06
-4.33745145671615e-05   5.914798028179222e-06   4.925705371520549e-06
-4.4320024808690674e-05   6.352911289409218e-06   3.939801788623758e-05
-4.4320024808690674e-05   6.352911289409218e-06   3.939801788623758e-05
-4.4320024808690674e-05   6.352911289409218e-06   3.939801788623758e-05
-4.4320024808690674e-05   6.352911289409218e-06   3.939801788623758e-05
-2.421096637893701e-05   5.287074057192757e-06   6.522422842644704e-06
-2.421096637893701e-05   5.287074057192757e-06   6.522422842644704e-06
-2.421096637893701e-05   5.287074057192757e-06   6.522422842644704e-06
-2.421096637893701e-05   5.287074057192757e-06   6.522422842644704e-06
-3.356969291249109e-05   6.3119573781836216e-06   2.1505370405973856e-05
-3.356969291249109e-05   6.3119573781836216e-06   2.1505370405973856e-05
-3.356969291249109e-05   6.3119573781836216e-06   2.1505370405973856e-05
-3.356969291249109e-05   6.3119573781836216e-06   2.1505370405973856e-05
-4.140128213842931e-05   1.1363387659721075e-05   1.7992394088595727e-05
-4.140128213842931e-05   1.1363387659721075e-05   1.7992394088595727e-05
-4.140128213842931e-05   1.1363387659721075e-05   1.7992394088595727e-05
-4.140128213842931e-05   1.1363387659721075e-05   1.7992394088595727e-05
-6.025062968545002e-05   9.69068628288959e-06   -1.4426805982537547e-05
-6.025062968545002e-05   9.69068628288959e-06   -1.4426805982537547e-05
-6.025062968545002e-05   9.69068628288959e-06   -1.4426805982537547e-05
-6.025062968545002e-05   9.69068628288959e-06   -1.4426805982537547e-05
-6.193846453772831e-05   1.148364190569056e-05   2.3905470882758196e-05
-6.193846453772831e-05   1.148364190569056e-05   2.3905470882758196e-05
-6.193846453772831e-05   1.148364190569056e-05   2.3905470882758196e-05
-6.193846453772831e-05   1.148364190569056e-05   2.3905470882758196e-05
-4.234051301468361e-05   9.641794089195344e-06   -7.652672965752488e-06
-4.234051301468361e-05   9.641794089195344e-06   -7.652672965752488e-06
-4.234051301468361e-05   9.641794089195344e-06   -7.652672965752488e-06
-4.234051301468361e-05   9.641794089195344e-06   -7.652672965752488e-06
-4.952410481299087e-05   1.039061065259651e-05   3.870690093385433e-06
-4.952410481299087e-05   1.039061065259651e-05   3.870690093385433e-06
-4.952410481299087e-05   1.039061065259651e-05   3.870690093385433e-06
-4.952410481299087e-05   1.039061065259651e-05   3.870690093385433e-06
-4.2340513014683446e-05   1.148364190569056e-05   2.5010579572655608e-05
-4.2340513014683446e-05   1.148364190569056e-05   2.5010579572655608e-05
-4.2340513014683446e-05   1.148364190569056e-05   2.5010579572655608e-05
-4.2340513014683446e-05   1.148364190569056e-05   2.5010579572655608e-05
-6.193846453772848e-05   9.64179408919491e-06   -8.75778165564979e-06
-6.193846453772848e-05   9.64179408919491e-06   -8.75778165564979e-06
-6.193846453772848e-05   9.64179408919491e-06   -8.75778165564979e-06
-6.193846453772848e-05   9.64179408919491e-06   -8.75778165564979e-06
-6.344979712760848e-05   1.1357174109338525e-05   2.8684723636511998e-05
-6.344979712760848e-05   1.1357174109338525e-05   2.8684723636511998e-05
-6.344979712760848e-05   1.1357174109338525e-05   2.8684723636511998e-05
-6.344979712760848e-05   1.1357174109338525e-05   2.8684723636511998e-05
-4.337451456716155e-05   9.445167197146172e-06   -3.626876483584342e-06
-4.337451456716155e-05   9.445167197146172e-06   -3.626876483584342e-06
-4.337451456716155e-05   9.445167197146172e-06   -3.626876483584342e-06
-4.337451456716155e-05   9.445167197146172e-06   -3.626876483584342e-06
-5.1463437380982796e-05   1.0505201143609644e-05   9.218641171574945e-06
-5.1463437380982796e-05   1.0505201143609644e-05   9.218641171574945e-06
-5.1463437380982796e-05   1.0505201143609644e-05   9.218641171574945e-06
-5.1463437380982796e-05   1.0505201143609644e-05   9.218641171574945e-06
-4.337451456716155e-05   1.1357174109338525e-05   2.9831927783827432e-05
-4.337451456716155e-05   1.1357174109338525e-05   2.9831927783827432e-05
-4.337451456716155e-05   1.1357174109338525e-05   2.9831927783827432e-05
-4.337451456716155e-05   1.1357174109338525e-05   2.9831927783827432e-05
-6.344979712760853e-05   9.445167197146172e-06   -4.774080630899776e-06
-6.344979712760853e-05   9.445167197146172e-06   -4.774080630899776e-06
-6.344979712760853e-05   9.445167197146172e-06   -4.774080630899776e-06
-6.344979712760853e-05   9.445167197146172e-06   -4.774080630899776e-06
-6.518651443695816e-05   1.0481250951533978e-05   3.690826809839309e-05
-6.518651443695816e-05   1.0481250951533978e-05   3.690826809839309e-05
-6.518651443695816e-05   1.0481250951533978e-05   3.690826809839309e-05
-6.518651443695816e-05   1.0481250951533978e-05   3.690826809839309e-05
-4.432002480869062e-05   8.578160156777568e-06   3.272639861466673e-06
-4.432002480869062e-05   8.578160156777568e-06   3.272639861466673e-06
-4.432002480869062e-05   8.578160156777568e-06   3.272639861466673e-06
-4.432002480869062e-05   8.578160156777568e-06   3.272639861466673e-06
-5.1879173043614495e-05   1.0145769852447448e-05   1.4930654435604145e-05
-5.1879173043614495e-05   1.0145769852447448e-05   1.4930654435604145e-05
-5.1879173043614495e-05   1.0145769852447448e-05   1.4930654435604145e-05
-5.1879173043614495e-05   1.0145769852447448e-05   1.4930654435604145e-05
2.851601582462832e-05   -3.6960361233522206e-06   2.8599720180975025e-05
2.851601582462832e-05   -3.6960361233522206e-06   2.8599720180975025e-05
2.851601582462832e-05   -3.6960361233522206e-06   2.8599720180975025e-05
2.851601582462832e-05   -3.6960361233522206e-06   2.8599720180975025e-05
1.183204322557252e-05   -1.816022670128115e-06   1.92110725448307e-06
1.183204322557252e-05   -1.816022670128115e-06   1.92110725448307e-06
1.183204322557252e-05   -1.816022670128115e-06   1.92110725448307e-06
1.183204322557252e-05   -1.816022670128115e-06   1.92110725448307e-06
1.1089302335986394e-05   -4.486289501648075e-06   2.5714378133210756e-05
1.1089302335986394e-05   -4.486289501648075e-06   2.5714378133210756e-05
1.1089302335986394e-05   -4.486289501648075e-06   2.5714378133210756e-05
1.1089302335986394e-05   -4.486289501648075e-06   2.5714378133210756e-05
2.6935128710994925e-05   -2.522726759843089e-06   -1.8734701368863446e-06
2.6935128710994925e-05   -2.522726759843089e-06   -1.8734701368863446e-06
2.6935128710994925e-05   -2.522726759843089e-06   -1.8734701368863446e-06
2.6935128710994925e-05   -2.522726759843089e-06   -1.8734701368863446e-06
1.8618235779108267e-05   -3.2055497934162453e-06   1.2397711903069301e-05
1.8618235779108267e-05   -3.2055497934162453e-06   1.2397711903069301e-05
1.8618235779108267e-05   -3.2055497934162453e-06   1.2397711903069301e-05
1.8618235779108267e-05   -3.2055497934162453e-06   1.2397711903069301e-05
2.6935128710994966e-05   -4.486289501648075e-06   2.453624048812801e-05
2.6935128710994966e-05   -4.486289501648075e-06   2.453624048812801e-05
2.6935128710994966e-05   -4.486289501648075e-06   2.453624048812801e-05
2.6935128710994966e-05   -4.486289501648075e-06   2.453624048812801e-05
1.1089302335986357e-05   -2.522726759843089e-06   -6.953324918033965e-07
1.1089302335986357e-05   -2.522726759843089e-06   -6.953324918033965e-07
1.1089302335986357e-05   -2.522726759843089e-06   -6.953324918033965e-07
1.1089302335986357e-05   -2.522726759843089e-06   -6.953324918033965e-07
1.0255171914441087e-05   -4.697452104294227e-06   2.3571584395642347e-05
1.0255171914441087e-05   -4.697452104294227e-06   2.3571584395642347e-05
1.0255171914441087e-05   -4.697452104294227e-06   2.3571584395642347e-05
1.0255171914441087e-05   -4.697452104294227e-06   2.3571584395642347e-05
2.5578123015489584e-05   -2.7661022186471415e-06   -3.1254773708267684e-06
2.5578123015489584e-05   -2.7661022186471415e-06   -3.1254773708267684e-06
2.5578123015489584e-05   -2.7661022186471415e-06   -3.1254773708267684e-06
2.5578123015489584e-05   -2.7661022186471415e-06   -3.1254773708267684e-06
1.7914578920639476e-05   -3.505274790934366e-06   1.0090599663962942e-05
1.7914578920639476e-05   -3.505274790934366e-06   1.0090599663962942e-05
1.7914578920639476e-05   -3.505274790934366e-06   1.0090599663962942e-05
1.7914578920639476e-05   -3.505274790934366e-06   1.0090599663962942e-05
2.5578123015489632e-05   -4.697452104294227e-06   2.2412774464253905e-05
2.5578123015489632e-05   -4.697452104294227e-06   2.2412774464253905e-05
2.5578123015489632e-05   -4.697452104294227e-06   2.2412774464253905e-05
2.5578123015489632e-05   -4.697452104294227e-06   2.2412774464253905e-05
1.025517191444107e-05   -2.7661022186471415e-06   -1.966667439438517e-06
1.025517191444107e-05   -2.7661022186471415e-06   -1.966667439438517e-06
1.025517191444107e-05   -2.7661022186471415e-06   -1.966667439438517e-06
1.025517191444107e-05   -2.7661022186471415e-06   -1.966667439438517e-06
9.507492425710423e-06   -4.895014894198274e-06   2.0789832610791517e-05
9.507492425710423e-06   -4.895014894198274e-06   2.0789832610791517e-05
9.507492425710423e-06   -4.895014894198274e-06   2.0789832610791517e-05
9.507492425710423e-06   -4.895014894198274e-06   2.0789832610791517e-05
2.4039124350541045e-05   -3.088125313435025e-06   -4.513687679051116e-06
2.4039124350541045e-05   -3.088125313435025e-06   -4.513687679051116e-06
2.4039124350541045e-05   -3.088125313435025e-06   -4.513687679051116e-06
2.4039124350541045e-05   -3.088125313435025e-06   -4.513687679051116e-06
1.6612399023419944e-05   -3.564216440521493e-06   8.149842542401996e-06
1.6612399023419944e-05   -3.564216440521493e-06   8.149842542401996e-06
1.6612399023419944e-05   -3.564216440521493e-06   8.149842542401996e-06
1.6612399023419944e-05   -3.564216440521493e-06   8.149842542401996e-06
1.1832043225572564e-05   -1.8545812960433367e-08   3.5362027520438854e-05
1.1832043225572564e-05   -1.8545812960433367e-08   3.5362027520438854e-05
1.1832043225572564e-05   -1.8545812960433367e-08   3.5362027520438854e-05
1.1832043225572564e-05   -1.8545812960433367e-08   3.5362027520438854e-05
-3.824699613339411e-06   9.35640598869825e-07   9.839967969350275e-06
-3.824699613339411e-06   9.35640598869825e-07   9.839967969350275e-06
-3.824699613339411e-06   9.35640598869825e-07   9.839967969350275e-06
-3.824699613339411e-06   9.35640598869825e-07   9.839967969350275e-06
-4.50714179858568e-06   -7.060167633212572e-07   3.543019202098454e-05
-4.50714179858568e-06   -7.060167633212572e-07   3.543019202098454e-05
-4.50714179858568e-06   -7.060167633212572e-07   3.543019202098454e-05
-4.50714179858568e-06   -7.060167633212572e-07   3.543019202098454e-05
1.1089302335986357e-05   2.2003597110673012e-07   8.880486822707536e-06
1.1089302335986357e-05   2.2003597110673012e-07   8.880486822707536e-06
1.1089302335986357e-05   2.2003597110673012e-07   8.880486822707536e-06
1.1089302335986357e-05   2.2003597110673012e-07   8.880486822707536e-06
3.5357923061706762e-06   4.6351371544997924e-08   2.1573880965471462e-05
3.5357923061706762e-06   4.6351371544997924e-08   2.1573880965471462e-05
3.5357923061706762e-06   4.6351371544997924e-08   2.1573880965471462e-05
3.5357923061706762e-06   4.6351371544997924e-08   2.1573880965471462e-05
1.1089302335986384e-05   -7.060167633212572e-07   3.4874560380327704e-05
1.1089302335986384e-05   -7.060167633212572e-07   3.4874560380327704e-05
1.1089302335986384e-05   -7.060167633212572e-07   3.4874560380327704e-05
1.1089302335986384e-05   -7.060167633212572e-07   3.4874560380327704e-05
-4.507141798585707e-06   2.2003597110673012e-07   9.436118463364588e-06
-4.507141798585707e-06   2.2003597110673012e-07   9.436118463364588e-06
-4.507141798585707e-06   2.2003597110673012e-07   9.436118463364588e-06
-4.507141798585707e-06   2.2003597110673012e-07   9.436118463364588e-06
-5.204871151244999e-06   -1.2480140288121007e-06   3.500758250117456e-05
-5.204871151244999e-06   -1.2480140288121007e-06   3.500758250117456e-05
-5.204871151244999e-06   -1.2480140288121007e-06   3.500758250117456e-05
-5.204871151244999e-06   -1.2480140288121007e-06   3.500758250117456e-05
1.025517191444107e-05   -3.6563319729255965e-07   8.71141555945274e-06
1.025517191444107e-05   -3.6563319729255965e-07   8.71141555945274e-06
1.025517191444107e-05   -3.6563319729255965e-07   8.71141555945274e-06
1.025517191444107e-05   -3.6563319729255965e-07   8.71141555945274e-06
2.7855604081432117e-06   -4.310103391726161e-07   2.1199994355078485e-05
2.7855604081432117e-06   -4.310103391726161e-07   2.1199994355078485e-05
2.7855604081432117e-06   -4.310103391726161e-07   2.1199994355078485e-05
2.7855604081432117e-06   -4.310103391726161e-07   2.1199994355078485e-05
1.0255171914441103e-05   -1.2480140288121007e-06   3.447815400226258e-05
1.0255171914441103e-05   -1.2480140288121007e-06   3.447815400226258e-05
1.0255171914441103e-05   -1.2480140288121007e-06   3.447815400226258e-05
1.0255171914441103e-05   -1.2480140288121007e-06   3.447815400226258e-05
-5.204871151244999e-06   -3.6563319729255965e-07   9.24084405836442e-06
-5.204871151244999e-06   -3.6563319729255965e-07   9.24084405836442e-06
-5.204871151244999e-06   -3.6563319729255965e-07   9.24084405836442e-06
-5.204871151244999e-06   -3.6563319729255965e-07   9.24084405836442e-06
-5.896724619476617e-06   -1.7501043176018811e-06   3.5327075694320965e-05
-5.896724619476617e-06   -1.7501043176018811e-06   3.5327075694320965e-05
-5.896724619476617e-06   -1.7501043176018811e-06   3.5327075694320965e-05
-5.896724619476617e-06   -1.7501043176018811e-06   3.5327075694320965e-05
9.507492425710382e-06   -9.42927288104245e-07   9.169074401310694e-06
9.507492425710382e-06   -9.42927288104245e-07   9.169074401310694e-06
9.507492425710382e-06   -9.42927288104245e-07   9.169074401310694e-06
9.507492425710382e-06   -9.42927288104245e-07   9.169074401310694e-06
2.1927251280653764e-06   -8.291285425569579e-07   2.1292073983390065e-05
2.1927251280653764e-06   -8.291285425569579e-07   2.1292073983390065e-05
2.1927251280653764e-06   -8.291285425569579e-07   2.1292073983390065e-05
2.1927251280653764e-06   -8.291285425569579e-07   2.1292073983390065e-05
-3.824699613339411e-06   3.5748160279523537e-06   3.83755552479308e-05
-3.824699613339411e-06   3.5748160279523537e-06   3.83755552479308e-05
-3.824699613339411e-06   3.5748160279523537e-06   3.83755552479308e-05
-3.824699613339411e-06   3.5748160279523537e-06   3.83755552479308e-05
-1.9223806994511406e-05   3.5175409925252733e-06   1.2676011258054803e-05
-1.9223806994511406e-05   3.5175409925252733e-06   1.2676011258054803e-05
-1.9223806994511406e-05   3.5175409925252733e-06   1.2676011258054803e-05
-1.9223806994511406e-05   3.5175409925252733e-06   1.2676011258054803e-05
-1.9897051530368435e-05   2.9706339786227803e-06   3.812504833376946e-05
-1.9897051530368435e-05   2.9706339786227803e-06   3.812504833376946e-05
-1.9897051530368435e-05   2.9706339786227803e-06   3.812504833376946e-05
-1.9897051530368435e-05   2.9706339786227803e-06   3.812504833376946e-05
-4.507141798585707e-06   2.8671478242057145e-06   1.2537290473448861e-05
-4.507141798585707e-06   2.8671478242057145e-06   1.2537290473448861e-05
-4.507141798585707e-06   2.8671478242057145e-06   1.2537290473448861e-05
-4.507141798585707e-06   2.8671478242057145e-06   1.2537290473448861e-05
-1.1892754341664275e-05   3.1525213798496397e-06   2.4675420578527344e-05
-1.1892754341664275e-05   3.1525213798496397e-06   2.4675420578527344e-05
-1.1892754341664275e-05   3.1525213798496397e-06   2.4675420578527344e-05
-1.1892754341664275e-05   3.1525213798496397e-06   2.4675420578527344e-05
-4.50714179858568e-06   2.9706339786227803e-06   3.818714002642006e-05
-4.50714179858568e-06   2.9706339786227803e-06   3.818714002642006e-05
-4.50714179858568e-06   2.9706339786227803e-06   3.818714002642006e-05
-4.50714179858568e-06   2.9706339786227803e-06   3.818714002642006e-05
-1.989705153036849e-05   2.8671478242054977e-06   1.2475198780798535e-05
-1.989705153036849e-05   2.8671478242054977e-06   1.2475198780798535e-05
-1.989705153036849e-05   2.8671478242054977e-06   1.2475198780798535e-05
-1.989705153036849e-05   2.8671478242054977e-06   1.2475198780798535e-05
-2.0586506459632217e-05   2.376035757634381e-06   3.832043356067163e-05
-2.0586506459632217e-05   2.376035757634381e-06   3.832043356067163e-05
-2.0586506459632217e-05   2.376035757634381e-06   3.832043356067163e-05
-2.0586506459632217e-05   2.376035757634381e-06   3.832043356067163e-05
-5.204871151244972e-06   2.224211271606869e-06   1.2775469404976286e-05
-5.204871151244972e-06   2.224211271606869e-06   1.2775469404976286e-05
-5.204871151244972e-06   2.224211271606869e-06   1.2775469404976286e-05
-5.204871151244972e-06   2.224211271606869e-06   1.2775469404976286e-05
-1.2509379989633006e-05   2.680401314794894e-06   2.4675936776377542e-05
-1.2509379989633006e-05   2.680401314794894e-06   2.4675936776377542e-05
-1.2509379989633006e-05   2.680401314794894e-06   2.4675936776377542e-05
-1.2509379989633006e-05   2.680401314794894e-06   2.4675936776377542e-05
-5.204871151244999e-06   2.376035757634381e-06   3.841152825228834e-05
-5.204871151244999e-06   2.376035757634381e-06   3.841152825228834e-05
-5.204871151244999e-06   2.376035757634381e-06   3.841152825228834e-05
-5.204871151244999e-06   2.376035757634381e-06   3.841152825228834e-05
-2.0586506459632244e-05   2.224211271606869e-06   1.2684374713359736e-05
-2.0586506459632244e-05   2.224211271606869e-06   1.2684374713359736e-05
-2.0586506459632244e-05   2.224211271606869e-06   1.2684374713359736e-05
-2.0586506459632244e-05   2.224211271606869e-06   1.2684374713359736e-05
-2.1267953492595045e-05   1.8118029575472407e-06   3.883564166464186e-05
-2.1267953492595045e-05   1.8118029575472407e-06   3.883564166464186e-05
-2.1267953492595045e-05   1.8118029575472407e-06   3.883564166464186e-05
-2.1267953492595045e-05   1.8118029575472407e-06   3.883564166464186e-05
-5.89672461947659e-06   1.6052174069314425e-06   1.3340878206480116e-05
-5.89672461947659e-06   1.6052174069314425e-06   1.3340878206480116e-05
-5.89672461947659e-06   1.6052174069314425e-06   1.3340878206480116e-05
-5.89672461947659e-06   1.6052174069314425e-06   1.3340878206480116e-05
-1.3154339376464055e-05   2.2193667971731742e-06   2.506841316731351e-05
-1.3154339376464055e-05   2.2193667971731742e-06   2.506841316731351e-05
-1.3154339376464055e-05   2.2193667971731742e-06   2.506841316731351e-05
-1.3154339376464055e-05   2.2193667971731742e-06   2.506841316731351e-05
-1.9223806994511406e-05   7.032656431224613e-06   3.3939090724408754e-05
-1.9223806994511406e-05   7.032656431224613e-06   3.3939090724408754e-05
-1.9223806994511406e-05   7.032656431224613e-06   3.3939090724408754e-05
-1.9223806994511406e-05   7.032656431224613e-06   3.3939090724408754e-05
-3.436313728804089e-05   6.029208863805001e-06   8.104805028074356e-06
-3.436313728804089e-05   6.029208863805001e-06   8.104805028074356e-06
-3.436313728804089e-05   6.029208863805001e-06   8.104805028074356e-06
-3.436313728804089e-05   6.029208863805001e-06   8.104805028074356e-06
-3.508525667752859e-05   6.453926744830196e-06   3.3489361018627364e-05
-3.508525667752859e-05   6.453926744830196e-06   3.3489361018627364e-05
-3.508525667752859e-05   6.453926744830196e-06   3.3489361018627364e-05
-3.508525667752859e-05   6.453926744830196e-06   3.3489361018627364e-05
-1.9897051530368408e-05   5.393742804732024e-06   8.811796137419507e-06
-1.9897051530368408e-05   5.393742804732024e-06   8.811796137419507e-06
-1.9897051530368408e-05   5.393742804732024e-06   8.811796137419507e-06
-1.9897051530368408e-05   5.393742804732024e-06   8.811796137419507e-06
-2.7065653840475522e-05   6.121633512253823e-06   2.0322732229752444e-05
-2.7065653840475522e-05   6.121633512253823e-06   2.0322732229752444e-05
-2.7065653840475522e-05   6.121633512253823e-06   2.0322732229752444e-05
-2.7065653840475522e-05   6.121633512253823e-06   2.0322732229752444e-05
-1.989705153036849e-05   6.453926744830196e-06   3.412547138268633e-05
-1.989705153036849e-05   6.453926744830196e-06   3.412547138268633e-05
-1.989705153036849e-05   6.453926744830196e-06   3.412547138268633e-05
-1.989705153036849e-05   6.453926744830196e-06   3.412547138268633e-05
-3.5085256677528536e-05   5.393742804732024e-06   8.175685773360647e-06
-3.5085256677528536e-05   5.393742804732024e-06   8.175685773360647e-06
-3.5085256677528536e-05   5.393742804732024e-06   8.175685773360647e-06
-3.5085256677528536e-05   5.393742804732024e-06   8.175685773360647e-06
-3.589800299739647e-05   5.914798028179222e-06   3.463542667311685e-05
-3.589800299739647e-05   5.914798028179222e-06   3.463542667311685e-05
-3.589800299739647e-05   5.914798028179222e-06   3.463542667311685e-05
-3.589800299739647e-05   5.914798028179222e-06   3.463542667311685e-05
-2.0586506459632163e-05   4.805864061562838e-06   9.781626156813187e-06
-2.0586506459632163e-05   4.805864061562838e-06   9.781626156813187e-06
-2.0586506459632163e-05   4.805864061562838e-06   9.781626156813187e-06
-2.0586506459632163e-05   4.805864061562838e-06   9.781626156813187e-06
-2.7566103991356894e-05   5.688704927071472e-06   2.0884584190383336e-05
-2.7566103991356894e-05   5.688704927071472e-06   2.0884584190383336e-05
-2.7566103991356894e-05   5.688704927071472e-06   2.0884584190383336e-05
-2.7566103991356894e-05   5.688704927071472e-06   2.0884584190383336e-05
-2.0586506459632244e-05   5.914798028179222e-06   3.530078705308692e-05
-2.0586506459632244e-05   5.914798028179222e-06   3.530078705308692e-05
-2.0586506459632244e-05   5.914798028179222e-06   3.530078705308692e-05
-2.0586506459632244e-05   5.914798028179222e-06   3.530078705308692e-05
-3.589800299739636e-05   4.805864061562838e-06   9.116265776843552e-06
-3.589800299739636e-05   4.805864061562838e-06   9.116265776843552e-06
-3.589800299739636e-05   4.805864061562838e-06   9.116265776843552e-06
-3.589800299739636e-05   4.805864061562838e-06   9.116265776843552e-06
-3.662069327098073e-05   5.287074057192757e-06   3.5602949937256706e-05
-3.662069327098073e-05   5.287074057192757e-06   3.5602949937256706e-05
-3.662069327098073e-05   5.287074057192757e-06   3.5602949937256706e-05
-3.662069327098073e-05   5.287074057192757e-06   3.5602949937256706e-05
-2.1267953492594963e-05   4.148806384736588e-06   1.0698010910087895e-05
-2.1267953492594963e-05   4.148806384736588e-06   1.0698010910087895e-05
-2.1267953492594963e-05   4.148806384736588e-06   1.0698010910087895e-05
-2.1267953492594963e-05   4.148806384736588e-06   1.0698010910087895e-05
-2.838055230474832e-05   5.233161889053916e-06   2.190172896108513e-05
-2.838055230474832e-05   5.233161889053916e-06   2.190172896108513e-05
-2.838055230474832e-05   5.233161889053916e-06   2.190172896108513e-05
-2.838055230474832e-05   5.233161889053916e-06   2.190172896108513e-05
-3.436313728804089e-05   9.69068628288959e-06   1.6303715527291995e-05
-3.436313728804089e-05   9.69068628288959e-06   1.6303715527291995e-05
-3.436313728804089e-05   9.69068628288959e-06   1.6303715527291995e-05
-3.436313728804089e-05   9.69068628288959e-06   1.6303715527291995e-05
-4.8555272384849415e-05   7.90676326942988e-06   -8.420196775464498e-06
-4.8555272384849415e-05   7.90676326942988e-06   -8.420196775464498e-06
-4.8555272384849415e-05   7.90676326942988e-06   -8.420196775464498e-06
-4.8555272384849415e-05   7.90676326942988e-06   -8.420196775464498e-06
-5.006487937472668e-05   9.641794089195344e-06   2.0901153350988194e-05
-5.006487937472668e-05   9.641794089195344e-06   2.0901153350988194e-05
-5.006487937472668e-05   9.641794089195344e-06   2.0901153350988194e-05
-5.006487937472668e-05   9.641794089195344e-06   2.0901153350988194e-05
-3.508525667752848e-05   7.702578284618598e-06   -2.901354994929318e-06
-3.508525667752848e-05   7.702578284618598e-06   -2.901354994929318e-06
-3.508525667752848e-05   7.702578284618598e-06   -2.901354994929318e-06
-3.508525667752848e-05   7.702578284618598e-06   -2.901354994929318e-06
-4.044254179430784e-05   8.576697991690427e-06   5.502981708793958e-06
-4.044254179430784e-05   8.576697991690427e-06   5.502981708793958e-06
-4.044254179430784e-05   8.576697991690427e-06   5.502981708793958e-06
-4.044254179430784e-05   8.576697991690427e-06   5.502981708793958e-06
-3.508525667752859e-05   9.64179408919491e-06   2.2064682833734133e-05
-3.508525667752859e-05   9.64179408919491e-06   2.2064682833734133e-05
-3.508525667752859e-05   9.64179408919491e-06   2.2064682833734133e-05
-3.508525667752859e-05   9.64179408919491e-06   2.2064682833734133e-05
-5.0064879374726574e-05   7.702578284618598e-06   -4.064884477675257e-06
-5.0064879374726574e-05   7.702578284618598e-06   -4.064884477675257e-06
-5.0064879374726574e-05   7.702578284618598e-06   -4.064884477675257e-06
-5.0064879374726574e-05   7.702578284618598e-06   -4.064884477675257e-06
-5.138214823613413e-05   9.445167197146172e-06   2.4887774765203078e-05
-5.138214823613413e-05   9.445167197146172e-06   2.4887774765203078e-05
-5.138214823613413e-05   9.445167197146172e-06   2.4887774765203078e-05
-5.138214823613413e-05   9.445167197146172e-06   2.4887774765203078e-05
-3.5898002997396304e-05   7.453383775797963e-06   2.759360867826254e-07
-3.5898002997396304e-05   7.453383775797963e-06   2.759360867826254e-07
-3.5898002997396304e-05   7.453383775797963e-06   2.759360867826254e-07
-3.5898002997396304e-05   7.453383775797963e-06   2.759360867826254e-07
-4.204065028536909e-05   8.582023443112286e-06   9.836497766350157e-06
-4.204065028536909e-05   8.582023443112286e-06   9.836497766350157e-06
-4.204065028536909e-05   8.582023443112286e-06   9.836497766350157e-06
-4.204065028536909e-05   8.582023443112286e-06   9.836497766350157e-06
-3.589800299739636e-05   9.445167197146172e-06   2.6082844818012068e-05
-3.589800299739636e-05   9.445167197146172e-06   2.6082844818012068e-05
-3.589800299739636e-05   9.445167197146172e-06   2.6082844818012068e-05
-3.589800299739636e-05   9.445167197146172e-06   2.6082844818012068e-05
-5.138214823613408e-05   7.45338377579818e-06   -9.191339660261479e-07
-5.138214823613408e-05   7.45338377579818e-06   -9.191339660261479e-07
-5.138214823613408e-05   7.45338377579818e-06   -9.191339660261479e-07
-5.138214823613408e-05   7.45338377579818e-06   -9.191339660261479e-07
-5.291031979532795e-05   8.578160156777568e-06   3.1816243062636473e-05
-5.291031979532795e-05   8.578160156777568e-06   3.1816243062636473e-05
-5.291031979532795e-05   8.578160156777568e-06   3.1816243062636473e-05
-5.291031979532795e-05   8.578160156777568e-06   3.1816243062636473e-05
-3.6620693270980565e-05   6.617449768824392e-06   5.843291754829881e-06
-3.6620693270980565e-05   6.617449768824392e-06   5.843291754829881e-06
-3.6620693270980565e-05   6.617449768824392e-06   5.843291754829881e-06
-3.6620693270980565e-05   6.617449768824392e-06   5.843291754829881e-06
-4.239842347182707e-05   8.218001312661509e-06   1.4512511163270077e-05
-4.239842347182707e-05   8.218001312661509e-06   1.4512511163270077e-05
-4.239842347182707e-05   8.218001312661509e-06   1.4512511163270077e-05
-4.239842347182707e-05   8.218001312661509e-06   1.4512511163270077e-05
1.582753372612106e-05   -1.816022670128115e-06   2.2497872652218612e-05
1.582753372612106e-05   -1.816022670128115e-06   2.2497872652218612e-05
1.582753372612106e-05   -1.816022670128115e-06   2.2497872652218612e-05
1.582753372612106e-05   -1.816022670128115e-06   2.2497872652218612e-05
4.1352164060731254e-06   4.4204545817175256e-08   4.126813448372376e-06
4.1352164060731254e-06   4.4204545817175256e-08   4.126813448372376e-06
4.1352164060731254e-06   4.4204545817175256e-08   4.126813448372376e-06
4.1352164060731254e-06   4.4204545817175256e-08   4.126813448372376e-06
3.5798024537493543e-06   -2.522726759843089e-06   2.0977343124840538e-05
3.5798024537493543e-06   -2.522726759843089e-06   2.0977343124840538e-05
3.5798024537493543e-06   -2.522726759843089e-06   2.0977343124840538e-05
3.5798024537493543e-06   -2.522726759843089e-06   2.0977343124840538e-05
1.4454761729986929e-05   -5.889673715764408e-07   1.6921553648184193e-06
1.4454761729986929e-05   -5.889673715764408e-07   1.6921553648184193e-06
1.4454761729986929e-05   -5.889673715764408e-07   1.6921553648184193e-06
1.4454761729986929e-05   -5.889673715764408e-07   1.6921553648184193e-06
8.938317900759734e-06   -1.3105099067557344e-06   1.1319153934638722e-05
8.938317900759734e-06   -1.3105099067557344e-06   1.1319153934638722e-05
8.938317900759734e-06   -1.3105099067557344e-06   1.1319153934638722e-05
8.938317900759734e-06   -1.3105099067557344e-06   1.1319153934638722e-05
1.4454761729986956e-05   -2.522726759843089e-06   1.9817087491880843e-05
1.4454761729986956e-05   -2.522726759843089e-06   1.9817087491880843e-05
1.4454761729986956e-05   -2.522726759843089e-06   1.9817087491880843e-05
1.4454761729986956e-05   -2.522726759843089e-06   1.9817087491880843e-05
3.5798024537493475e-06   -5.889673715764408e-07   2.852410997778365e-06
3.5798024537493475e-06   -5.889673715764408e-07   2.852410997778365e-06
3.5798024537493475e-06   -5.889673715764408e-07   2.852410997778365e-06
3.5798024537493475e-06   -5.889673715764408e-07   2.852410997778365e-06
2.932620098999694e-06   -2.7661022186471415e-06   1.9689018938852908e-05
2.932620098999694e-06   -2.7661022186471415e-06   1.9689018938852908e-05
2.932620098999694e-06   -2.7661022186471415e-06   1.9689018938852908e-05
2.932620098999694e-06   -2.7661022186471415e-06   1.9689018938852908e-05
1.3292577719511818e-05   -8.621093753580743e-07   1.2800271986925047e-06
1.3292577719511818e-05   -8.621093753580743e-07   1.2800271986925047e-06
1.3292577719511818e-05   -8.621093753580743e-07   1.2800271986925047e-06
1.3292577719511818e-05   -8.621093753580743e-07   1.2800271986925047e-06
8.274557159394795e-06   -1.5868778526058553e-06   1.0078255885236239e-05
8.274557159394795e-06   -1.5868778526058553e-06   1.0078255885236239e-05
8.274557159394795e-06   -1.5868778526058553e-06   1.0078255885236239e-05
8.274557159394795e-06   -1.5868778526058553e-06   1.0078255885236239e-05
1.3292577719511845e-05   -2.7661022186469247e-06   1.8546623232879457e-05
1.3292577719511845e-05   -2.7661022186469247e-06   1.8546623232879457e-05
1.3292577719511845e-05   -2.7661022186469247e-06   1.8546623232879457e-05
1.3292577719511845e-05   -2.7661022186469247e-06   1.8546623232879457e-05
2.932620098999684e-06   -8.621093753580743e-07   2.4224229046663354e-06
2.932620098999684e-06   -8.621093753580743e-07   2.4224229046663354e-06
2.932620098999684e-06   -8.621093753580743e-07   2.4224229046663354e-06
2.932620098999684e-06   -8.621093753580743e-07   2.4224229046663354e-06
2.371948339968252e-06   -3.088125313435025e-06   1.820100643585719e-05
2.371948339968252e-06   -3.088125313435025e-06   1.820100643585719e-05
2.371948339968252e-06   -3.088125313435025e-06   1.820100643585719e-05
2.371948339968252e-06   -3.088125313435025e-06   1.820100643585719e-05
1.193184297425994e-05   -1.3173594742819667e-06   1.205389208546034e-06
1.193184297425994e-05   -1.3173594742819667e-06   1.205389208546034e-06
1.193184297425994e-05   -1.3173594742819667e-06   1.205389208546034e-06
1.193184297425994e-05   -1.3173594742819667e-06   1.205389208546034e-06
7.297513920668901e-06   -1.7297135716952319e-06   9.176683422979024e-06
7.297513920668901e-06   -1.7297135716952319e-06   9.176683422979024e-06
7.297513920668901e-06   -1.7297135716952319e-06   9.176683422979024e-06
7.297513920668901e-06   -1.7297135716952319e-06   9.176683422979024e-06
4.135216406073132e-06   9.35640598869825e-07   3.096035784955464e-05
4.135216406073132e-06   9.35640598869825e-07   3.096035784955464e-05
4.135216406073132e-06   9.35640598869825e-07   3.096035784955464e-05
4.135216406073132e-06   9.35640598869825e-07   3.096035784955464e-05
-6.5175740984411686e-06   1.7776562088716447e-06   1.3710916374698456e-05
-6.5175740984411686e-06   1.7776562088716447e-06   1.3710916374698456e-05
-6.5175740984411686e-06   1.7776562088716447e-06   1.3710916374698456e-05
-6.5175740984411686e-06   1.7776562088716447e-06   1.3710916374698456e-05
-7.0054288489605255e-06   2.2003597110673012e-07   3.105832703997392e-05
-7.0054288489605255e-06   2.2003597110673012e-07   3.105832703997392e-05
-7.0054288489605255e-06   2.2003597110673012e-07   3.105832703997392e-05
-7.0054288489605255e-06   2.2003597110673012e-07   3.105832703997392e-05
3.5798024537493475e-06   1.0619769721434934e-06   1.2911110268168944e-05
3.5798024537493475e-06   1.0619769721434934e-06   1.2911110268168944e-05
3.5798024537493475e-06   1.0619769721434934e-06   1.2911110268168944e-05
3.5798024537493475e-06   1.0619769721434934e-06   1.2911110268168944e-05
-1.5316152765964999e-06   9.275599857637732e-07   2.1510790010574024e-05
-1.5316152765964999e-06   9.275599857637732e-07   2.1510790010574024e-05
-1.5316152765964999e-06   9.275599857637732e-07   2.1510790010574024e-05
-1.5316152765964999e-06   9.275599857637732e-07   2.1510790010574024e-05
3.579802453749351e-06   2.2003597110673012e-07   3.055316243935177e-05
3.579802453749351e-06   2.2003597110673012e-07   3.055316243935177e-05
3.579802453749351e-06   2.2003597110673012e-07   3.055316243935177e-05
3.579802453749351e-06   2.2003597110673012e-07   3.055316243935177e-05
-7.0054288489605255e-06   1.0619769721434934e-06   1.3416274868790958e-05
-7.0054288489605255e-06   1.0619769721434934e-06   1.3416274868790958e-05
-7.0054288489605255e-06   1.0619769721434934e-06   1.3416274868790958e-05
-7.0054288489605255e-06   1.0619769721434934e-06   1.3416274868790958e-05
-7.507503080011671e-06   -3.656331972927765e-07   3.085966298882036e-05
-7.507503080011671e-06   -3.656331972927765e-07   3.085966298882036e-05
-7.507503080011671e-06   -3.656331972927765e-07   3.085966298882036e-05
-7.507503080011671e-06   -3.656331972927765e-07   3.085966298882036e-05
2.932620098999684e-06   4.5530188783537637e-07   1.2966896639391746e-05
2.932620098999684e-06   4.5530188783537637e-07   1.2966896639391746e-05
2.932620098999684e-06   4.5530188783537637e-07   1.2966896639391746e-05
2.932620098999684e-06   4.5530188783537637e-07   1.2966896639391746e-05
-2.0523049629156517e-06   4.283258719769891e-07   2.1291290685432698e-05
-2.0523049629156517e-06   4.283258719769891e-07   2.1291290685432698e-05
-2.0523049629156517e-06   4.283258719769891e-07   2.1291290685432698e-05
-2.0523049629156517e-06   4.283258719769891e-07   2.1291290685432698e-05
2.932620098999694e-06   -3.6563319729255965e-07   3.0367101937744e-05
2.932620098999694e-06   -3.6563319729255965e-07   3.0367101937744e-05
2.932620098999694e-06   -3.6563319729255965e-07   3.0367101937744e-05
2.932620098999694e-06   -3.6563319729255965e-07   3.0367101937744e-05
-7.507503080011698e-06   4.5530188783515953e-07   1.3459457690468595e-05
-7.507503080011698e-06   4.5530188783515953e-07   1.3459457690468595e-05
-7.507503080011698e-06   4.5530188783515953e-07   1.3459457690468595e-05
-7.507503080011698e-06   4.5530188783515953e-07   1.3459457690468595e-05
-8.002056545118016e-06   -9.42927288104245e-07   3.126648603056677e-05
-8.002056545118016e-06   -9.42927288104245e-07   3.126648603056677e-05
-8.002056545118016e-06   -9.42927288104245e-07   3.126648603056677e-05
-8.002056545118016e-06   -9.42927288104245e-07   3.126648603056677e-05
2.371948339968242e-06   -1.6484185009525698e-07   1.3509626625950871e-05
2.371948339968242e-06   -1.6484185009525698e-07   1.3509626625950871e-05
2.371948339968242e-06   -1.6484185009525698e-07   1.3509626625950871e-05
2.371948339968242e-06   -1.6484185009525698e-07   1.3509626625950871e-05
-2.4933037322265084e-06   -1.9833750992590514e-08   2.153137522014698e-05
-2.4933037322265084e-06   -1.9833750992590514e-08   2.153137522014698e-05
-2.4933037322265084e-06   -1.9833750992590514e-08   2.153137522014698e-05
-2.4933037322265084e-06   -1.9833750992590514e-08   2.153137522014698e-05
-6.5175740984411686e-06   3.5175409925252733e-06   3.4335975525516245e-05
-6.5175740984411686e-06   3.5175409925252733e-06   3.4335975525516245e-05
-6.5175740984411686e-06   3.5175409925252733e-06   3.4335975525516245e-05
-6.5175740984411686e-06   3.5175409925252733e-06   3.4335975525516245e-05
-1.699041086957896e-05   3.3154487269913737e-06   1.6759992214299417e-05
-1.699041086957896e-05   3.3154487269913737e-06   1.6759992214299417e-05
-1.699041086957896e-05   3.3154487269913737e-06   1.6759992214299417e-05
-1.699041086957896e-05   3.3154487269913737e-06   1.6759992214299417e-05
-1.745844463692272e-05   2.8671478242057145e-06   3.403251124623765e-05
-1.745844463692272e-05   2.8671478242057145e-06   3.403251124623765e-05
-1.745844463692272e-05   2.8671478242057145e-06   3.403251124623765e-05
-1.745844463692272e-05   2.8671478242057145e-06   3.403251124623765e-05
-7.0054288489604984e-06   2.655501484504809e-06   1.6737806070121417e-05
-7.0054288489604984e-06   2.655501484504809e-06   1.6737806070121417e-05
-7.0054288489604984e-06   2.655501484504809e-06   1.6737806070121417e-05
-7.0054288489604984e-06   2.655501484504809e-06   1.6737806070121417e-05
-1.2015289312797636e-05   3.0152351342897354e-06   2.4871733319979975e-05
-1.2015289312797636e-05   3.0152351342897354e-06   2.4871733319979975e-05
-1.2015289312797636e-05   3.0152351342897354e-06   2.4871733319979975e-05
-1.2015289312797636e-05   3.0152351342897354e-06   2.4871733319979975e-05
-7.0054288489605255e-06   2.8671478242054977e-06   3.415949905005819e-05
-7.0054288489605255e-06   2.8671478242054977e-06   3.415949905005819e-05
-7.0054288489605255e-06   2.8671478242054977e-06   3.415949905005819e-05
-7.0054288489605255e-06   2.8671478242054977e-06   3.415949905005819e-05
-1.745844463692272e-05   2.655501484504809e-06   1.661081826630098e-05
-1.745844463692272e-05   2.655501484504809e-06   1.661081826630098e-05
-1.745844463692272e-05   2.655501484504809e-06   1.661081826630098e-05
-1.745844463692272e-05   2.655501484504809e-06   1.661081826630098e-05
-1.794184642966412e-05   2.224211271607086e-06   3.425911909742444e-05
-1.794184642966412e-05   2.224211271607086e-06   3.425911909742444e-05
-1.794184642966412e-05   2.224211271607086e-06   3.425911909742444e-05
-1.794184642966412e-05   2.224211271607086e-06   3.425911909742444e-05
-7.507503080011671e-06   1.99892920826005e-06   1.700371608601191e-05
-7.507503080011671e-06   1.99892920826005e-06   1.700371608601191e-05
-7.507503080011671e-06   1.99892920826005e-06   1.700371608601191e-05
-7.507503080011671e-06   1.99892920826005e-06   1.700371608601191e-05
-1.2432056288138612e-05   2.513192500784296e-06   2.4902746790708794e-05
-1.2432056288138612e-05   2.513192500784296e-06   2.4902746790708794e-05
-1.2432056288138612e-05   2.513192500784296e-06   2.4902746790708794e-05
-1.2432056288138612e-05   2.513192500784296e-06   2.4902746790708794e-05
-7.507503080011698e-06   2.224211271606869e-06   3.439428833543239e-05
-7.507503080011698e-06   2.224211271606869e-06   3.439428833543239e-05
-7.507503080011698e-06   2.224211271606869e-06   3.439428833543239e-05
-7.507503080011698e-06   2.224211271606869e-06   3.439428833543239e-05
-1.794184642966412e-05   1.99892920826005e-06   1.6868546848003907e-05
-1.794184642966412e-05   1.99892920826005e-06   1.6868546848003907e-05
-1.794184642966412e-05   1.99892920826005e-06   1.6868546848003907e-05
-1.794184642966412e-05   1.99892920826005e-06   1.6868546848003907e-05
-1.8417713657161507e-05   1.6052174069316593e-06   3.4812975328176897e-05
-1.8417713657161507e-05   1.6052174069316593e-06   3.4812975328176897e-05
-1.8417713657161507e-05   1.6052174069316593e-06   3.4812975328176897e-05
-1.8417713657161507e-05   1.6052174069316593e-06   3.4812975328176897e-05
-8.002056545118016e-06   1.370203590497646e-06   1.7594555097965106e-05
-8.002056545118016e-06   1.370203590497646e-06   1.7594555097965106e-05
-8.002056545118016e-06   1.370203590497646e-06   1.7594555097965106e-05
-8.002056545118016e-06   1.370203590497646e-06   1.7594555097965106e-05
-1.2875332205496213e-05   2.0211863801941014e-06   2.5326091524777335e-05
-1.2875332205496213e-05   2.0211863801941014e-06   2.5326091524777335e-05
-1.2875332205496213e-05   2.0211863801941014e-06   2.5326091524777335e-05
-1.2875332205496213e-05   2.0211863801941014e-06   2.5326091524777335e-05
-1.699041086957896e-05   6.029208863805001e-06   3.02455824766673e-05
-1.699041086957896e-05   6.029208863805001e-06   3.02455824766673e-05
-1.699041086957896e-05   6.029208863805001e-06   3.02455824766673e-05
-1.699041086957896e-05   6.029208863805001e-06   3.02455824766673e-05
-2.727189176395889e-05   4.923798490444331e-06   1.244653476201792e-05
-2.727189176395889e-05   4.923798490444331e-06   1.244653476201792e-05
-2.727189176395889e-05   4.923798490444331e-06   1.244653476201792e-05
-2.727189176395889e-05   4.923798490444331e-06   1.244653476201792e-05
-2.7781970545590236e-05   5.393742804732024e-06   2.9687768914712096e-05
-2.7781970545590236e-05   5.393742804732024e-06   2.9687768914712096e-05
-2.7781970545590236e-05   5.393742804732024e-06   2.9687768914712096e-05
-2.7781970545590236e-05   5.393742804732024e-06   2.9687768914712096e-05
-1.7458444636922748e-05   4.25817665782079e-06   1.3163232088413222e-05
-1.7458444636922748e-05   4.25817665782079e-06   1.3163232088413222e-05
-1.7458444636922748e-05   4.25817665782079e-06   1.3163232088413222e-05
-1.7458444636922748e-05   4.25817665782079e-06   1.3163232088413222e-05
-2.2321750138855497e-05   5.067629619504087e-06   2.078306948129235e-05
-2.2321750138855497e-05   5.067629619504087e-06   2.078306948129235e-05
-2.2321750138855497e-05   5.067629619504087e-06   2.078306948129235e-05
-2.2321750138855497e-05   5.067629619504087e-06   2.078306948129235e-05
-1.7458444636922748e-05   5.393742804732024e-06   3.0369108602858945e-05
-1.7458444636922748e-05   5.393742804732024e-06   3.0369108602858945e-05
-1.7458444636922748e-05   5.393742804732024e-06   3.0369108602858945e-05
-1.7458444636922748e-05   5.393742804732024e-06   3.0369108602858945e-05
-2.778197054559018e-05   4.25817665782079e-06   1.2481892400266373e-05
-2.778197054559018e-05   4.25817665782079e-06   1.2481892400266373e-05
-2.778197054559018e-05   4.25817665782079e-06   1.2481892400266373e-05
-2.778197054559018e-05   4.25817665782079e-06   1.2481892400266373e-05
-2.838613055095333e-05   4.805864061562838e-06   3.066473731053415e-05
-2.838613055095333e-05   4.805864061562838e-06   3.066473731053415e-05
-2.838613055095333e-05   4.805864061562838e-06   3.066473731053415e-05
-2.838613055095333e-05   4.805864061562838e-06   3.066473731053415e-05
-1.7941846429664094e-05   3.6531420109897194e-06   1.3949230338729506e-05
-1.7941846429664094e-05   3.6531420109897194e-06   1.3949230338729506e-05
-1.7941846429664094e-05   3.6531420109897194e-06   1.3949230338729506e-05
-1.7941846429664094e-05   3.6531420109897194e-06   1.3949230338729506e-05
-2.265251001671453e-05   4.596778530589329e-06   2.1234154405387016e-05
-2.265251001671453e-05   4.596778530589329e-06   2.1234154405387016e-05
-2.265251001671453e-05   4.596778530589329e-06   2.1234154405387016e-05
-2.265251001671453e-05   4.596778530589329e-06   2.1234154405387016e-05
-1.794184642966412e-05   4.805864061562838e-06   3.135637054087789e-05
-1.794184642966412e-05   4.805864061562838e-06   3.135637054087789e-05
-1.794184642966412e-05   4.805864061562838e-06   3.135637054087789e-05
-1.794184642966412e-05   4.805864061562838e-06   3.135637054087789e-05
-2.8386130550953276e-05   3.6531420109897194e-06   1.3257597108385548e-05
-2.8386130550953276e-05   3.6531420109897194e-06   1.3257597108385548e-05
-2.8386130550953276e-05   3.6531420109897194e-06   1.3257597108385548e-05
-2.8386130550953276e-05   3.6531420109897194e-06   1.3257597108385548e-05
-2.890467954358856e-05   4.148806384736371e-06   3.160879514382863e-05
-2.890467954358856e-05   4.148806384736371e-06   3.160879514382863e-05
-2.890467954358856e-05   4.148806384736371e-06   3.160879514382863e-05
-2.890467954358856e-05   4.148806384736371e-06   3.160879514382863e-05
-1.8417713657161453e-05   3.0066993541939726e-06   1.4815782884775508e-05
-1.8417713657161453e-05   3.0066993541939726e-06   1.4815782884775508e-05
-1.8417713657161453e-05   3.0066993541939726e-06   1.4815782884775508e-05
-1.8417713657161453e-05   3.0066993541939726e-06   1.4815782884775508e-05
-2.3220837046378944e-05   4.125394780476761e-06   2.2149771277701598e-05
-2.3220837046378944e-05   4.125394780476761e-06   2.2149771277701598e-05
-2.3220837046378944e-05   4.125394780476761e-06   2.2149771277701598e-05
-2.3220837046378944e-05   4.125394780476761e-06   2.2149771277701598e-05
-2.7271891763958945e-05   7.906763269430097e-06   1.4127688257187633e-05
-2.7271891763958945e-05   7.906763269430097e-06   1.4127688257187633e-05
-2.7271891763958945e-05   7.906763269430097e-06   1.4127688257187633e-05
-2.7271891763958945e-05   7.906763269430097e-06   1.4127688257187633e-05
-3.654006182189141e-05   6.055674257974359e-06   -2.429915246239501e-06
-3.654006182189141e-05   6.055674257974359e-06   -2.429915246239501e-06
-3.654006182189141e-05   6.055674257974359e-06   -2.429915246239501e-06
-3.654006182189141e-05   6.055674257974359e-06   -2.429915246239501e-06
-3.784750993113793e-05   7.702578284618598e-06   1.7417723526601085e-05
-3.784750993113793e-05   7.702578284618598e-06   1.7417723526601085e-05
-3.784750993113793e-05   7.702578284618598e-06   1.7417723526601085e-05
-3.784750993113793e-05   7.702578284618598e-06   1.7417723526601085e-05
-2.7781970545590127e-05   5.71423725158381e-06   1.8348291705096338e-06
-2.7781970545590127e-05   5.71423725158381e-06   1.8348291705096338e-06
-2.7781970545590127e-05   5.71423725158381e-06   1.8348291705096338e-06
-2.7781970545590127e-05   5.71423725158381e-06   1.8348291705096338e-06
-3.11819781106673e-05   6.719359232422754e-06   6.898435257135808e-06
-3.11819781106673e-05   6.719359232422754e-06   6.898435257135808e-06
-3.11819781106673e-05   6.719359232422754e-06   6.898435257135808e-06
-3.11819781106673e-05   6.719359232422754e-06   6.898435257135808e-06
-2.778197054559018e-05   7.702578284618598e-06   1.8610728146422023e-05
-2.778197054559018e-05   7.702578284618598e-06   1.8610728146422023e-05
-2.778197054559018e-05   7.702578284618598e-06   1.8610728146422023e-05
-2.778197054559018e-05   7.702578284618598e-06   1.8610728146422023e-05
-3.7847509931137984e-05   5.71423725158381e-06   6.418245506886419e-07
-3.7847509931137984e-05   5.71423725158381e-06   6.418245506886419e-07
-3.7847509931137984e-05   5.71423725158381e-06   6.418245506886419e-07
-3.7847509931137984e-05   5.71423725158381e-06   6.418245506886419e-07
-3.897338246315585e-05   7.453383775797963e-06   2.0609916046895665e-05
-3.897338246315585e-05   7.453383775797963e-06   2.0609916046895665e-05
-3.897338246315585e-05   7.453383775797963e-06   2.0609916046895665e-05
-3.897338246315585e-05   7.453383775797963e-06   2.0609916046895665e-05
-2.8386130550953222e-05   5.429231153168809e-06   4.1789877668022436e-06
-2.8386130550953222e-05   5.429231153168809e-06   4.1789877668022436e-06
-2.8386130550953222e-05   5.429231153168809e-06   4.1789877668022436e-06
-2.8386130550953222e-05   5.429231153168809e-06   4.1789877668022436e-06
-3.2436885603680666e-05   6.630662889791218e-06   1.020938714604177e-05
-3.2436885603680666e-05   6.630662889791218e-06   1.020938714604177e-05
-3.2436885603680666e-05   6.630662889791218e-06   1.020938714604177e-05
-3.2436885603680666e-05   6.630662889791218e-06   1.020938714604177e-05
-2.8386130550953276e-05   7.453383775797963e-06   2.1824407620473114e-05
-2.8386130550953276e-05   7.453383775797963e-06   2.1824407620473114e-05
-2.8386130550953276e-05   7.453383775797963e-06   2.1824407620473114e-05
-2.8386130550953276e-05   7.453383775797963e-06   2.1824407620473114e-05
-3.897338246315591e-05   5.429231153168809e-06   2.964496193224686e-06
-3.897338246315591e-05   5.429231153168809e-06   2.964496193224686e-06
-3.897338246315591e-05   5.429231153168809e-06   2.964496193224686e-06
-3.897338246315591e-05   5.429231153168809e-06   2.964496193224686e-06
-4.032106937146187e-05   6.617449768824392e-06   2.6259258803894596e-05
-4.032106937146187e-05   6.617449768824392e-06   2.6259258803894596e-05
-4.032106937146187e-05   6.617449768824392e-06   2.6259258803894596e-05
-4.032106937146187e-05   6.617449768824392e-06   2.6259258803894596e-05
-2.8904679543588453e-05   4.654486788574497e-06   8.409720212255523e-06
-2.8904679543588453e-05   4.654486788574497e-06   8.409720212255523e-06
-2.8904679543588453e-05   4.654486788574497e-06   8.409720212255523e-06
-2.8904679543588453e-05   4.654486788574497e-06   8.409720212255523e-06
-3.27506026794773e-05   6.278355864800054e-06   1.384527065966749e-05
-3.27506026794773e-05   6.278355864800054e-06   1.384527065966749e-05
-3.27506026794773e-05   6.278355864800054e-06   1.384527065966749e-05
-3.27506026794773e-05   6.278355864800054e-06   1.384527065966749e-05
3.1480159320151246e-06   4.4204545816958415e-08   1.678156849584981e-05
3.1480159320151246e-06   4.4204545816958415e-08   1.678156849584981e-05
3.1480159320151246e-06   4.4204545816958415e-08   1.678156849584981e-05
3.1480159320151246e-06   4.4204545816958415e-08   1.678156849584981e-05
-3.535470457939857e-06   1.8296069284162286e-06   6.713665942151021e-06
-3.535470457939857e-06   1.8296069284162286e-06   6.713665942151021e-06
-3.535470457939857e-06   1.8296069284162286e-06   6.713665942151021e-06
-3.535470457939857e-06   1.8296069284162286e-06   6.713665942151021e-06
-3.928465456114332e-06   -5.889673715764408e-07   1.655543329890307e-05
-3.928465456114332e-06   -5.889673715764408e-07   1.655543329890307e-05
-3.928465456114332e-06   -5.889673715764408e-07   1.655543329890307e-05
-3.928465456114332e-06   -5.889673715764408e-07   1.655543329890307e-05
1.9516767593028765e-06   1.2389627891879786e-06   5.65843817674919e-06
1.9516767593028765e-06   1.2389627891879786e-06   5.65843817674919e-06
1.9516767593028765e-06   1.2389627891879786e-06   5.65843817674919e-06
1.9516767593028765e-06   1.2389627891879786e-06   5.65843817674919e-06
-7.468959293199188e-07   5.299258320820956e-07   1.0581481498717212e-05
-7.468959293199188e-07   5.299258320820956e-07   1.0581481498717212e-05
-7.468959293199188e-07   5.299258320820956e-07   1.0581481498717212e-05
-7.468959293199188e-07   5.299258320820956e-07   1.0581481498717212e-05
1.9516767593028765e-06   -5.889673715764408e-07   1.5458675202444418e-05
1.9516767593028765e-06   -5.889673715764408e-07   1.5458675202444418e-05
1.9516767593028765e-06   -5.889673715764408e-07   1.5458675202444418e-05
1.9516767593028765e-06   -5.889673715764408e-07   1.5458675202444418e-05
-3.928465456114332e-06   1.2389627891879786e-06   6.755196273207863e-06
-3.928465456114332e-06   1.2389627891879786e-06   6.755196273207863e-06
-3.928465456114332e-06   1.2389627891879786e-06   6.755196273207863e-06
-3.928465456114332e-06   1.2389627891879786e-06   6.755196273207863e-06
-4.413878429353803e-06   -8.621093753578574e-07   1.6124425871584048e-05
-4.413878429353803e-06   -8.621093753578574e-07   1.6124425871584048e-05
-4.413878429353803e-06   -8.621093753578574e-07   1.6124425871584048e-05
-4.413878429353803e-06   -8.621093753578574e-07   1.6124425871584048e-05
9.137205427117283e-07   9.136206553573591e-07   6.17965623304548e-06
9.137205427117283e-07   9.136206553573591e-07   6.17965623304548e-06
9.137205427117283e-07   9.136206553573591e-07   6.17965623304548e-06
9.137205427117283e-07   9.136206553573591e-07   6.17965623304548e-06
-1.3927337622612678e-06   2.782342042484832e-07   1.0404978611999098e-05
-1.3927337622612678e-06   2.782342042484832e-07   1.0404978611999098e-05
-1.3927337622612678e-06   2.782342042484832e-07   1.0404978611999098e-05
-1.3927337622612678e-06   2.782342042484832e-07   1.0404978611999098e-05
9.137205427117419e-07   -8.621093753578574e-07   1.5058987853154634e-05
9.137205427117419e-07   -8.621093753578574e-07   1.5058987853154634e-05
9.137205427117419e-07   -8.621093753578574e-07   1.5058987853154634e-05
9.137205427117419e-07   -8.621093753578574e-07   1.5058987853154634e-05
-4.413878429353793e-06   9.136206553573591e-07   7.245094251474588e-06
-4.413878429353793e-06   9.136206553573591e-07   7.245094251474588e-06
-4.413878429353793e-06   9.136206553573591e-07   7.245094251474588e-06
-4.413878429353793e-06   9.136206553573591e-07   7.245094251474588e-06
-4.819463241075486e-06   -1.3173594742817499e-06   1.597425863302665e-05
-4.819463241075486e-06   -1.3173594742817499e-06   1.597425863302665e-05
-4.819463241075486e-06   -1.3173594742817499e-06   1.597425863302665e-05
-4.819463241075486e-06   -1.3173594742817499e-06   1.597425863302665e-05
-3.8833680711047804e-07   2.2337632555290143e-07   7.664606429850888e-06
-3.8833680711047804e-07   2.2337632555290143e-07   7.664606429850888e-06
-3.8833680711047804e-07   2.2337632555290143e-07   7.664606429850888e-06
-3.8833680711047804e-07   2.2337632555290143e-07   7.664606429850888e-06
-2.0875889651427986e-06   4.7206824964904706e-08   1.0602395060257529e-05
-2.0875889651427986e-06   4.7206824964904706e-08   1.0602395060257529e-05
-2.0875889651427986e-06   4.7206824964904706e-08   1.0602395060257529e-05
-2.0875889651427986e-06   4.7206824964904706e-08   1.0602395060257529e-05
-3.535470457939857e-06   1.7776562088716447e-06   2.693170348573435e-05
-3.535470457939857e-06   1.7776562088716447e-06   2.693170348573435e-05
-3.535470457939857e-06   1.7776562088716447e-06   2.693170348573435e-05
-3.535470457939857e-06   1.7776562088716447e-06   2.693170348573435e-05
-9.130057487985606e-06   2.1295042133685597e-06   1.7818500571689633e-05
-9.130057487985606e-06   2.1295042133685597e-06   1.7818500571689633e-05
-9.130057487985606e-06   2.1295042133685597e-06   1.7818500571689633e-05
-9.130057487985606e-06   2.1295042133685597e-06   1.7818500571689633e-05
-9.426306867361885e-06   1.0619769721432765e-06   2.6858820732775842e-05
-9.426306867361885e-06   1.0619769721432765e-06   2.6858820732775842e-05
-9.426306867361885e-06   1.0619769721432765e-06   2.6858820732775842e-05
-9.426306867361885e-06   1.0619769721432765e-06   2.6858820732775842e-05
-3.928465456114332e-06   1.4697905779468938e-06   1.7451063550547887e-05
-3.928465456114332e-06   1.4697905779468938e-06   1.7451063550547887e-05
-3.928465456114332e-06   1.4697905779468938e-06   1.7451063550547887e-05
-3.928465456114332e-06   1.4697905779468938e-06   1.7451063550547887e-05
-6.5436181169014755e-06   1.533329447071471e-06   2.177152799705159e-05
-6.5436181169014755e-06   1.533329447071471e-06   2.177152799705159e-05
-6.5436181169014755e-06   1.533329447071471e-06   2.177152799705159e-05
-6.5436181169014755e-06   1.533329447071471e-06   2.177152799705159e-05
-3.928465456114322e-06   1.0619769721432765e-06   2.661413256929354e-05
-3.928465456114322e-06   1.0619769721432765e-06   2.661413256929354e-05
-3.928465456114322e-06   1.0619769721432765e-06   2.661413256929354e-05
-3.928465456114322e-06   1.0619769721432765e-06   2.661413256929354e-05
-9.426306867361912e-06   1.4697905779468938e-06   1.7695751714029862e-05
-9.426306867361912e-06   1.4697905779468938e-06   1.7695751714029862e-05
-9.426306867361912e-06   1.4697905779468938e-06   1.7695751714029862e-05
-9.426306867361912e-06   1.4697905779468938e-06   1.7695751714029862e-05
-9.731852711336835e-06   4.5530188783537637e-07   2.691208247954525e-05
-9.731852711336835e-06   4.5530188783537637e-07   2.691208247954525e-05
-9.731852711336835e-06   4.5530188783537637e-07   2.691208247954525e-05
-9.731852711336835e-06   4.5530188783537637e-07   2.691208247954525e-05
-4.413878429353793e-06   8.606066765610813e-07   1.780560913633791e-05
-4.413878429353793e-06   8.606066765610813e-07   1.780560913633791e-05
-4.413878429353793e-06   8.606066765610813e-07   1.780560913633791e-05
-4.413878429353793e-06   8.606066765610813e-07   1.780560913633791e-05
-6.84605967166081e-06   1.0510993216858184e-06   2.1744948953108557e-05
-6.84605967166081e-06   1.0510993216858184e-06   2.1744948953108557e-05
-6.84605967166081e-06   1.0510993216858184e-06   2.1744948953108557e-05
-6.84605967166081e-06   1.0510993216858184e-06   2.1744948953108557e-05
-4.413878429353793e-06   4.5530188783515953e-07   2.6668899606309486e-05
-4.413878429353793e-06   4.5530188783515953e-07   2.6668899606309486e-05
-4.413878429353793e-06   4.5530188783515953e-07   2.6668899606309486e-05
-4.413878429353793e-06   4.5530188783515953e-07   2.6668899606309486e-05
-9.731852711336835e-06   8.606066765610813e-07   1.8048792009573485e-05
-9.731852711336835e-06   8.606066765610813e-07   1.8048792009573485e-05
-9.731852711336835e-06   8.606066765610813e-07   1.8048792009573485e-05
-9.731852711336835e-06   8.606066765610813e-07   1.8048792009573485e-05
-1.0031527264676038e-05   -1.6484185009547382e-07   2.7435186059414102e-05
-1.0031527264676038e-05   -1.6484185009547382e-07   2.7435186059414102e-05
-1.0031527264676038e-05   -1.6484185009547382e-07   2.7435186059414102e-05
-1.0031527264676038e-05   -1.6484185009547382e-07   2.7435186059414102e-05
-4.819463241075483e-06   2.0040733736252127e-07   1.8529263174272073e-05
-4.819463241075483e-06   2.0040733736252127e-07   1.8529263174272073e-05
-4.819463241075483e-06   2.0040733736252127e-07   1.8529263174272073e-05
-4.819463241075483e-06   2.0040733736252127e-07   1.8529263174272073e-05
-7.148229209219699e-06   5.769308470260489e-07   2.2184625682047585e-05
-7.148229209219699e-06   5.769308470260489e-07   2.2184625682047585e-05
-7.148229209219699e-06   5.769308470260489e-07   2.2184625682047585e-05
-7.148229209219699e-06   5.769308470260489e-07   2.2184625682047585e-05
-9.130057487985606e-06   3.3154487269913737e-06   3.031314348735407e-05
-9.130057487985606e-06   3.3154487269913737e-06   3.031314348735407e-05
-9.130057487985606e-06   3.3154487269913737e-06   3.031314348735407e-05
-9.130057487985606e-06   3.3154487269913737e-06   3.031314348735407e-05
-1.4706627827752478e-05   2.5523292352088237e-06   2.0560987892672973e-05
-1.4706627827752478e-05   2.5523292352088237e-06   2.0560987892672973e-05
-1.4706627827752478e-05   2.5523292352088237e-06   2.0560987892672973e-05
-1.4706627827752478e-05   2.5523292352088237e-06   2.0560987892672973e-05
-1.4957271722572136e-05   2.655501484504809e-06   2.9751537121861264e-05
-1.4957271722572136e-05   2.655501484504809e-06   2.9751537121861264e-05
-1.4957271722572136e-05   2.655501484504809e-06   2.9751537121861264e-05
-1.4957271722572136e-05   2.655501484504809e-06   2.9751537121861264e-05
-9.426306867361912e-06   1.940810130763443e-06   2.096207717542254e-05
-9.426306867361912e-06   1.940810130763443e-06   2.096207717542254e-05
-9.426306867361912e-06   1.940810130763443e-06   2.096207717542254e-05
-9.426306867361912e-06   1.940810130763443e-06   2.096207717542254e-05
-1.2061034058806778e-05   2.5657182831928527e-06   2.4978344269706266e-05
-1.2061034058806778e-05   2.5657182831928527e-06   2.4978344269706266e-05
-1.2061034058806778e-05   2.5657182831928527e-06   2.4978344269706266e-05
-1.2061034058806778e-05   2.5657182831928527e-06   2.4978344269706266e-05
-9.426306867361912e-06   2.655501484504809e-06   3.0180351934106192e-05
-9.426306867361912e-06   2.655501484504809e-06   3.0180351934106192e-05
-9.426306867361912e-06   2.655501484504809e-06   3.0180351934106192e-05
-9.426306867361912e-06   2.655501484504809e-06   3.0180351934106192e-05
-1.4957271722572136e-05   1.940810130763443e-06   2.0533262363177666e-05
-1.4957271722572136e-05   1.940810130763443e-06   2.0533262363177666e-05
-1.4957271722572136e-05   1.940810130763443e-06   2.0533262363177666e-05
-1.4957271722572136e-05   1.940810130763443e-06   2.0533262363177666e-05
-1.5225886662018442e-05   1.99892920826005e-06   3.004854962738112e-05
-1.5225886662018442e-05   1.99892920826005e-06   3.004854962738112e-05
-1.5225886662018442e-05   1.99892920826005e-06   3.004854962738112e-05
-1.5225886662018442e-05   1.99892920826005e-06   3.004854962738112e-05
-9.731852711336835e-06   1.3192771287479609e-06   2.1299617623952538e-05
-9.731852711336835e-06   1.3192771287479609e-06   2.1299617623952538e-05
-9.731852711336835e-06   1.3192771287479609e-06   2.1299617623952538e-05
-9.731852711336835e-06   1.3192771287479609e-06   2.1299617623952538e-05
-1.2275179194361593e-05   2.075942395421068e-06   2.5084495935656344e-05
-1.2275179194361593e-05   2.075942395421068e-06   2.5084495935656344e-05
-1.2275179194361593e-05   2.075942395421068e-06   2.5084495935656344e-05
-1.2275179194361593e-05   2.075942395421068e-06   2.5084495935656344e-05
-9.731852711336835e-06   1.9989292082602667e-06   3.0456340875088404e-05
-9.731852711336835e-06   1.9989292082602667e-06   3.0456340875088404e-05
-9.731852711336835e-06   1.9989292082602667e-06   3.0456340875088404e-05
-9.731852711336835e-06   1.9989292082602667e-06   3.0456340875088404e-05
-1.5225886662018442e-05   1.3192771287479609e-06   2.0891826376245035e-05
-1.5225886662018442e-05   1.3192771287479609e-06   2.0891826376245035e-05
-1.5225886662018442e-05   1.3192771287479609e-06   2.0891826376245035e-05
-1.5225886662018442e-05   1.3192771287479609e-06   2.0891826376245035e-05
-1.548895321101053e-05   1.3702035904978628e-06   3.066913045967788e-05
-1.548895321101053e-05   1.3702035904978628e-06   3.066913045967788e-05
-1.548895321101053e-05   1.3702035904978628e-06   3.066913045967788e-05
-1.548895321101053e-05   1.3702035904978628e-06   3.066913045967788e-05
-1.0031527264676011e-05   7.299822422557247e-07   2.1957553358065607e-05
-1.0031527264676011e-05   7.299822422557247e-07   2.1957553358065607e-05
-1.0031527264676011e-05   7.299822422557247e-07   2.1957553358065607e-05
-1.0031527264676011e-05   7.299822422557247e-07   2.1957553358065607e-05
-1.2513783679278826e-05   1.593504159051024e-06   2.5576534232326373e-05
-1.2513783679278826e-05   1.593504159051024e-06   2.5576534232326373e-05
-1.2513783679278826e-05   1.593504159051024e-06   2.5576534232326373e-05
-1.2513783679278826e-05   1.593504159051024e-06   2.5576534232326373e-05
-1.4706627827752478e-05   4.923798490444331e-06   2.6205060564019143e-05
-1.4706627827752478e-05   4.923798490444331e-06   2.6205060564019143e-05
-1.4706627827752478e-05   4.923798490444331e-06   2.6205060564019143e-05
-1.4706627827752478e-05   4.923798490444331e-06   2.6205060564019143e-05
-2.0190847703617217e-05   3.4496145231552224e-06   1.618018372387113e-05
-2.0190847703617217e-05   3.4496145231552224e-06   1.618018372387113e-05
-2.0190847703617217e-05   3.4496145231552224e-06   1.618018372387113e-05
-2.0190847703617217e-05   3.4496145231552224e-06   1.618018372387113e-05
-2.046622025237289e-05   4.25817665782079e-06   2.5432779869041236e-05
-2.046622025237289e-05   4.25817665782079e-06   2.5432779869041236e-05
-2.046622025237289e-05   4.25817665782079e-06   2.5432779869041236e-05
-2.046622025237289e-05   4.25817665782079e-06   2.5432779869041236e-05
-1.4957271722572136e-05   2.8062248662666118e-06   1.7122370060972483e-05
-1.4957271722572136e-05   2.8062248662666118e-06   1.7122370060972483e-05
-1.4957271722572136e-05   2.8062248662666118e-06   1.7122370060972483e-05
-1.4957271722572136e-05   2.8062248662666118e-06   1.7122370060972483e-05
-1.754300597847728e-05   3.826814601691508e-06   2.0819573312892825e-05
-1.754300597847728e-05   3.826814601691508e-06   2.0819573312892825e-05
-1.754300597847728e-05   3.826814601691508e-06   2.0819573312892825e-05
-1.754300597847728e-05   3.826814601691508e-06   2.0819573312892825e-05
-1.4957271722572136e-05   4.25817665782079e-06   2.6303950943973612e-05
-1.4957271722572136e-05   4.25817665782079e-06   2.6303950943973612e-05
-1.4957271722572136e-05   4.25817665782079e-06   2.6303950943973612e-05
-1.4957271722572136e-05   4.25817665782079e-06   2.6303950943973612e-05
-2.046622025237278e-05   2.8062248662668286e-06   1.6251198986040052e-05
-2.046622025237278e-05   2.8062248662668286e-06   1.6251198986040052e-05
-2.046622025237278e-05   2.8062248662668286e-06   1.6251198986040052e-05
-2.046622025237278e-05   2.8062248662668286e-06   1.6251198986040052e-05
-2.0846938600976818e-05   3.6531420109897194e-06   2.6277712817136378e-05
-2.0846938600976818e-05   3.6531420109897194e-06   2.6277712817136378e-05
-2.0846938600976818e-05   3.6531420109897194e-06   2.6277712817136378e-05
-2.0846938600976818e-05   3.6531420109897194e-06   2.6277712817136378e-05
-1.5225886662018442e-05   2.233941509372124e-06   1.7760813219843048e-05
-1.5225886662018442e-05   2.233941509372124e-06   1.7760813219843048e-05
-1.5225886662018442e-05   2.233941509372124e-06   1.7760813219843048e-05
-1.5225886662018442e-05   2.233941509372124e-06   1.7760813219843048e-05
-1.769270669086184e-05   3.3521318095057788e-06   2.1201265754501876e-05
-1.769270669086184e-05   3.3521318095057788e-06   2.1201265754501876e-05
-1.769270669086184e-05   3.3521318095057788e-06   2.1201265754501876e-05
-1.769270669086184e-05   3.3521318095057788e-06   2.1201265754501876e-05
-1.5225886662018442e-05   3.6531420109897194e-06   2.7129233118106718e-05
-1.5225886662018442e-05   3.6531420109897194e-06   2.7129233118106718e-05
-1.5225886662018442e-05   3.6531420109897194e-06   2.7129233118106718e-05
-1.5225886662018442e-05   3.6531420109897194e-06   2.7129233118106718e-05
-2.0846938600976763e-05   2.233941509372124e-06   1.6909292918872436e-05
-2.0846938600976763e-05   2.233941509372124e-06   1.6909292918872436e-05
-2.0846938600976763e-05   2.233941509372124e-06   1.6909292918872436e-05
-2.0846938600976763e-05   2.233941509372124e-06   1.6909292918872436e-05
-2.115218849092998e-05   3.0066993541937558e-06   2.7217981816454696e-05
-2.115218849092998e-05   3.0066993541937558e-06   2.7217981816454696e-05
-2.115218849092998e-05   3.0066993541937558e-06   2.7217981816454696e-05
-2.115218849092998e-05   3.0066993541937558e-06   2.7217981816454696e-05
-1.548895321101053e-05   1.651058154370725e-06   1.859264106981648e-05
-1.548895321101053e-05   1.651058154370725e-06   1.859264106981648e-05
-1.548895321101053e-05   1.651058154370725e-06   1.859264106981648e-05
-1.548895321101053e-05   1.651058154370725e-06   1.859264106981648e-05
-1.8007952518795723e-05   2.9008638821084428e-06   2.204108981281589e-05
-1.8007952518795723e-05   2.9008638821084428e-06   2.204108981281589e-05
-1.8007952518795723e-05   2.9008638821084428e-06   2.204108981281589e-05
-1.8007952518795723e-05   2.9008638821084428e-06   2.204108981281589e-05
-2.0190847703617217e-05   6.055674257974576e-06   1.155475358226158e-05
-2.0190847703617217e-05   6.055674257974576e-06   1.155475358226158e-05
-2.0190847703617217e-05   6.055674257974576e-06   1.155475358226158e-05
-2.0190847703617217e-05   6.055674257974576e-06   1.155475358226158e-05
-2.4491644444777348e-05   4.074079296322074e-06   3.197802036669866e-06
-2.4491644444777348e-05   4.074079296322074e-06   3.197802036669866e-06
-2.4491644444777348e-05   4.074079296322074e-06   3.197802036669866e-06
-2.4491644444777348e-05   4.074079296322074e-06   3.197802036669866e-06
-2.553715050802066e-05   5.714237251584027e-06   1.3544730065449817e-05
-2.553715050802066e-05   5.714237251584027e-06   1.3544730065449817e-05
-2.553715050802066e-05   5.714237251584027e-06   1.3544730065449817e-05
-2.553715050802066e-05   5.714237251584027e-06   1.3544730065449817e-05
-2.0466220252372835e-05   3.6459262951935804e-06   6.3341662132041e-06
-2.0466220252372835e-05   3.6459262951935804e-06   6.3341662132041e-06
-2.0466220252372835e-05   3.6459262951935804e-06   6.3341662132041e-06
-2.0466220252372835e-05   3.6459262951935804e-06   6.3341662132041e-06
-2.1884961032745472e-05   4.82371928778758e-06   7.992058384935688e-06
-2.1884961032745472e-05   4.82371928778758e-06   7.992058384935688e-06
-2.1884961032745472e-05   4.82371928778758e-06   7.992058384935688e-06
-2.1884961032745472e-05   4.82371928778758e-06   7.992058384935688e-06
-2.046622025237278e-05   5.71423725158381e-06   1.4785716639283955e-05
-2.046622025237278e-05   5.71423725158381e-06   1.4785716639283955e-05
-2.046622025237278e-05   5.71423725158381e-06   1.4785716639283955e-05
-2.046622025237278e-05   5.71423725158381e-06   1.4785716639283955e-05
-2.5537150508020716e-05   3.6459262951935804e-06   5.093179639370116e-06
-2.5537150508020716e-05   3.6459262951935804e-06   5.093179639370116e-06
-2.5537150508020716e-05   3.6459262951935804e-06   5.093179639370116e-06
-2.5537150508020716e-05   3.6459262951935804e-06   5.093179639370116e-06
-2.6434888154200614e-05   5.429231153168592e-06   1.5952767955824216e-05
-2.6434888154200614e-05   5.429231153168592e-06   1.5952767955824216e-05
-2.6434888154200614e-05   5.429231153168592e-06   1.5952767955824216e-05
-2.6434888154200614e-05   5.429231153168592e-06   1.5952767955824216e-05
-2.0846938600976763e-05   3.3520052869539033e-06   7.885854220179844e-06
-2.0846938600976763e-05   3.3520052869539033e-06   7.885854220179844e-06
-2.0846938600976763e-05   3.3520052869539033e-06   7.885854220179844e-06
-2.0846938600976763e-05   3.3520052869539033e-06   7.885854220179844e-06
-2.277061956592176e-05   4.65556964014647e-06   1.0309850549839892e-05
-2.277061956592176e-05   4.65556964014647e-06   1.0309850549839892e-05
-2.277061956592176e-05   4.65556964014647e-06   1.0309850549839892e-05
-2.277061956592176e-05   4.65556964014647e-06   1.0309850549839892e-05
-2.0846938600976763e-05   5.429231153168592e-06   1.7199103475552965e-05
-2.0846938600976763e-05   5.429231153168592e-06   1.7199103475552965e-05
-2.0846938600976763e-05   5.429231153168592e-06   1.7199103475552965e-05
-2.0846938600976763e-05   5.429231153168592e-06   1.7199103475552965e-05
-2.6434888154200722e-05   3.35200528695412e-06   6.639518700451025e-06
-2.6434888154200722e-05   3.35200528695412e-06   6.639518700451025e-06
-2.6434888154200722e-05   3.35200528695412e-06   6.639518700451025e-06
-2.6434888154200722e-05   3.35200528695412e-06   6.639518700451025e-06
-2.7578288084132666e-05   4.654486788574497e-06   2.031110037600944e-05
-2.7578288084132666e-05   4.654486788574497e-06   2.031110037600944e-05
-2.7578288084132666e-05   4.654486788574497e-06   2.031110037600944e-05
-2.7578288084132666e-05   4.654486788574497e-06   2.031110037600944e-05
-2.1152188490929926e-05   2.677681811489403e-06   1.078701737358917e-05
-2.1152188490929926e-05   2.677681811489403e-06   1.078701737358917e-05
-2.1152188490929926e-05   2.677681811489403e-06   1.078701737358917e-05
-2.1152188490929926e-05   2.677681811489403e-06   1.078701737358917e-05
-2.302418501865986e-05   4.3339999326545e-06   1.2913220713772715e-05
-2.302418501865986e-05   4.3339999326545e-06   1.2913220713772715e-05
-2.302418501865986e-05   4.3339999326545e-06   1.2913220713772715e-05
-2.302418501865986e-05   4.3339999326545e-06   1.2913220713772715e-05
-1.0077063995213363e-05   1.8296069284162286e-06   1.1964905305550783e-05
-1.0077063995213363e-05   1.8296069284162286e-06   1.1964905305550783e-05
-1.0077063995213363e-05   1.8296069284162286e-06   1.1964905305550783e-05
-1.0077063995213363e-05   1.8296069284162286e-06   1.1964905305550783e-05
-1.099803871199397e-05   3.451692646806357e-06   1.1403198875283862e-05
-1.099803871199397e-05   3.451692646806357e-06   1.1403198875283862e-05
-1.099803871199397e-05   3.451692646806357e-06   1.1403198875283862e-05
-1.099803871199397e-05   3.451692646806357e-06   1.1403198875283862e-05
-1.1279775139746306e-05   1.2389627891879786e-06   1.2859005369720232e-05
-1.1279775139746306e-05   1.2389627891879786e-06   1.2859005369720232e-05
-1.1279775139746306e-05   1.2389627891879786e-06   1.2859005369720232e-05
-1.1279775139746306e-05   1.2389627891879786e-06   1.2859005369720232e-05
-1.1264915828842185e-05   2.6974980023719434e-06   1.1959118723636362e-05
-1.1264915828842185e-05   2.6974980023719434e-06   1.1959118723636362e-05
-1.1264915828842185e-05   2.6974980023719434e-06   1.1959118723636362e-05
-1.1264915828842185e-05   2.6974980023719434e-06   1.1959118723636362e-05
-1.0633418647481253e-05   2.154365690058401e-06   1.1232502808756237e-05
-1.0633418647481253e-05   2.154365690058401e-06   1.1232502808756237e-05
-1.0633418647481253e-05   2.154365690058401e-06   1.1232502808756237e-05
-1.0633418647481253e-05   2.154365690058401e-06   1.1232502808756237e-05
-1.1264915828842199e-05   1.2389627891879786e-06   1.1983884241809789e-05
-1.1264915828842199e-05   1.2389627891879786e-06   1.1983884241809789e-05
-1.1264915828842199e-05   1.2389627891879786e-06   1.1983884241809789e-05
-1.1264915828842199e-05   1.2389627891879786e-06   1.1983884241809789e-05
-1.1279775139746306e-05   2.6974980023719434e-06   1.2834239851546698e-05
-1.1279775139746306e-05   2.6974980023719434e-06   1.2834239851546698e-05
-1.1279775139746306e-05   2.6974980023719434e-06   1.2834239851546698e-05
-1.1279775139746306e-05   2.6974980023719434e-06   1.2834239851546698e-05
-1.1645483820036993e-05   9.136206553573591e-07   1.3269227291090894e-05
-1.1645483820036993e-05   9.136206553573591e-07   1.3269227291090894e-05
-1.1645483820036993e-05   9.136206553573591e-07   1.3269227291090894e-05
-1.1645483820036993e-05   9.136206553573591e-07   1.3269227291090894e-05
-1.2419954895659334e-05   2.1758094278661894e-06   1.380269915362295e-05
-1.2419954895659334e-05   2.1758094278661894e-06   1.380269915362295e-05
-1.2419954895659334e-05   2.1758094278661894e-06   1.380269915362295e-05
-1.2419954895659334e-05   2.1758094278661894e-06   1.380269915362295e-05
-1.1340561129999572e-05   1.828970112118021e-06   1.2211813133638962e-05
-1.1340561129999572e-05   1.828970112118021e-06   1.2211813133638962e-05
-1.1340561129999572e-05   1.828970112118021e-06   1.2211813133638962e-05
-1.1340561129999572e-05   1.828970112118021e-06   1.2211813133638962e-05
-1.2419954895659347e-05   9.136206553575759e-07   1.2511914027585515e-05
-1.2419954895659347e-05   9.136206553575759e-07   1.2511914027585515e-05
-1.2419954895659347e-05   9.136206553575759e-07   1.2511914027585515e-05
-1.2419954895659347e-05   9.136206553575759e-07   1.2511914027585515e-05
-1.1645483820036993e-05   2.1758094278661894e-06   1.456001241712814e-05
-1.1645483820036993e-05   2.1758094278661894e-06   1.456001241712814e-05
-1.1645483820036993e-05   2.1758094278661894e-06   1.456001241712814e-05
-1.1645483820036993e-05   2.1758094278661894e-06   1.456001241712814e-05
-1.1877840772272484e-05   2.2337632555311827e-07   1.458984193810351e-05
-1.1877840772272484e-05   2.2337632555311827e-07   1.458984193810351e-05
-1.1877840772272484e-05   2.2337632555311827e-07   1.458984193810351e-05
-1.1877840772272484e-05   2.2337632555311827e-07   1.458984193810351e-05
-1.3649591248334313e-05   8.924943011289497e-07   1.7141288612860855e-05
-1.3649591248334313e-05   8.924943011289497e-07   1.7141288612860855e-05
-1.3649591248334313e-05   8.924943011289497e-07   1.7141288612860855e-05
-1.3649591248334313e-05   8.924943011289497e-07   1.7141288612860855e-05
-1.1835379180876558e-05   1.4292199350820307e-06   1.3795566453392262e-05
-1.1835379180876558e-05   1.4292199350820307e-06   1.3795566453392262e-05
-1.1835379180876558e-05   1.4292199350820307e-06   1.3795566453392262e-05
-1.1835379180876558e-05   1.4292199350820307e-06   1.3795566453392262e-05
-1.099803871199397e-05   2.1295042133685597e-06   2.3831882563425183e-05
-1.099803871199397e-05   2.1295042133685597e-06   2.3831882563425183e-05
-1.099803871199397e-05   2.1295042133685597e-06   2.3831882563425183e-05
-1.099803871199397e-05   2.1295042133685597e-06   2.3831882563425183e-05
-1.1134480652120961e-05   8.932313093695191e-07   2.2862715587480722e-05
-1.1134480652120961e-05   8.932313093695191e-07   2.2862715587480722e-05
-1.1134480652120961e-05   8.932313093695191e-07   2.2862715587480722e-05
-1.1134480652120961e-05   8.932313093695191e-07   2.2862715587480722e-05
-1.1220971519883358e-05   1.4697905779468938e-06   2.2930214721390732e-05
-1.1220971519883358e-05   1.4697905779468938e-06   2.2930214721390732e-05
-1.1220971519883358e-05   1.4697905779468938e-06   2.2930214721390732e-05
-1.1220971519883358e-05   1.4697905779468938e-06   2.2930214721390732e-05
-1.1279775139746306e-05   4.2869403516420865e-07   2.3652878680165287e-05
-1.1279775139746306e-05   4.2869403516420865e-07   2.3652878680165287e-05
-1.1279775139746306e-05   4.2869403516420865e-07   2.3652878680165287e-05
-1.1279775139746306e-05   4.2869403516420865e-07   2.3652878680165287e-05
-1.1123861760790164e-05   1.0881370963275092e-06   2.2997357211873657e-05
-1.1123861760790164e-05   1.0881370963275092e-06   2.2997357211873657e-05
-1.1123861760790164e-05   1.0881370963275092e-06   2.2997357211873657e-05
-1.1123861760790164e-05   1.0881370963275092e-06   2.2997357211873657e-05
-1.1279775139746313e-05   1.469790577946677e-06   2.3554872647060256e-05
-1.1279775139746313e-05   1.469790577946677e-06   2.3554872647060256e-05
-1.1279775139746313e-05   1.469790577946677e-06   2.3554872647060256e-05
-1.1279775139746313e-05   1.469790577946677e-06   2.3554872647060256e-05
-1.1220971519883358e-05   4.2869403516420865e-07   2.3028220754495708e-05
-1.1220971519883358e-05   4.2869403516420865e-07   2.3028220754495708e-05
-1.1220971519883358e-05   4.2869403516420865e-07   2.3028220754495708e-05
-1.1220971519883358e-05   4.2869403516420865e-07   2.3028220754495708e-05
-1.1328254047770922e-05   8.606066765610813e-07   2.3247170584502906e-05
-1.1328254047770922e-05   8.606066765610813e-07   2.3247170584502906e-05
-1.1328254047770922e-05   8.606066765610813e-07   2.3247170584502906e-05
-1.1328254047770922e-05   8.606066765610813e-07   2.3247170584502906e-05
-1.1645483820036993e-05   -1.1034597585787755e-07   2.435845846306421e-05
-1.1645483820036993e-05   -1.1034597585787755e-07   2.435845846306421e-05
-1.1645483820036993e-05   -1.1034597585787755e-07   2.435845846306421e-05
-1.1645483820036993e-05   -1.1034597585787755e-07   2.435845846306421e-05
-1.1229981617061585e-05   7.031330842978238e-07   2.317786735534549e-05
-1.1229981617061585e-05   7.031330842978238e-07   2.317786735534549e-05
-1.1229981617061585e-05   7.031330842978238e-07   2.317786735534549e-05
-1.1229981617061585e-05   7.031330842978238e-07   2.317786735534549e-05
-1.1645483820036993e-05   8.606066765610813e-07   2.3829742175954e-05
-1.1645483820036993e-05   8.606066765610813e-07   2.3829742175954e-05
-1.1645483820036993e-05   8.606066765610813e-07   2.3829742175954e-05
-1.1645483820036993e-05   8.606066765610813e-07   2.3829742175954e-05
-1.1328254047770922e-05   -1.1034597585787755e-07   2.3775886871612846e-05
-1.1328254047770922e-05   -1.1034597585787755e-07   2.3775886871612846e-05
-1.1328254047770922e-05   -1.1034597585787755e-07   2.3775886871612846e-05
-1.1328254047770922e-05   -1.1034597585787755e-07   2.3775886871612846e-05
-1.1405959506498862e-05   2.0040733736252127e-07   2.391846010218492e-05
-1.1405959506498862e-05   2.0040733736252127e-07   2.391846010218492e-05
-1.1405959506498862e-05   2.0040733736252127e-07   2.391846010218492e-05
-1.1405959506498862e-05   2.0040733736252127e-07   2.391846010218492e-05
-1.187784077227245e-05   -8.18921163369085e-07   2.5316525978912822e-05
-1.187784077227245e-05   -8.18921163369085e-07   2.5316525978912822e-05
-1.187784077227245e-05   -8.18921163369085e-07   2.5316525978912822e-05
-1.187784077227245e-05   -8.18921163369085e-07   2.5316525978912822e-05
-1.1398292896281463e-05   2.5046981496853766e-07   2.3875644931924838e-05
-1.1398292896281463e-05   2.5046981496853766e-07   2.3875644931924838e-05
-1.1398292896281463e-05   2.5046981496853766e-07   2.3875644931924838e-05
-1.1398292896281463e-05   2.5046981496853766e-07   2.3875644931924838e-05
-1.1134480652120961e-05   2.5523292352088237e-06   2.6290477837078764e-05
-1.1134480652120961e-05   2.5523292352088237e-06   2.6290477837078764e-05
-1.1134480652120961e-05   2.5523292352088237e-06   2.6290477837078764e-05
-1.1134480652120961e-05   2.5523292352088237e-06   2.6290477837078764e-05
-1.1979988079203162e-05   2.482268081440992e-07   2.349883733570286e-05
-1.1979988079203162e-05   2.482268081440992e-07   2.349883733570286e-05
-1.1979988079203162e-05   2.482268081440992e-07   2.349883733570286e-05
-1.1979988079203162e-05   2.482268081440992e-07   2.349883733570286e-05
-1.2008394345271428e-05   1.940810130763443e-06   2.494541207900651e-05
-1.2008394345271428e-05   1.940810130763443e-06   2.494541207900651e-05
-1.2008394345271428e-05   1.940810130763443e-06   2.494541207900651e-05
-1.2008394345271428e-05   1.940810130763443e-06   2.494541207900651e-05
-1.1220971519883358e-05   -1.4440337553142668e-07   2.4884168807136537e-05
-1.1220971519883358e-05   -1.4440337553142668e-07   2.4884168807136537e-05
-1.1220971519883358e-05   -1.4440337553142668e-07   2.4884168807136537e-05
-1.1220971519883358e-05   -1.4440337553142668e-07   2.4884168807136537e-05
-1.1566004209945832e-05   1.1105890825081097e-06   2.4706227815750236e-05
-1.1566004209945832e-05   1.1105890825081097e-06   2.4706227815750236e-05
-1.1566004209945832e-05   1.1105890825081097e-06   2.4706227815750236e-05
-1.1566004209945832e-05   1.1105890825081097e-06   2.4706227815750236e-05
-1.1220971519883358e-05   1.940810130763443e-06   2.619654018278341e-05
-1.1220971519883358e-05   1.940810130763443e-06   2.619654018278341e-05
-1.1220971519883358e-05   1.940810130763443e-06   2.619654018278341e-05
-1.1220971519883358e-05   1.940810130763443e-06   2.619654018278341e-05
-1.2008394345271428e-05   -1.4440337553142668e-07   2.363304070335969e-05
-1.2008394345271428e-05   -1.4440337553142668e-07   2.363304070335969e-05
-1.2008394345271428e-05   -1.4440337553142668e-07   2.363304070335969e-05
-1.2008394345271428e-05   -1.4440337553142668e-07   2.363304070335969e-05
-1.2060785640406399e-05   1.3192771287479609e-06   2.533767991068868e-05
-1.2060785640406399e-05   1.3192771287479609e-06   2.533767991068868e-05
-1.2060785640406399e-05   1.3192771287479609e-06   2.533767991068868e-05
-1.2060785640406399e-05   1.3192771287479609e-06   2.533767991068868e-05
-1.1328254047770922e-05   -6.145833515743123e-07   2.5277110211156047e-05
-1.1328254047770922e-05   -6.145833515743123e-07   2.5277110211156047e-05
-1.1328254047770922e-05   -6.145833515743123e-07   2.5277110211156047e-05
-1.1328254047770922e-05   -6.145833515743123e-07   2.5277110211156047e-05
-1.1571495557552013e-05   7.215961180296357e-07   2.488080504569556e-05
-1.1571495557552013e-05   7.215961180296357e-07   2.488080504569556e-05
-1.1571495557552013e-05   7.215961180296357e-07   2.488080504569556e-05
-1.1571495557552013e-05   7.215961180296357e-07   2.488080504569556e-05
-1.1328254047770922e-05   1.319277128747744e-06   2.6497996198881634e-05
-1.1328254047770922e-05   1.319277128747744e-06   2.6497996198881634e-05
-1.1328254047770922e-05   1.319277128747744e-06   2.6497996198881634e-05
-1.1328254047770922e-05   1.319277128747744e-06   2.6497996198881634e-05
-1.2060785640406399e-05   -6.145833515743123e-07   2.4116793922962878e-05
-1.2060785640406399e-05   -6.145833515743123e-07   2.4116793922962878e-05
-1.2060785640406399e-05   -6.145833515743123e-07   2.4116793922962878e-05
-1.2060785640406399e-05   -6.145833515743123e-07   2.4116793922962878e-05
-1.209393351467487e-05   7.299822422557247e-07   2.6037493568881534e-05
-1.209393351467487e-05   7.299822422557247e-07   2.6037493568881534e-05
-1.209393351467487e-05   7.299822422557247e-07   2.6037493568881534e-05
-1.209393351467487e-05   7.299822422557247e-07   2.6037493568881534e-05
-1.1405959506498889e-05   -1.0868630987812163e-06   2.5980977426543666e-05
-1.1405959506498889e-05   -1.0868630987812163e-06   2.5980977426543666e-05
-1.1405959506498889e-05   -1.0868630987812163e-06   2.5980977426543666e-05
-1.1405959506498889e-05   -1.0868630987812163e-06   2.5980977426543666e-05
-1.1596170497154483e-05   3.216461491995339e-07   2.5452890195513738e-05
-1.1596170497154483e-05   3.216461491995339e-07   2.5452890195513738e-05
-1.1596170497154483e-05   3.216461491995339e-07   2.5452890195513738e-05
-1.1596170497154483e-05   3.216461491995339e-07   2.5452890195513738e-05
-1.1979988079203162e-05   3.4496145231552224e-06   2.1411722592411405e-05
-1.1979988079203162e-05   3.4496145231552224e-06   2.1411722592411405e-05
-1.1979988079203162e-05   3.4496145231552224e-06   2.1411722592411405e-05
-1.1979988079203162e-05   3.4496145231552224e-06   2.1411722592411405e-05
-1.3206410140072331e-05   1.1323812350704648e-06   1.7977345851445255e-05
-1.3206410140072331e-05   1.1323812350704648e-06   1.7977345851445255e-05
-1.3206410140072331e-05   1.1323812350704648e-06   1.7977345851445255e-05
-1.3206410140072331e-05   1.1323812350704648e-06   1.7977345851445255e-05
-1.3227127071418967e-05   2.8062248662668286e-06   2.021989299783966e-05
-1.3227127071418967e-05   2.8062248662668286e-06   2.021989299783966e-05
-1.3227127071418967e-05   2.8062248662668286e-06   2.021989299783966e-05
-1.3227127071418967e-05   2.8062248662668286e-06   2.021989299783966e-05
-1.2008394345271428e-05   6.151802346639245e-07   1.95032985665553e-05
-1.2008394345271428e-05   6.151802346639245e-07   1.95032985665553e-05
-1.2008394345271428e-05   6.151802346639245e-07   1.95032985665553e-05
-1.2008394345271428e-05   6.151802346639245e-07   1.95032985665553e-05
-1.2572503840693695e-05   2.048467991963912e-06   1.9583508404545807e-05
-1.2572503840693695e-05   2.048467991963912e-06   1.9583508404545807e-05
-1.2572503840693695e-05   2.048467991963912e-06   1.9583508404545807e-05
-1.2572503840693695e-05   2.048467991963912e-06   1.9583508404545807e-05
-1.2008394345271428e-05   2.8062248662666118e-06   2.1534519776801272e-05
-1.2008394345271428e-05   2.8062248662666118e-06   2.1534519776801272e-05
-1.2008394345271428e-05   2.8062248662666118e-06   2.1534519776801272e-05
-1.2008394345271428e-05   2.8062248662666118e-06   2.1534519776801272e-05
-1.3227127071418967e-05   6.151802346639245e-07   1.8188671787593743e-05
-1.3227127071418967e-05   6.151802346639245e-07   1.8188671787593743e-05
-1.3227127071418967e-05   6.151802346639245e-07   1.8188671787593743e-05
-1.3227127071418967e-05   6.151802346639245e-07   1.8188671787593743e-05
-1.336976534099609e-05   2.233941509372124e-06   2.0969718964689455e-05
-1.336976534099609e-05   2.233941509372124e-06   2.0969718964689455e-05
-1.336976534099609e-05   2.233941509372124e-06   2.0969718964689455e-05
-1.336976534099609e-05   2.233941509372124e-06   2.0969718964689455e-05
-1.2060785640406399e-05   1.7236186004388008e-07   2.0025033919970252e-05
-1.2060785640406399e-05   1.7236186004388008e-07   2.0025033919970252e-05
-1.2060785640406399e-05   1.7236186004388008e-07   2.0025033919970252e-05
-1.2060785640406399e-05   1.7236186004388008e-07   2.0025033919970252e-05
-1.2535733076799935e-05   1.623452604576723e-06   1.9945958533906534e-05
-1.2535733076799935e-05   1.623452604576723e-06   1.9945958533906534e-05
-1.2535733076799935e-05   1.623452604576723e-06   1.9945958533906534e-05
-1.2535733076799935e-05   1.623452604576723e-06   1.9945958533906534e-05
-1.2060785640406399e-05   2.233941509372341e-06   2.2206666754286315e-05
-1.2060785640406399e-05   2.233941509372341e-06   2.2206666754286315e-05
-1.2060785640406399e-05   2.233941509372341e-06   2.2206666754286315e-05
-1.2060785640406399e-05   2.233941509372341e-06   2.2206666754286315e-05
-1.336976534099609e-05   1.7236186004377166e-07   1.8788086130373264e-05
-1.336976534099609e-05   1.7236186004377166e-07   1.8788086130373264e-05
-1.336976534099609e-05   1.7236186004377166e-07   1.8788086130373264e-05
-1.336976534099609e-05   1.7236186004377166e-07   1.8788086130373264e-05
-1.345453453432732e-05   1.651058154370725e-06   2.190168278180934e-05
-1.345453453432732e-05   1.651058154370725e-06   2.190168278180934e-05
-1.345453453432732e-05   1.651058154370725e-06   2.190168278180934e-05
-1.345453453432732e-05   1.651058154370725e-06   2.190168278180934e-05
-1.2093933514674817e-05   -2.739940252432637e-07   2.0789045723489997e-05
-1.2093933514674817e-05   -2.739940252432637e-07   2.0789045723489997e-05
-1.2093933514674817e-05   -2.739940252432637e-07   2.0789045723489997e-05
-1.2093933514674817e-05   -2.739940252432637e-07   2.0789045723489997e-05
-1.2597666700168964e-05   1.2439204459230952e-06   2.0717852349946013e-05
-1.2597666700168964e-05   1.2439204459230952e-06   2.0717852349946013e-05
-1.2597666700168964e-05   1.2439204459230952e-06   2.0717852349946013e-05
-1.2597666700168964e-05   1.2439204459230952e-06   2.0717852349946013e-05
-1.3206410140072331e-05   4.074079296322074e-06   8.227957909350664e-06
-1.3206410140072331e-05   4.074079296322074e-06   8.227957909350664e-06
-1.3206410140072331e-05   4.074079296322074e-06   8.227957909350664e-06
-1.3206410140072331e-05   4.074079296322074e-06   8.227957909350664e-06
-1.3029545845100795e-05   1.8648063990338868e-06   7.1971679959303915e-06
-1.3029545845100795e-05   1.8648063990338868e-06   7.1971679959303915e-06
-1.3029545845100795e-05   1.8648063990338868e-06   7.1971679959303915e-06
-1.3029545845100795e-05   1.8648063990338868e-06   7.1971679959303915e-06
-1.369948613173062e-05   3.6459262951935804e-06   9.01469376029672e-06
-1.369948613173062e-05   3.6459262951935804e-06   9.01469376029672e-06
-1.369948613173062e-05   3.6459262951935804e-06   9.01469376029672e-06
-1.369948613173062e-05   3.6459262951935804e-06   9.01469376029672e-06
-1.3227127071418967e-05   1.4989821873485475e-06   9.515595124484286e-06
-1.3227127071418967e-05   1.4989821873485475e-06   9.515595124484286e-06
-1.3227127071418967e-05   1.4989821873485475e-06   9.515595124484286e-06
-1.3227127071418967e-05   1.4989821873485475e-06   9.515595124484286e-06
-1.2858976820071802e-05   2.8656956831306845e-06   8.081983274769975e-06
-1.2858976820071802e-05   2.8656956831306845e-06   8.081983274769975e-06
-1.2858976820071802e-05   2.8656956831306845e-06   8.081983274769975e-06
-1.2858976820071802e-05   2.8656956831306845e-06   8.081983274769975e-06
-1.3227127071418967e-05   3.6459262951935804e-06   1.0302860225003653e-05
-1.3227127071418967e-05   3.6459262951935804e-06   1.0302860225003653e-05
-1.3227127071418967e-05   3.6459262951935804e-06   1.0302860225003653e-05
-1.3227127071418967e-05   3.6459262951935804e-06   1.0302860225003653e-05
-1.369948613173062e-05   1.4989821873485475e-06   8.22742865977738e-06
-1.369948613173062e-05   1.4989821873485475e-06   8.22742865977738e-06
-1.369948613173062e-05   1.4989821873485475e-06   8.22742865977738e-06
-1.369948613173062e-05   1.4989821873485475e-06   8.22742865977738e-06
-1.4287854828237147e-05   3.3520052869539033e-06   1.0690914329924538e-05
-1.4287854828237147e-05   3.3520052869539033e-06   1.0690914329924538e-05
-1.4287854828237147e-05   3.3520052869539033e-06   1.0690914329924538e-05
-1.4287854828237147e-05   3.3520052869539033e-06   1.0690914329924538e-05
-1.336976534099609e-05   1.2597287268335247e-06   1.0416131120595138e-05
-1.336976534099609e-05   1.2597287268335247e-06   1.0416131120595138e-05
-1.336976534099609e-05   1.2597287268335247e-06   1.0416131120595138e-05
-1.336976534099609e-05   1.2597287268335247e-06   1.0416131120595138e-05
-1.3336065961251078e-05   2.651719243572251e-06   9.52477117764404e-06
-1.3336065961251078e-05   2.651719243572251e-06   9.52477117764404e-06
-1.3336065961251078e-05   2.651719243572251e-06   9.52477117764404e-06
-1.3336065961251078e-05   2.651719243572251e-06   9.52477117764404e-06
-1.336976534099609e-05   3.3520052869539033e-06   1.1946280265996592e-05
-1.336976534099609e-05   3.3520052869539033e-06   1.1946280265996592e-05
-1.336976534099609e-05   3.3520052869539033e-06   1.1946280265996592e-05
-1.336976534099609e-05   3.3520052869539033e-06   1.1946280265996592e-05
-1.4287854828237147e-05   1.2597287268335247e-06   9.160765184522895e-06
-1.4287854828237147e-05   1.2597287268335247e-06   9.160765184522895e-06
-1.4287854828237147e-05   1.2597287268335247e-06   9.160765184522895e-06
-1.4287854828237147e-05   1.2597287268335247e-06   9.160765184522895e-06
-1.5163507739458662e-05   2.677681811489403e-06   1.3770294891021512e-05
-1.5163507739458662e-05   2.677681811489403e-06   1.3770294891021512e-05
-1.5163507739458662e-05   2.677681811489403e-06   1.3770294891021512e-05
-1.5163507739458662e-05   2.677681811489403e-06   1.3770294891021512e-05
-1.3454534534327266e-05   7.791002873988422e-07   1.2061155130256573e-05
-1.3454534534327266e-05   7.791002873988422e-07   1.2061155130256573e-05
-1.3454534534327266e-05   7.791002873988422e-07   1.2061155130256573e-05
-1.3454534534327266e-05   7.791002873988422e-07   1.2061155130256573e-05
-1.3497283236321884e-05   2.3977632258923823e-06   1.1161205203816637e-05
-1.3497283236321884e-05   2.3977632258923823e-06   1.1161205203816637e-05
-1.3497283236321884e-05   2.3977632258923823e-06   1.1161205203816637e-05
-1.3497283236321884e-05   2.3977632258923823e-06   1.1161205203816637e-05
-2.6069188494942857e-05   3.451692646806357e-06   9.999595072095167e-06
-2.6069188494942857e-05   3.451692646806357e-06   9.999595072095167e-06
-2.6069188494942857e-05   3.451692646806357e-06   9.999595072095167e-06
-2.6069188494942857e-05   3.451692646806357e-06   9.999595072095167e-06
-1.7586193046642363e-05   4.781163330090643e-06   2.493560322923324e-05
-1.7586193046642363e-05   4.781163330090643e-06   2.493560322923324e-05
-1.7586193046642363e-05   4.781163330090643e-06   2.493560322923324e-05
-1.7586193046642363e-05   4.781163330090643e-06   2.493560322923324e-05
-1.7576814324595754e-05   2.6974980023719434e-06   1.1372200377505603e-05
-1.7576814324595754e-05   2.6974980023719434e-06   1.1372200377505603e-05
-1.7576814324595754e-05   2.6974980023719434e-06   1.1372200377505603e-05
-1.7576814324595754e-05   2.6974980023719434e-06   1.1372200377505603e-05
-2.8707534521801348e-05   1.944177172342695e-06   3.03753932041992e-05
-2.8707534521801348e-05   1.944177172342695e-06   3.03753932041992e-05
-2.8707534521801348e-05   1.944177172342695e-06   3.03753932041992e-05
-2.8707534521801348e-05   1.944177172342695e-06   3.03753932041992e-05
-2.132494278683251e-05   2.8349369042733e-06   1.7536617806759326e-05
-2.132494278683251e-05   2.8349369042733e-06   1.7536617806759326e-05
-2.132494278683251e-05   2.8349369042733e-06   1.7536617806759326e-05
-2.132494278683251e-05   2.8349369042733e-06   1.7536617806759326e-05
-2.8707534521801402e-05   2.6974980023719434e-06   1.1824192875522967e-05
-2.8707534521801402e-05   2.6974980023719434e-06   1.1824192875522967e-05
-2.8707534521801402e-05   2.6974980023719434e-06   1.1824192875522967e-05
-2.8707534521801402e-05   2.6974980023719434e-06   1.1824192875522967e-05
-1.7576814324595733e-05   1.944177172342695e-06   2.9923400706181565e-05
-1.7576814324595733e-05   1.944177172342695e-06   2.9923400706181565e-05
-1.7576814324595733e-05   1.944177172342695e-06   2.9923400706181565e-05
-1.7576814324595733e-05   1.944177172342695e-06   2.9923400706181565e-05
-1.781411369821066e-05   2.1758094278661894e-06   1.2726440722878778e-05
-1.781411369821066e-05   2.1758094278661894e-06   1.2726440722878778e-05
-1.781411369821066e-05   2.1758094278661894e-06   1.2726440722878778e-05
-1.781411369821066e-05   2.1758094278661894e-06   1.2726440722878778e-05
-2.8806329071015786e-05   1.3976918656648436e-06   3.1513670214874804e-05
-2.8806329071015786e-05   1.3976918656648436e-06   3.1513670214874804e-05
-2.8806329071015786e-05   1.3976918656648436e-06   3.1513670214874804e-05
-2.8806329071015786e-05   1.3976918656648436e-06   3.1513670214874804e-05
-2.2751520222302762e-05   1.7737938998506429e-06   2.1196660913174766e-05
-2.2751520222302762e-05   1.7737938998506429e-06   2.1196660913174766e-05
-2.2751520222302762e-05   1.7737938998506429e-06   2.1196660913174766e-05
-2.2751520222302762e-05   1.7737938998506429e-06   2.1196660913174766e-05
-2.8806329071015827e-05   2.1758094278661894e-06   1.319331126019967e-05
-2.8806329071015827e-05   2.1758094278661894e-06   1.319331126019967e-05
-2.8806329071015827e-05   2.1758094278661894e-06   1.319331126019967e-05
-2.8806329071015827e-05   2.1758094278661894e-06   1.319331126019967e-05
-1.7814113698210626e-05   1.3976918656648436e-06   3.104679967755406e-05
-1.7814113698210626e-05   1.3976918656648436e-06   3.104679967755406e-05
-1.7814113698210626e-05   1.3976918656648436e-06   3.104679967755406e-05
-1.7814113698210626e-05   1.3976918656648436e-06   3.104679967755406e-05
-1.7621517812715035e-05   8.924943011289497e-07   1.5095616019873204e-05
-1.7621517812715035e-05   8.924943011289497e-07   1.5095616019873204e-05
-1.7621517812715035e-05   8.924943011289497e-07   1.5095616019873204e-05
-1.7621517812715035e-05   8.924943011289497e-07   1.5095616019873204e-05
-2.9114225652730604e-05   -9.247742790585321e-07   3.534049023467829e-05
-2.9114225652730604e-05   -9.247742790585321e-07   3.534049023467829e-05
-2.9114225652730604e-05   -9.247742790585321e-07   3.534049023467829e-05
-2.9114225652730604e-05   -9.247742790585321e-07   3.534049023467829e-05
-2.2401765088556336e-05   8.634104050335878e-07   2.3080145150599225e-05
-2.2401765088556336e-05   8.634104050335878e-07   2.3080145150599225e-05
-2.2401765088556336e-05   8.634104050335878e-07   2.3080145150599225e-05
-2.2401765088556336e-05   8.634104050335878e-07   2.3080145150599225e-05
-1.758619304664239e-05   8.932313093695191e-07   2.299855793666208e-05
-1.758619304664239e-05   8.932313093695191e-07   2.299855793666208e-05
-1.758619304664239e-05   8.932313093695191e-07   2.299855793666208e-05
-1.758619304664239e-05   8.932313093695191e-07   2.299855793666208e-05
-1.0784223132054212e-05   -5.375510332303009e-06   3.057392947597212e-05
-1.0784223132054212e-05   -5.375510332303009e-06   3.057392947597212e-05
-1.0784223132054212e-05   -5.375510332303009e-06   3.057392947597212e-05
-1.0784223132054212e-05   -5.375510332303009e-06   3.057392947597212e-05
-1.080455301056101e-05   4.2869403516420865e-07   1.929346388888898e-05
-1.080455301056101e-05   4.2869403516420865e-07   1.929346388888898e-05
-1.080455301056101e-05   4.2869403516420865e-07   1.929346388888898e-05
-1.080455301056101e-05   4.2869403516420865e-07   1.929346388888898e-05
-1.7576814324595733e-05   -4.400264826894245e-06   3.3477941396182055e-05
-1.7576814324595733e-05   -4.400264826894245e-06   3.3477941396182055e-05
-1.7576814324595733e-05   -4.400264826894245e-06   3.3477941396182055e-05
-1.7576814324595733e-05   -4.400264826894245e-06   3.3477941396182055e-05
-1.41121068934582e-05   -2.657910520720329e-06   2.6658016427248438e-05
-1.41121068934582e-05   -2.657910520720329e-06   2.6658016427248438e-05
-1.41121068934582e-05   -2.657910520720329e-06   2.6658016427248438e-05
-1.41121068934582e-05   -2.657910520720329e-06   2.6658016427248438e-05
-1.757681432459574e-05   4.2869403516420865e-07   2.2190839206123758e-05
-1.757681432459574e-05   4.2869403516420865e-07   2.2190839206123758e-05
-1.757681432459574e-05   4.2869403516420865e-07   2.2190839206123758e-05
-1.757681432459574e-05   4.2869403516420865e-07   2.2190839206123758e-05
-1.0804553010560983e-05   -4.400264826894245e-06   3.0580566078946923e-05
-1.0804553010560983e-05   -4.400264826894245e-06   3.0580566078946923e-05
-1.0804553010560983e-05   -4.400264826894245e-06   3.0580566078946923e-05
-1.0804553010560983e-05   -4.400264826894245e-06   3.0580566078946923e-05
-1.0844852978605615e-05   -1.1034597585787755e-07   1.989079386495099e-05
-1.0844852978605615e-05   -1.1034597585787755e-07   1.989079386495099e-05
-1.0844852978605615e-05   -1.1034597585787755e-07   1.989079386495099e-05
-1.0844852978605615e-05   -1.1034597585787755e-07   1.989079386495099e-05
-1.7814113698210626e-05   -4.500500815630992e-06   3.414032130148991e-05
-1.7814113698210626e-05   -4.500500815630992e-06   3.414032130148991e-05
-1.7814113698210626e-05   -4.500500815630992e-06   3.414032130148991e-05
-1.7814113698210626e-05   -4.500500815630992e-06   3.414032130148991e-05
-1.400758759870208e-05   -2.3221027904871637e-06   2.6489072320556035e-05
-1.400758759870208e-05   -2.3221027904871637e-06   2.6489072320556035e-05
-1.400758759870208e-05   -2.3221027904871637e-06   2.6489072320556035e-05
-1.400758759870208e-05   -2.3221027904871637e-06   2.6489072320556035e-05
-1.781411369821066e-05   -1.1034597585787755e-07   2.2524886768815065e-05
-1.781411369821066e-05   -1.1034597585787755e-07   2.2524886768815065e-05
-1.781411369821066e-05   -1.1034597585787755e-07   2.2524886768815065e-05
-1.781411369821066e-05   -1.1034597585787755e-07   2.2524886768815065e-05
-1.0844852978605588e-05   -4.500500815630992e-06   3.150622839762604e-05
-1.0844852978605588e-05   -4.500500815630992e-06   3.150622839762604e-05
-1.0844852978605588e-05   -4.500500815630992e-06   3.150622839762604e-05
-1.0844852978605588e-05   -4.500500815630992e-06   3.150622839762604e-05
-1.0736426471797235e-05   -8.18921163369085e-07   2.063516867990145e-05
-1.0736426471797235e-05   -8.18921163369085e-07   2.063516867990145e-05
-1.0736426471797235e-05   -8.18921163369085e-07   2.063516867990145e-05
-1.0736426471797235e-05   -8.18921163369085e-07   2.063516867990145e-05
-1.7621517812715e-05   -4.542611031166214e-06   3.4344534835442544e-05
-1.7621517812715e-05   -4.542611031166214e-06   3.4344534835442544e-05
-1.7621517812715e-05   -4.542611031166214e-06   3.4344534835442544e-05
-1.7621517812715e-05   -4.542611031166214e-06   3.4344534835442544e-05
-1.4070515571263707e-05   -2.608161181875436e-06   2.726552785678266e-05
-1.4070515571263707e-05   -2.608161181875436e-06   2.726552785678266e-05
-1.4070515571263707e-05   -2.608161181875436e-06   2.726552785678266e-05
-1.4070515571263707e-05   -2.608161181875436e-06   2.726552785678266e-05
-1.0784223132054212e-05   2.482268081440992e-07   2.1255896156119553e-05
-1.0784223132054212e-05   2.482268081440992e-07   2.1255896156119553e-05
-1.0784223132054212e-05   2.482268081440992e-07   2.1255896156119553e-05
-1.0784223132054212e-05   2.482268081440992e-07   2.1255896156119553e-05
-7.929017542288854e-06   -4.19917687560328e-06   2.3346129928813493e-05
-7.929017542288854e-06   -4.19917687560328e-06   2.3346129928813493e-05
-7.929017542288854e-06   -4.19917687560328e-06   2.3346129928813493e-05
-7.929017542288854e-06   -4.19917687560328e-06   2.3346129928813493e-05
-7.856690979083183e-06   -1.4440337553142668e-07   1.876160862448865e-05
-7.856690979083183e-06   -1.4440337553142668e-07   1.876160862448865e-05
-7.856690979083183e-06   -1.4440337553142668e-07   1.876160862448865e-05
-7.856690979083183e-06   -1.4440337553142668e-07   1.876160862448865e-05
-1.0804553010560983e-05   -4.124075570600277e-06   2.6062515327326258e-05
-1.0804553010560983e-05   -4.124075570600277e-06   2.6062515327326258e-05
-1.0804553010560983e-05   -4.124075570600277e-06   2.6062515327326258e-05
-1.0804553010560983e-05   -4.124075570600277e-06   2.6062515327326258e-05
-9.285981465971256e-06   -2.122426753379045e-06   2.2330573462677336e-05
-9.285981465971256e-06   -2.122426753379045e-06   2.2330573462677336e-05
-9.285981465971256e-06   -2.122426753379045e-06   2.2330573462677336e-05
-9.285981465971256e-06   -2.122426753379045e-06   2.2330573462677336e-05
-1.0804553010560983e-05   -1.4440337553142668e-07   2.1149411941529753e-05
-1.0804553010560983e-05   -1.4440337553142668e-07   2.1149411941529753e-05
-1.0804553010560983e-05   -1.4440337553142668e-07   2.1149411941529753e-05
-1.0804553010560983e-05   -1.4440337553142668e-07   2.1149411941529753e-05
-7.856690979083183e-06   -4.124075570600277e-06   2.367471201028499e-05
-7.856690979083183e-06   -4.124075570600277e-06   2.367471201028499e-05
-7.856690979083183e-06   -4.124075570600277e-06   2.367471201028499e-05
-7.856690979083183e-06   -4.124075570600277e-06   2.367471201028499e-05
-7.79415112351988e-06   -6.145833515743123e-07   1.921061328689314e-05
-7.79415112351988e-06   -6.145833515743123e-07   1.921061328689314e-05
-7.79415112351988e-06   -6.145833515743123e-07   1.921061328689314e-05
-7.79415112351988e-06   -6.145833515743123e-07   1.921061328689314e-05
-1.0844852978605588e-05   -4.250256547575957e-06   2.647652029630365e-05
-1.0844852978605588e-05   -4.250256547575957e-06   2.647652029630365e-05
-1.0844852978605588e-05   -4.250256547575957e-06   2.647652029630365e-05
-1.0844852978605588e-05   -4.250256547575957e-06   2.647652029630365e-05
-9.20252342807127e-06   -2.2641273506648213e-06   2.2547626860599466e-05
-9.20252342807127e-06   -2.2641273506648213e-06   2.2547626860599466e-05
-9.20252342807127e-06   -2.2641273506648213e-06   2.2547626860599466e-05
-9.20252342807127e-06   -2.2641273506648213e-06   2.2547626860599466e-05
-1.0844852978605588e-05   -6.145833515742039e-07   2.1392017204494354e-05
-1.0844852978605588e-05   -6.145833515742039e-07   2.1392017204494354e-05
-1.0844852978605588e-05   -6.145833515742039e-07   2.1392017204494354e-05
-1.0844852978605588e-05   -6.145833515742039e-07   2.1392017204494354e-05
-7.79415112351988e-06   -4.250256547575957e-06   2.4295116378702672e-05
-7.79415112351988e-06   -4.250256547575957e-06   2.4295116378702672e-05
-7.79415112351988e-06   -4.250256547575957e-06   2.4295116378702672e-05
-7.79415112351988e-06   -4.250256547575957e-06   2.4295116378702672e-05
-7.63924524904339e-06   -1.0868630987812163e-06   1.9905678571166996e-05
-7.63924524904339e-06   -1.0868630987812163e-06   1.9905678571166996e-05
-7.63924524904339e-06   -1.0868630987812163e-06   1.9905678571166996e-05
-7.63924524904339e-06   -1.0868630987812163e-06   1.9905678571166996e-05
-1.0736426471797208e-05   -4.42942752678819e-06   2.707318593256065e-05
-1.0736426471797208e-05   -4.42942752678819e-06   2.707318593256065e-05
-1.0736426471797208e-05   -4.42942752678819e-06   2.707318593256065e-05
-1.0736426471797208e-05   -4.42942752678819e-06   2.707318593256065e-05
-9.104847037526314e-06   -2.4704556315565947e-06   2.3178503738303675e-05
-9.104847037526314e-06   -2.4704556315565947e-06   2.3178503738303675e-05
-9.104847037526314e-06   -2.4704556315565947e-06   2.3178503738303675e-05
-9.104847037526314e-06   -2.4704556315565947e-06   2.3178503738303675e-05
-7.929017542288854e-06   1.1323812350704648e-06   1.4456302434464447e-05
-7.929017542288854e-06   1.1323812350704648e-06   1.4456302434464447e-05
-7.929017542288854e-06   1.1323812350704648e-06   1.4456302434464447e-05
-7.929017542288854e-06   1.1323812350704648e-06   1.4456302434464447e-05
-6.605031508809202e-06   -1.7225713314603943e-06   1.4949974283678578e-05
-6.605031508809202e-06   -1.7225713314603943e-06   1.4949974283678578e-05
-6.605031508809202e-06   -1.7225713314603943e-06   1.4949974283678578e-05
-6.605031508809202e-06   -1.7225713314603943e-06   1.4949974283678578e-05
-6.461456019834556e-06   6.151802346639245e-07   1.305262110099935e-05
-6.461456019834556e-06   6.151802346639245e-07   1.305262110099935e-05
-6.461456019834556e-06   6.151802346639245e-07   1.305262110099935e-05
-6.461456019834556e-06   6.151802346639245e-07   1.305262110099935e-05
-7.856690979083183e-06   -2.016895409811051e-06   1.695725808643206e-05
-7.856690979083183e-06   -2.016895409811051e-06   1.695725808643206e-05
-7.856690979083183e-06   -2.016895409811051e-06   1.695725808643206e-05
-7.856690979083183e-06   -2.016895409811051e-06   1.695725808643206e-05
-7.160338379083521e-06   -3.9289371518198444e-07   1.4822269402988512e-05
-7.160338379083521e-06   -3.9289371518198444e-07   1.4822269402988512e-05
-7.160338379083521e-06   -3.9289371518198444e-07   1.4822269402988512e-05
-7.160338379083521e-06   -3.9289371518198444e-07   1.4822269402988512e-05
-7.856690979083183e-06   6.151802346639245e-07   1.4631866487684205e-05
-7.856690979083183e-06   6.151802346639245e-07   1.4631866487684205e-05
-7.856690979083183e-06   6.151802346639245e-07   1.4631866487684205e-05
-7.856690979083183e-06   6.151802346639245e-07   1.4631866487684205e-05
-6.461456019834556e-06   -2.016895409811051e-06   1.5378012699747152e-05
-6.461456019834556e-06   -2.016895409811051e-06   1.5378012699747152e-05
-6.461456019834556e-06   -2.016895409811051e-06   1.5378012699747152e-05
-6.461456019834556e-06   -2.016895409811051e-06   1.5378012699747152e-05
-6.395799851963548e-06   1.7236186004377166e-07   1.3670211503932013e-05
-6.395799851963548e-06   1.7236186004377166e-07   1.3670211503932013e-05
-6.395799851963548e-06   1.7236186004377166e-07   1.3670211503932013e-05
-6.395799851963548e-06   1.7236186004377166e-07   1.3670211503932013e-05
-7.79415112351988e-06   -2.2420411065704688e-06   1.7449438736494456e-05
-7.79415112351988e-06   -2.2420411065704688e-06   1.7449438736494456e-05
-7.79415112351988e-06   -2.2420411065704688e-06   1.7449438736494456e-05
-7.79415112351988e-06   -2.2420411065704688e-06   1.7449438736494456e-05
-7.0180221364106714e-06   -7.082283255309071e-07   1.5235602756021594e-05
-7.0180221364106714e-06   -7.082283255309071e-07   1.5235602756021594e-05
-7.0180221364106714e-06   -7.082283255309071e-07   1.5235602756021594e-05
-7.0180221364106714e-06   -7.082283255309071e-07   1.5235602756021594e-05
-7.79415112351988e-06   1.7236186004388008e-07   1.5118853283900731e-05
-7.79415112351988e-06   1.7236186004388008e-07   1.5118853283900731e-05
-7.79415112351988e-06   1.7236186004388008e-07   1.5118853283900731e-05
-7.79415112351988e-06   1.7236186004388008e-07   1.5118853283900731e-05
-6.395799851963548e-06   -2.2420411065704688e-06   1.60007969565259e-05
-6.395799851963548e-06   -2.2420411065704688e-06   1.60007969565259e-05
-6.395799851963548e-06   -2.2420411065704688e-06   1.60007969565259e-05
-6.395799851963548e-06   -2.2420411065704688e-06   1.60007969565259e-05
-6.288430913216694e-06   -2.739940252433721e-07   1.444578726386952e-05
-6.288430913216694e-06   -2.739940252433721e-07   1.444578726386952e-05
-6.288430913216694e-06   -2.739940252433721e-07   1.444578726386952e-05
-6.288430913216694e-06   -2.739940252433721e-07   1.444578726386952e-05
-7.63924524904339e-06   -2.5374387066866397e-06   1.8055211299113137e-05
-7.63924524904339e-06   -2.5374387066866397e-06   1.8055211299113137e-05
-7.63924524904339e-06   -2.5374387066866397e-06   1.8055211299113137e-05
-7.63924524904339e-06   -2.5374387066866397e-06   1.8055211299113137e-05
-6.907108290701771e-06   -9.844342316994421e-07   1.5903180350218226e-05
-6.907108290701771e-06   -9.844342316994421e-07   1.5903180350218226e-05
-6.907108290701771e-06   -9.844342316994421e-07   1.5903180350218226e-05
-6.907108290701771e-06   -9.844342316994421e-07   1.5903180350218226e-05
-6.605031508809202e-06   1.8648063990338868e-06   3.2887167774038693e-06
-6.605031508809202e-06   1.8648063990338868e-06   3.2887167774038693e-06
-6.605031508809202e-06   1.8648063990338868e-06   3.2887167774038693e-06
-6.605031508809202e-06   1.8648063990338868e-06   3.2887167774038693e-06
-3.8110477743391125e-06   -1.9358968180447408e-07   6.71031868635085e-06
-3.8110477743391125e-06   -1.9358968180447408e-07   6.71031868635085e-06
-3.8110477743391125e-06   -1.9358968180447408e-07   6.71031868635085e-06
-3.8110477743391125e-06   -1.9358968180447408e-07   6.71031868635085e-06
-4.026172185377791e-06   1.4989821873485475e-06   3.3184166446963755e-06
-4.026172185377791e-06   1.4989821873485475e-06   3.3184166446963755e-06
-4.026172185377791e-06   1.4989821873485475e-06   3.3184166446963755e-06
-4.026172185377791e-06   1.4989821873485475e-06   3.3184166446963755e-06
-6.461456019834556e-06   -2.695641346413518e-07   8.438350828651167e-06
-6.461456019834556e-06   -2.695641346413518e-07   8.438350828651167e-06
-6.461456019834556e-06   -2.695641346413518e-07   8.438350828651167e-06
-6.461456019834556e-06   -2.695641346413518e-07   8.438350828651167e-06
-5.0462422089055255e-06   9.584229654125722e-07   5.342868883737126e-06
-5.0462422089055255e-06   9.584229654125722e-07   5.342868883737126e-06
-5.0462422089055255e-06   9.584229654125722e-07   5.342868883737126e-06
-5.0462422089055255e-06   9.584229654125722e-07   5.342868883737126e-06
-6.461456019834556e-06   1.4989821873485475e-06   4.37954443788973e-06
-6.461456019834556e-06   1.4989821873485475e-06   4.37954443788973e-06
-6.461456019834556e-06   1.4989821873485475e-06   4.37954443788973e-06
-6.461456019834556e-06   1.4989821873485475e-06   4.37954443788973e-06
-4.026172185377899e-06   -2.695641346413518e-07   7.377223035457325e-06
-4.026172185377899e-06   -2.695641346413518e-07   7.377223035457325e-06
-4.026172185377899e-06   -2.695641346413518e-07   7.377223035457325e-06
-4.026172185377899e-06   -2.695641346413518e-07   7.377223035457325e-06
-4.202522553791387e-06   1.259728726833633e-06   4.318901767779923e-06
-4.202522553791387e-06   1.259728726833633e-06   4.318901767779923e-06
-4.202522553791387e-06   1.259728726833633e-06   4.318901767779923e-06
-4.202522553791387e-06   1.259728726833633e-06   4.318901767779923e-06
-6.395799851963602e-06   -3.725291504561479e-07   8.953718657774099e-06
-6.395799851963602e-06   -3.725291504561479e-07   8.953718657774099e-06
-6.395799851963602e-06   -3.725291504561479e-07   8.953718657774099e-06
-6.395799851963602e-06   -3.725291504561479e-07   8.953718657774099e-06
-5.133429511700776e-06   7.772649677989865e-07   6.15989161971623e-06
-5.133429511700776e-06   7.772649677989865e-07   6.15989161971623e-06
-5.133429511700776e-06   7.772649677989865e-07   6.15989161971623e-06
-5.133429511700776e-06   7.772649677989865e-07   6.15989161971623e-06
-6.395799851963602e-06   1.259728726833633e-06   5.298256494153976e-06
-6.395799851963602e-06   1.259728726833633e-06   5.298256494153976e-06
-6.395799851963602e-06   1.259728726833633e-06   5.298256494153976e-06
-6.395799851963602e-06   1.259728726833633e-06   5.298256494153976e-06
-4.2025225537914955e-06   -3.725291504561479e-07   7.974363931400154e-06
-4.2025225537914955e-06   -3.725291504561479e-07   7.974363931400154e-06
-4.2025225537914955e-06   -3.725291504561479e-07   7.974363931400154e-06
-4.2025225537914955e-06   -3.725291504561479e-07   7.974363931400154e-06
-4.639403091216731e-06   7.791002873989506e-07   6.1072175600819165e-06
-4.639403091216731e-06   7.791002873989506e-07   6.1072175600819165e-06
-4.639403091216731e-06   7.791002873989506e-07   6.1072175600819165e-06
-4.639403091216731e-06   7.791002873989506e-07   6.1072175600819165e-06
-6.28843091321664e-06   -4.970837431387989e-07   9.62130768173764e-06
-6.28843091321664e-06   -4.970837431387989e-07   9.62130768173764e-06
-6.28843091321664e-06   -4.970837431387989e-07   9.62130768173764e-06
-6.28843091321664e-06   -4.970837431387989e-07   9.62130768173764e-06
-5.143690026629844e-06   6.549058260549225e-07   7.022212462576342e-06
-5.143690026629844e-06   6.549058260549225e-07   7.022212462576342e-06
-5.143690026629844e-06   6.549058260549225e-07   7.022212462576342e-06
-5.143690026629844e-06   6.549058260549225e-07   7.022212462576342e-06
-6.0988595114006705e-05   4.781163330090643e-06   2.6035824823538033e-05
-6.0988595114006705e-05   4.781163330090643e-06   2.6035824823538033e-05
-6.0988595114006705e-05   4.781163330090643e-06   2.6035824823538033e-05
-6.0988595114006705e-05   4.781163330090643e-06   2.6035824823538033e-05
-1.4349225814240639e-05   -2.968019292437876e-05   8.30912932371332e-05
-1.4349225814240639e-05   -2.968019292437876e-05   8.30912932371332e-05
-1.4349225814240639e-05   -2.968019292437876e-05   8.30912932371332e-05
-1.4349225814240639e-05   -2.968019292437876e-05   8.30912932371332e-05
-1.683448723898292e-05   1.944177172342695e-06   1.4301904430371224e-05
-1.683448723898292e-05   1.944177172342695e-06   1.4301904430371224e-05
-1.683448723898292e-05   1.944177172342695e-06   1.4301904430371224e-05
-1.683448723898292e-05   1.944177172342695e-06   1.4301904430371224e-05
-5.5623282573628e-05   -2.305047247147328e-05   9.394668644106913e-05
-5.5623282573628e-05   -2.305047247147328e-05   9.394668644106913e-05
-5.5623282573628e-05   -2.305047247147328e-05   9.394668644106913e-05
-5.5623282573628e-05   -2.305047247147328e-05   9.394668644106913e-05
-3.7089620179105374e-05   -1.1476488402504051e-05   5.611285867548322e-05
-3.7089620179105374e-05   -1.1476488402504051e-05   5.611285867548322e-05
-3.7089620179105374e-05   -1.1476488402504051e-05   5.611285867548322e-05
-3.7089620179105374e-05   -1.1476488402504051e-05   5.611285867548322e-05
-5.562328257362791e-05   1.944177172342695e-06   2.9298694216660777e-05
-5.562328257362791e-05   1.944177172342695e-06   2.9298694216660777e-05
-5.562328257362791e-05   1.944177172342695e-06   2.9298694216660777e-05
-5.562328257362791e-05   1.944177172342695e-06   2.9298694216660777e-05
-1.6834487238982954e-05   -2.305047247147328e-05   7.894989665477958e-05
-1.6834487238982954e-05   -2.305047247147328e-05   7.894989665477958e-05
-1.6834487238982954e-05   -2.305047247147328e-05   7.894989665477958e-05
-1.6834487238982954e-05   -2.305047247147328e-05   7.894989665477958e-05
-1.721122957690666e-05   1.3976918656648436e-06   1.571540290592006e-05
-1.721122957690666e-05   1.3976918656648436e-06   1.571540290592006e-05
-1.721122957690666e-05   1.3976918656648436e-06   1.571540290592006e-05
-1.721122957690666e-05   1.3976918656648436e-06   1.571540290592006e-05
-5.248124340836016e-05   -1.9853446787534966e-05   8.724944248359563e-05
-5.248124340836016e-05   -1.9853446787534966e-05   8.724944248359563e-05
-5.248124340836016e-05   -1.9853446787534966e-05   8.724944248359563e-05
-5.248124340836016e-05   -1.9853446787534966e-05   8.724944248359563e-05
-3.597720459976425e-05   -1.087084011634415e-05   5.435314713322135e-05
-3.597720459976425e-05   -1.087084011634415e-05   5.435314713322135e-05
-3.597720459976425e-05   -1.087084011634415e-05   5.435314713322135e-05
-3.597720459976425e-05   -1.087084011634415e-05   5.435314713322135e-05
-5.248124340836007e-05   1.3976918656648436e-06   2.8466086097839912e-05
-5.248124340836007e-05   1.3976918656648436e-06   2.8466086097839912e-05
-5.248124340836007e-05   1.3976918656648436e-06   2.8466086097839912e-05
-5.248124340836007e-05   1.3976918656648436e-06   2.8466086097839912e-05
-1.7211229576906695e-05   -1.9853446787534966e-05   7.449875929167575e-05
-1.7211229576906695e-05   -1.9853446787534966e-05   7.449875929167575e-05
-1.7211229576906695e-05   -1.9853446787534966e-05   7.449875929167575e-05
-1.7211229576906695e-05   -1.9853446787534966e-05   7.449875929167575e-05
-1.884499104674517e-05   -9.247742790585321e-07   1.968301189254608e-05
-1.884499104674517e-05   -9.247742790585321e-07   1.968301189254608e-05
-1.884499104674517e-05   -9.247742790585321e-07   1.968301189254608e-05
-1.884499104674517e-05   -9.247742790585321e-07   1.968301189254608e-05
-4.84549665588098e-05   -1.5609395097523917e-05   7.784374357039958e-05
-4.84549665588098e-05   -1.5609395097523917e-05   7.784374357039958e-05
-4.84549665588098e-05   -1.5609395097523917e-05   7.784374357039958e-05
-4.84549665588098e-05   -1.5609395097523917e-05   7.784374357039958e-05
-3.4600712640638274e-05   -1.0033893563648181e-05   5.140801945312166e-05
-3.4600712640638274e-05   -1.0033893563648181e-05   5.140801945312166e-05
-3.4600712640638274e-05   -1.0033893563648181e-05   5.140801945312166e-05
-3.4600712640638274e-05   -1.0033893563648181e-05   5.140801945312166e-05
-1.4349225814240619e-05   -5.375510332303009e-06   1.4758582302598796e-05
-1.4349225814240619e-05   -5.375510332303009e-06   1.4758582302598796e-05
-1.4349225814240619e-05   -5.375510332303009e-06   1.4758582302598796e-05
-1.4349225814240619e-05   -5.375510332303009e-06   1.4758582302598796e-05
-5.001780296772618e-06   -9.167081577045306e-06   2.806271541820008e-05
-5.001780296772618e-06   -9.167081577045306e-06   2.806271541820008e-05
-5.001780296772618e-06   -9.167081577045306e-06   2.806271541820008e-05
-5.001780296772618e-06   -9.167081577045306e-06   2.806271541820008e-05
-5.58289292476458e-06   -4.400264826894245e-06   1.3195764825104153e-05
-5.58289292476458e-06   -4.400264826894245e-06   1.3195764825104153e-05
-5.58289292476458e-06   -4.400264826894245e-06   1.3195764825104153e-05
-5.58289292476458e-06   -4.400264826894245e-06   1.3195764825104153e-05
-1.6834487238982954e-05   -1.2168065319006676e-05   3.660910231073549e-05
-1.6834487238982954e-05   -1.2168065319006676e-05   3.660910231073549e-05
-1.6834487238982954e-05   -1.2168065319006676e-05   3.660910231073549e-05
-1.6834487238982954e-05   -1.2168065319006676e-05   3.660910231073549e-05
-9.897647534635833e-06   -6.380268352140859e-06   2.1575024623370667e-05
-9.897647534635833e-06   -6.380268352140859e-06   2.1575024623370667e-05
-9.897647534635833e-06   -6.380268352140859e-06   2.1575024623370667e-05
-9.897647534635833e-06   -6.380268352140859e-06   2.1575024623370667e-05
-1.6834487238982913e-05   -4.400264826894245e-06   1.7856445120371402e-05
-1.6834487238982913e-05   -4.400264826894245e-06   1.7856445120371402e-05
-1.6834487238982913e-05   -4.400264826894245e-06   1.7856445120371402e-05
-1.6834487238982913e-05   -4.400264826894245e-06   1.7856445120371402e-05
-5.58289292476458e-06   -1.2168065319006676e-05   3.194842201546801e-05
-5.58289292476458e-06   -1.2168065319006676e-05   3.194842201546801e-05
-5.58289292476458e-06   -1.2168065319006676e-05   3.194842201546801e-05
-5.58289292476458e-06   -1.2168065319006676e-05   3.194842201546801e-05
-6.080407822084584e-06   -4.500500815630992e-06   1.4836764439595017e-05
-6.080407822084584e-06   -4.500500815630992e-06   1.4836764439595017e-05
-6.080407822084584e-06   -4.500500815630992e-06   1.4836764439595017e-05
-6.080407822084584e-06   -4.500500815630992e-06   1.4836764439595017e-05
-1.7211229576906695e-05   -1.1120767632732599e-05   3.7360294121226026e-05
-1.7211229576906695e-05   -1.1120767632732599e-05   3.7360294121226026e-05
-1.7211229576906695e-05   -1.1120767632732599e-05   3.7360294121226026e-05
-1.7211229576906695e-05   -1.1120767632732599e-05   3.7360294121226026e-05
-1.115570177484998e-05   -7.804966043253349e-06   2.5278266830777475e-05
-1.115570177484998e-05   -7.804966043253349e-06   2.5278266830777475e-05
-1.115570177484998e-05   -7.804966043253349e-06   2.5278266830777475e-05
-1.115570177484998e-05   -7.804966043253349e-06   2.5278266830777475e-05
-1.721122957690666e-05   -4.500500815630992e-06   1.8808924529855925e-05
-1.721122957690666e-05   -4.500500815630992e-06   1.8808924529855925e-05
-1.721122957690666e-05   -4.500500815630992e-06   1.8808924529855925e-05
-1.721122957690666e-05   -4.500500815630992e-06   1.8808924529855925e-05
-6.080407822084584e-06   -1.1120767632732599e-05   3.3388134030965064e-05
-6.080407822084584e-06   -1.1120767632732599e-05   3.3388134030965064e-05
-6.080407822084584e-06   -1.1120767632732599e-05   3.3388134030965064e-05
-6.080407822084584e-06   -1.1120767632732599e-05   3.3388134030965064e-05
-6.888929965687579e-06   -4.5426110311662686e-06   1.62263652263388e-05
-6.888929965687579e-06   -4.5426110311662686e-06   1.62263652263388e-05
-6.888929965687579e-06   -4.5426110311662686e-06   1.62263652263388e-05
-6.888929965687579e-06   -4.5426110311662686e-06   1.62263652263388e-05
-1.8844991046745155e-05   -1.0461031722973193e-05   3.970418610985211e-05
-1.8844991046745155e-05   -1.0461031722973193e-05   3.970418610985211e-05
-1.8844991046745155e-05   -1.0461031722973193e-05   3.970418610985211e-05
-1.8844991046745155e-05   -1.0461031722973193e-05   3.970418610985211e-05
-1.1887409946900472e-05   -7.125549299653503e-06   2.6106928156119267e-05
-1.1887409946900472e-05   -7.125549299653503e-06   2.6106928156119267e-05
-1.1887409946900472e-05   -7.125549299653503e-06   2.6106928156119267e-05
-1.1887409946900472e-05   -7.125549299653503e-06   2.6106928156119267e-05
-5.001780296772618e-06   -4.19917687560328e-06   7.924282218843104e-06
-5.001780296772618e-06   -4.19917687560328e-06   7.924282218843104e-06
-5.001780296772618e-06   -4.19917687560328e-06   7.924282218843104e-06
-5.001780296772618e-06   -4.19917687560328e-06   7.924282218843104e-06
-2.788544879916456e-06   -2.5420481605340024e-06   1.2607285142644993e-05
-2.788544879916456e-06   -2.5420481605340024e-06   1.2607285142644993e-05
-2.788544879916456e-06   -2.5420481605340024e-06   1.2607285142644993e-05
-2.788544879916456e-06   -2.5420481605340024e-06   1.2607285142644993e-05
-2.6779958905896956e-06   -4.124075570600331e-06   9.151940467466702e-06
-2.6779958905896956e-06   -4.124075570600331e-06   9.151940467466702e-06
-2.6779958905896956e-06   -4.124075570600331e-06   9.151940467466702e-06
-2.6779958905896956e-06   -4.124075570600331e-06   9.151940467466702e-06
-5.58289292476458e-06   -3.33369824729507e-06   1.3519209130441484e-05
-5.58289292476458e-06   -3.33369824729507e-06   1.3519209130441484e-05
-5.58289292476458e-06   -3.33369824729507e-06   1.3519209130441484e-05
-5.58289292476458e-06   -3.33369824729507e-06   1.3519209130441484e-05
-3.7590842832274673e-06   -3.363032711620293e-06   1.0497128739808003e-05
-3.7590842832274673e-06   -3.363032711620293e-06   1.0497128739808003e-05
-3.7590842832274673e-06   -3.363032711620293e-06   1.0497128739808003e-05
-3.7590842832274673e-06   -3.363032711620293e-06   1.0497128739808003e-05
-5.582892924764553e-06   -4.124075570600331e-06   8.67771407348346e-06
-5.582892924764553e-06   -4.124075570600331e-06   8.67771407348346e-06
-5.582892924764553e-06   -4.124075570600331e-06   8.67771407348346e-06
-5.582892924764553e-06   -4.124075570600331e-06   8.67771407348346e-06
-2.67799589058975e-06   -3.33369824729507e-06   1.3993435524424589e-05
-2.67799589058975e-06   -3.33369824729507e-06   1.3993435524424589e-05
-2.67799589058975e-06   -3.33369824729507e-06   1.3993435524424589e-05
-2.67799589058975e-06   -3.33369824729507e-06   1.3993435524424589e-05
-2.6805063541265103e-06   -4.250256547575957e-06   9.78388976817404e-06
-2.6805063541265103e-06   -4.250256547575957e-06   9.78388976817404e-06
-2.6805063541265103e-06   -4.250256547575957e-06   9.78388976817404e-06
-2.6805063541265103e-06   -4.250256547575957e-06   9.78388976817404e-06
-6.080407822084584e-06   -4.288867497740367e-06   1.5473558784869347e-05
-6.080407822084584e-06   -4.288867497740367e-06   1.5473558784869347e-05
-6.080407822084584e-06   -4.288867497740367e-06   1.5473558784869347e-05
-6.080407822084584e-06   -4.288867497740367e-06   1.5473558784869347e-05
-3.983451088672402e-06   -3.6771545101049047e-06   1.1611603103267733e-05
-3.983451088672402e-06   -3.6771545101049047e-06   1.1611603103267733e-05
-3.983451088672402e-06   -3.6771545101049047e-06   1.1611603103267733e-05
-3.983451088672402e-06   -3.6771545101049047e-06   1.1611603103267733e-05
-6.080407822084584e-06   -4.250256547575957e-06   9.807056338272612e-06
-6.080407822084584e-06   -4.250256547575957e-06   9.807056338272612e-06
-6.080407822084584e-06   -4.250256547575957e-06   9.807056338272612e-06
-6.080407822084584e-06   -4.250256547575957e-06   9.807056338272612e-06
-2.6805063541265103e-06   -4.288867497740367e-06   1.545039221477072e-05
-2.6805063541265103e-06   -4.288867497740367e-06   1.545039221477072e-05
-2.6805063541265103e-06   -4.288867497740367e-06   1.545039221477072e-05
-2.6805063541265103e-06   -4.288867497740367e-06   1.545039221477072e-05
-2.71763996503334e-06   -4.42942752678819e-06   1.0728727171958603e-05
-2.71763996503334e-06   -4.42942752678819e-06   1.0728727171958603e-05
-2.71763996503334e-06   -4.42942752678819e-06   1.0728727171958603e-05
-2.71763996503334e-06   -4.42942752678819e-06   1.0728727171958603e-05
-6.8889299656876065e-06   -5.196932647082274e-06   1.81413802452255e-05
-6.8889299656876065e-06   -5.196932647082274e-06   1.81413802452255e-05
-6.8889299656876065e-06   -5.196932647082274e-06   1.81413802452255e-05
-6.8889299656876065e-06   -5.196932647082274e-06   1.81413802452255e-05
-4.238582133426718e-06   -4.017454565033251e-06   1.3016447008894634e-05
-4.238582133426718e-06   -4.017454565033251e-06   1.3016447008894634e-05
-4.238582133426718e-06   -4.017454565033251e-06   1.3016447008894634e-05
-4.238582133426718e-06   -4.017454565033251e-06   1.3016447008894634e-05
-2.788544879916456e-06   -1.7225713314603943e-06   2.2353753426683585e-06
-2.788544879916456e-06   -1.7225713314603943e-06   2.2353753426683585e-06
-2.788544879916456e-06   -1.7225713314603943e-06   2.2353753426683585e-06
-2.788544879916456e-06   -1.7225713314603943e-06   2.2353753426683585e-06
-2.066876664891075e-06   4.591959372173552e-07   4.747216062250706e-06
-2.066876664891075e-06   4.591959372173552e-07   4.747216062250706e-06
-2.066876664891075e-06   4.591959372173552e-07   4.747216062250706e-06
-2.066876664891075e-06   4.591959372173552e-07   4.747216062250706e-06
-1.6709559376987932e-06   -2.016895409811051e-06   3.7508846087440676e-06
-1.6709559376987932e-06   -2.016895409811051e-06   3.7508846087440676e-06
-1.6709559376987932e-06   -2.016895409811051e-06   3.7508846087440676e-06
-1.6709559376987932e-06   -2.016895409811051e-06   3.7508846087440676e-06
-2.6779958905896956e-06   1.7710136540616261e-07   4.112886465098501e-06
-2.6779958905896956e-06   1.7710136540616261e-07   4.112886465098501e-06
-2.6779958905896956e-06   1.7710136540616261e-07   4.112886465098501e-06
-2.6779958905896956e-06   1.7710136540616261e-07   4.112886465098501e-06
-2.1592275439449534e-06   -8.027058290802384e-07   3.836156870715482e-06
-2.1592275439449534e-06   -8.027058290802384e-07   3.836156870715482e-06
-2.1592275439449534e-06   -8.027058290802384e-07   3.836156870715482e-06
-2.1592275439449534e-06   -8.027058290802384e-07   3.836156870715482e-06
-2.6779958905896956e-06   -2.016895409811051e-06   2.4344865436138263e-06
-2.6779958905896956e-06   -2.016895409811051e-06   2.4344865436138263e-06
-2.6779958905896956e-06   -2.016895409811051e-06   2.4344865436138263e-06
-2.6779958905896956e-06   -2.016895409811051e-06   2.4344865436138263e-06
-1.6709559376987932e-06   1.7710136540616261e-07   5.4292845302287966e-06
-1.6709559376987932e-06   1.7710136540616261e-07   5.4292845302287966e-06
-1.6709559376987932e-06   1.7710136540616261e-07   5.4292845302287966e-06
-1.6709559376987932e-06   1.7710136540616261e-07   5.4292845302287966e-06
-1.4530992035721702e-06   -2.242041106570523e-06   4.120364308642858e-06
-1.4530992035721702e-06   -2.242041106570523e-06   4.120364308642858e-06
-1.4530992035721702e-06   -2.242041106570523e-06   4.120364308642858e-06
-1.4530992035721702e-06   -2.242041106570523e-06   4.120364308642858e-06
-2.6805063541265103e-06   -2.717874687754065e-07   4.983890710222907e-06
-2.6805063541265103e-06   -2.717874687754065e-07   4.983890710222907e-06
-2.6805063541265103e-06   -2.717874687754065e-07   4.983890710222907e-06
-2.6805063541265103e-06   -2.717874687754065e-07   4.983890710222907e-06
-1.955766111814332e-06   -1.0295185519625658e-06   4.230628956281701e-06
-1.955766111814332e-06   -1.0295185519625658e-06   4.230628956281701e-06
-1.955766111814332e-06   -1.0295185519625658e-06   4.230628956281701e-06
-1.955766111814332e-06   -1.0295185519625658e-06   4.230628956281701e-06
-2.6805063541265103e-06   -2.242041106570523e-06   2.938212125965737e-06
-2.6805063541265103e-06   -2.242041106570523e-06   2.938212125965737e-06
-2.6805063541265103e-06   -2.242041106570523e-06   2.938212125965737e-06
-2.6805063541265103e-06   -2.242041106570523e-06   2.938212125965737e-06
-1.4530992035721702e-06   -2.717874687754065e-07   6.166042892899893e-06
-1.4530992035721702e-06   -2.717874687754065e-07   6.166042892899893e-06
-1.4530992035721702e-06   -2.717874687754065e-07   6.166042892899893e-06
-1.4530992035721702e-06   -2.717874687754065e-07   6.166042892899893e-06
-1.1188457767571545e-06   -2.5374387066866397e-06   4.5212309393985245e-06
-1.1188457767571545e-06   -2.5374387066866397e-06   4.5212309393985245e-06
-1.1188457767571545e-06   -2.5374387066866397e-06   4.5212309393985245e-06
-1.1188457767571545e-06   -2.5374387066866397e-06   4.5212309393985245e-06
-2.71763996503334e-06   -1.1958724665481224e-06   6.380948175775393e-06
-2.71763996503334e-06   -1.1958724665481224e-06   6.380948175775393e-06
-2.71763996503334e-06   -1.1958724665481224e-06   6.380948175775393e-06
-2.71763996503334e-06   -1.1958724665481224e-06   6.380948175775393e-06
-1.7892618056401886e-06   -1.3772638393282847e-06   4.942486067121578e-06
-1.7892618056401886e-06   -1.3772638393282847e-06   4.942486067121578e-06
-1.7892618056401886e-06   -1.3772638393282847e-06   4.942486067121578e-06
-1.7892618056401886e-06   -1.3772638393282847e-06   4.942486067121578e-06
-2.066876664891075e-06   -1.9358968180447408e-07   -3.4601822449496517e-06
-2.066876664891075e-06   -1.9358968180447408e-07   -3.4601822449496517e-06
-2.066876664891075e-06   -1.9358968180447408e-07   -3.4601822449496517e-06
-2.066876664891075e-06   -1.9358968180447408e-07   -3.4601822449496517e-06
-3.803452612746684e-07   2.9760647033942334e-07   -3.5457888096946267e-07
-3.803452612746684e-07   2.9760647033942334e-07   -3.5457888096946267e-07
-3.803452612746684e-07   2.9760647033942334e-07   -3.5457888096946267e-07
-3.803452612746684e-07   2.9760647033942334e-07   -3.5457888096946267e-07
8.5909024205447e-09   -2.695641346413518e-07   -2.7177247961273666e-06
8.5909024205447e-09   -2.695641346413518e-07   -2.7177247961273666e-06
8.5909024205447e-09   -2.695641346413518e-07   -2.7177247961273666e-06
8.5909024205447e-09   -2.695641346413518e-07   -2.7177247961273666e-06
-1.6709559376987932e-06   5.155233090659052e-07   -3.895325288196514e-07
-1.6709559376987932e-06   5.155233090659052e-07   -3.895325288196514e-07
-1.6709559376987932e-06   5.155233090659052e-07   -3.895325288196514e-07
-1.6709559376987932e-06   5.155233090659052e-07   -3.895325288196514e-07
-9.391331930539565e-07   1.371107208473284e-07   -1.3821895502970295e-06
-9.391331930539565e-07   1.371107208473284e-07   -1.3821895502970295e-06
-9.391331930539565e-07   1.371107208473284e-07   -1.3821895502970295e-06
-9.391331930539565e-07   1.371107208473284e-07   -1.3821895502970295e-06
-1.6709559376987932e-06   -2.695641346413518e-07   -3.188777262351809e-06
-1.6709559376987932e-06   -2.695641346413518e-07   -3.188777262351809e-06
-1.6709559376987932e-06   -2.695641346413518e-07   -3.188777262351809e-06
-1.6709559376987932e-06   -2.695641346413518e-07   -3.188777262351809e-06
8.5909024205447e-09   5.155233090659052e-07   8.151993740462826e-08
8.5909024205447e-09   5.155233090659052e-07   8.151993740462826e-08
8.5909024205447e-09   5.155233090659052e-07   8.151993740462826e-08
8.5909024205447e-09   5.155233090659052e-07   8.151993740462826e-08
2.1295177070703754e-07   -3.725291504561479e-07   -2.437385520820336e-06
2.1295177070703754e-07   -3.725291504561479e-07   -2.437385520820336e-06
2.1295177070703754e-07   -3.725291504561479e-07   -2.437385520820336e-06
2.1295177070703754e-07   -3.725291504561479e-07   -2.437385520820336e-06
-1.4530992035721702e-06   4.430182983584702e-07   -1.4996236631057173e-07
-1.4530992035721702e-06   4.430182983584702e-07   -1.4996236631057173e-07
-1.4530992035721702e-06   4.430182983584702e-07   -1.4996236631057173e-07
-1.4530992035721702e-06   4.430182983584702e-07   -1.4996236631057173e-07
-6.514455765258757e-07   8.967840047811935e-08   -1.2740478059922937e-06
-6.514455765258757e-07   8.967840047811935e-08   -1.2740478059922937e-06
-6.514455765258757e-07   8.967840047811935e-08   -1.2740478059922937e-06
-6.514455765258757e-07   8.967840047811935e-08   -1.2740478059922937e-06
-1.4530992035721702e-06   -3.725291504561479e-07   -2.9267139901091067e-06
-1.4530992035721702e-06   -3.725291504561479e-07   -2.9267139901091067e-06
-1.4530992035721702e-06   -3.725291504561479e-07   -2.9267139901091067e-06
-1.4530992035721702e-06   -3.725291504561479e-07   -2.9267139901091067e-06
2.1295177070703754e-07   4.430182983584702e-07   3.3936610297825333e-07
2.1295177070703754e-07   4.430182983584702e-07   3.3936610297825333e-07
2.1295177070703754e-07   4.430182983584702e-07   3.3936610297825333e-07
2.1295177070703754e-07   4.430182983584702e-07   3.3936610297825333e-07
4.6766721401275257e-07   -4.970837431387989e-07   -2.0265530920694557e-06
4.6766721401275257e-07   -4.970837431387989e-07   -2.0265530920694557e-06
4.6766721401275257e-07   -4.970837431387989e-07   -2.0265530920694557e-06
4.6766721401275257e-07   -4.970837431387989e-07   -2.0265530920694557e-06
-1.1188457767572087e-06   3.8300421859702887e-07   8.95824488385006e-08
-1.1188457767572087e-06   3.8300421859702887e-07   8.95824488385006e-08
-1.1188457767572087e-06   3.8300421859702887e-07   8.95824488385006e-08
-1.1188457767572087e-06   3.8300421859702887e-07   8.95824488385006e-08
-3.9092928790548497e-07   3.258678247318567e-08   -9.133612375735551e-07
-3.9092928790548497e-07   3.258678247318567e-08   -9.133612375735551e-07
-3.9092928790548497e-07   3.258678247318567e-08   -9.133612375735551e-07
-3.9092928790548497e-07   3.258678247318567e-08   -9.133612375735551e-07
              </DataArray>   
             <DataArray type="Float64" NumberOfComponents="3" Name="Stress" format="ascii">   
-3.164314113412112   -0.791078528353028   -0.791078528353028
-3.164314113412112   -0.791078528353028   -0.791078528353028
-3.164314113412112   -0.791078528353028   -0.791078528353028
-3.164314113412112   -0.791078528353028   -0.791078528353028
-1.8311574830631434   -0.058020382197108034   -0.03671574003645345
-1.8311574830631434   -0.058020382197108034   -0.03671574003645345
-1.8311574830631434   -0.058020382197108034   -0.03671574003645345
-1.8311574830631434   -0.058020382197108034   -0.03671574003645345
-1.973787263129283   -0.49344681578232075   -0.49344681578232075
-1.973787263129283   -0.49344681578232075   -0.49344681578232075
-1.973787263129283   -0.49344681578232075   -0.49344681578232075
-1.973787263129283   -0.49344681578232075   -0.49344681578232075
-3.0497379718378483   -0.250453105517788   -0.09578207696292174
-3.0497379718378483   -0.250453105517788   -0.09578207696292174
-3.0497379718378483   -0.250453105517788   -0.09578207696292174
-3.0497379718378483   -0.250453105517788   -0.09578207696292174
-2.391894472241631   -0.39213923860390054   -0.0066050253861345
-2.391894472241631   -0.39213923860390054   -0.0066050253861345
-2.391894472241631   -0.39213923860390054   -0.0066050253861345
-2.391894472241631   -0.39213923860390054   -0.0066050253861345
-3.3116565948241234   -0.8279141487060309   -0.8279141487060309
-3.3116565948241234   -0.8279141487060309   -0.8279141487060309
-3.3116565948241234   -0.8279141487060309   -0.8279141487060309
-3.3116565948241234   -0.8279141487060309   -0.8279141487060309
-1.7739835440865712   0.02189932346236334   -0.009774359813445987
-1.7739835440865712   0.02189932346236334   -0.009774359813445987
-1.7739835440865712   0.02189932346236334   -0.009774359813445987
-1.7739835440865712   0.02189932346236334   -0.009774359813445987
-1.9793992674945817   -0.49484981687364543   -0.49484981687364543
-1.9793992674945817   -0.49484981687364543   -0.49484981687364543
-1.9793992674945817   -0.49484981687364543   -0.49484981687364543
-1.9793992674945817   -0.49484981687364543   -0.49484981687364543
-3.1522850192602636   -0.25286973643015564   -0.14035921707227594
-3.1522850192602636   -0.25286973643015564   -0.14035921707227594
-3.1522850192602636   -0.25286973643015564   -0.14035921707227594
-3.1522850192602636   -0.25286973643015564   -0.14035921707227594
-2.4811555670029906   -0.36922160090154504   -0.1316805438963406
-2.4811555670029906   -0.36922160090154504   -0.1316805438963406
-2.4811555670029906   -0.36922160090154504   -0.1316805438963406
-2.4811555670029906   -0.36922160090154504   -0.1316805438963406
-3.4151546983997587   -0.8537886745999397   -0.8537886745999397
-3.4151546983997587   -0.8537886745999397   -0.8537886745999397
-3.4151546983997587   -0.8537886745999397   -0.8537886745999397
-3.4151546983997587   -0.8537886745999397   -0.8537886745999397
-1.768869978737032   0.0537287309141954   0.009218079126247558
-1.768869978737032   0.0537287309141954   0.009218079126247558
-1.768869978737032   0.0537287309141954   0.009218079126247558
-1.768869978737032   0.0537287309141954   0.009218079126247558
-1.978410227288171   -0.49460255682204274   -0.49460255682204274
-1.978410227288171   -0.49460255682204274   -0.49460255682204274
-1.978410227288171   -0.49460255682204274   -0.49460255682204274
-1.978410227288171   -0.49460255682204274   -0.49460255682204274
-3.3354683117051582   -0.2218277519081454   -0.08418576448407777
-3.3354683117051582   -0.2218277519081454   -0.08418576448407777
-3.3354683117051582   -0.2218277519081454   -0.08418576448407777
-3.3354683117051582   -0.2218277519081454   -0.08418576448407777
-2.547401420930851   -0.3634899372227775   -0.2379960846336554
-2.547401420930851   -0.3634899372227775   -0.2379960846336554
-2.547401420930851   -0.3634899372227775   -0.2379960846336554
-2.547401420930851   -0.3634899372227775   -0.2379960846336554
-2.01356695401826   -0.503391738504565   -0.503391738504565
-2.01356695401826   -0.503391738504565   -0.503391738504565
-2.01356695401826   -0.503391738504565   -0.503391738504565
-2.01356695401826   -0.503391738504565   -0.503391738504565
-0.8400561150157222   -0.05589939881093234   -0.018166587798454703
-0.8400561150157222   -0.05589939881093234   -0.018166587798454703
-0.8400561150157222   -0.05589939881093234   -0.018166587798454703
-0.8400561150157222   -0.05589939881093234   -0.018166587798454703
-0.8819410450650531   -0.22048526126626328   -0.22048526126626328
-0.8819410450650531   -0.22048526126626328   -0.22048526126626328
-0.8819410450650531   -0.22048526126626328   -0.22048526126626328
-0.8819410450650531   -0.22048526126626328   -0.22048526126626328
-1.8332638876143037   -0.21561984123540184   -0.06865691275434399
-1.8332638876143037   -0.21561984123540184   -0.06865691275434399
-1.8332638876143037   -0.21561984123540184   -0.06865691275434399
-1.8332638876143037   -0.21561984123540184   -0.06865691275434399
-1.352091636604872   -0.2561380626741221   0.010572877587208429
-1.352091636604872   -0.2561380626741221   0.010572877587208429
-1.352091636604872   -0.2561380626741221   0.010572877587208429
-1.352091636604872   -0.2561380626741221   0.010572877587208429
-1.9737872631292812   -0.4934468157823203   -0.4934468157823203
-1.9737872631292812   -0.4934468157823203   -0.4934468157823203
-1.9737872631292812   -0.4934468157823203   -0.4934468157823203
-1.9737872631292812   -0.4934468157823203   -0.4934468157823203
-0.7926083832727866   0.006150999557942766   -0.0004582131291363256
-0.7926083832727866   0.006150999557942766   -0.0004582131291363256
-0.7926083832727866   0.006150999557942766   -0.0004582131291363256
-0.7926083832727866   0.006150999557942766   -0.0004582131291363256
-0.8623051077511595   -0.21557627693778988   -0.21557627693778988
-0.8623051077511595   -0.21557627693778988   -0.21557627693778988
-0.8623051077511595   -0.21557627693778988   -0.21557627693778988
-0.8623051077511595   -0.21557627693778988   -0.21557627693778988
-1.8286976873087875   -0.17591223305663117   -0.060279499761688116
-1.8286976873087875   -0.17591223305663117   -0.060279499761688116
-1.8286976873087875   -0.17591223305663117   -0.060279499761688116
-1.8286976873087875   -0.17591223305663117   -0.060279499761688116
-1.3333136009741096   -0.2156441524473868   -0.06971601794217414
-1.3333136009741096   -0.2156441524473868   -0.06971601794217414
-1.3333136009741096   -0.2156441524473868   -0.06971601794217414
-1.3333136009741096   -0.2156441524473868   -0.06971601794217414
-1.9793992674945817   -0.49484981687364543   -0.49484981687364543
-1.9793992674945817   -0.49484981687364543   -0.49484981687364543
-1.9793992674945817   -0.49484981687364543   -0.49484981687364543
-1.9793992674945817   -0.49484981687364543   -0.49484981687364543
-0.7611843435870972   0.053780490857493625   0.020670776087245574
-0.7611843435870972   0.053780490857493625   0.020670776087245574
-0.7611843435870972   0.053780490857493625   0.020670776087245574
-0.7611843435870972   0.053780490857493625   0.020670776087245574
-0.8444325775148362   -0.21110814437870906   -0.21110814437870906
-0.8444325775148362   -0.21110814437870906   -0.21110814437870906
-0.8444325775148362   -0.21110814437870906   -0.21110814437870906
-0.8444325775148362   -0.21110814437870906   -0.21110814437870906
-1.815312652418467   -0.13575086458559216   -0.03796637470999692
-1.815312652418467   -0.13575086458559216   -0.03796637470999692
-1.815312652418467   -0.13575086458559216   -0.03796637470999692
-1.815312652418467   -0.13575086458559216   -0.03796637470999692
-1.3399596606172062   -0.19084565299534295   -0.15533099881949855
-1.3399596606172062   -0.19084565299534295   -0.15533099881949855
-1.3399596606172062   -0.19084565299534295   -0.15533099881949855
-1.3399596606172062   -0.19084565299534295   -0.15533099881949855
-0.9169365752153847   -0.22923414380384619   -0.22923414380384619
-0.9169365752153847   -0.22923414380384619   -0.22923414380384619
-0.9169365752153847   -0.22923414380384619   -0.22923414380384619
-0.9169365752153847   -0.22923414380384619   -0.22923414380384619
0.10889658196223945   0.007137996014975958   0.0008905788196157498
0.10889658196223945   0.007137996014975958   0.0008905788196157498
0.10889658196223945   0.007137996014975958   0.0008905788196157498
0.10889658196223945   0.007137996014975958   0.0008905788196157498
0.1415285370566718   0.03538213426416795   0.03538213426416795
0.1415285370566718   0.03538213426416795   0.03538213426416795
0.1415285370566718   0.03538213426416795   0.03538213426416795
0.1415285370566718   0.03538213426416795   0.03538213426416795
-0.8290991469101775   -0.1433047644524912   -0.033456267305657345
-0.8290991469101775   -0.1433047644524912   -0.033456267305657345
-0.8290991469101775   -0.1433047644524912   -0.033456267305657345
-0.8290991469101775   -0.1433047644524912   -0.033456267305657345
-0.35488700217051816   -0.09002875665367066   0.06026183165817975
-0.35488700217051816   -0.09002875665367066   0.06026183165817975
-0.35488700217051816   -0.09002875665367066   0.06026183165817975
-0.35488700217051816   -0.09002875665367066   0.06026183165817975
-0.8819410450650547   -0.22048526126626367   -0.22048526126626367
-0.8819410450650547   -0.22048526126626367   -0.22048526126626367
-0.8819410450650547   -0.22048526126626367   -0.22048526126626367
-0.8819410450650547   -0.22048526126626367   -0.22048526126626367
0.14404521494138162   0.062237410807774084   0.02111024714410993
0.14404521494138162   0.062237410807774084   0.02111024714410993
0.14404521494138162   0.062237410807774084   0.02111024714410993
0.14404521494138162   0.062237410807774084   0.02111024714410993
0.15913608010202485   0.03978402002550621   0.03978402002550621
0.15913608010202485   0.03978402002550621   0.03978402002550621
0.15913608010202485   0.03978402002550621   0.03978402002550621
0.15913608010202485   0.03978402002550621   0.03978402002550621
-0.7998599490162375   -0.09649002834296766   -0.022436731858008402
-0.7998599490162375   -0.09649002834296766   -0.022436731858008402
-0.7998599490162375   -0.09649002834296766   -0.022436731858008402
-0.7998599490162375   -0.09649002834296766   -0.022436731858008402
-0.3405069678233569   -0.05565155110168216   -0.02057211684828901
-0.3405069678233569   -0.05565155110168216   -0.02057211684828901
-0.3405069678233569   -0.05565155110168216   -0.02057211684828901
-0.3405069678233569   -0.05565155110168216   -0.02057211684828901
-0.8623051077511611   -0.21557627693779027   -0.21557627693779027
-0.8623051077511611   -0.21557627693779027   -0.21557627693779027
-0.8623051077511611   -0.21557627693779027   -0.21557627693779027
-0.8623051077511611   -0.21557627693779027   -0.21557627693779027
0.17226882377980895   0.10955785356319167   0.035673904876739874
0.17226882377980895   0.10955785356319167   0.035673904876739874
0.17226882377980895   0.10955785356319167   0.035673904876739874
0.17226882377980895   0.10955785356319167   0.035673904876739874
0.1828422422973122   0.04571056057432805   0.04571056057432805
0.1828422422973122   0.04571056057432805   0.04571056057432805
0.1828422422973122   0.04571056057432805   0.04571056057432805
0.1828422422973122   0.04571056057432805   0.04571056057432805
-0.7680379346929933   -0.04065586195231196   0.0004127873041052388
-0.7680379346929933   -0.04065586195231196   0.0004127873041052388
-0.7680379346929933   -0.04065586195231196   0.0004127873041052388
-0.7680379346929933   -0.04065586195231196   0.0004127873041052388
-0.3303973493075151   -0.02251089103232346   -0.10068440823409536
-0.3303973493075151   -0.02251089103232346   -0.10068440823409536
-0.3303973493075151   -0.02251089103232346   -0.10068440823409536
-0.3303973493075151   -0.02251089103232346   -0.10068440823409536
0.11921207443924588   0.02980301860981147   0.02980301860981147
0.11921207443924588   0.02980301860981147   0.02980301860981147
0.11921207443924588   0.02980301860981147   0.02980301860981147
0.11921207443924588   0.02980301860981147   0.02980301860981147
1.1476365923468814   0.10529172806488393   0.0353548155271938
1.1476365923468814   0.10529172806488393   0.0353548155271938
1.1476365923468814   0.10529172806488393   0.0353548155271938
1.1476365923468814   0.10529172806488393   0.0353548155271938
1.2460325791908091   0.3115081447977023   0.3115081447977023
1.2460325791908091   0.3115081447977023   0.3115081447977023
1.2460325791908091   0.3115081447977023   0.3115081447977023
1.2460325791908091   0.3115081447977023   0.3115081447977023
0.10782974159041452   -0.08081610028767253   -0.01691360851527893
0.10782974159041452   -0.08081610028767253   -0.01691360851527893
0.10782974159041452   -0.08081610028767253   -0.01691360851527893
0.10782974159041452   -0.08081610028767253   -0.01691360851527893
0.6544349404944436   0.08147347210662688   0.11890075969796708
0.6544349404944436   0.08147347210662688   0.11890075969796708
0.6544349404944436   0.08147347210662688   0.11890075969796708
0.6544349404944436   0.08147347210662688   0.11890075969796708
0.14152853705667226   0.035382134264168065   0.035382134264168065
0.14152853705667226   0.035382134264168065   0.035382134264168065
0.14152853705667226   0.035382134264168065   0.035382134264168065
0.14152853705667226   0.035382134264168065   0.035382134264168065
1.1611809986455994   0.14415712516691107   0.054601261702454135
1.1611809986455994   0.14415712516691107   0.054601261702454135
1.1611809986455994   0.14415712516691107   0.054601261702454135
1.1611809986455994   0.14415712516691107   0.054601261702454135
1.2406302823143265   0.3101575705785816   0.3101575705785816
1.2406302823143265   0.3101575705785816   0.3101575705785816
1.2406302823143265   0.3101575705785816   0.3101575705785816
1.2406302823143265   0.3101575705785816   0.3101575705785816
0.13623260706322401   -0.03504130712493071   9.198198193764717e-05
0.13623260706322401   -0.03504130712493071   9.198198193764717e-05
0.13623260706322401   -0.03504130712493071   9.198198193764717e-05
0.13623260706322401   -0.03504130712493071   9.198198193764717e-05
0.6495383147427132   0.10690208595386178   0.03093214417495757
0.6495383147427132   0.10690208595386178   0.03093214417495757
0.6495383147427132   0.10690208595386178   0.03093214417495757
0.6495383147427132   0.10690208595386178   0.03093214417495757
0.15913608010202515   0.03978402002550629   0.03978402002550629
0.15913608010202515   0.03978402002550629   0.03978402002550629
0.15913608010202515   0.03978402002550629   0.03978402002550629
0.15913608010202515   0.03978402002550629   0.03978402002550629
1.167065246676565   0.18467068082918647   0.06781928213917887
1.167065246676565   0.18467068082918647   0.06781928213917887
1.167065246676565   0.18467068082918647   0.06781928213917887
1.167065246676565   0.18467068082918647   0.06781928213917887
1.2645944095366746   0.31614860238416864   0.31614860238416864
1.2645944095366746   0.31614860238416864   0.31614860238416864
1.2645944095366746   0.31614860238416864   0.31614860238416864
1.2645944095366746   0.31614860238416864   0.31614860238416864
0.17348482147151087   0.025523736097671647   0.019110280921976253
0.17348482147151087   0.025523736097671647   0.019110280921976253
0.17348482147151087   0.025523736097671647   0.019110280921976253
0.17348482147151087   0.025523736097671647   0.019110280921976253
0.6595531380768671   0.14500684143697556   -0.050634752739714295
0.6595531380768671   0.14500684143697556   -0.050634752739714295
0.6595531380768671   0.14500684143697556   -0.050634752739714295
0.6595531380768671   0.14500684143697556   -0.050634752739714295
1.2438969818094108   0.3109742454523527   0.3109742454523527
1.2438969818094108   0.3109742454523527   0.3109742454523527
1.2438969818094108   0.3109742454523527   0.3109742454523527
1.2438969818094108   0.3109742454523527   0.3109742454523527
2.5798838256287877   0.19663383265110648   0.06736200700838735
2.5798838256287877   0.19663383265110648   0.06736200700838735
2.5798838256287877   0.19663383265110648   0.06736200700838735
2.5798838256287877   0.19663383265110648   0.06736200700838735
2.6369457326820536   0.6592364331705134   0.6592364331705134
2.6369457326820536   0.6592364331705134   0.6592364331705134
2.6369457326820536   0.6592364331705134   0.6592364331705134
2.6369457326820536   0.6592364331705134   0.6592364331705134
1.1075770267315126   -0.06295502457684315   -0.0063064481242255666
1.1075770267315126   -0.06295502457684315   -0.0063064481242255666
1.1075770267315126   -0.06295502457684315   -0.0063064481242255666
1.1075770267315126   -0.06295502457684315   -0.0063064481242255666
1.840006088452128   0.2604026027461288   0.2077317319087168
1.840006088452128   0.2604026027461288   0.2077317319087168
1.840006088452128   0.2604026027461288   0.2077317319087168
1.840006088452128   0.2604026027461288   0.2077317319087168
1.246032579190808   0.311508144797702   0.311508144797702
1.246032579190808   0.311508144797702   0.311508144797702
1.246032579190808   0.311508144797702   0.311508144797702
1.246032579190808   0.311508144797702   0.311508144797702
2.443662533546842   0.22994561712005124   0.12211125354491875
2.443662533546842   0.22994561712005124   0.12211125354491875
2.443662533546842   0.22994561712005124   0.12211125354491875
2.443662533546842   0.22994561712005124   0.12211125354491875
2.5580951842457886   0.6395237960614472   0.6395237960614472
2.5580951842457886   0.6395237960614472   0.6395237960614472
2.5580951842457886   0.6395237960614472   0.6395237960614472
2.5580951842457886   0.6395237960614472   0.6395237960614472
1.1113889997142095   -0.03475225727183803   0.008860985428426699
1.1113889997142095   -0.03475225727183803   0.008860985428426699
1.1113889997142095   -0.03475225727183803   0.008860985428426699
1.1113889997142095   -0.03475225727183803   0.008860985428426699
1.7853602039749394   0.2679010680791283   0.09961248406322887
1.7853602039749394   0.2679010680791283   0.09961248406322887
1.7853602039749394   0.2679010680791283   0.09961248406322887
1.7853602039749394   0.2679010680791283   0.09961248406322887
1.2406302823143265   0.3101575705785816   0.3101575705785816
1.2406302823143265   0.3101575705785816   0.3101575705785816
1.2406302823143265   0.3101575705785816   0.3101575705785816
1.2406302823143265   0.3101575705785816   0.3101575705785816
2.364923228419131   0.2306832949844883   0.08250451800513753
2.364923228419131   0.2306832949844883   0.08250451800513753
2.364923228419131   0.2306832949844883   0.08250451800513753
2.364923228419131   0.2306832949844883   0.08250451800513753
2.4407548313324052   0.6101887078331013   0.6101887078331013
2.4407548313324052   0.6101887078331013   0.6101887078331013
2.4407548313324052   0.6101887078331013   0.6101887078331013
2.4407548313324052   0.6101887078331013   0.6101887078331013
1.152450559042782   0.03634645321025398   0.035231499088635765
1.152450559042782   0.03634645321025398   0.035231499088635765
1.152450559042782   0.03634645321025398   0.035231499088635765
1.152450559042782   0.03634645321025398   0.035231499088635765
1.7094887555659062   0.2904537526388105   -0.02612648051441052
1.7094887555659062   0.2904537526388105   -0.02612648051441052
1.7094887555659062   0.2904537526388105   -0.02612648051441052
1.7094887555659062   0.2904537526388105   -0.02612648051441052
-2.5014938962811346   -0.17911775519064677   0.028133808213848033
-2.5014938962811346   -0.17911775519064677   0.028133808213848033
-2.5014938962811346   -0.17911775519064677   0.028133808213848033
-2.5014938962811346   -0.17911775519064677   0.028133808213848033
-1.5922125482062872   -0.03670607849667476   -0.010287721384412196
-1.5922125482062872   -0.03670607849667476   -0.010287721384412196
-1.5922125482062872   -0.03670607849667476   -0.010287721384412196
-1.5922125482062872   -0.03670607849667476   -0.010287721384412196
-1.603025917968213   0.06473817763866019   0.03346228494968584
-1.603025917968213   0.06473817763866019   0.03346228494968584
-1.603025917968213   0.06473817763866019   0.03346228494968584
-1.603025917968213   0.06473817763866019   0.03346228494968584
-2.5387501400741765   -0.1731622386101408   -0.03004991698975268
-2.5387501400741765   -0.1731622386101408   -0.03004991698975268
-2.5387501400741765   -0.1731622386101408   -0.03004991698975268
-2.5387501400741765   -0.1731622386101408   -0.03004991698975268
-1.9778492878656282   -0.0675368964446891   -0.007826637131513714
-1.9778492878656282   -0.0675368964446891   -0.007826637131513714
-1.9778492878656282   -0.0675368964446891   -0.007826637131513714
-1.9778492878656282   -0.0675368964446891   -0.007826637131513714
-2.520307832641283   -0.12300898831081342   0.012008369875387892
-2.520307832641283   -0.12300898831081342   0.012008369875387892
-2.520307832641283   -0.12300898831081342   0.012008369875387892
-2.520307832641283   -0.12300898831081342   0.012008369875387892
-1.6241333498938813   0.011919802846563118   -0.01925649988652861
-1.6241333498938813   0.011919802846563118   -0.01925649988652861
-1.6241333498938813   0.011919802846563118   -0.01925649988652861
-1.6241333498938813   0.011919802846563118   -0.01925649988652861
-1.6049657936931694   0.0922873095961147   0.038106787491983485
-1.6049657936931694   0.0922873095961147   0.038106787491983485
-1.6049657936931694   0.0922873095961147   0.038106787491983485
-1.6049657936931694   0.0922873095961147   0.038106787491983485
-2.554180757754347   -0.15253642701239112   -0.03967202988163576
-2.554180757754347   -0.15253642701239112   -0.03967202988163576
-2.554180757754347   -0.15253642701239112   -0.03967202988163576
-2.554180757754347   -0.15253642701239112   -0.03967202988163576
-2.0334277279042587   -0.04522448970398457   -0.019277067878082255
-2.0334277279042587   -0.04522448970398457   -0.019277067878082255
-2.0334277279042587   -0.04522448970398457   -0.019277067878082255
-2.0334277279042587   -0.04522448970398457   -0.019277067878082255
-2.5083399184520037   -0.07384143744209659   0.1108371770597616
-2.5083399184520037   -0.07384143744209659   0.1108371770597616
-2.5083399184520037   -0.07384143744209659   0.1108371770597616
-2.5083399184520037   -0.07384143744209659   0.1108371770597616
-1.6317067327546169   0.03269222026671385   -0.036002818485841026
-1.6317067327546169   0.03269222026671385   -0.036002818485841026
-1.6317067327546169   0.03269222026671385   -0.036002818485841026
-1.6317067327546169   0.03269222026671385   -0.036002818485841026
-1.575805207268593   0.16079070762854453   0.06924342876280504
-1.575805207268593   0.16079070762854453   0.06924342876280504
-1.575805207268593   0.16079070762854453   0.06924342876280504
-1.575805207268593   0.16079070762854453   0.06924342876280504
-2.483653710934303   -0.12310322273320518   -0.06490716154528253
-2.483653710934303   -0.12310322273320518   -0.06490716154528253
-2.483653710934303   -0.12310322273320518   -0.06490716154528253
-2.483653710934303   -0.12310322273320518   -0.06490716154528253
-1.9557077070373654   0.018213560264772263   0.043334366722655615
-1.9557077070373654   0.018213560264772263   0.043334366722655615
-1.9557077070373654   0.018213560264772263   0.043334366722655615
-1.9557077070373654   0.018213560264772263   0.043334366722655615
-1.6317750494868832   -0.2163092745019059   -0.028497031782161397
-1.6317750494868832   -0.2163092745019059   -0.028497031782161397
-1.6317750494868832   -0.2163092745019059   -0.028497031782161397
-1.6317750494868832   -0.2163092745019059   -0.028497031782161397
-0.7517120161776623   -0.016692749010081602   0.007983095904451815
-0.7517120161776623   -0.016692749010081602   0.007983095904451815
-0.7517120161776623   -0.016692749010081602   0.007983095904451815
-0.7517120161776623   -0.016692749010081602   0.007983095904451815
-0.7627454159601067   0.0144899187513306   0.011373415525121167
-0.7627454159601067   0.0144899187513306   0.011373415525121167
-0.7627454159601067   0.0144899187513306   0.011373415525121167
-0.7627454159601067   0.0144899187513306   0.011373415525121167
-1.6641332675598663   -0.15833802984510661   -0.04899825552481396
-1.6641332675598663   -0.15833802984510661   -0.04899825552481396
-1.6641332675598663   -0.15833802984510661   -0.04899825552481396
-1.6641332675598663   -0.15833802984510661   -0.04899825552481396
-1.2025567578281173   -0.09763062046160416   -0.027559129403352145
-1.2025567578281173   -0.09763062046160416   -0.027559129403352145
-1.2025567578281173   -0.09763062046160416   -0.027559129403352145
-1.2025567578281173   -0.09763062046160416   -0.027559129403352145
-1.6625714552205002   -0.1730461807836603   -0.0264810428894377
-1.6625714552205002   -0.1730461807836603   -0.0264810428894377
-1.6625714552205002   -0.1730461807836603   -0.0264810428894377
-1.6625714552205002   -0.1730461807836603   -0.0264810428894377
-0.7613410216535481   0.03216427633580616   0.0007210294734315836
-0.7613410216535481   0.03216427633580616   0.0007210294734315836
-0.7613410216535481   0.03216427633580616   0.0007210294734315836
-0.7613410216535481   0.03216427633580616   0.0007210294734315836
-0.7599003698227966   0.05299350866954097   0.015451891383181704
-0.7599003698227966   0.05299350866954097   0.015451891383181704
-0.7599003698227966   0.05299350866954097   0.015451891383181704
-0.7599003698227966   0.05299350866954097   0.015451891383181704
-1.6648527296073665   -0.11604687173695716   -0.05299371074593051
-1.6648527296073665   -0.11604687173695716   -0.05299371074593051
-1.6648527296073665   -0.11604687173695716   -0.05299371074593051
-1.6648527296073665   -0.11604687173695716   -0.05299371074593051
-1.2002543644943477   -0.05433973814186746   -0.013101302309991902
-1.2002543644943477   -0.05433973814186746   -0.013101302309991902
-1.2002543644943477   -0.05433973814186746   -0.013101302309991902
-1.2002543644943477   -0.05433973814186746   -0.013101302309991902
-1.6583469220541327   -0.13090707416392222   -0.005604470552796281
-1.6583469220541327   -0.13090707416392222   -0.005604470552796281
-1.6583469220541327   -0.13090707416392222   -0.005604470552796281
-1.6583469220541327   -0.13090707416392222   -0.005604470552796281
-0.7608986568708018   0.07336123160173674   -0.009907266789033281
-0.7608986568708018   0.07336123160173674   -0.009907266789033281
-0.7608986568708018   0.07336123160173674   -0.009907266789033281
-0.7608986568708018   0.07336123160173674   -0.009907266789033281
-0.7472022305365036   0.09167366128955526   0.031045832783776622
-0.7472022305365036   0.09167366128955526   0.031045832783776622
-0.7472022305365036   0.09167366128955526   0.031045832783776622
-0.7472022305365036   0.09167366128955526   0.031045832783776622
-1.6470582631989636   -0.06718297886037085   -0.05904816440012689
-1.6470582631989636   -0.06718297886037085   -0.05904816440012689
-1.6470582631989636   -0.06718297886037085   -0.05904816440012689
-1.6470582631989636   -0.06718297886037085   -0.05904816440012689
-1.1952721557859711   -0.013373666093107722   0.006001890750849004
-1.1952721557859711   -0.013373666093107722   0.006001890750849004
-1.1952721557859711   -0.013373666093107722   0.006001890750849004
-1.1952721557859711   -0.013373666093107722   0.006001890750849004
-0.7926875731668499   -0.18006203198756654   -0.03352540606400728
-0.7926875731668499   -0.18006203198756654   -0.03352540606400728
-0.7926875731668499   -0.18006203198756654   -0.03352540606400728
-0.7926875731668499   -0.18006203198756654   -0.03352540606400728
0.08229046270566075   0.018706701291678608   0.030880706559979217
0.08229046270566075   0.018706701291678608   0.030880706559979217
0.08229046270566075   0.018706701291678608   0.030880706559979217
0.08229046270566075   0.018706701291678608   0.030880706559979217
0.0785225760579048   0.04540465550979903   0.002469109537713437
0.0785225760579048   0.04540465550979903   0.002469109537713437
0.0785225760579048   0.04540465550979903   0.002469109537713437
0.0785225760579048   0.04540465550979903   0.002469109537713437
-0.7960582603333464   -0.11929440372090411   -0.02140648386884947
-0.7960582603333464   -0.11929440372090411   -0.02140648386884947
-0.7960582603333464   -0.11929440372090411   -0.02140648386884947
-0.7960582603333464   -0.11929440372090411   -0.02140648386884947
-0.360435176081721   -0.059693387601563785   -0.011398934587676018
-0.360435176081721   -0.059693387601563785   -0.011398934587676018
-0.360435176081721   -0.059693387601563785   -0.011398934587676018
-0.360435176081721   -0.059693387601563785   -0.011398934587676018
-0.8015646525714097   -0.13729431823301713   -0.030938530547052923
-0.8015646525714097   -0.13729431823301713   -0.030938530547052923
-0.8015646525714097   -0.13729431823301713   -0.030938530547052923
-0.8015646525714097   -0.13729431823301713   -0.030938530547052923
0.08708990795411718   0.06646550968006233   0.024244914848511386
0.08708990795411718   0.06646550968006233   0.024244914848511386
0.08708990795411718   0.06646550968006233   0.024244914848511386
0.08708990795411718   0.06646550968006233   0.024244914848511386
0.08472554541056228   0.08778560742632527   0.014355952561656494
0.08472554541056228   0.08778560742632527   0.014355952561656494
0.08472554541056228   0.08778560742632527   0.014355952561656494
0.08472554541056228   0.08778560742632527   0.014355952561656494
-0.7934947397337017   -0.07281990007670752   -0.026706549425101866
-0.7934947397337017   -0.07281990007670752   -0.026706549425101866
-0.7934947397337017   -0.07281990007670752   -0.026706549425101866
-0.7934947397337017   -0.07281990007670752   -0.026706549425101866
-0.354804818118713   -0.014652988244316462   0.004244908261042263
-0.354804818118713   -0.014652988244316462   0.004244908261042263
-0.354804818118713   -0.014652988244316462   0.004244908261042263
-0.354804818118713   -0.014652988244316462   0.004244908261042263
-0.795621373574531   -0.09432240885351327   -0.01583720985244294
-0.795621373574531   -0.09432240885351327   -0.01583720985244294
-0.795621373574531   -0.09432240885351327   -0.01583720985244294
-0.795621373574531   -0.09432240885351327   -0.01583720985244294
0.09014566198707705   0.11258159893881514   0.016660543931740438
0.09014566198707705   0.11258159893881514   0.016660543931740438
0.09014566198707705   0.11258159893881514   0.016660543931740438
0.09014566198707705   0.11258159893881514   0.016660543931740438
0.08669011035924798   0.13493386238886748   0.023633363957763033
0.08669011035924798   0.13493386238886748   0.023633363957763033
0.08669011035924798   0.13493386238886748   0.023633363957763033
0.08669011035924798   0.13493386238886748   0.023633363957763033
-0.7831029669170078   -0.0231365105921415   -0.03364767723705048
-0.7831029669170078   -0.0231365105921415   -0.03364767723705048
-0.7831029669170078   -0.0231365105921415   -0.03364767723705048
-0.7831029669170078   -0.0231365105921415   -0.03364767723705048
-0.3459172561501465   0.03244893497690924   0.021371074223235476
-0.3459172561501465   0.03244893497690924   0.021371074223235476
-0.3459172561501465   0.03244893497690924   0.021371074223235476
-0.3459172561501465   0.03244893497690924   0.021371074223235476
0.03774139840432171   -0.13199154713339517   -0.04116636652164221
0.03774139840432171   -0.13199154713339517   -0.04116636652164221
0.03774139840432171   -0.13199154713339517   -0.04116636652164221
0.03774139840432171   -0.13199154713339517   -0.04116636652164221
0.9441803340469754   0.06517205220886751   0.05667198444982066
0.9441803340469754   0.06517205220886751   0.05667198444982066
0.9441803340469754   0.06517205220886751   0.05667198444982066
0.9441803340469754   0.06517205220886751   0.05667198444982066
0.943048101732079   0.08779796646038313   -0.00906163491666706
0.943048101732079   0.08779796646038313   -0.00906163491666706
0.943048101732079   0.08779796646038313   -0.00906163491666706
0.943048101732079   0.08779796646038313   -0.00906163491666706
0.05422173434073583   -0.07929672013915964   0.005666276600826586
0.05422173434073583   -0.07929672013915964   0.005666276600826586
0.05422173434073583   -0.07929672013915964   0.005666276600826586
0.05422173434073583   -0.07929672013915964   0.005666276600826586
0.48870090871103816   -0.01130902064239438   0.001035969581985749
0.48870090871103816   -0.01130902064239438   0.001035969581985749
0.48870090871103816   -0.01130902064239438   0.001035969581985749
0.48870090871103816   -0.01130902064239438   0.001035969581985749
0.04351269091255249   -0.09644326738003214   -0.030732393299216947
0.04351269091255249   -0.09644326738003214   -0.030732393299216947
0.04351269091255249   -0.09644326738003214   -0.030732393299216947
0.04351269091255249   -0.09644326738003214   -0.030732393299216947
0.9592583299622117   0.11044569850320393   0.04934177419117616
0.9592583299622117   0.11044569850320393   0.04934177419117616
0.9592583299622117   0.11044569850320393   0.04934177419117616
0.9592583299622117   0.11044569850320393   0.04934177419117616
0.9505231476758768   0.12971464364191473   0.009581195203510307
0.9505231476758768   0.12971464364191473   0.009581195203510307
0.9505231476758768   0.12971464364191473   0.009581195203510307
0.9505231476758768   0.12971464364191473   0.009581195203510307
0.05618898770022182   -0.03776071452120031   -0.0027805140425202135
0.05618898770022182   -0.03776071452120031   -0.0027805140425202135
0.05618898770022182   -0.03776071452120031   -0.0027805140425202135
0.05618898770022182   -0.03776071452120031   -0.0027805140425202135
0.49525550495462234   0.02875777633880358   0.02026238087045222
0.49525550495462234   0.02875777633880358   0.02026238087045222
0.49525550495462234   0.02875777633880358   0.02026238087045222
0.49525550495462234   0.02875777633880358   0.02026238087045222
0.0483864661461225   -0.05711641580965134   -0.02243742052456582
0.0483864661461225   -0.05711641580965134   -0.02243742052456582
0.0483864661461225   -0.05711641580965134   -0.02243742052456582
0.0483864661461225   -0.05711641580965134   -0.02243742052456582
0.9623065303387167   0.1530512060391076   0.045161546120516954
0.9623065303387167   0.1530512060391076   0.045161546120516954
0.9623065303387167   0.1530512060391076   0.045161546120516954
0.9623065303387167   0.1530512060391076   0.045161546120516954
0.935289412852027   0.17809228544902783   0.02014843629823901
0.935289412852027   0.17809228544902783   0.02014843629823901
0.935289412852027   0.17809228544902783   0.02014843629823901
0.935289412852027   0.17809228544902783   0.02014843629823901
0.05571101472428809   0.013678711233676276   -0.010006963061845127
0.05571101472428809   0.013678711233676276   -0.010006963061845127
0.05571101472428809   0.013678711233676276   -0.010006963061845127
0.05571101472428809   0.013678711233676276   -0.010006963061845127
0.5026099617202591   0.07456322129167374   0.03805991120988582
0.5026099617202591   0.07456322129167374   0.03805991120988582
0.5026099617202591   0.07456322129167374   0.03805991120988582
0.5026099617202591   0.07456322129167374   0.03805991120988582
0.869777756785962   -0.17407796037367612   -0.07609088927270205
0.869777756785962   -0.17407796037367612   -0.07609088927270205
0.869777756785962   -0.17407796037367612   -0.07609088927270205
0.869777756785962   -0.17407796037367612   -0.07609088927270205
1.7909667876805666   0.11829648141478596   0.05520432934311287
1.7909667876805666   0.11829648141478596   0.05520432934311287
1.7909667876805666   0.11829648141478596   0.05520432934311287
1.7909667876805666   0.11829648141478596   0.05520432934311287
1.8112565630801685   0.05615013532439686   -0.1144601849666792
1.8112565630801685   0.05615013532439686   -0.1144601849666792
1.8112565630801685   0.05615013532439686   -0.1144601849666792
1.8112565630801685   0.05615013532439686   -0.1144601849666792
0.9267591336135117   -0.035718202475402694   0.03300969342627391
0.9267591336135117   -0.035718202475402694   0.03300969342627391
0.9267591336135117   -0.035718202475402694   0.03300969342627391
0.9267591336135117   -0.035718202475402694   0.03300969342627391
1.2825909791340333   -0.02239940410182306   -0.032082109721911056
1.2825909791340333   -0.02239940410182306   -0.032082109721911056
1.2825909791340333   -0.02239940410182306   -0.032082109721911056
1.2825909791340333   -0.02239940410182306   -0.032082109721911056
0.894313288426387   -0.11444502467497583   -0.050492710309765376
0.894313288426387   -0.11444502467497583   -0.050492710309765376
0.894313288426387   -0.11444502467497583   -0.050492710309765376
0.894313288426387   -0.11444502467497583   -0.050492710309765376
1.8601480751845958   0.15132262444127975   0.034824886438594105
1.8601480751845958   0.15132262444127975   0.034824886438594105
1.8601480751845958   0.15132262444127975   0.034824886438594105
1.8601480751845958   0.15132262444127975   0.034824886438594105
1.831246165412509   0.10226536466765095   -0.025908070572427888
1.831246165412509   0.10226536466765095   -0.025908070572427888
1.831246165412509   0.10226536466765095   -0.025908070572427888
1.831246165412509   0.10226536466765095   -0.025908070572427888
0.9230650510171766   -0.015007185958002878   0.017012541509927787
0.9230650510171766   -0.015007185958002878   0.017012541509927787
0.9230650510171766   -0.015007185958002878   0.017012541509927787
0.9230650510171766   -0.015007185958002878   0.017012541509927787
1.3497651548256764   0.03371723200663196   0.02217825308926391
1.3497651548256764   0.03371723200663196   0.02217825308926391
1.3497651548256764   0.03371723200663196   0.02217825308926391
1.3497651548256764   0.03371723200663196   0.02217825308926391
0.8970349338791179   -0.08752026129351095   -0.04062496884485001
0.8970349338791179   -0.08752026129351095   -0.04062496884485001
0.8970349338791179   -0.08752026129351095   -0.04062496884485001
0.8970349338791179   -0.08752026129351095   -0.04062496884485001
1.855098902855262   0.17260106030785743   0.02301992100114414
1.855098902855262   0.17260106030785743   0.02301992100114414
1.855098902855262   0.17260106030785743   0.02301992100114414
1.855098902855262   0.17260106030785743   0.02301992100114414
1.8282235937501428   0.15652119453009047   -0.0396678290195408
1.8282235937501428   0.15652119453009047   -0.0396678290195408
1.8282235937501428   0.15652119453009047   -0.0396678290195408
1.8282235937501428   0.15652119453009047   -0.0396678290195408
0.9040773914051089   0.032729281155588714   0.009451333357091612
0.9040773914051089   0.032729281155588714   0.009451333357091612
0.9040773914051089   0.032729281155588714   0.009451333357091612
0.9040773914051089   0.032729281155588714   0.009451333357091612
1.315279712114032   0.059102462328685546   0.016438927159803274
1.315279712114032   0.059102462328685546   0.016438927159803274
1.315279712114032   0.059102462328685546   0.016438927159803274
1.315279712114032   0.059102462328685546   0.016438927159803274
-1.9665240816930245   -0.08927634628691511   0.10117247315112332
-1.9665240816930245   -0.08927634628691511   0.10117247315112332
-1.9665240816930245   -0.08927634628691511   0.10117247315112332
-1.9665240816930245   -0.08927634628691511   0.10117247315112332
-1.3059055857839506   -0.04957405895379667   -0.026325477892585936
-1.3059055857839506   -0.04957405895379667   -0.026325477892585936
-1.3059055857839506   -0.04957405895379667   -0.026325477892585936
-1.3059055857839506   -0.04957405895379667   -0.026325477892585936
-1.2588494893114286   0.10580530849910244   0.08488716779371541
-1.2588494893114286   0.10580530849910244   0.08488716779371541
-1.2588494893114286   0.10580530849910244   0.08488716779371541
-1.2588494893114286   0.10580530849910244   0.08488716779371541
-1.9755915474431776   -0.14102939556121005   -0.041253728168025305
-1.9755915474431776   -0.14102939556121005   -0.041253728168025305
-1.9755915474431776   -0.14102939556121005   -0.041253728168025305
-1.9755915474431776   -0.14102939556121005   -0.041253728168025305
-1.5606580147517914   -0.02413174146660063   -0.00285094041144085
-1.5606580147517914   -0.02413174146660063   -0.00285094041144085
-1.5606580147517914   -0.02413174146660063   -0.00285094041144085
-1.5606580147517914   -0.02413174146660063   -0.00285094041144085
-1.9206306974763792   -0.02085345122639956   0.11337457733115586
-1.9206306974763792   -0.02085345122639956   0.11337457733115586
-1.9206306974763792   -0.02085345122639956   0.11337457733115586
-1.9206306974763792   -0.02085345122639956   0.11337457733115586
-1.3051533820767889   -0.005713678634269845   -0.035113308899713036
-1.3051533820767889   -0.005713678634269845   -0.035113308899713036
-1.3051533820767889   -0.005713678634269845   -0.035113308899713036
-1.3051533820767889   -0.005713678634269845   -0.035113308899713036
-1.2537143116594982   0.1312291016886591   0.07868916752876642
-1.2537143116594982   0.1312291016886591   0.07868916752876642
-1.2537143116594982   0.1312291016886591   0.07868916752876642
-1.2537143116594982   0.1312291016886591   0.07868916752876642
-1.9450006477182793   -0.11798370738783043   -0.05648762628669535
-1.9450006477182793   -0.11798370738783043   -0.05648762628669535
-1.9450006477182793   -0.11798370738783043   -0.05648762628669535
-1.9450006477182793   -0.11798370738783043   -0.05648762628669535
-1.5639854586032942   0.005739062663173963   0.01804025460680203
-1.5639854586032942   0.005739062663173963   0.01804025460680203
-1.5639854586032942   0.005739062663173963   0.01804025460680203
-1.5639854586032942   0.005739062663173963   0.01804025460680203
-1.8938186578417981   0.0031317684066849427   0.07830684730119564
-1.8938186578417981   0.0031317684066849427   0.07830684730119564
-1.8938186578417981   0.0031317684066849427   0.07830684730119564
-1.8938186578417981   0.0031317684066849427   0.07830684730119564
-1.3020431377749353   0.012966789655191963   -0.04469265101494302
-1.3020431377749353   0.012966789655191963   -0.04469265101494302
-1.3020431377749353   0.012966789655191963   -0.04469265101494302
-1.3020431377749353   0.012966789655191963   -0.04469265101494302
-1.2549265290486393   0.1481110433264441   0.062436986867300204
-1.2549265290486393   0.1481110433264441   0.062436986867300204
-1.2549265290486393   0.1481110433264441   0.062436986867300204
-1.2549265290486393   0.1481110433264441   0.062436986867300204
-1.9052908045026695   -0.09349822538431773   -0.07203751632702926
-1.9052908045026695   -0.09349822538431773   -0.07203751632702926
-1.9052908045026695   -0.09349822538431773   -0.07203751632702926
-1.9052908045026695   -0.09349822538431773   -0.07203751632702926
-1.5190400239885742   0.032487325556505256   0.03751468887829368
-1.5190400239885742   0.032487325556505256   0.03751468887829368
-1.5190400239885742   0.032487325556505256   0.03751468887829368
-1.5190400239885742   0.032487325556505256   0.03751468887829368
-1.309820465182765   -0.12417153730006816   0.028697603459613974
-1.309820465182765   -0.12417153730006816   0.028697603459613974
-1.309820465182765   -0.12417153730006816   0.028697603459613974
-1.309820465182765   -0.12417153730006816   0.028697603459613974
-0.6613806050584807   -0.023891926464938276   0.0012720231453686726
-0.6613806050584807   -0.023891926464938276   0.0012720231453686726
-0.6613806050584807   -0.023891926464938276   0.0012720231453686726
-0.6613806050584807   -0.023891926464938276   0.0012720231453686726
-0.642629689789286   0.06498954063625095   0.04613601911139359
-0.642629689789286   0.06498954063625095   0.04613601911139359
-0.642629689789286   0.06498954063625095   0.04613601911139359
-0.642629689789286   0.06498954063625095   0.04613601911139359
-1.3306490984783572   -0.12245516741759806   -0.04585040212422753
-1.3306490984783572   -0.12245516741759806   -0.04585040212422753
-1.3306490984783572   -0.12245516741759806   -0.04585040212422753
-1.3306490984783572   -0.12245516741759806   -0.04585040212422753
-0.9826143182221244   -0.04821850984014926   -0.019898081717171584
-0.9826143182221244   -0.04821850984014926   -0.019898081717171584
-0.9826143182221244   -0.04821850984014926   -0.019898081717171584
-0.9826143182221244   -0.04821850984014926   -0.019898081717171584
-1.305688181662555   -0.07129129887770508   0.02779031341488225
-1.305688181662555   -0.07129129887770508   0.02779031341488225
-1.305688181662555   -0.07129129887770508   0.02779031341488225
-1.305688181662555   -0.07129129887770508   0.02779031341488225
-0.6625313307046411   0.01888494799680472   -0.007267592825929758
-0.6625313307046411   0.01888494799680472   -0.007267592825929758
-0.6625313307046411   0.01888494799680472   -0.007267592825929758
-0.6625313307046411   0.01888494799680472   -0.007267592825929758
-0.64058746263548   0.10738823021727556   0.03991653205333909
-0.64058746263548   0.10738823021727556   0.03991653205333909
-0.64058746263548   0.10738823021727556   0.03991653205333909
-0.64058746263548   0.10738823021727556   0.03991653205333909
-1.323101183135412   -0.08287996231463259   -0.05413612584751021
-1.323101183135412   -0.08287996231463259   -0.05413612584751021
-1.323101183135412   -0.08287996231463259   -0.05413612584751021
-1.323101183135412   -0.08287996231463259   -0.05413612584751021
-0.9718799325042178   -0.005319845985781113   -6.477518191302933e-05
-0.9718799325042178   -0.005319845985781113   -6.477518191302933e-05
-0.9718799325042178   -0.005319845985781113   -6.477518191302933e-05
-0.9718799325042178   -0.005319845985781113   -6.477518191302933e-05
-1.2976303782406917   -0.02828006004345253   0.018617996354910404
-1.2976303782406917   -0.02828006004345253   0.018617996354910404
-1.2976303782406917   -0.02828006004345253   0.018617996354910404
-1.2976303782406917   -0.02828006004345253   0.018617996354910404
-0.6619385697261445   0.05690802575015212   -0.016358798932854024
-0.6619385697261445   0.05690802575015212   -0.016358798932854024
-0.6619385697261445   0.05690802575015212   -0.016358798932854024
-0.6619385697261445   0.05690802575015212   -0.016358798932854024
-0.6403908640617486   0.15194223222664943   0.029910491897759517
-0.6403908640617486   0.15194223222664943   0.029910491897759517
-0.6403908640617486   0.15194223222664943   0.029910491897759517
-0.6403908640617486   0.15194223222664943   0.029910491897759517
-1.3167228331128875   -0.04017628509494244   -0.05825720503256068
-1.3167228331128875   -0.04017628509494244   -0.05825720503256068
-1.3167228331128875   -0.04017628509494244   -0.05825720503256068
-1.3167228331128875   -0.04017628509494244   -0.05825720503256068
-0.9725039816391534   0.0340199834831559   0.01509383693218977
-0.9725039816391534   0.0340199834831559   0.01509383693218977
-0.9725039816391534   0.0340199834831559   0.01509383693218977
-0.9725039816391534   0.0340199834831559   0.01509383693218977
-0.6860249947771415   -0.14191741824954346   -0.003924433663336391
-0.6860249947771415   -0.14191741824954346   -0.003924433663336391
-0.6860249947771415   -0.14191741824954346   -0.003924433663336391
-0.6860249947771415   -0.14191741824954346   -0.003924433663336391
-0.022831135624660333   0.007048155874452048   0.029296867194779655
-0.022831135624660333   0.007048155874452048   0.029296867194779655
-0.022831135624660333   0.007048155874452048   0.029296867194779655
-0.022831135624660333   0.007048155874452048   0.029296867194779655
-0.025333562971583148   0.041932025790061375   0.014000966324206993
-0.025333562971583148   0.041932025790061375   0.014000966324206993
-0.025333562971583148   0.041932025790061375   0.014000966324206993
-0.025333562971583148   0.041932025790061375   0.014000966324206993
-0.6864790993620895   -0.09096016474501031   -0.01716132337136786
-0.6864790993620895   -0.09096016474501031   -0.01716132337136786
-0.6864790993620895   -0.09096016474501031   -0.01716132337136786
-0.6864790993620895   -0.09096016474501031   -0.01716132337136786
-0.3562561904973241   -0.04448311956281647   -0.011135064432099426
-0.3562561904973241   -0.04448311956281647   -0.011135064432099426
-0.3562561904973241   -0.04448311956281647   -0.011135064432099426
-0.3562561904973241   -0.04448311956281647   -0.011135064432099426
-0.6857400786940955   -0.09486228964546906   -0.009564095130932926
-0.6857400786940955   -0.09486228964546906   -0.009564095130932926
-0.6857400786940955   -0.09486228964546906   -0.009564095130932926
-0.6857400786940955   -0.09486228964546906   -0.009564095130932926
-0.022300907915194578   0.049605826414901175   0.021490440981310074
-0.022300907915194578   0.049605826414901175   0.021490440981310074
-0.022300907915194578   0.049605826414901175   0.021490440981310074
-0.022300907915194578   0.049605826414901175   0.021490440981310074
-0.02219738160146035   0.08812474211982944   0.006719303425349303
-0.02219738160146035   0.08812474211982944   0.006719303425349303
-0.02219738160146035   0.08812474211982944   0.006719303425349303
-0.02219738160146035   0.08812474211982944   0.006719303425349303
-0.6847451569353523   -0.04833030129776182   -0.025153407930985333
-0.6847451569353523   -0.04833030129776182   -0.025153407930985333
-0.6847451569353523   -0.04833030129776182   -0.025153407930985333
-0.6847451569353523   -0.04833030129776182   -0.025153407930985333
-0.35278895180625114   -0.0017702981521678478   0.004889963892137542
-0.35278895180625114   -0.0017702981521678478   0.004889963892137542
-0.35278895180625114   -0.0017702981521678478   0.004889963892137542
-0.35278895180625114   -0.0017702981521678478   0.004889963892137542
-0.6837147456496058   -0.0493241016123936   -0.019007551187620514
-0.6837147456496058   -0.0493241016123936   -0.019007551187620514
-0.6837147456496058   -0.0493241016123936   -0.019007551187620514
-0.6837147456496058   -0.0493241016123936   -0.019007551187620514
-0.02011343020167778   0.0922329051199904   0.013030897424101184
-0.02011343020167778   0.0922329051199904   0.013030897424101184
-0.02011343020167778   0.0922329051199904   0.013030897424101184
-0.02011343020167778   0.0922329051199904   0.013030897424101184
-0.02152485111444398   0.1356986170005391   -0.001050155076218976
-0.02152485111444398   0.1356986170005391   -0.001050155076218976
-0.02152485111444398   0.1356986170005391   -0.001050155076218976
-0.02152485111444398   0.1356986170005391   -0.001050155076218976
-0.6844019588476441   -0.004974723248234322   -0.033228026556831214
-0.6844019588476441   -0.004974723248234322   -0.033228026556831214
-0.6844019588476441   -0.004974723248234322   -0.033228026556831214
-0.6844019588476441   -0.004974723248234322   -0.033228026556831214
-0.350094601499066   0.040983077220296024   0.019585361862019826
-0.350094601499066   0.040983077220296024   0.019585361862019826
-0.350094601499066   0.040983077220296024   0.019585361862019826
-0.350094601499066   0.040983077220296024   0.019585361862019826
-0.06797713852333566   -0.15539236456665775   -0.03399262685748695
-0.06797713852333566   -0.15539236456665775   -0.03399262685748695
-0.06797713852333566   -0.15539236456665775   -0.03399262685748695
-0.06797713852333566   -0.15539236456665775   -0.03399262685748695
0.6133106911954517   0.04326655537360973   0.05569646218964855
0.6133106911954517   0.04326655537360973   0.05569646218964855
0.6133106911954517   0.04326655537360973   0.05569646218964855
0.6133106911954517   0.04326655537360973   0.05569646218964855
0.5932493497830573   0.0229852323543651   -0.02195157637386344
0.5932493497830573   0.0229852323543651   -0.02195157637386344
0.5932493497830573   0.0229852323543651   -0.02195157637386344
0.5932493497830573   0.0229852323543651   -0.02195157637386344
-0.04550604949604133   -0.056901411461363   0.011971970953340447
-0.04550604949604133   -0.056901411461363   0.011971970953340447
-0.04550604949604133   -0.056901411461363   0.011971970953340447
-0.04550604949604133   -0.056901411461363   0.011971970953340447
0.2694001249511016   -0.03595423567731149   -0.006280555644805917
0.2694001249511016   -0.03595423567731149   -0.006280555644805917
0.2694001249511016   -0.03595423567731149   -0.006280555644805917
0.2694001249511016   -0.03595423567731149   -0.006280555644805917
-0.06772809349542941   -0.11335656093962676   -0.04268309956533613
-0.06772809349542941   -0.11335656093962676   -0.04268309956533613
-0.06772809349542941   -0.11335656093962676   -0.04268309956533613
-0.06772809349542941   -0.11335656093962676   -0.04268309956533613
0.6197610316875556   0.08373001973773556   0.049862045765251675
0.6197610316875556   0.08373001973773556   0.049862045765251675
0.6197610316875556   0.08373001973773556   0.049862045765251675
0.6197610316875556   0.08373001973773556   0.049862045765251675
0.6028427219135527   0.0659583726105544   -0.03083881259708518
0.6028427219135527   0.0659583726105544   -0.03083881259708518
0.6028427219135527   0.0659583726105544   -0.03083881259708518
0.6028427219135527   0.0659583726105544   -0.03083881259708518
-0.04421882902145813   -0.018707402526572763   0.0034442109717629614
-0.04421882902145813   -0.018707402526572763   0.0034442109717629614
-0.04421882902145813   -0.018707402526572763   0.0034442109717629614
-0.04421882902145813   -0.018707402526572763   0.0034442109717629614
0.271766841158664   0.0026836717231692227   0.009641717306000469
0.271766841158664   0.0026836717231692227   0.009641717306000469
0.271766841158664   0.0026836717231692227   0.009641717306000469
0.271766841158664   0.0026836717231692227   0.009641717306000469
-0.06583113343004475   -0.07189464888191392   -0.05143006471582935
-0.06583113343004475   -0.07189464888191392   -0.05143006471582935
-0.06583113343004475   -0.07189464888191392   -0.05143006471582935
-0.06583113343004475   -0.07189464888191392   -0.05143006471582935
0.6291296616991708   0.12382025434292605   0.04273400459862817
0.6291296616991708   0.12382025434292605   0.04273400459862817
0.6291296616991708   0.12382025434292605   0.04273400459862817
0.6291296616991708   0.12382025434292605   0.04273400459862817
0.6087540269028954   0.11985090325715933   -0.03218901512303696
0.6087540269028954   0.11985090325715933   -0.03218901512303696
0.6087540269028954   0.11985090325715933   -0.03218901512303696
0.6087540269028954   0.11985090325715933   -0.03218901512303696
-0.044280633017651394   0.02593223047614597   -0.005062678067862423
-0.044280633017651394   0.02593223047614597   -0.005062678067862423
-0.044280633017651394   0.02593223047614597   -0.005062678067862423
-0.044280633017651394   0.02593223047614597   -0.005062678067862423
0.2811582162046311   0.0457748077933771   0.02855256320788977
0.2811582162046311   0.0457748077933771   0.02855256320788977
0.2811582162046311   0.0457748077933771   0.02855256320788977
0.2811582162046311   0.0457748077933771   0.02855256320788977
0.5494266988721941   -0.15428649252176346   -0.06617045153126178
0.5494266988721941   -0.15428649252176346   -0.06617045153126178
0.5494266988721941   -0.15428649252176346   -0.06617045153126178
0.5494266988721941   -0.15428649252176346   -0.06617045153126178
1.2078773036459256   0.08974030661637264   0.06191851260748252
1.2078773036459256   0.08974030661637264   0.06191851260748252
1.2078773036459256   0.08974030661637264   0.06191851260748252
1.2078773036459256   0.08974030661637264   0.06191851260748252
1.198458797145015   -0.005595334858070747   -0.08807563201856955
1.198458797145015   -0.005595334858070747   -0.08807563201856955
1.198458797145015   -0.005595334858070747   -0.08807563201856955
1.198458797145015   -0.005595334858070747   -0.08807563201856955
0.5987706913094775   -0.012912322937607308   0.04155268655021033
0.5987706913094775   -0.012912322937607308   0.04155268655021033
0.5987706913094775   -0.012912322937607308   0.04155268655021033
0.5987706913094775   -0.012912322937607308   0.04155268655021033
0.8454990114372009   -0.03007599814368709   -0.02772439729124454
0.8454990114372009   -0.03007599814368709   -0.02772439729124454
0.8454990114372009   -0.03007599814368709   -0.02772439729124454
0.8454990114372009   -0.03007599814368709   -0.02772439729124454
0.5499720763784892   -0.13395674568010643   -0.08139596536223004
0.5499720763784892   -0.13395674568010643   -0.08139596536223004
0.5499720763784892   -0.13395674568010643   -0.08139596536223004
0.5499720763784892   -0.13395674568010643   -0.08139596536223004
1.2507637799719007   0.11895545578032748   0.04889849147746106
1.2507637799719007   0.11895545578032748   0.04889849147746106
1.2507637799719007   0.11895545578032748   0.04889849147746106
1.2507637799719007   0.11895545578032748   0.04889849147746106
1.2278159593114575   0.018915911535425156   -0.11812287931720528
1.2278159593114575   0.018915911535425156   -0.11812287931720528
1.2278159593114575   0.018915911535425156   -0.11812287931720528
1.2278159593114575   0.018915911535425156   -0.11812287931720528
0.6031667134923672   0.005785283107400389   0.030954234800147334
0.6031667134923672   0.005785283107400389   0.030954234800147334
0.6031667134923672   0.005785283107400389   0.030954234800147334
0.6031667134923672   0.005785283107400389   0.030954234800147334
0.883735154411986   -0.0035812970550030063   -0.0084667662659354
0.883735154411986   -0.0035812970550030063   -0.0084667662659354
0.883735154411986   -0.0035812970550030063   -0.0084667662659354
0.883735154411986   -0.0035812970550030063   -0.0084667662659354
0.5562062594513786   -0.10949500252719163   -0.08856774977021015
0.5562062594513786   -0.10949500252719163   -0.08856774977021015
0.5562062594513786   -0.10949500252719163   -0.08856774977021015
0.5562062594513786   -0.10949500252719163   -0.08856774977021015
1.2825210079681275   0.14194079178569924   0.03237748371588134
1.2825210079681275   0.14194079178569924   0.03237748371588134
1.2825210079681275   0.14194079178569924   0.03237748371588134
1.2825210079681275   0.14194079178569924   0.03237748371588134
1.2744326024605999   0.0826909859035379   -0.11109535395865339
1.2744326024605999   0.0826909859035379   -0.11109535395865339
1.2744326024605999   0.0826909859035379   -0.11109535395865339
1.2744326024605999   0.0826909859035379   -0.11109535395865339
0.6051628619604822   0.04710789136646594   0.022598172055598442
0.6051628619604822   0.04710789136646594   0.022598172055598442
0.6051628619604822   0.04710789136646594   0.022598172055598442
0.6051628619604822   0.04710789136646594   0.022598172055598442
0.8902409783826747   0.02672167947346723   0.012835264142124242
0.8902409783826747   0.02672167947346723   0.012835264142124242
0.8902409783826747   0.02672167947346723   0.012835264142124242
0.8902409783826747   0.02672167947346723   0.012835264142124242
-1.405947012409552   -0.045980246989803575   0.091685008552981
-1.405947012409552   -0.045980246989803575   0.091685008552981
-1.405947012409552   -0.045980246989803575   0.091685008552981
-1.405947012409552   -0.045980246989803575   0.091685008552981
-0.9835159333761052   -0.06565136742408686   -0.03463924308501576
-0.9835159333761052   -0.06565136742408686   -0.03463924308501576
-0.9835159333761052   -0.06565136742408686   -0.03463924308501576
-0.9835159333761052   -0.06565136742408686   -0.03463924308501576
-0.9257496137570362   0.09282691923993179   0.07818591215154266
-0.9257496137570362   0.09282691923993179   0.07818591215154266
-0.9257496137570362   0.09282691923993179   0.07818591215154266
-0.9257496137570362   0.09282691923993179   0.07818591215154266
-1.4060585373799408   -0.1157260088438371   -0.050666691572458844
-1.4060585373799408   -0.1157260088438371   -0.050666691572458844
-1.4060585373799408   -0.1157260088438371   -0.050666691572458844
-1.4060585373799408   -0.1157260088438371   -0.050666691572458844
-1.1319530786172016   -0.01805096285807463   -0.002458179233250979
-1.1319530786172016   -0.01805096285807463   -0.002458179233250979
-1.1319530786172016   -0.01805096285807463   -0.002458179233250979
-1.1319530786172016   -0.01805096285807463   -0.002458179233250979
-1.3535197458031023   0.00907996824499091   0.0872212892229044
-1.3535197458031023   0.00907996824499091   0.0872212892229044
-1.3535197458031023   0.00907996824499091   0.0872212892229044
-1.3535197458031023   0.00907996824499091   0.0872212892229044
-0.9740147703600242   -0.027705422875043996   -0.04260752874840981
-0.9740147703600242   -0.027705422875043996   -0.04260752874840981
-0.9740147703600242   -0.027705422875043996   -0.04260752874840981
-0.9740147703600242   -0.027705422875043996   -0.04260752874840981
-0.9170328471372386   0.11212300494659062   0.06607813480436908
-0.9170328471372386   0.11212300494659062   0.06607813480436908
-0.9170328471372386   0.11212300494659062   0.06607813480436908
-0.9170328471372386   0.11212300494659062   0.06607813480436908
-1.372805911578515   -0.09421802791544527   -0.06405698947317445
-1.372805911578515   -0.09421802791544527   -0.06405698947317445
-1.372805911578515   -0.09421802791544527   -0.06405698947317445
-1.372805911578515   -0.09421802791544527   -0.06405698947317445
-1.1240594171004568   0.007402502721982673   0.011903789139044496
-1.1240594171004568   0.007402502721982673   0.011903789139044496
-1.1240594171004568   0.007402502721982673   0.011903789139044496
-1.1240594171004568   0.007402502721982673   0.011903789139044496
-1.3207137209276751   0.03217365866728761   0.07001227719829062
-1.3207137209276751   0.03217365866728761   0.07001227719829062
-1.3207137209276751   0.03217365866728761   0.07001227719829062
-1.3207137209276751   0.03217365866728761   0.07001227719829062
-0.9652606728996522   -0.010404316747714228   -0.052533672313382046
-0.9652606728996522   -0.010404316747714228   -0.052533672313382046
-0.9652606728996522   -0.010404316747714228   -0.052533672313382046
-0.9652606728996522   -0.010404316747714228   -0.052533672313382046
-0.9122054658297923   0.13089859448361438   0.05686124433976966
-0.9122054658297923   0.13089859448361438   0.05686124433976966
-0.9122054658297923   0.13089859448361438   0.05686124433976966
-0.9122054658297923   0.13089859448361438   0.05686124433976966
-1.3282611253513488   -0.0657891880720343   -0.0766980429433872
-1.3282611253513488   -0.0657891880720343   -0.0766980429433872
-1.3282611253513488   -0.0657891880720343   -0.0766980429433872
-1.3282611253513488   -0.0657891880720343   -0.0766980429433872
-1.081892599208208   0.03124452453670877   0.032061413879610645
-1.081892599208208   0.03124452453670877   0.032061413879610645
-1.081892599208208   0.03124452453670877   0.032061413879610645
-1.081892599208208   0.03124452453670877   0.032061413879610645
-0.9724808344790238   -0.07949116681905087   0.03437605079534864
-0.9724808344790238   -0.07949116681905087   0.03437605079534864
-0.9724808344790238   -0.07949116681905087   0.03437605079534864
-0.9724808344790238   -0.07949116681905087   0.03437605079534864
-0.5637452901139377   -0.0425421177425767   -0.005589995448977203
-0.5637452901139377   -0.0425421177425767   -0.005589995448977203
-0.5637452901139377   -0.0425421177425767   -0.005589995448977203
-0.5637452901139377   -0.0425421177425767   -0.005589995448977203
-0.5351050409772361   0.05425502995665584   0.042156527245936076
-0.5351050409772361   0.05425502995665584   0.042156527245936076
-0.5351050409772361   0.05425502995665584   0.042156527245936076
-0.5351050409772361   0.05425502995665584   0.042156527245936076
-0.9870982607285019   -0.094587473662646   -0.04114292980320769
-0.9870982607285019   -0.094587473662646   -0.04114292980320769
-0.9870982607285019   -0.094587473662646   -0.04114292980320769
-0.9870982607285019   -0.094587473662646   -0.04114292980320769
-0.7615267294070067   -0.03714491319657254   -0.01553234746645818
-0.7615267294070067   -0.03714491319657254   -0.01553234746645818
-0.7615267294070067   -0.03714491319657254   -0.01553234746645818
-0.7615267294070067   -0.03714491319657254   -0.01553234746645818
-0.9610844122766399   -0.033753651661432224   0.028092490454884267
-0.9610844122766399   -0.033753651661432224   0.028092490454884267
-0.9610844122766399   -0.033753651661432224   0.028092490454884267
-0.9610844122766399   -0.033753651661432224   0.028092490454884267
-0.5577823695541689   -0.0032422721696269766   -0.013732813512445458
-0.5577823695541689   -0.0032422721696269766   -0.013732813512445458
-0.5577823695541689   -0.0032422721696269766   -0.013732813512445458
-0.5577823695541689   -0.0032422721696269766   -0.013732813512445458
-0.528298419764117   0.09382105779342838   0.034566211321499785
-0.528298419764117   0.09382105779342838   0.034566211321499785
-0.528298419764117   0.09382105779342838   0.034566211321499785
-0.528298419764117   0.09382105779342838   0.034566211321499785
-0.9738165910065493   -0.057242309410739496   -0.04847527018485395
-0.9738165910065493   -0.057242309410739496   -0.04847527018485395
-0.9738165910065493   -0.057242309410739496   -0.04847527018485395
-0.9738165910065493   -0.057242309410739496   -0.04847527018485395
-0.7469048208653516   0.001752000268471443   0.0011771527097512446
-0.7469048208653516   0.001752000268471443   0.0011771527097512446
-0.7469048208653516   0.001752000268471443   0.0011771527097512446
-0.7469048208653516   0.001752000268471443   0.0011771527097512446
-0.9458339395163238   0.008533205958161656   0.025662471897372863
-0.9458339395163238   0.008533205958161656   0.025662471897372863
-0.9458339395163238   0.008533205958161656   0.025662471897372863
-0.9458339395163238   0.008533205958161656   0.025662471897372863
-0.5521376642354349   0.03218894944343497   -0.02299790268509605
-0.5521376642354349   0.03218894944343497   -0.02299790268509605
-0.5521376642354349   0.03218894944343497   -0.02299790268509605
-0.5521376642354349   0.03218894944343497   -0.02299790268509605
-0.5217221730552046   0.13597485726392394   0.027497846704088308
-0.5217221730552046   0.13597485726392394   0.027497846704088308
-0.5217221730552046   0.13597485726392394   0.027497846704088308
-0.5217221730552046   0.13597485726392394   0.027497846704088308
-0.9638732279580005   -0.0170030432017923   -0.05357592861586813
-0.9638732279580005   -0.0170030432017923   -0.05357592861586813
-0.9638732279580005   -0.0170030432017923   -0.05357592861586813
-0.9638732279580005   -0.0170030432017923   -0.05357592861586813
-0.7412429725229397   0.03834558994662955   0.017086372947899553
-0.7412429725229397   0.03834558994662955   0.017086372947899553
-0.7412429725229397   0.03834558994662955   0.017086372947899553
-0.7412429725229397   0.03834558994662955   0.017086372947899553
-0.575664980803343   -0.10910341660663206   0.0013728499680570883
-0.575664980803343   -0.10910341660663206   0.0013728499680570883
-0.575664980803343   -0.10910341660663206   0.0013728499680570883
-0.575664980803343   -0.10910341660663206   0.0013728499680570883
-0.14832222574896803   -0.012696738421243919   0.023474481107775974
-0.14832222574896803   -0.012696738421243919   0.023474481107775974
-0.14832222574896803   -0.012696738421243919   0.023474481107775974
-0.14832222574896803   -0.012696738421243919   0.023474481107775974
-0.14467440312076507   0.022434120501727835   0.008005406621013865
-0.14467440312076507   0.022434120501727835   0.008005406621013865
-0.14467440312076507   0.022434120501727835   0.008005406621013865
-0.14467440312076507   0.022434120501727835   0.008005406621013865
-0.5693498310222146   -0.06384159411681892   -0.010970798905481777
-0.5693498310222146   -0.06384159411681892   -0.010970798905481777
-0.5693498310222146   -0.06384159411681892   -0.010970798905481777
-0.5693498310222146   -0.06384159411681892   -0.010970798905481777
-0.36011502821863817   -0.03905960523831906   -0.011037182254117733
-0.36011502821863817   -0.03905960523831906   -0.011037182254117733
-0.36011502821863817   -0.03905960523831906   -0.011037182254117733
-0.36011502821863817   -0.03905960523831906   -0.011037182254117733
-0.5684221683760293   -0.0649594415265016   -0.005214638264869037
-0.5684221683760293   -0.0649594415265016   -0.005214638264869037
-0.5684221683760293   -0.0649594415265016   -0.005214638264869037
-0.5684221683760293   -0.0649594415265016   -0.005214638264869037
-0.14225716872045607   0.026896864957905386   0.01562883416638129
-0.14225716872045607   0.026896864957905386   0.01562883416638129
-0.14225716872045607   0.026896864957905386   0.01562883416638129
-0.14225716872045607   0.026896864957905386   0.01562883416638129
-0.1364555766422595   0.0667770466017054   0.0020937512732579384
-0.1364555766422595   0.0667770466017054   0.0020937512732579384
-0.1364555766422595   0.0667770466017054   0.0020937512732579384
-0.1364555766422595   0.0667770466017054   0.0020937512732579384
-0.5625365109789374   -0.023973332996416692   -0.018829853962757104
-0.5625365109789374   -0.023973332996416692   -0.018829853962757104
-0.5625365109789374   -0.023973332996416692   -0.018829853962757104
-0.5625365109789374   -0.023973332996416692   -0.018829853962757104
-0.351336853656773   0.0007918737293075365   0.004709563135471606
-0.351336853656773   0.0007918737293075365   0.004709563135471606
-0.351336853656773   0.0007918737293075365   0.004709563135471606
-0.351336853656773   0.0007918737293075365   0.004709563135471606
-0.5604463257807113   -0.020758588061870933   -0.011593672906171998
-0.5604463257807113   -0.020758588061870933   -0.011593672906171998
-0.5604463257807113   -0.020758588061870933   -0.011593672906171998
-0.5604463257807113   -0.020758588061870933   -0.011593672906171998
-0.13545745056439543   0.06665061294325246   0.007210815321031284
-0.13545745056439543   0.06665061294325246   0.007210815321031284
-0.13545745056439543   0.06665061294325246   0.007210815321031284
-0.13545745056439543   0.06665061294325246   0.007210815321031284
-0.12908378483138633   0.11176308954293306   -0.004857136617251991
-0.12908378483138633   0.11176308954293306   -0.004857136617251991
-0.12908378483138633   0.11176308954293306   -0.004857136617251991
-0.12908378483138633   0.11176308954293306   -0.004857136617251991
-0.5565547090006076   0.016357604806516463   -0.027047580565515067
-0.5565547090006076   0.016357604806516463   -0.027047580565515067
-0.5565547090006076   0.016357604806516463   -0.027047580565515067
-0.5565547090006076   0.016357604806516463   -0.027047580565515067
-0.343322050632992   0.04083433969800396   0.019879977230928006
-0.343322050632992   0.04083433969800396   0.019879977230928006
-0.343322050632992   0.04083433969800396   0.019879977230928006
-0.343322050632992   0.04083433969800396   0.019879977230928006
-0.1833312525843563   -0.13337883676530055   -0.030888554725110047
-0.1833312525843563   -0.13337883676530055   -0.030888554725110047
-0.1833312525843563   -0.13337883676530055   -0.030888554725110047
-0.1833312525843563   -0.13337883676530055   -0.030888554725110047
0.2616393426126897   0.020774382251301234   0.05090724535623772
0.2616393426126897   0.020774382251301234   0.05090724535623772
0.2616393426126897   0.020774382251301234   0.05090724535623772
0.2616393426126897   0.020774382251301234   0.05090724535623772
0.243442199930597   -0.007179442910741976   -0.02836643572019272
0.243442199930597   -0.007179442910741976   -0.02836643572019272
0.243442199930597   -0.007179442910741976   -0.02836643572019272
0.243442199930597   -0.007179442910741976   -0.02836643572019272
-0.15318862321401588   -0.030976768868773364   0.01884519552525974
-0.15318862321401588   -0.030976768868773364   0.01884519552525974
-0.15318862321401588   -0.030976768868773364   0.01884519552525974
-0.15318862321401588   -0.030976768868773364   0.01884519552525974
0.04048495224033021   -0.03664498806960244   -0.00785485451174043
0.04048495224033021   -0.03664498806960244   -0.00785485451174043
0.04048495224033021   -0.03664498806960244   -0.00785485451174043
0.04048495224033021   -0.03664498806960244   -0.00785485451174043
-0.17700399240352993   -0.09319756507645444   -0.03801085421462812
-0.17700399240352993   -0.09319756507645444   -0.03801085421462812
-0.17700399240352993   -0.09319756507645444   -0.03801085421462812
-0.17700399240352993   -0.09319756507645444   -0.03801085421462812
0.27123845258878365   0.05902223676561162   0.04441314789438516
0.27123845258878365   0.05902223676561162   0.04441314789438516
0.27123845258878365   0.05902223676561162   0.04441314789438516
0.27123845258878365   0.05902223676561162   0.04441314789438516
0.2587297807389123   0.03476607870494157   -0.03213699263103578
0.2587297807389123   0.03476607870494157   -0.03213699263103578
0.2587297807389123   0.03476607870494157   -0.03213699263103578
0.2587297807389123   0.03476607870494157   -0.03213699263103578
-0.1472572545807189   0.004677470149931147   0.010184938032733876
-0.1472572545807189   0.004677470149931147   0.010184938032733876
-0.1472572545807189   0.004677470149931147   0.010184938032733876
-0.1472572545807189   0.004677470149931147   0.010184938032733876
0.048613966507935556   -0.0005146568163975651   0.008162604836031725
0.048613966507935556   -0.0005146568163975651   0.008162604836031725
0.048613966507935556   -0.0005146568163975651   0.008162604836031725
0.048613966507935556   -0.0005146568163975651   0.008162604836031725
-0.17024011704033437   -0.05384240262315233   -0.04620950149225868
-0.17024011704033437   -0.05384240262315233   -0.04620950149225868
-0.17024011704033437   -0.05384240262315233   -0.04620950149225868
-0.17024011704033437   -0.05384240262315233   -0.04620950149225868
0.2851648934882894   0.09673820176778662   0.0380664480530029
0.2851648934882894   0.09673820176778662   0.0380664480530029
0.2851648934882894   0.09673820176778662   0.0380664480530029
0.2851648934882894   0.09673820176778662   0.0380664480530029
0.271038529271964   0.08258223332975193   -0.03713182608944801
0.271038529271964   0.08258223332975193   -0.03713182608944801
0.271038529271964   0.08258223332975193   -0.03713182608944801
0.271038529271964   0.08258223332975193   -0.03713182608944801
-0.1409176761410082   0.04578987396709455   0.0019466224104771439
-0.1409176761410082   0.04578987396709455   0.0019466224104771439
-0.1409176761410082   0.04578987396709455   0.0019466224104771439
-0.1409176761410082   0.04578987396709455   0.0019466224104771439
0.061180445053170135   0.03879959985523814   0.024752802400976527
0.061180445053170135   0.03879959985523814   0.024752802400976527
0.061180445053170135   0.03879959985523814   0.024752802400976527
0.061180445053170135   0.03879959985523814   0.024752802400976527
0.20815950683507037   -0.1347753879361717   -0.06094216334438399
0.20815950683507037   -0.1347753879361717   -0.06094216334438399
0.20815950683507037   -0.1347753879361717   -0.06094216334438399
0.20815950683507037   -0.1347753879361717   -0.06094216334438399
0.6261596727279979   0.061711573251572976   0.06590336986283055
0.6261596727279979   0.061711573251572976   0.06590336986283055
0.6261596727279979   0.061711573251572976   0.06590336986283055
0.6261596727279979   0.061711573251572976   0.06590336986283055
0.6199350880317563   -0.03303497840720712   -0.08022498752006763
0.6199350880317563   -0.03303497840720712   -0.08022498752006763
0.6199350880317563   -0.03303497840720712   -0.08022498752006763
0.6199350880317563   -0.03303497840720712   -0.08022498752006763
0.26261447394951687   0.011140080241934839   0.049175411221729866
0.26261447394951687   0.011140080241934839   0.049175411221729866
0.26261447394951687   0.011140080241934839   0.049175411221729866
0.26261447394951687   0.011140080241934839   0.049175411221729866
0.4068462184542409   -0.027849347600180128   -0.021469862550256152
0.4068462184542409   -0.027849347600180128   -0.021469862550256152
0.4068462184542409   -0.027849347600180128   -0.021469862550256152
0.4068462184542409   -0.027849347600180128   -0.021469862550256152
0.21399787211049534   -0.1122757730281117   -0.07049174470332945
0.21399787211049534   -0.1122757730281117   -0.07049174470332945
0.21399787211049534   -0.1122757730281117   -0.07049174470332945
0.21399787211049534   -0.1122757730281117   -0.07049174470332945
0.6726104865626876   0.09443967155475005   0.05567735517263524
0.6726104865626876   0.09443967155475005   0.05567735517263524
0.6726104865626876   0.09443967155475005   0.05567735517263524
0.6726104865626876   0.09443967155475005   0.05567735517263524
0.65372723964153   -0.009534833512220994   -0.09620687444712239
0.65372723964153   -0.009534833512220994   -0.09620687444712239
0.65372723964153   -0.009534833512220994   -0.09620687444712239
0.65372723964153   -0.009534833512220994   -0.09620687444712239
0.2715427227662885   0.02835353469501748   0.03834026151576729
0.2715427227662885   0.02835353469501748   0.03834026151576729
0.2715427227662885   0.02835353469501748   0.03834026151576729
0.2715427227662885   0.02835353469501748   0.03834026151576729
0.4410017384028311   -0.004158316265915223   -0.0025947182482453923
0.4410017384028311   -0.004158316265915223   -0.0025947182482453923
0.4410017384028311   -0.004158316265915223   -0.0025947182482453923
0.4410017384028311   -0.004158316265915223   -0.0025947182482453923
0.22331138025989744   -0.09272434480279726   -0.08173857151837116
0.22331138025989744   -0.09272434480279726   -0.08173857151837116
0.22331138025989744   -0.09272434480279726   -0.08173857151837116
0.22331138025989744   -0.09272434480279726   -0.08173857151837116
0.7061871564988516   0.1157716203365258   0.04078625599074587
0.7061871564988516   0.1157716203365258   0.04078625599074587
0.7061871564988516   0.1157716203365258   0.04078625599074587
0.7061871564988516   0.1157716203365258   0.04078625599074587
0.7056038936452896   0.04208087894910344   -0.10297792171600617
0.7056038936452896   0.04208087894910344   -0.10297792171600617
0.7056038936452896   0.04208087894910344   -0.10297792171600617
0.7056038936452896   0.04208087894910344   -0.10297792171600617
0.2806803710721142   0.06319809418736894   0.030461522053684333
0.2806803710721142   0.06319809418736894   0.030461522053684333
0.2806803710721142   0.06319809418736894   0.030461522053684333
0.2806803710721142   0.06319809418736894   0.030461522053684333
0.4580041274293576   0.021960977716487577   0.013641052185219313
0.4580041274293576   0.021960977716487577   0.013641052185219313
0.4580041274293576   0.021960977716487577   0.013641052185219313
0.4580041274293576   0.021960977716487577   0.013641052185219313
-0.8431176701583956   -0.014198468161894046   0.08222699000823877
-0.8431176701583956   -0.014198468161894046   0.08222699000823877
-0.8431176701583956   -0.014198468161894046   0.08222699000823877
-0.8431176701583956   -0.014198468161894046   0.08222699000823877
-0.6573700034382237   -0.08339113476888987   -0.04070254980516075
-0.6573700034382237   -0.08339113476888987   -0.04070254980516075
-0.6573700034382237   -0.08339113476888987   -0.04070254980516075
-0.6573700034382237   -0.08339113476888987   -0.04070254980516075
-0.5950471917771621   0.07067349409908874   0.0703194775394072
-0.5950471917771621   0.07067349409908874   0.0703194775394072
-0.5950471917771621   0.07067349409908874   0.0703194775394072
-0.5950471917771621   0.07067349409908874   0.0703194775394072
-0.8395427912599297   -0.09144251314597115   -0.05539220432240757
-0.8395427912599297   -0.09144251314597115   -0.05539220432240757
-0.8395427912599297   -0.09144251314597115   -0.05539220432240757
-0.8395427912599297   -0.09144251314597115   -0.05539220432240757
-0.7056729929587856   -0.019436693338154995   -0.01034364030718754
-0.7056729929587856   -0.019436693338154995   -0.01034364030718754
-0.7056729929587856   -0.019436693338154995   -0.01034364030718754
-0.7056729929587856   -0.019436693338154995   -0.01034364030718754
-0.7877045988035443   0.03379113845720047   0.07856510635634806
-0.7877045988035443   0.03379113845720047   0.07856510635634806
-0.7877045988035443   0.03379113845720047   0.07856510635634806
-0.7877045988035443   0.03379113845720047   0.07856510635634806
-0.6432863529612809   -0.050961126231815576   -0.04924170805027847
-0.6432863529612809   -0.050961126231815576   -0.04924170805027847
-0.6432863529612809   -0.050961126231815576   -0.04924170805027847
-0.6432863529612809   -0.050961126231815576   -0.04924170805027847
-0.5802694547672415   0.08899706784424521   0.05948203251400455
-0.5802694547672415   0.08899706784424521   0.05948203251400455
-0.5802694547672415   0.08899706784424521   0.05948203251400455
-0.5802694547672415   0.08899706784424521   0.05948203251400455
-0.8010238928348355   -0.0706792316670526   -0.06921580199757074
-0.8010238928348355   -0.0706792316670526   -0.06921580199757074
-0.8010238928348355   -0.0706792316670526   -0.06921580199757074
-0.8010238928348355   -0.0706792316670526   -0.06921580199757074
-0.6855375830552913   0.004551259690161208   0.004959288569255732
-0.6855375830552913   0.004551259690161208   0.004959288569255732
-0.6855375830552913   0.004551259690161208   0.004959288569255732
-0.6855375830552913   0.004551259690161208   0.004959288569255732
-0.7491424923254045   0.05602370633859715   0.06348826254392725
-0.7491424923254045   0.05602370633859715   0.06348826254392725
-0.7491424923254045   0.05602370633859715   0.06348826254392725
-0.7491424923254045   0.05602370633859715   0.06348826254392725
-0.6287431600538032   -0.03429817493853577   -0.05959125113601893
-0.6287431600538032   -0.03429817493853577   -0.05959125113601893
-0.6287431600538032   -0.03429817493853577   -0.05959125113601893
-0.6287431600538032   -0.03429817493853577   -0.05959125113601893
-0.5682949495194953   0.1118038779431825   0.051301111300827845
-0.5682949495194953   0.1118038779431825   0.051301111300827845
-0.5682949495194953   0.1118038779431825   0.051301111300827845
-0.5682949495194953   0.1118038779431825   0.051301111300827845
-0.749272606556666   -0.03744082317011552   -0.08010456571648335
-0.749272606556666   -0.03744082317011552   -0.08010456571648335
-0.749272606556666   -0.03744082317011552   -0.08010456571648335
-0.749272606556666   -0.03744082317011552   -0.08010456571648335
-0.6448862182669644   0.02819573351564457   0.02395230769318163
-0.6448862182669644   0.02819573351564457   0.02395230769318163
-0.6448862182669644   0.02819573351564457   0.02395230769318163
-0.6448862182669644   0.02819573351564457   0.02395230769318163
-0.6343571971246185   -0.04779369221343518   0.03876403920741117
-0.6343571971246185   -0.04779369221343518   0.03876403920741117
-0.6343571971246185   -0.04779369221343518   0.03876403920741117
-0.6343571971246185   -0.04779369221343518   0.03876403920741117
-0.4654683892918168   -0.06322956158864854   -0.012052427604377289
-0.4654683892918168   -0.06322956158864854   -0.012052427604377289
-0.4654683892918168   -0.06322956158864854   -0.012052427604377289
-0.4654683892918168   -0.06322956158864854   -0.012052427604377289
-0.43070650022212265   0.03210906418213691   0.03594799891432776
-0.43070650022212265   0.03210906418213691   0.03594799891432776
-0.43070650022212265   0.03210906418213691   0.03594799891432776
-0.43070650022212265   0.03210906418213691   0.03594799891432776
-0.6437068794889561   -0.06751147404911793   -0.034793992871352056
-0.6437068794889561   -0.06751147404911793   -0.034793992871352056
-0.6437068794889561   -0.06751147404911793   -0.034793992871352056
-0.6437068794889561   -0.06751147404911793   -0.034793992871352056
-0.5420523502692969   -0.03372519193626915   -0.014584843403539785
-0.5420523502692969   -0.03372519193626915   -0.014584843403539785
-0.5420523502692969   -0.03372519193626915   -0.014584843403539785
-0.5420523502692969   -0.03372519193626915   -0.014584843403539785
-0.6178294083547619   -0.005907282897631448   0.03298917164812515
-0.6178294083547619   -0.005907282897631448   0.03298917164812515
-0.6178294083547619   -0.005907282897631448   0.03298917164812515
-0.6178294083547619   -0.005907282897631448   0.03298917164812515
-0.4536811135503441   -0.02659226916338279   -0.020223734381257616
-0.4536811135503441   -0.02659226916338279   -0.020223734381257616
-0.4536811135503441   -0.02659226916338279   -0.020223734381257616
-0.4536811135503441   -0.02659226916338279   -0.020223734381257616
-0.4179618638310997   0.06937462341097594   0.02875466674828897
-0.4179618638310997   0.06937462341097594   0.02875466674828897
-0.4179618638310997   0.06937462341097594   0.02875466674828897
-0.4179618638310997   0.06937462341097594   0.02875466674828897
-0.6246307769358537   -0.03167428573830833   -0.04165322474649161
-0.6246307769358537   -0.03167428573830833   -0.04165322474649161
-0.6246307769358537   -0.03167428573830833   -0.04165322474649161
-0.6246307769358537   -0.03167428573830833   -0.04165322474649161
-0.5236316440848104   0.0022152148051174693   0.0015125232323867782
-0.5236316440848104   0.0022152148051174693   0.0015125232323867782
-0.5236316440848104   0.0022152148051174693   0.0015125232323867782
-0.5236316440848104   0.0022152148051174693   0.0015125232323867782
-0.5972349196977595   0.033749528357601005   0.02990224734805874
-0.5972349196977595   0.033749528357601005   0.02990224734805874
-0.5972349196977595   0.033749528357601005   0.02990224734805874
-0.5972349196977595   0.033749528357601005   0.02990224734805874
-0.4420064596286769   0.007302070755584245   -0.029395759584205566
-0.4420064596286769   0.007302070755584245   -0.029395759584205566
-0.4420064596286769   0.007302070755584245   -0.029395759584205566
-0.4420064596286769   0.007302070755584245   -0.029395759584205566
-0.40525814252324793   0.10981583537714865   0.021903378844084068
-0.40525814252324793   0.10981583537714865   0.021903378844084068
-0.40525814252324793   0.10981583537714865   0.021903378844084068
-0.40525814252324793   0.10981583537714865   0.021903378844084068
-0.608877398274462   0.007459341051357336   -0.047266595582172055
-0.608877398274462   0.007459341051357336   -0.047266595582172055
-0.608877398274462   0.007459341051357336   -0.047266595582172055
-0.608877398274462   0.007459341051357336   -0.047266595582172055
-0.5103078739620615   0.03743819447676887   0.017254143784190948
-0.5103078739620615   0.03743819447676887   0.017254143784190948
-0.5103078739620615   0.03743819447676887   0.017254143784190948
-0.5103078739620615   0.03743819447676887   0.017254143784190948
-0.4649187969954225   -0.07934812869525201   0.006814100984189997
-0.4649187969954225   -0.07934812869525201   0.006814100984189997
-0.4649187969954225   -0.07934812869525201   0.006814100984189997
-0.4649187969954225   -0.07934812869525201   0.006814100984189997
-0.2761758950359959   -0.0333231528656598   0.017087822703399508
-0.2761758950359959   -0.0333231528656598   0.017087822703399508
-0.2761758950359959   -0.0333231528656598   0.017087822703399508
-0.2761758950359959   -0.0333231528656598   0.017087822703399508
-0.26668249043909636   -0.0006725115086448959   0.002207273552270121
-0.26668249043909636   -0.0006725115086448959   0.002207273552270121
-0.26668249043909636   -0.0006725115086448959   0.002207273552270121
-0.26668249043909636   -0.0006725115086448959   0.002207273552270121
-0.45236433321983427   -0.03620533151653449   -0.004026770375558736
-0.45236433321983427   -0.03620533151653449   -0.004026770375558736
-0.45236433321983427   -0.03620533151653449   -0.004026770375558736
-0.45236433321983427   -0.03620533151653449   -0.004026770375558736
-0.3656155032113044   -0.0356394714991584   -0.010618921964101927
-0.3656155032113044   -0.0356394714991584   -0.010618921964101927
-0.3656155032113044   -0.0356394714991584   -0.010618921964101927
-0.3656155032113044   -0.0356394714991584   -0.010618921964101927
-0.4518269457401733   -0.038043241815060934   0.0004980773212668738
-0.4518269457401733   -0.038043241815060934   0.0004980773212668738
-0.4518269457401733   -0.038043241815060934   0.0004980773212668738
-0.4518269457401733   -0.038043241815060934   0.0004980773212668738
-0.2643332585764107   0.004052018132226859   0.009228903224824468
-0.2643332585764107   0.004052018132226859   0.009228903224824468
-0.2643332585764107   0.004052018132226859   0.009228903224824468
-0.2643332585764107   0.004052018132226859   0.009228903224824468
-0.25284142370819307   0.04099810133930962   -0.003667769554885264
-0.25284142370819307   0.04099810133930962   -0.003667769554885264
-0.25284142370819307   0.04099810133930962   -0.003667769554885264
-0.25284142370819307   0.04099810133930962   -0.003667769554885264
-0.4395967085228343   0.001702888536387507   -0.0117478218358016
-0.4395967085228343   0.001702888536387507   -0.0117478218358016
-0.4395967085228343   0.001702888536387507   -0.0117478218358016
-0.4395967085228343   0.001702888536387507   -0.0117478218358016
-0.3510169992455764   0.0018284774257158777   0.004990283430238537
-0.3510169992455764   0.0018284774257158777   0.004990283430238537
-0.3510169992455764   0.0018284774257158777   0.004990283430238537
-0.3510169992455764   0.0018284774257158777   0.004990283430238537
-0.43807197421849264   0.0035010773272373327   -0.005922339104947133
-0.43807197421849264   0.0035010773272373327   -0.005922339104947133
-0.43807197421849264   0.0035010773272373327   -0.005922339104947133
-0.43807197421849264   0.0035010773272373327   -0.005922339104947133
-0.25175575557936686   0.04181031498162665   0.0009483574469266662
-0.25175575557936686   0.04181031498162665   0.0009483574469266662
-0.25175575557936686   0.04181031498162665   0.0009483574469266662
-0.25175575557936686   0.04181031498162665   0.0009483574469266662
-0.23976846273478267   0.08305007107546368   -0.010371495486603925
-0.23976846273478267   0.08305007107546368   -0.010371495486603925
-0.23976846273478267   0.08305007107546368   -0.010371495486603925
-0.23976846273478267   0.08305007107546368   -0.010371495486603925
-0.4276209164698091   0.03990367465998122   -0.019998330171552614
-0.4276209164698091   0.03990367465998122   -0.019998330171552614
-0.4276209164698091   0.03990367465998122   -0.019998330171552614
-0.4276209164698091   0.03990367465998122   -0.019998330171552614
-0.33720717279256546   0.03943087719940216   0.01997145305527731
-0.33720717279256546   0.03943087719940216   0.01997145305527731
-0.33720717279256546   0.03943087719940216   0.01997145305527731
-0.33720717279256546   0.03943087719940216   0.01997145305527731
-0.299381104837455   -0.10671952678657284   -0.02554185238298798
-0.299381104837455   -0.10671952678657284   -0.02554185238298798
-0.299381104837455   -0.10671952678657284   -0.02554185238298798
-0.299381104837455   -0.10671952678657284   -0.02554185238298798
-0.09215284703331025   -0.0015686004170373975   0.04480683027167043
-0.09215284703331025   -0.0015686004170373975   0.04480683027167043
-0.09215284703331025   -0.0015686004170373975   0.04480683027167043
-0.09215284703331025   -0.0015686004170373975   0.04480683027167043
-0.10483088740510517   -0.03164853774121098   -0.0328713846458237
-0.10483088740510517   -0.03164853774121098   -0.0328713846458237
-0.10483088740510517   -0.03164853774121098   -0.0328713846458237
-0.10483088740510517   -0.03164853774121098   -0.0328713846458237
-0.2626772006068249   -0.004075817464487923   0.025637028669468077
-0.2626772006068249   -0.004075817464487923   0.025637028669468077
-0.2626772006068249   -0.004075817464487923   0.025637028669468077
-0.2626772006068249   -0.004075817464487923   0.025637028669468077
-0.18973212957939542   -0.034431415351612066   -0.007662735135585366
-0.18973212957939542   -0.034431415351612066   -0.007662735135585366
-0.18973212957939542   -0.034431415351612066   -0.007662735135585366
-0.18973212957939542   -0.034431415351612066   -0.007662735135585366
-0.28704582216761465   -0.06797802257028268   -0.032303874028688034
-0.28704582216761465   -0.06797802257028268   -0.032303874028688034
-0.28704582216761465   -0.06797802257028268   -0.032303874028688034
-0.28704582216761465   -0.06797802257028268   -0.032303874028688034
-0.07722754843838829   0.03548838477051822   0.03800838767603149
-0.07722754843838829   0.03548838477051822   0.03800838767603149
-0.07722754843838829   0.03548838477051822   0.03800838767603149
-0.07722754843838829   0.03548838477051822   0.03800838767603149
-0.0845999906456593   0.0077709767804907725   -0.0370047927495276
-0.0845999906456593   0.0077709767804907725   -0.0370047927495276
-0.0845999906456593   0.0077709767804907725   -0.0370047927495276
-0.0845999906456593   0.0077709767804907725   -0.0370047927495276
-0.25089527727909366   0.029962473393397214   0.01709859053652195
-0.25089527727909366   0.029962473393397214   0.01709859053652195
-0.25089527727909366   0.029962473393397214   0.01709859053652195
-0.25089527727909366   0.029962473393397214   0.01709859053652195
-0.17420677138447221   0.00046160166768496533   0.00824343123792206
-0.17420677138447221   0.00046160166768496533   0.00824343123792206
-0.17420677138447221   0.00046160166768496533   0.00824343123792206
-0.17420677138447221   0.00046160166768496533   0.00824343123792206
-0.27449051220986675   -0.030824325939362383   -0.040090784784585956
-0.27449051220986675   -0.030824325939362383   -0.040090784784585956
-0.27449051220986675   -0.030824325939362383   -0.040090784784585956
-0.27449051220986675   -0.030824325939362383   -0.040090784784585956
-0.05799369683735271   0.07156883499078352   0.03222881808171254
-0.05799369683735271   0.07156883499078352   0.03222881808171254
-0.05799369683735271   0.07156883499078352   0.03222881808171254
-0.05799369683735271   0.07156883499078352   0.03222881808171254
-0.06748636324852028   0.051796378472826504   -0.041452167953351056
-0.06748636324852028   0.051796378472826504   -0.041452167953351056
-0.06748636324852028   0.051796378472826504   -0.041452167953351056
-0.06748636324852028   0.051796378472826504   -0.041452167953351056
-0.2388338656022511   0.06848407400457748   0.008867487246939976
-0.2388338656022511   0.06848407400457748   0.008867487246939976
-0.2388338656022511   0.06848407400457748   0.008867487246939976
-0.2388338656022511   0.06848407400457748   0.008867487246939976
-0.15813150095309353   0.03684234172285703   0.024154539314791668
-0.15813150095309353   0.03684234172285703   0.024154539314791668
-0.15813150095309353   0.03684234172285703   0.024154539314791668
-0.15813150095309353   0.03684234172285703   0.024154539314791668
-0.13485514080558308   -0.11477225935754659   -0.055500979649186405
-0.13485514080558308   -0.11477225935754659   -0.055500979649186405
-0.13485514080558308   -0.11477225935754659   -0.055500979649186405
-0.13485514080558308   -0.11477225935754659   -0.055500979649186405
0.04699307609869083   0.03400850359988058   0.06829768078483978
0.04699307609869083   0.03400850359988058   0.06829768078483978
0.04699307609869083   0.03400850359988058   0.06829768078483978
0.04699307609869083   0.03400850359988058   0.06829768078483978
0.04736026208298966   -0.05644334349896958   -0.07348749561628035
0.04736026208298966   -0.05644334349896958   -0.07348749561628035
0.04736026208298966   -0.05644334349896958   -0.07348749561628035
0.04736026208298966   -0.05644334349896958   -0.07348749561628035
-0.07366727783402002   0.03540038439454592   0.05589774107384514
-0.07366727783402002   0.03540038439454592   0.05589774107384514
-0.07366727783402002   0.03540038439454592   0.05589774107384514
-0.07366727783402002   0.03540038439454592   0.05589774107384514
-0.030080268969589225   -0.024339496490452382   -0.013006843628884901
-0.030080268969589225   -0.024339496490452382   -0.013006843628884901
-0.030080268969589225   -0.024339496490452382   -0.013006843628884901
-0.030080268969589225   -0.024339496490452382   -0.013006843628884901
-0.12237902735544438   -0.08845485557595827   -0.06380576656277442
-0.12237902735544438   -0.08845485557595827   -0.06380576656277442
-0.12237902735544438   -0.08845485557595827   -0.06380576656277442
-0.12237902735544438   -0.08845485557595827   -0.06380576656277442
0.09953063113367604   0.07087051600079376   0.06005049013738825
0.09953063113367604   0.07087051600079376   0.06005049013738825
0.09953063113367604   0.07087051600079376   0.06005049013738825
0.09953063113367604   0.07087051600079376   0.06005049013738825
0.08607997345907323   -0.033865003980611   -0.08728968255515984
0.08607997345907323   -0.033865003980611   -0.08728968255515984
0.08607997345907323   -0.033865003980611   -0.08728968255515984
0.08607997345907323   -0.033865003980611   -0.08728968255515984
-0.05943123566409811   0.05178332138498605   0.04482663755378309
-0.05943123566409811   0.05178332138498605   0.04482663755378309
-0.05943123566409811   0.05178332138498605   0.04482663755378309
-0.05943123566409811   0.05178332138498605   0.04482663755378309
0.0017731385127561694   -0.001113078354872383   0.004234636647372581
0.0017731385127561694   -0.001113078354872383   0.004234636647372581
0.0017731385127561694   -0.001113078354872383   0.004234636647372581
0.0017731385127561694   -0.001113078354872383   0.004234636647372581
-0.10748615082417004   -0.06987767974878849   -0.07378693711280401
-0.10748615082417004   -0.06987767974878849   -0.07378693711280401
-0.10748615082417004   -0.06987767974878849   -0.07378693711280401
-0.10748615082417004   -0.06987767974878849   -0.07378693711280401
0.1375960619473003   0.09125717048131834   0.04516858542404615
0.1375960619473003   0.09125717048131834   0.04516858542404615
0.1375960619473003   0.09125717048131834   0.04516858542404615
0.1375960619473003   0.09125717048131834   0.04516858542404615
0.14032507827983967   0.010340244243859195   -0.09347243487158982
0.14032507827983967   0.010340244243859195   -0.09347243487158982
0.14032507827983967   0.010340244243859195   -0.09347243487158982
0.14032507827983967   0.010340244243859195   -0.09347243487158982
-0.04613041661733219   0.08069686378987995   0.03642707988553592
-0.04613041661733219   0.08069686378987995   0.03642707988553592
-0.04613041661733219   0.08069686378987995   0.03642707988553592
-0.04613041661733219   0.08069686378987995   0.03642707988553592
0.030446711945940418   0.023297686456983917   0.02108161628705915
0.030446711945940418   0.023297686456983917   0.02108161628705915
0.030446711945940418   0.023297686456983917   0.02108161628705915
0.030446711945940418   0.023297686456983917   0.02108161628705915
-0.2797735355304686   0.015873644441905296   0.07802487834105995
-0.2797735355304686   0.015873644441905296   0.07802487834105995
-0.2797735355304686   0.015873644441905296   0.07802487834105995
-0.2797735355304686   0.015873644441905296   0.07802487834105995
-0.3320326364213674   -0.10174488964262893   -0.04601054380288491
-0.3320326364213674   -0.10174488964262893   -0.04601054380288491
-0.3320326364213674   -0.10174488964262893   -0.04601054380288491
-0.3320326364213674   -0.10174488964262893   -0.04601054380288491
-0.2650858683114462   0.04730605535729334   0.06389371524543142
-0.2650858683114462   0.04730605535729334   0.06389371524543142
-0.2650858683114462   0.04730605535729334   0.06389371524543142
-0.2650858683114462   0.04730605535729334   0.06389371524543142
-0.2716648233617164   -0.06698577302880247   -0.059278843096981365
-0.2716648233617164   -0.06698577302880247   -0.059278843096981365
-0.2716648233617164   -0.06698577302880247   -0.059278843096981365
-0.2716648233617164   -0.06698577302880247   -0.059278843096981365
-0.279862157665412   -0.021529942984402323   -0.021316343620613187
-0.279862157665412   -0.021529942984402323   -0.021316343620613187
-0.279862157665412   -0.021529942984402323   -0.021316343620613187
-0.279862157665412   -0.021529942984402323   -0.021316343620613187
-0.22027174768692476   0.058025240735620556   0.07267552151254605
-0.22027174768692476   0.058025240735620556   0.07267552151254605
-0.22027174768692476   0.058025240735620556   0.07267552151254605
-0.22027174768692476   0.058025240735620556   0.07267552151254605
-0.31326210185452424   -0.07448811627541681   -0.05519328083724517
-0.31326210185452424   -0.07448811627541681   -0.05519328083724517
-0.31326210185452424   -0.07448811627541681   -0.05519328083724517
-0.31326210185452424   -0.07448811627541681   -0.05519328083724517
-0.2444051489093691   0.06524273866547331   0.05377530573956166
-0.2444051489093691   0.06524273866547331   0.05377530573956166
-0.2444051489093691   0.06524273866547331   0.05377530573956166
-0.2444051489093691   0.06524273866547331   0.05377530573956166
-0.22740416944115494   -0.04671499123713399   -0.07385133841616638
-0.22740416944115494   -0.04671499123713399   -0.07385133841616638
-0.22740416944115494   -0.04671499123713399   -0.07385133841616638
-0.22740416944115494   -0.04671499123713399   -0.07385133841616638
-0.24720880617809318   0.0013906381958360171   -0.004411241250019363
-0.24720880617809318   0.0013906381958360171   -0.004411241250019363
-0.24720880617809318   0.0013906381958360171   -0.004411241250019363
-0.24720880617809318   0.0013906381958360171   -0.004411241250019363
-0.17571021847601972   0.07983945719892167   0.05806396797345412
-0.17571021847601972   0.07983945719892167   0.05806396797345412
-0.17571021847601972   0.07983945719892167   0.05806396797345412
-0.17571021847601972   0.07983945719892167   0.05806396797345412
-0.2930642470389897   -0.0582768569350671   -0.06600058930799718
-0.2930642470389897   -0.0582768569350671   -0.06600058930799718
-0.2930642470389897   -0.0582768569350671   -0.06600058930799718
-0.2930642470389897   -0.0582768569350671   -0.06600058930799718
-0.22548100421127942   0.09262768067322627   0.046446351154839007
-0.22548100421127942   0.09262768067322627   0.046446351154839007
-0.22548100421127942   0.09262768067322627   0.046446351154839007
-0.22548100421127942   0.09262768067322627   0.046446351154839007
-0.16832637438595088   -0.008181976758650126   -0.08319826651060569
-0.16832637438595088   -0.008181976758650126   -0.08319826651060569
-0.16832637438595088   -0.008181976758650126   -0.08319826651060569
-0.16832637438595088   -0.008181976758650126   -0.08319826651060569
-0.20793993640913574   0.02533090541859385   0.013693321252251534
-0.20793993640913574   0.02533090541859385   0.013693321252251534
-0.20793993640913574   0.02533090541859385   0.013693321252251534
-0.20793993640913574   0.02533090541859385   0.013693321252251534
-0.29727831091727774   -0.018314851314899974   0.044331045389826434
-0.29727831091727774   -0.018314851314899974   0.044331045389826434
-0.29727831091727774   -0.018314851314899974   0.044331045389826434
-0.29727831091727774   -0.018314851314899974   0.044331045389826434
-0.36864823611430475   -0.08298980416877252   -0.017977157352513318
-0.36864823611430475   -0.08298980416877252   -0.017977157352513318
-0.36864823611430475   -0.08298980416877252   -0.017977157352513318
-0.36864823611430475   -0.08298980416877252   -0.017977157352513318
-0.3285987028686142   0.008398379425847181   0.02964709788316236
-0.3285987028686142   0.008398379425847181   0.02964709788316236
-0.3285987028686142   0.008398379425847181   0.02964709788316236
-0.3285987028686142   0.008398379425847181   0.02964709788316236
-0.30062555152411063   -0.03926541380473837   -0.02723323165585545
-0.30062555152411063   -0.03926541380473837   -0.02723323165585545
-0.30062555152411063   -0.03926541380473837   -0.02723323165585545
-0.30062555152411063   -0.03926541380473837   -0.02723323165585545
-0.32401225154151386   -0.030513716665676073   -0.01501689877369835
-0.32401225154151386   -0.030513716665676073   -0.01501689877369835
-0.32401225154151386   -0.030513716665676073   -0.01501689877369835
-0.32401225154151386   -0.030513716665676073   -0.01501689877369835
-0.27541855597685727   0.02084354640224996   0.03869278587341935
-0.27541855597685727   0.02084354640224996   0.03869278587341935
-0.27541855597685727   0.02084354640224996   0.03869278587341935
-0.27541855597685727   0.02084354640224996   0.03869278587341935
-0.35128661302042513   -0.049191495385699995   -0.026202578064349044
-0.35128661302042513   -0.049191495385699995   -0.026202578064349044
-0.35128661302042513   -0.049191495385699995   -0.026202578064349044
-0.35128661302042513   -0.049191495385699995   -0.026202578064349044
-0.31013009647217005   0.04408070820535154   0.022621064508124067
-0.31013009647217005   0.04408070820535154   0.022621064508124067
-0.31013009647217005   0.04408070820535154   0.022621064508124067
-0.31013009647217005   0.04408070820535154   0.022621064508124067
-0.2759420902255683   -0.0048625057663224105   -0.033804156409635105
-0.2759420902255683   -0.0048625057663224105   -0.033804156409635105
-0.2759420902255683   -0.0048625057663224105   -0.033804156409635105
-0.2759420902255683   -0.0048625057663224105   -0.033804156409635105
-0.3019571538418623   0.002793071547878348   0.0005898321207361973
-0.3019571538418623   0.002793071547878348   0.0005898321207361973
-0.3019571538418623   0.002793071547878348   0.0005898321207361973
-0.3019571538418623   0.002793071547878348   0.0005898321207361973
-0.24950986130580388   0.05864953235131014   0.03484495007155089
-0.24950986130580388   0.05864953235131014   0.03484495007155089
-0.24950986130580388   0.05864953235131014   0.03484495007155089
-0.24950986130580388   0.05864953235131014   0.03484495007155089
-0.33387736193046624   -0.01674636645081367   -0.0352881881271935
-0.33387736193046624   -0.01674636645081367   -0.0352881881271935
-0.33387736193046624   -0.01674636645081367   -0.0352881881271935
-0.33387736193046624   -0.01674636645081367   -0.0352881881271935
-0.2915725866319699   0.08356223194697271   0.01594304725341275
-0.2915725866319699   0.08356223194697271   0.01594304725341275
-0.2915725866319699   0.08356223194697271   0.01594304725341275
-0.2915725866319699   0.08356223194697271   0.01594304725341275
-0.25463377459502945   0.033307752784592165   -0.03999757287527328
-0.25463377459502945   0.033307752784592165   -0.03999757287527328
-0.25463377459502945   0.033307752784592165   -0.03999757287527328
-0.25463377459502945   0.033307752784592165   -0.03999757287527328
-0.28110669711950886   0.03717567222115387   0.016469377830502646
-0.28110669711950886   0.03717567222115387   0.016469377830502646
-0.28110669711950886   0.03717567222115387   0.016469377830502646
-0.28110669711950886   0.03717567222115387   0.016469377830502646
-0.3560104864076679   -0.05021939856524119   0.012441185577133945
-0.3560104864076679   -0.05021939856524119   0.012441185577133945
-0.3560104864076679   -0.05021939856524119   0.012441185577133945
-0.3560104864076679   -0.05021939856524119   0.012441185577133945
-0.40516773189697214   -0.05234874837204488   0.010879386301467259
-0.40516773189697214   -0.05234874837204488   0.010879386301467259
-0.40516773189697214   -0.05234874837204488   0.010879386301467259
-0.40516773189697214   -0.05234874837204488   0.010879386301467259
-0.3903582839121307   -0.023766221332938674   -0.0038372687652832166
-0.3903582839121307   -0.023766221332938674   -0.0038372687652832166
-0.3903582839121307   -0.023766221332938674   -0.0038372687652832166
-0.3903582839121307   -0.023766221332938674   -0.0038372687652832166
-0.336924404956242   -0.007123835701655742   0.0035408025725226083
-0.336924404956242   -0.007123835701655742   0.0035408025725226083
-0.336924404956242   -0.007123835701655742   0.0035408025725226083
-0.336924404956242   -0.007123835701655742   0.0035408025725226083
-0.37267323889017706   -0.031472849257662056   -0.009960002956027808
-0.37267323889017706   -0.031472849257662056   -0.009960002956027808
-0.37267323889017706   -0.031472849257662056   -0.009960002956027808
-0.37267323889017706   -0.031472849257662056   -0.009960002956027808
-0.3372020449882302   -0.011134805377430983   0.00616357208835476
-0.3372020449882302   -0.011134805377430983   0.00616357208835476
-0.3372020449882302   -0.011134805377430983   0.00616357208835476
-0.3372020449882302   -0.011134805377430983   0.00616357208835476
-0.3877061518579892   -0.017380759635010467   0.003037929807496162
-0.3877061518579892   -0.017380759635010467   0.003037929807496162
-0.3877061518579892   -0.017380759635010467   0.003037929807496162
-0.3877061518579892   -0.017380759635010467   0.003037929807496162
-0.3709604147734475   0.01583158888043717   -0.00974061386494006
-0.3709604147734475   0.01583158888043717   -0.00974061386494006
-0.3709604147734475   0.01583158888043717   -0.00974061386494006
-0.3709604147734475   0.01583158888043717   -0.00974061386494006
-0.3185181603561634   0.02881003478988623   -0.004048581496379461
-0.3185181603561634   0.02881003478988623   -0.004048581496379461
-0.3185181603561634   0.02881003478988623   -0.004048581496379461
-0.3185181603561634   0.02881003478988623   -0.004048581496379461
-0.3524105413297679   0.003927472398340889   0.005446686527130901
-0.3524105413297679   0.003927472398340889   0.005446686527130901
-0.3524105413297679   0.003927472398340889   0.005446686527130901
-0.3524105413297679   0.003927472398340889   0.005446686527130901
-0.31787913646136967   0.02832273489111292   -0.00036616212363917156
-0.31787913646136967   0.02832273489111292   -0.00036616212363917156
-0.31787913646136967   0.02832273489111292   -0.00036616212363917156
-0.31787913646136967   0.02832273489111292   -0.00036616212363917156
-0.3695285929764264   0.018389734471024502   -0.005139650470425167
-0.3695285929764264   0.018389734471024502   -0.005139650470425167
-0.3695285929764264   0.018389734471024502   -0.005139650470425167
-0.3695285929764264   0.018389734471024502   -0.005139650470425167
-0.35238679378362   0.055668940201541374   -0.01640612514994101
-0.35238679378362   0.055668940201541374   -0.01640612514994101
-0.35238679378362   0.055668940201541374   -0.01640612514994101
-0.35238679378362   0.055668940201541374   -0.01640612514994101
-0.30097133976858265   0.06489101993498105   -0.012379506417657837
-0.30097133976858265   0.06489101993498105   -0.012379506417657837
-0.30097133976858265   0.06489101993498105   -0.012379506417657837
-0.30097133976858265   0.06489101993498105   -0.012379506417657837
-0.3330828364695439   0.03939215628799746   0.020132686522371337
-0.3330828364695439   0.03939215628799746   0.020132686522371337
-0.3330828364695439   0.03939215628799746   0.020132686522371337
-0.3330828364695439   0.03939215628799746   0.020132686522371337
-0.4168353340867802   -0.07952328207166322   -0.020284090947958036
-0.4168353340867802   -0.07952328207166322   -0.020284090947958036
-0.4168353340867802   -0.07952328207166322   -0.020284090947958036
-0.4168353340867802   -0.07952328207166322   -0.020284090947958036
-0.4447716298026973   -0.0223409665085225   0.03846189930697344
-0.4447716298026973   -0.0223409665085225   0.03846189930697344
-0.4447716298026973   -0.0223409665085225   0.03846189930697344
-0.4447716298026973   -0.0223409665085225   0.03846189930697344
-0.45190243923807416   -0.054598067231048306   -0.037748981532084544
-0.45190243923807416   -0.054598067231048306   -0.037748981532084544
-0.45190243923807416   -0.054598067231048306   -0.037748981532084544
-0.45190243923807416   -0.054598067231048306   -0.037748981532084544
-0.37358099333327577   0.02384706592286492   0.03243589687318772
-0.37358099333327577   0.02384706592286492   0.03243589687318772
-0.37358099333327577   0.02384706592286492   0.03243589687318772
-0.37358099333327577   0.02384706592286492   0.03243589687318772
-0.42002432377767823   -0.031005145234395848   -0.006257593453597193
-0.42002432377767823   -0.031005145234395848   -0.006257593453597193
-0.42002432377767823   -0.031005145234395848   -0.006257593453597193
-0.42002432377767823   -0.031005145234395848   -0.006257593453597193
-0.3985369375925827   -0.04172876857969182   -0.02676798992079367
-0.3985369375925827   -0.04172876857969182   -0.02676798992079367
-0.3985369375925827   -0.04172876857969182   -0.02676798992079367
-0.3985369375925827   -0.04172876857969182   -0.02676798992079367
-0.42445661028395476   0.013467651966315254   0.03141444404114904
-0.42445661028395476   0.013467651966315254   0.03141444404114904
-0.42445661028395476   0.013467651966315254   0.03141444404114904
-0.42445661028395476   0.013467651966315254   0.03141444404114904
-0.42649533239643395   -0.017047734324282804   -0.042352392934537846
-0.42649533239643395   -0.017047734324282804   -0.042352392934537846
-0.42649533239643395   -0.017047734324282804   -0.042352392934537846
-0.42649533239643395   -0.017047734324282804   -0.042352392934537846
-0.3561101083619444   0.05625768053275246   0.024084826540256912
-0.3561101083619444   0.05625768053275246   0.024084826540256912
-0.3561101083619444   0.05625768053275246   0.024084826540256912
-0.3561101083619444   0.05625768053275246   0.024084826540256912
-0.39701184393731975   0.0030818297835865163   0.009644089968734365
-0.39701184393731975   0.0030818297835865163   0.009644089968734365
-0.39701184393731975   0.0030818297835865163   0.009644089968734365
-0.39701184393731975   0.0030818297835865163   0.009644089968734365
-0.3802931063327212   -0.006209422567340188   -0.03436306021353756
-0.3802931063327212   -0.006209422567340188   -0.03436306021353756
-0.3802931063327212   -0.006209422567340188   -0.03436306021353756
-0.3802931063327212   -0.006209422567340188   -0.03436306021353756
-0.3997959825877901   0.04793572061367736   0.026160901170727155
-0.3997959825877901   0.04793572061367736   0.026160901170727155
-0.3997959825877901   0.04793572061367736   0.026160901170727155
-0.3997959825877901   0.04793572061367736   0.026160901170727155
-0.4042599693316881   0.024330953256499664   -0.04647201276401208
-0.4042599693316881   0.024330953256499664   -0.04647201276401208
-0.4042599693316881   0.024330953256499664   -0.04647201276401208
-0.4042599693316881   0.024330953256499664   -0.04647201276401208
-0.3385909616756242   0.09239337224670656   0.01584860334487244
-0.3385909616756242   0.09239337224670656   0.01584860334487244
-0.3385909616756242   0.09239337224670656   0.01584860334487244
-0.3385909616756242   0.09239337224670656   0.01584860334487244
-0.3774531517525052   0.03691844669938555   0.024852585097018876
-0.3774531517525052   0.03691844669938555   0.024852585097018876
-0.3774531517525052   0.03691844669938555   0.024852585097018876
-0.3774531517525052   0.03691844669938555   0.024852585097018876
-0.4770782759623975   -0.09462313547443016   -0.05078916252562557
-0.4770782759623975   -0.09462313547443016   -0.05078916252562557
-0.4770782759623975   -0.09462313547443016   -0.05078916252562557
-0.4770782759623975   -0.09462313547443016   -0.05078916252562557
-0.5272238758230513   0.00739637873509006   0.0691588081550858
-0.5272238758230513   0.00739637873509006   0.0691588081550858
-0.5272238758230513   0.00739637873509006   0.0691588081550858
-0.5272238758230513   0.00739637873509006   0.0691588081550858
-0.5200673947851467   -0.07858584378419692   -0.06763328286874246
-0.5200673947851467   -0.07858584378419692   -0.06763328286874246
-0.5200673947851467   -0.07858584378419692   -0.06763328286874246
-0.5200673947851467   -0.07858584378419692   -0.06763328286874246
-0.409105778248124   0.05964416105584983   0.061992095130762565
-0.409105778248124   0.05964416105584983   0.061992095130762565
-0.409105778248124   0.05964416105584983   0.061992095130762565
-0.409105778248124   0.05964416105584983   0.061992095130762565
-0.4640078574625417   -0.020294168372936645   -0.0031293089336801583
-0.4640078574625417   -0.020294168372936645   -0.0031293089336801583
-0.4640078574625417   -0.020294168372936645   -0.0031293089336801583
-0.4640078574625417   -0.020294168372936645   -0.0031293089336801583
-0.4578948904959986   -0.06423878946931007   -0.058070515583456224
-0.4578948904959986   -0.06423878946931007   -0.058070515583456224
-0.4578948904959986   -0.06423878946931007   -0.058070515583456224
-0.4578948904959986   -0.06423878946931007   -0.058070515583456224
-0.4686460440204062   0.047929345257832975   0.06295828191292979
-0.4686460440204062   0.047929345257832975   0.06295828191292979
-0.4686460440204062   0.047929345257832975   0.06295828191292979
-0.4686460440204062   0.047929345257832975   0.06295828191292979
-0.47621666554284453   -0.05666011102201538   -0.0806050946024777
-0.47621666554284453   -0.05666011102201538   -0.0806050946024777
-0.47621666554284453   -0.05666011102201538   -0.0806050946024777
-0.47621666554284453   -0.05666011102201538   -0.0806050946024777
-0.38944987926236496   0.07508739879943442   0.050739739612090065
-0.38944987926236496   0.07508739879943442   0.050739739612090065
-0.38944987926236496   0.07508739879943442   0.050739739612090065
-0.38944987926236496   0.07508739879943442   0.050739739612090065
-0.43429638552706235   0.002615608774167156   0.012132970213189612
-0.43429638552706235   0.002615608774167156   0.012132970213189612
-0.43429638552706235   0.002615608774167156   0.012132970213189612
-0.43429638552706235   0.002615608774167156   0.012132970213189612
-0.4372897767557214   -0.04619015346261751   -0.06718219559264217
-0.4372897767557214   -0.04619015346261751   -0.06718219559264217
-0.4372897767557214   -0.04619015346261751   -0.06718219559264217
-0.4372897767557214   -0.04619015346261751   -0.06718219559264217
-0.4256184971050745   0.0673757121844556   0.04834992437990547
-0.4256184971050745   0.0673757121844556   0.04834992437990547
-0.4256184971050745   0.0673757121844556   0.04834992437990547
-0.4256184971050745   0.0673757121844556   0.04834992437990547
-0.4186834128974398   -0.018715521011960282   -0.08808184784355759
-0.4186834128974398   -0.018715521011960282   -0.08808184784355759
-0.4186834128974398   -0.018715521011960282   -0.08808184784355759
-0.4186834128974398   -0.018715521011960282   -0.08808184784355759
-0.3718436748090293   0.09814682875169835   0.04179358435408351
-0.3718436748090293   0.09814682875169835   0.04179358435408351
-0.3718436748090293   0.09814682875169835   0.04179358435408351
-0.3718436748090293   0.09814682875169835   0.04179358435408351
-0.39371483984678124   0.025514897665105122   0.02979402482737563
-0.39371483984678124   0.025514897665105122   0.02979402482737563
-0.39371483984678124   0.025514897665105122   0.02979402482737563
-0.39371483984678124   0.025514897665105122   0.02979402482737563
0.2886165255843432   0.04668954976946706   0.07551249125188446
0.2886165255843432   0.04668954976946706   0.07551249125188446
0.2886165255843432   0.04668954976946706   0.07551249125188446
0.2886165255843432   0.04668954976946706   0.07551249125188446
-0.0071658829816902735   -0.12138377224909123   -0.04989549441647206
-0.0071658829816902735   -0.12138377224909123   -0.04989549441647206
-0.0071658829816902735   -0.12138377224909123   -0.04989549441647206
-0.0071658829816902735   -0.12138377224909123   -0.04989549441647206
0.06428467257598033   0.02372945204495337   0.05834778633410109
0.06428467257598033   0.02372945204495337   0.05834778633410109
0.06428467257598033   0.02372945204495337   0.05834778633410109
0.06428467257598033   0.02372945204495337   0.05834778633410109
0.3011977976316971   -0.04261865219781577   -0.062436983768146145
0.3011977976316971   -0.04261865219781577   -0.062436983768146145
0.3011977976316971   -0.04261865219781577   -0.062436983768146145
0.3011977976316971   -0.04261865219781577   -0.062436983768146145
0.14726207158875304   -0.0236196472061633   -0.035952473500681856
0.14726207158875304   -0.0236196472061633   -0.035952473500681856
0.14726207158875304   -0.0236196472061633   -0.035952473500681856
0.14726207158875304   -0.0236196472061633   -0.035952473500681856
0.3525030981338851   0.08333146099892477   0.06813940554605338
0.3525030981338851   0.08333146099892477   0.06813940554605338
0.3525030981338851   0.08333146099892477   0.06813940554605338
0.3525030981338851   0.08333146099892477   0.06813940554605338
0.016129931996522975   -0.09907010122905588   -0.059626363289172625
0.016129931996522975   -0.09907010122905588   -0.059626363289172625
0.016129931996522975   -0.09907010122905588   -0.059626363289172625
0.016129931996522975   -0.09907010122905588   -0.059626363289172625
0.09037436401628614   0.04135136484998704   0.04870190856199769
0.09037436401628614   0.04135136484998704   0.04870190856199769
0.09037436401628614   0.04135136484998704   0.04870190856199769
0.09037436401628614   0.04135136484998704   0.04870190856199769
0.35109718815625446   -0.022710346091006937   -0.07812543143492665
0.35109718815625446   -0.022710346091006937   -0.07812543143492665
0.35109718815625446   -0.022710346091006937   -0.07812543143492665
0.35109718815625446   -0.022710346091006937   -0.07812543143492665
0.19228513691472537   -0.0016428039249259518   -0.016881483918322455
0.19228513691472537   -0.0016428039249259518   -0.016881483918322455
0.19228513691472537   -0.0016428039249259518   -0.016881483918322455
0.19228513691472537   -0.0016428039249259518   -0.016881483918322455
0.4029713579717804   0.10486449686585465   0.05367057468584152
0.4029713579717804   0.10486449686585465   0.05367057468584152
0.4029713579717804   0.10486449686585465   0.05367057468584152
0.4029713579717804   0.10486449686585465   0.05367057468584152
0.041584356806980444   -0.08313931550065368   -0.07075744713388628
0.041584356806980444   -0.08313931550065368   -0.07075744713388628
0.041584356806980444   -0.08313931550065368   -0.07075744713388628
0.041584356806980444   -0.08313931550065368   -0.07075744713388628
0.11569675534324265   0.07369135312542542   0.04214525318054779
0.11569675534324265   0.07369135312542542   0.04214525318054779
0.11569675534324265   0.07369135312542542   0.04214525318054779
0.11569675534324265   0.07369135312542542   0.04214525318054779
0.4173297172688868   0.02185299203365436   -0.08616443748830113
0.4173297172688868   0.02185299203365436   -0.08616443748830113
0.4173297172688868   0.02185299203365436   -0.08616443748830113
0.4173297172688868   0.02185299203365436   -0.08616443748830113
0.23010884924637953   0.02297724146609799   0.0011587603174111408
0.23010884924637953   0.02297724146609799   0.0011587603174111408
0.23010884924637953   0.02297724146609799   0.0011587603174111408
0.23010884924637953   0.02297724146609799   0.0011587603174111408
0.03984447703894475   0.012548897183257125   0.05122363625435473
0.03984447703894475   0.012548897183257125   0.05122363625435473
0.03984447703894475   0.012548897183257125   0.05122363625435473
0.03984447703894475   0.012548897183257125   0.05122363625435473
-0.274800005711274   -0.10304192439925697   -0.022886648997402934
-0.274800005711274   -0.10304192439925697   -0.022886648997402934
-0.274800005711274   -0.10304192439925697   -0.022886648997402934
-0.274800005711274   -0.10304192439925697   -0.022886648997402934
-0.2296907988950853   -0.01494724871119292   0.023422841182846495
-0.2296907988950853   -0.01494724871119292   0.023422841182846495
-0.2296907988950853   -0.01494724871119292   0.023422841182846495
-0.2296907988950853   -0.01494724871119292   0.023422841182846495
0.04184953718030085   -0.011902318887569603   -0.018196119711769508
0.04184953718030085   -0.011902318887569603   -0.018196119711769508
0.04184953718030085   -0.011902318887569603   -0.018196119711769508
0.04184953718030085   -0.011902318887569603   -0.018196119711769508
-0.1079613854515836   -0.026696713490952914   -0.017291369508885546
-0.1079613854515836   -0.026696713490952914   -0.017291369508885546
-0.1079613854515836   -0.026696713490952914   -0.017291369508885546
-0.1079613854515836   -0.026696713490952914   -0.017291369508885546
0.06670555700574324   0.048736488614981074   0.04544517191288791
0.06670555700574324   0.048736488614981074   0.04544517191288791
0.06670555700574324   0.048736488614981074   0.04544517191288791
0.06670555700574324   0.048736488614981074   0.04544517191288791
-0.2522549662316859   -0.07329420372490245   -0.031051040486446982
-0.2522549662316859   -0.07329420372490245   -0.031051040486446982
-0.2522549662316859   -0.07329420372490245   -0.031051040486446982
-0.2522549662316859   -0.07329420372490245   -0.031051040486446982
-0.20589854148555928   0.019218439924540885   0.016557023304672305
-0.20589854148555928   0.019218439924540885   0.016557023304672305
-0.20589854148555928   0.019218439924540885   0.016557023304672305
-0.20589854148555928   0.019218439924540885   0.016557023304672305
0.07154690725932872   0.02053744801500139   -0.024621458387800024
0.07154690725932872   0.02053744801500139   -0.024621458387800024
0.07154690725932872   0.02053744801500139   -0.024621458387800024
0.07154690725932872   0.02053744801500139   -0.024621458387800024
-0.0827449698427264   0.003455721374499353   -0.0020922649341095934
-0.0827449698427264   0.003455721374499353   -0.0020922649341095934
-0.0827449698427264   0.003455721374499353   -0.0020922649341095934
-0.0827449698427264   0.003455721374499353   -0.0020922649341095934
0.09744700343974701   0.08471619862877124   0.04070027190051783
0.09744700343974701   0.08471619862877124   0.04070027190051783
0.09744700343974701   0.08471619862877124   0.04070027190051783
0.09744700343974701   0.08471619862877124   0.04070027190051783
-0.22959377800266906   -0.04275545102592109   -0.039945268330414646
-0.22959377800266906   -0.04275545102592109   -0.039945268330414646
-0.22959377800266906   -0.04275545102592109   -0.039945268330414646
-0.22959377800266906   -0.04275545102592109   -0.039945268330414646
-0.18196610174945377   0.05784319725895448   0.010011976650962626
-0.18196610174945377   0.05784319725895448   0.010011976650962626
-0.18196610174945377   0.05784319725895448   0.010011976650962626
-0.18196610174945377   0.05784319725895448   0.010011976650962626
0.09770218432660002   0.05730814146049299   -0.03144439023773304
0.09770218432660002   0.05730814146049299   -0.03144439023773304
0.09770218432660002   0.05730814146049299   -0.03144439023773304
0.09770218432660002   0.05730814146049299   -0.03144439023773304
-0.0548712699764147   0.036733351352833024   0.014106748428772903
-0.0548712699764147   0.036733351352833024   0.014106748428772903
-0.0548712699764147   0.036733351352833024   0.014106748428772903
-0.0548712699764147   0.036733351352833024   0.014106748428772903
-0.24988827574350442   -0.019785599261011123   0.018415675703199033
-0.24988827574350442   -0.019785599261011123   0.018415675703199033
-0.24988827574350442   -0.019785599261011123   0.018415675703199033
-0.24988827574350442   -0.019785599261011123   0.018415675703199033
-0.5375954857023469   -0.07314960787994251   0.004763389587296274
-0.5375954857023469   -0.07314960787994251   0.004763389587296274
-0.5375954857023469   -0.07314960787994251   0.004763389587296274
-0.5375954857023469   -0.07314960787994251   0.004763389587296274
-0.516751332864693   -0.04582385275144173   -0.010132354767956278
-0.516751332864693   -0.04582385275144173   -0.010132354767956278
-0.516751332864693   -0.04582385275144173   -0.010132354767956278
-0.516751332864693   -0.04582385275144173   -0.010132354767956278
-0.22528203359585308   0.019078407218571774   0.011441011749246992
-0.22528203359585308   0.019078407218571774   0.011441011749246992
-0.22528203359585308   0.019078407218571774   0.011441011749246992
-0.22528203359585308   0.019078407218571774   0.011441011749246992
-0.3829384749944956   -0.02746867522872338   -0.01005854605785006
-0.3829384749944956   -0.02746867522872338   -0.01005854605785006
-0.3829384749944956   -0.02746867522872338   -0.01005854605785006
-0.3829384749944956   -0.02746867522872338   -0.01005854605785006
-0.22558270587936202   0.01686629592439213   0.012149761625882008
-0.22558270587936202   0.01686629592439213   0.012149761625882008
-0.22558270587936202   0.01686629592439213   0.012149761625882008
-0.22558270587936202   0.01686629592439213   0.012149761625882008
-0.5144863072716831   -0.04164738814776192   -0.002983691406591396
-0.5144863072716831   -0.04164738814776192   -0.002983691406591396
-0.5144863072716831   -0.04164738814776192   -0.002983691406591396
-0.5144863072716831   -0.04164738814776192   -0.002983691406591396
-0.49173626772616086   -0.008210686117352536   -0.015934078662606585
-0.49173626772616086   -0.008210686117352536   -0.015934078662606585
-0.49173626772616086   -0.008210686117352536   -0.015934078662606585
-0.49173626772616086   -0.008210686117352536   -0.015934078662606585
-0.20172483524075333   0.052441806663772225   0.004202187789474482
-0.20172483524075333   0.052441806663772225   0.004202187789474482
-0.20172483524075333   0.052441806663772225   0.004202187789474482
-0.20172483524075333   0.052441806663772225   0.004202187789474482
-0.357113126337589   0.005573439450479969   0.005250782566471782
-0.357113126337589   0.005573439450479969   0.005250782566471782
-0.357113126337589   0.005573439450479969   0.005250782566471782
-0.357113126337589   0.005573439450479969   0.005250782566471782
-0.20112627661559643   0.054187904460906565   0.005448883118124512
-0.20112627661559643   0.054187904460906565   0.005448883118124512
-0.20112627661559643   0.054187904460906565   0.005448883118124512
-0.20112627661559643   0.054187904460906565   0.005448883118124512
-0.49076614078763087   -0.008388098350800729   -0.010906031736512778
-0.49076614078763087   -0.008388098350800729   -0.010906031736512778
-0.49076614078763087   -0.008388098350800729   -0.010906031736512778
-0.49076614078763087   -0.008388098350800729   -0.010906031736512778
-0.46773154371770687   0.029503378048031968   -0.022557511903279023
-0.46773154371770687   0.029503378048031968   -0.022557511903279023
-0.46773154371770687   0.029503378048031968   -0.022557511903279023
-0.46773154371770687   0.029503378048031968   -0.022557511903279023
-0.17918269262881292   0.08590348380298712   -0.0041312642898617795
-0.17918269262881292   0.08590348380298712   -0.0041312642898617795
-0.17918269262881292   0.08590348380298712   -0.0041312642898617795
-0.17918269262881292   0.08590348380298712   -0.0041312642898617795
-0.33263199145850836   0.03852363272698883   0.019560682212224303
-0.33263199145850836   0.03852363272698883   0.019560682212224303
-0.33263199145850836   0.03852363272698883   0.019560682212224303
-0.33263199145850836   0.03852363272698883   0.019560682212224303
-0.5373248072859392   -0.05162545592390522   -0.015407370286698238
-0.5373248072859392   -0.05162545592390522   -0.015407370286698238
-0.5373248072859392   -0.05162545592390522   -0.015407370286698238
-0.5373248072859392   -0.05162545592390522   -0.015407370286698238
-0.7975780366648139   -0.04505839828754209   0.03191762565887499
-0.7975780366648139   -0.04505839828754209   0.03191762565887499
-0.7975780366648139   -0.04505839828754209   0.03191762565887499
-0.7975780366648139   -0.04505839828754209   0.03191762565887499
-0.7977603403031431   -0.07605157577502952   -0.04287796464641713
-0.7977603403031431   -0.07605157577502952   -0.04287796464641713
-0.7977603403031431   -0.07605157577502952   -0.04287796464641713
-0.7977603403031431   -0.07605157577502952   -0.04287796464641713
-0.48803008137096193   0.04861971493307592   0.039030335016176976
-0.48803008137096193   0.04861971493307592   0.039030335016176976
-0.48803008137096193   0.04861971493307592   0.039030335016176976
-0.48803008137096193   0.04861971493307592   0.039030335016176976
-0.6515134151055033   -0.027832069385525474   -0.004227945922101434
-0.6515134151055033   -0.027832069385525474   -0.004227945922101434
-0.6515134151055033   -0.027832069385525474   -0.004227945922101434
-0.6515134151055033   -0.027832069385525474   -0.004227945922101434
-0.512808046700632   -0.014777899554218665   -0.021461877144874034
-0.512808046700632   -0.014777899554218665   -0.021461877144874034
-0.512808046700632   -0.014777899554218665   -0.021461877144874034
-0.512808046700632   -0.014777899554218665   -0.021461877144874034
-0.7713605567416935   -0.011032143055948351   0.02410152044175648
-0.7713605567416935   -0.011032143055948351   0.02410152044175648
-0.7713605567416935   -0.011032143055948351   0.02410152044175648
-0.7713605567416935   -0.011032143055948351   0.02410152044175648
-0.7664368713194714   -0.04016631779025812   -0.047708402117268955
-0.7664368713194714   -0.04016631779025812   -0.047708402117268955
-0.7664368713194714   -0.04016631779025812   -0.047708402117268955
-0.7664368713194714   -0.04016631779025812   -0.047708402117268955
-0.46489771434144983   0.07898708111215683   0.03106092103143901
-0.46489771434144983   0.07898708111215683   0.03106092103143901
-0.46489771434144983   0.07898708111215683   0.03106092103143901
-0.46489771434144983   0.07898708111215683   0.03106092103143901
-0.6205589648073119   0.005473027635400141   0.011543236358926623
-0.6205589648073119   0.005473027635400141   0.011543236358926623
-0.6205589648073119   0.005473027635400141   0.011543236358926623
-0.6205589648073119   0.005473027635400141   0.011543236358926623
-0.4888551113758139   0.01911993168023521   -0.028858914708459762
-0.4888551113758139   0.01911993168023521   -0.028858914708459762
-0.4888551113758139   0.01911993168023521   -0.028858914708459762
-0.4888551113758139   0.01911993168023521   -0.028858914708459762
-0.7406551073965846   0.021525198530186168   0.019508901176720495
-0.7406551073965846   0.021525198530186168   0.019508901176720495
-0.7406551073965846   0.021525198530186168   0.019508901176720495
-0.7406551073965846   0.021525198530186168   0.019508901176720495
-0.7384121527984395   -0.0010109187975674942   -0.05135166075365173
-0.7384121527984395   -0.0010109187975674942   -0.05135166075365173
-0.7384121527984395   -0.0010109187975674942   -0.05135166075365173
-0.7384121527984395   -0.0010109187975674942   -0.05135166075365173
-0.4420053331231663   0.11254430804242989   0.023032611075026257
-0.4420053331231663   0.11254430804242989   0.023032611075026257
-0.4420053331231663   0.11254430804242989   0.023032611075026257
-0.4420053331231663   0.11254430804242989   0.023032611075026257
-0.597356888196198   0.03655013568659722   0.02568293369072927
-0.597356888196198   0.03655013568659722   0.02568293369072927
-0.597356888196198   0.03655013568659722   0.02568293369072927
-0.597356888196198   0.03655013568659722   0.02568293369072927
-0.8191404771440042   -0.07417441513752943   -0.046778559887089344
-0.8191404771440042   -0.07417441513752943   -0.046778559887089344
-0.8191404771440042   -0.07417441513752943   -0.046778559887089344
-0.8191404771440042   -0.07417441513752943   -0.046778559887089344
-1.093852810377813   -0.019153469892675024   0.06906730991463328
-1.093852810377813   -0.019153469892675024   0.06906730991463328
-1.093852810377813   -0.019153469892675024   0.06906730991463328
-1.093852810377813   -0.019153469892675024   0.06906730991463328
-1.0785039912348977   -0.09911374864845598   -0.06239924040399272
-1.0785039912348977   -0.09911374864845598   -0.06239924040399272
-1.0785039912348977   -0.09911374864845598   -0.06239924040399272
-1.0785039912348977   -0.09911374864845598   -0.06239924040399272
-0.7439289926929071   0.08214006959914066   0.06808712803059291
-0.7439289926929071   0.08214006959914066   0.06808712803059291
-0.7439289926929071   0.08214006959914066   0.06808712803059291
-0.7439289926929071   0.08214006959914066   0.06808712803059291
-0.8936069256146322   -0.015844372201654223   0.007383886326972344
-0.8936069256146322   -0.015844372201654223   0.007383886326972344
-0.8936069256146322   -0.015844372201654223   0.007383886326972344
-0.8936069256146322   -0.015844372201654223   0.007383886326972344
-0.7925607209698384   -0.04002627938802473   -0.05290516436689571
-0.7925607209698384   -0.04002627938802473   -0.05290516436689571
-0.7925607209698384   -0.04002627938802473   -0.05290516436689571
-0.7925607209698384   -0.04002627938802473   -0.05290516436689571
-1.02840184001041   0.02452302328625787   0.06447474378371254
-1.02840184001041   0.02452302328625787   0.06447474378371254
-1.02840184001041   0.02452302328625787   0.06447474378371254
-1.02840184001041   0.02452302328625787   0.06447474378371254
-1.0289815749069338   -0.07781856970321474   -0.0742584072565868
-1.0289815749069338   -0.07781856970321474   -0.0742584072565868
-1.0289815749069338   -0.07781856970321474   -0.0742584072565868
-1.0289815749069338   -0.07781856970321474   -0.0742584072565868
-0.7184085900855057   0.09614028656509438   0.05612639969720179
-0.7184085900855057   0.09614028656509438   0.05612639969720179
-0.7184085900855057   0.09614028656509438   0.05612639969720179
-0.7184085900855057   0.09614028656509438   0.05612639969720179
-0.8654722735655421   0.006497520540614213   0.020125956590841154
-0.8654722735655421   0.006497520540614213   0.020125956590841154
-0.8654722735655421   0.006497520540614213   0.020125956590841154
-0.8654722735655421   0.006497520540614213   0.020125956590841154
-0.7655792580713402   -0.022503129681794087   -0.06108352398507717
-0.7655792580713402   -0.022503129681794087   -0.06108352398507717
-0.7655792580713402   -0.022503129681794087   -0.06108352398507717
-0.7655792580713402   -0.022503129681794087   -0.06108352398507717
-0.9800110296581571   0.04262472380661042   0.05015102547746414
-0.9800110296581571   0.04262472380661042   0.05015102547746414
-0.9800110296581571   0.04262472380661042   0.05015102547746414
-0.9800110296581571   0.04262472380661042   0.05015102547746414
-0.96799550253335   -0.04600247655469206   -0.0828011144535784
-0.96799550253335   -0.04600247655469206   -0.0828011144535784
-0.96799550253335   -0.04600247655469206   -0.0828011144535784
-0.96799550253335   -0.04600247655469206   -0.0828011144535784
-0.6959746983257462   0.11307062460616088   0.04675406820608313
-0.6959746983257462   0.11307062460616088   0.04675406820608313
-0.6959746983257462   0.11307062460616088   0.04675406820608313
-0.6959746983257462   0.11307062460616088   0.04675406820608313
-0.812927665925296   0.0274358029747203   0.038062313679009696
-0.812927665925296   0.0274358029747203   0.038062313679009696
-0.812927665925296   0.0274358029747203   0.038062313679009696
-0.812927665925296   0.0274358029747203   0.038062313679009696
0.8691952989361982   0.07896334625442117   0.07547891618320146
0.8691952989361982   0.07896334625442117   0.07547891618320146
0.8691952989361982   0.07896334625442117   0.07547891618320146
0.8691952989361982   0.07896334625442117   0.07547891618320146
0.31843609901268816   -0.14464848726200147   -0.04968683950072505
0.31843609901268816   -0.14464848726200147   -0.04968683950072505
0.31843609901268816   -0.14464848726200147   -0.04968683950072505
0.31843609901268816   -0.14464848726200147   -0.04968683950072505
0.39334366575906005   -0.0008390081900153086   0.05431536814349319
0.39334366575906005   -0.0008390081900153086   0.05431536814349319
0.39334366575906005   -0.0008390081900153086   0.05431536814349319
0.39334366575906005   -0.0008390081900153086   0.05431536814349319
0.8850432185225603   -0.020185599502016552   -0.06342872301868813
0.8850432185225603   -0.020185599502016552   -0.06342872301868813
0.8850432185225603   -0.020185599502016552   -0.06342872301868813
0.8850432185225603   -0.020185599502016552   -0.06342872301868813
0.5785824540897755   -0.02621197030901938   -0.05589910049452523
0.5785824540897755   -0.02621197030901938   -0.05589910049452523
0.5785824540897755   -0.02621197030901938   -0.05589910049452523
0.5785824540897755   -0.02621197030901938   -0.05589910049452523
0.9369140881356415   0.11013333980461745   0.06560668574007564
0.9369140881356415   0.11013333980461745   0.06560668574007564
0.9369140881356415   0.11013333980461745   0.06560668574007564
0.9369140881356415   0.11013333980461745   0.06560668574007564
0.3451413238685369   -0.127489419774092   -0.06004592972504199
0.3451413238685369   -0.127489419774092   -0.06004592972504199
0.3451413238685369   -0.127489419774092   -0.06004592972504199
0.3451413238685369   -0.127489419774092   -0.06004592972504199
0.42293132422707735   0.01624078592780523   0.04479609258831124
0.42293132422707735   0.01624078592780523   0.04479609258831124
0.42293132422707735   0.01624078592780523   0.04479609258831124
0.42293132422707735   0.01624078592780523   0.04479609258831124
0.9389437718440004   -0.000770769596244919   -0.07991816196429102
0.9389437718440004   -0.000770769596244919   -0.07991816196429102
0.9389437718440004   -0.000770769596244919   -0.07991816196429102
0.9389437718440004   -0.000770769596244919   -0.07991816196429102
0.6348515483956111   -0.005236541866865105   -0.033846846044324475
0.6348515483956111   -0.005236541866865105   -0.033846846044324475
0.6348515483956111   -0.005236541866865105   -0.033846846044324475
0.6348515483956111   -0.005236541866865105   -0.033846846044324475
0.9913945988445432   0.1310727191850583   0.05049248425711092
0.9913945988445432   0.1310727191850583   0.05049248425711092
0.9913945988445432   0.1310727191850583   0.05049248425711092
0.9913945988445432   0.1310727191850583   0.05049248425711092
0.3743864657292388   -0.1116967343507953   -0.06999067962228123
0.3743864657292388   -0.1116967343507953   -0.06999067962228123
0.3743864657292388   -0.1116967343507953   -0.06999067962228123
0.3743864657292388   -0.1116967343507953   -0.06999067962228123
0.4524772464353132   0.05388040014893948   0.03882507392169812
0.4524772464353132   0.05388040014893948   0.03882507392169812
0.4524772464353132   0.05388040014893948   0.03882507392169812
0.4524772464353132   0.05388040014893948   0.03882507392169812
1.009715940425103   0.049865121331274145   -0.08621498008710132
1.009715940425103   0.049865121331274145   -0.08621498008710132
1.009715940425103   0.049865121331274145   -0.08621498008710132
1.009715940425103   0.049865121331274145   -0.08621498008710132
0.6696150061774198   0.02027325336622303   -0.014761452136480668
0.6696150061774198   0.02027325336622303   -0.014761452136480668
0.6696150061774198   0.02027325336622303   -0.014761452136480668
0.6696150061774198   0.02027325336622303   -0.014761452136480668
0.3782006946203054   0.04419422976800892   0.06029342150734711
0.3782006946203054   0.04419422976800892   0.06029342150734711
0.3782006946203054   0.04419422976800892   0.06029342150734711
0.3782006946203054   0.04419422976800892   0.06029342150734711
-0.18409420245118688   -0.1349581433217431   -0.026022742836975518
-0.18409420245118688   -0.1349581433217431   -0.026022742836975518
-0.18409420245118688   -0.1349581433217431   -0.026022742836975518
-0.18409420245118688   -0.1349581433217431   -0.026022742836975518
-0.13255629346145878   -0.03948975563238055   0.018272527205935384
-0.13255629346145878   -0.03948975563238055   0.018272527205935384
-0.13255629346145878   -0.03948975563238055   0.018272527205935384
-0.13255629346145878   -0.03948975563238055   0.018272527205935384
0.38125007631479296   0.001002299433371736   -0.007993886701229455
0.38125007631479296   0.001002299433371736   -0.007993886701229455
0.38125007631479296   0.001002299433371736   -0.007993886701229455
0.38125007631479296   0.001002299433371736   -0.007993886701229455
0.10572564284712938   -0.028561650855244876   -0.023829747453119516
0.10572564284712938   -0.028561650855244876   -0.023829747453119516
0.10572564284712938   -0.028561650855244876   -0.023829747453119516
0.10572564284712938   -0.028561650855244876   -0.023829747453119516
0.40858951201375465   0.0758550152223877   0.053850576004563194
0.40858951201375465   0.0758550152223877   0.053850576004563194
0.40858951201375465   0.0758550152223877   0.053850576004563194
0.40858951201375465   0.0758550152223877   0.053850576004563194
-0.15768836449251764   -0.11213510675349361   -0.03474247682824566
-0.15768836449251764   -0.11213510675349361   -0.03474247682824566
-0.15768836449251764   -0.11213510675349361   -0.03474247682824566
-0.15768836449251764   -0.11213510675349361   -0.03474247682824566
-0.10498995498468604   -0.007534866931932147   0.011553829121547059
-0.10498995498468604   -0.007534866931932147   0.011553829121547059
-0.10498995498468604   -0.007534866931932147   0.011553829121547059
-0.10498995498468604   -0.007534866931932147   0.011553829121547059
0.41367928431759593   0.029680943874267642   -0.014904264905558254
0.41367928431759593   0.029680943874267642   -0.014904264905558254
0.41367928431759593   0.029680943874267642   -0.014904264905558254
0.41367928431759593   0.029680943874267642   -0.014904264905558254
0.13236371092146626   -0.003307273730730167   -0.009478002011124347
0.13236371092146626   -0.003307273730730167   -0.009478002011124347
0.13236371092146626   -0.003307273730730167   -0.009478002011124347
0.13236371092146626   -0.003307273730730167   -0.009478002011124347
0.4421115824835999   0.10913525724763454   0.04780291255109448
0.4421115824835999   0.10913525724763454   0.04780291255109448
0.4421115824835999   0.10913525724763454   0.04780291255109448
0.4421115824835999   0.10913525724763454   0.04780291255109448
-0.1312095182715364   -0.08477644542613523   -0.04230240881850161
-0.1312095182715364   -0.08477644542613523   -0.04230240881850161
-0.1312095182715364   -0.08477644542613523   -0.04230240881850161
-0.1312095182715364   -0.08477644542613523   -0.04230240881850161
-0.07777219392364954   0.029475178745942063   0.004865174439761883
-0.07777219392364954   0.029475178745942063   0.004865174439761883
-0.07777219392364954   0.029475178745942063   0.004865174439761883
-0.07777219392364954   0.029475178745942063   0.004865174439761883
0.4424453129532747   0.06382114163980376   -0.021275334979354216
0.4424453129532747   0.06382114163980376   -0.021275334979354216
0.4424453129532747   0.06382114163980376   -0.021275334979354216
0.4424453129532747   0.06382114163980376   -0.021275334979354216
0.16525069835425152   0.027655381999869562   0.007274849404023322
0.16525069835425152   0.027655381999869562   0.007274849404023322
0.16525069835425152   0.027655381999869562   0.007274849404023322
0.16525069835425152   0.027655381999869562   0.007274849404023322
-0.14485932014166825   0.009569710327091403   0.025623815061787118
-0.14485932014166825   0.009569710327091403   0.025623815061787118
-0.14485932014166825   0.009569710327091403   0.025623815061787118
-0.14485932014166825   0.009569710327091403   0.025623815061787118
-0.6766448296957411   -0.11914510239835828   -0.0034269233175714675
-0.6766448296957411   -0.11914510239835828   -0.0034269233175714675
-0.6766448296957411   -0.11914510239835828   -0.0034269233175714675
-0.6766448296957411   -0.11914510239835828   -0.0034269233175714675
-0.643949258798429   -0.07012367589893659   -0.01590217863571894
-0.643949258798429   -0.07012367589893659   -0.01590217863571894
-0.643949258798429   -0.07012367589893659   -0.01590217863571894
-0.643949258798429   -0.07012367589893659   -0.01590217863571894
-0.12137075435938866   0.01766407636514391   0.017046390718761524
-0.12137075435938866   0.01766407636514391   0.017046390718761524
-0.12137075435938866   0.01766407636514391   0.017046390718761524
-0.12137075435938866   0.01766407636514391   0.017046390718761524
-0.3974048646061465   -0.036639917787100545   -0.014874367363461344
-0.3974048646061465   -0.036639917787100545   -0.014874367363461344
-0.3974048646061465   -0.036639917787100545   -0.014874367363461344
-0.3974048646061465   -0.036639917787100545   -0.014874367363461344
-0.11592944055886537   0.04253677557785358   0.01938026050866834
-0.11592944055886537   0.04253677557785358   0.01938026050866834
-0.11592944055886537   0.04253677557785358   0.01938026050866834
-0.11592944055886537   0.04253677557785358   0.01938026050866834
-0.6479184140146484   -0.09352421652734244   -0.012347414088410391
-0.6479184140146484   -0.09352421652734244   -0.012347414088410391
-0.6479184140146484   -0.09352421652734244   -0.012347414088410391
-0.6479184140146484   -0.09352421652734244   -0.012347414088410391
-0.6135685539649096   -0.03506407006467792   -0.021483477128619907
-0.6135685539649096   -0.03506407006467792   -0.021483477128619907
-0.6135685539649096   -0.03506407006467792   -0.021483477128619907
-0.6135685539649096   -0.03506407006467792   -0.021483477128619907
-0.09453881068890876   0.046633523654438756   0.00964116001406258
-0.09453881068890876   0.046633523654438756   0.00964116001406258
-0.09453881068890876   0.046633523654438756   0.00964116001406258
-0.09453881068890876   0.046633523654438756   0.00964116001406258
-0.3667638985325601   -0.007304930660680033   -0.00022929127171303354
-0.3667638985325601   -0.007304930660680033   -0.00022929127171303354
-0.3667638985325601   -0.007304930660680033   -0.00022929127171303354
-0.3667638985325601   -0.007304930660680033   -0.00022929127171303354
-0.08797335446141777   0.07681004851911308   0.012291916286843209
-0.08797335446141777   0.07681004851911308   0.012291916286843209
-0.08797335446141777   0.07681004851911308   0.012291916286843209
-0.08797335446141777   0.07681004851911308   0.012291916286843209
-0.6187661487680873   -0.06387273350503891   -0.0186627877041472
-0.6187661487680873   -0.06387273350503891   -0.0186627877041472
-0.6187661487680873   -0.06387273350503891   -0.0186627877041472
-0.6187661487680873   -0.06387273350503891   -0.0186627877041472
-0.5852896460040927   -0.00012320482919324013   -0.028157754075483696
-0.5852896460040927   -0.00012320482919324013   -0.028157754075483696
-0.5852896460040927   -0.00012320482919324013   -0.028157754075483696
-0.5852896460040927   -0.00012320482919324013   -0.028157754075483696
-0.06892480578705752   0.07622289258753574   0.002354401281128361
-0.06892480578705752   0.07622289258753574   0.002354401281128361
-0.06892480578705752   0.07622289258753574   0.002354401281128361
-0.06892480578705752   0.07622289258753574   0.002354401281128361
-0.33861489649742266   0.02191918314485509   0.013707482460185078
-0.33861489649742266   0.02191918314485509   0.013707482460185078
-0.33861489649742266   0.02191918314485509   0.013707482460185078
-0.33861489649742266   0.02191918314485509   0.013707482460185078
-0.659315446109118   -0.025812022387282953   -0.010113085395525273
-0.659315446109118   -0.025812022387282953   -0.010113085395525273
-0.659315446109118   -0.025812022387282953   -0.010113085395525273
-0.659315446109118   -0.025812022387282953   -0.010113085395525273
-1.1578938377594818   -0.09649933867941685   0.022390654458256887
-1.1578938377594818   -0.09649933867941685   0.022390654458256887
-1.1578938377594818   -0.09649933867941685   0.022390654458256887
-1.1578938377594818   -0.09649933867941685   0.022390654458256887
-1.1419544320682362   -0.09954210100257127   -0.04785439396481528
-1.1419544320682362   -0.09954210100257127   -0.04785439396481528
-1.1419544320682362   -0.09954210100257127   -0.04785439396481528
-1.1419544320682362   -0.09954210100257127   -0.04785439396481528
-0.6092045556363408   0.04483959108484121   0.04285807019094928
-0.6092045556363408   0.04483959108484121   0.04285807019094928
-0.6092045556363408   0.04483959108484121   0.04285807019094928
-0.6092045556363408   0.04483959108484121   0.04285807019094928
-0.8859199941549343   -0.03867125343643382   -0.005182696799790526
-0.8859199941549343   -0.03867125343643382   -0.005182696799790526
-0.8859199941549343   -0.03867125343643382   -0.005182696799790526
-0.8859199941549343   -0.03867125343643382   -0.005182696799790526
-0.6278648999124052   0.009771560167209679   -0.01537562027174151
-0.6278648999124052   0.009771560167209679   -0.01537562027174151
-0.6278648999124052   0.009771560167209679   -0.01537562027174151
-0.6278648999124052   0.009771560167209679   -0.01537562027174151
-1.123224641367279   -0.06440462366004723   0.010657082197445489
-1.123224641367279   -0.06440462366004723   0.010657082197445489
-1.123224641367279   -0.06440462366004723   0.010657082197445489
-1.123224641367279   -0.06440462366004723   0.010657082197445489
-1.1022642930848403   -0.06528435258952678   -0.052929668733588564
-1.1022642930848403   -0.06528435258952678   -0.052929668733588564
-1.1022642930848403   -0.06528435258952678   -0.052929668733588564
-1.1022642930848403   -0.06528435258952678   -0.052929668733588564
-0.5809156502248904   0.0724658246098295   0.034251146896974824
-0.5809156502248904   0.0724658246098295   0.034251146896974824
-0.5809156502248904   0.0724658246098295   0.034251146896974824
-0.5809156502248904   0.0724658246098295   0.034251146896974824
-0.8455529761584865   -0.006245149588674018   0.009500931133857526
-0.8455529761584865   -0.006245149588674018   0.009500931133857526
-0.8455529761584865   -0.006245149588674018   0.009500931133857526
-0.8455529761584865   -0.006245149588674018   0.009500931133857526
-0.598432478399909   0.04157875851709951   -0.022445927885388378
-0.598432478399909   0.04157875851709951   -0.022445927885388378
-0.598432478399909   0.04157875851709951   -0.022445927885388378
-0.598432478399909   0.04157875851709951   -0.022445927885388378
-1.0838271247299225   -0.033476946316887524   0.007448766768360426
-1.0838271247299225   -0.033476946316887524   0.007448766768360426
-1.0838271247299225   -0.033476946316887524   0.007448766768360426
-1.0838271247299225   -0.033476946316887524   0.007448766768360426
-1.0667732345162393   -0.028145570043582785   -0.05564887796196419
-1.0667732345162393   -0.028145570043582785   -0.05564887796196419
-1.0667732345162393   -0.028145570043582785   -0.05564887796196419
-1.0667732345162393   -0.028145570043582785   -0.05564887796196419
-0.5535168808707474   0.10285104515477198   0.027731821607282964
-0.5535168808707474   0.10285104515477198   0.027731821607282964
-0.5535168808707474   0.10285104515477198   0.027731821607282964
-0.5535168808707474   0.10285104515477198   0.027731821607282964
-0.8182183555938964   0.021482581493675657   0.022170013787057935
-0.8182183555938964   0.021482581493675657   0.022170013787057935
-0.8182183555938964   0.021482581493675657   0.022170013787057935
-0.8182183555938964   0.021482581493675657   0.022170013787057935
-1.1627888502254673   -0.055392407629453265   -0.0431913389216341
-1.1627888502254673   -0.055392407629453265   -0.0431913389216341
-1.1627888502254673   -0.055392407629453265   -0.0431913389216341
-1.1627888502254673   -0.055392407629453265   -0.0431913389216341
-1.6571328724226715   -0.05973825551117702   0.07485498597665191
-1.6571328724226715   -0.05973825551117702   0.07485498597665191
-1.6571328724226715   -0.05973825551117702   0.07485498597665191
-1.6571328724226715   -0.05973825551117702   0.07485498597665191
-1.6251747148101245   -0.1191664331552917   -0.05719966362435158
-1.6251747148101245   -0.1191664331552917   -0.05719966362435158
-1.6251747148101245   -0.1191664331552917   -0.05719966362435158
-1.6251747148101245   -0.1191664331552917   -0.05719966362435158
-1.0787126406778167   0.0927380836451892   0.07607437833951111
-1.0787126406778167   0.0927380836451892   0.07607437833951111
-1.0787126406778167   0.0927380836451892   0.07607437833951111
-1.0787126406778167   0.0927380836451892   0.07607437833951111
-1.3197078916006817   -0.016316134815368005   0.015259783431395169
-1.3197078916006817   -0.016316134815368005   0.015259783431395169
-1.3197078916006817   -0.016316134815368005   0.015259783431395169
-1.3197078916006817   -0.016316134815368005   0.015259783431395169
-1.1255588970461514   -0.017405917374188964   -0.04801290248278023
-1.1255588970461514   -0.017405917374188964   -0.04801290248278023
-1.1255588970461514   -0.017405917374188964   -0.04801290248278023
-1.1255588970461514   -0.017405917374188964   -0.04801290248278023
-1.5775612071778422   -0.008255180871982529   0.06995662225373928
-1.5775612071778422   -0.008255180871982529   0.06995662225373928
-1.5775612071778422   -0.008255180871982529   0.06995662225373928
-1.5775612071778422   -0.008255180871982529   0.06995662225373928
-1.565141368377768   -0.09790323160645888   -0.06735841286830235
-1.565141368377768   -0.09790323160645888   -0.06735841286830235
-1.565141368377768   -0.09790323160645888   -0.06735841286830235
-1.565141368377768   -0.09790323160645888   -0.06735841286830235
-1.0453957838554064   0.10585395532685302   0.06027456949720009
-1.0453957838554064   0.10585395532685302   0.06027456949720009
-1.0453957838554064   0.10585395532685302   0.06027456949720009
-1.0453957838554064   0.10585395532685302   0.06027456949720009
-1.2886713952113222   0.006890530369254452   0.0274894680213027
-1.2886713952113222   0.006890530369254452   0.0274894680213027
-1.2886713952113222   0.006890530369254452   0.0274894680213027
-1.2886713952113222   0.006890530369254452   0.0274894680213027
-1.089598429913364   -0.0002499186942203427   -0.054634786771513594
-1.089598429913364   -0.0002499186942203427   -0.054634786771513594
-1.089598429913364   -0.0002499186942203427   -0.054634786771513594
-1.089598429913364   -0.0002499186942203427   -0.054634786771513594
-1.520175157561999   0.008964207172411226   0.05060520243164501
-1.520175157561999   0.008964207172411226   0.05060520243164501
-1.520175157561999   0.008964207172411226   0.05060520243164501
-1.520175157561999   0.008964207172411226   0.05060520243164501
-1.4995431206525813   -0.0723436885385116   -0.07674907519044427
-1.4995431206525813   -0.0723436885385116   -0.07674907519044427
-1.4995431206525813   -0.0723436885385116   -0.07674907519044427
-1.4995431206525813   -0.0723436885385116   -0.07674907519044427
-1.0161067759205817   0.11820801598260772   0.05132982899012767
-1.0161067759205817   0.11820801598260772   0.05132982899012767
-1.0161067759205817   0.11820801598260772   0.05132982899012767
-1.0161067759205817   0.11820801598260772   0.05132982899012767
-1.2225183483669526   0.026190764478875417   0.04595454077615513
-1.2225183483669526   0.026190764478875417   0.04595454077615513
-1.2225183483669526   0.026190764478875417   0.04595454077615513
-1.2225183483669526   0.026190764478875417   0.04595454077615513
1.4600116952485416   0.10908793576114222   0.07741967937913985
1.4600116952485416   0.10908793576114222   0.07741967937913985
1.4600116952485416   0.10908793576114222   0.07741967937913985
1.4600116952485416   0.10908793576114222   0.07741967937913985
0.6441502074858098   -0.1720833851484526   -0.03554570533715565
0.6441502074858098   -0.1720833851484526   -0.03554570533715565
0.6441502074858098   -0.1720833851484526   -0.03554570533715565
0.6441502074858098   -0.1720833851484526   -0.03554570533715565
0.7183646962925366   -0.030197754023702773   0.05318902660290441
0.7183646962925366   -0.030197754023702773   0.05318902660290441
0.7183646962925366   -0.030197754023702773   0.05318902660290441
0.7183646962925366   -0.030197754023702773   0.05318902660290441
1.476186149868794   -0.002848708785496784   -0.05573564867634284
1.476186149868794   -0.002848708785496784   -0.05573564867634284
1.476186149868794   -0.002848708785496784   -0.05573564867634284
1.476186149868794   -0.002848708785496784   -0.05573564867634284
1.011725219918342   -0.030730467370459286   -0.07918519080335654
1.011725219918342   -0.030730467370459286   -0.07918519080335654
1.011725219918342   -0.030730467370459286   -0.07918519080335654
1.011725219918342   -0.030730467370459286   -0.07918519080335654
1.5276530067855627   0.13397674014893296   0.064773186973057
1.5276530067855627   0.13397674014893296   0.064773186973057
1.5276530067855627   0.13397674014893296   0.064773186973057
1.5276530067855627   0.13397674014893296   0.064773186973057
0.6718389535149718   -0.16208208881892971   -0.047555352489685315
0.6718389535149718   -0.16208208881892971   -0.047555352489685315
0.6718389535149718   -0.16208208881892971   -0.047555352489685315
0.6718389535149718   -0.16208208881892971   -0.047555352489685315
0.7474130000670018   -0.01449170173427589   0.04300794912261423
0.7474130000670018   -0.01449170173427589   0.04300794912261423
0.7474130000670018   -0.01449170173427589   0.04300794912261423
0.7474130000670018   -0.01449170173427589   0.04300794912261423
1.5269099244038449   0.01447221160228096   -0.06965641376112813
1.5269099244038449   0.01447221160228096   -0.06965641376112813
1.5269099244038449   0.01447221160228096   -0.06965641376112813
1.5269099244038449   0.01447221160228096   -0.06965641376112813
1.075396256502749   -0.01221334406561482   -0.05385355337494188
1.075396256502749   -0.01221334406561482   -0.05385355337494188
1.075396256502749   -0.01221334406561482   -0.05385355337494188
1.075396256502749   -0.01221334406561482   -0.05385355337494188
1.5780777709255225   0.1526422239190116   0.04801280653053086
1.5780777709255225   0.1526422239190116   0.04801280653053086
1.5780777709255225   0.1526422239190116   0.04801280653053086
1.5780777709255225   0.1526422239190116   0.04801280653053086
0.7005712515640043   -0.14833561603232603   -0.057356879094322744
0.7005712515640043   -0.14833561603232603   -0.057356879094322744
0.7005712515640043   -0.14833561603232603   -0.057356879094322744
0.7005712515640043   -0.14833561603232603   -0.057356879094322744
0.7737240593507705   0.027451019091942565   0.03770638979057342
0.7737240593507705   0.027451019091942565   0.03770638979057342
0.7737240593507705   0.027451019091942565   0.03770638979057342
0.7737240593507705   0.027451019091942565   0.03770638979057342
1.5893029189667573   0.06514700337196558   -0.07295020133424085
1.5893029189667573   0.06514700337196558   -0.07295020133424085
1.5893029189667573   0.06514700337196558   -0.07295020133424085
1.5893029189667573   0.06514700337196558   -0.07295020133424085
1.0992565552403926   0.012706408875726286   -0.0363105666055209
1.0992565552403926   0.012706408875726286   -0.0363105666055209
1.0992565552403926   0.012706408875726286   -0.0363105666055209
1.0992565552403926   0.012706408875726286   -0.0363105666055209
0.7125902739490996   0.06374795740989667   0.07082328442093687
0.7125902739490996   0.06374795740989667   0.07082328442093687
0.7125902739490996   0.06374795740989667   0.07082328442093687
0.7125902739490996   0.06374795740989667   0.07082328442093687
-0.087855323633395   -0.2120857488484934   -0.020233173203362056
-0.087855323633395   -0.2120857488484934   -0.020233173203362056
-0.087855323633395   -0.2120857488484934   -0.020233173203362056
-0.087855323633395   -0.2120857488484934   -0.020233173203362056
-0.02391092681041293   -0.07482293297951068   0.018040954359625758
-0.02391092681041293   -0.07482293297951068   0.018040954359625758
-0.02391092681041293   -0.07482293297951068   0.018040954359625758
-0.02391092681041293   -0.07482293297951068   0.018040954359625758
0.7065964538264246   -0.03934180059334694   0.0034918608419876596
0.7065964538264246   -0.03934180059334694   0.0034918608419876596
0.7065964538264246   -0.03934180059334694   0.0034918608419876596
0.7065964538264246   -0.03934180059334694   0.0034918608419876596
0.31799958723343835   -0.05918264233416462   -0.03776684891159605
0.31799958723343835   -0.05918264233416462   -0.03776684891159605
0.31799958723343835   -0.05918264233416462   -0.03776684891159605
0.31799958723343835   -0.05918264233416462   -0.03776684891159605
0.7438445883537496   0.0876651047987088   0.0627256280865607
0.7438445883537496   0.0876651047987088   0.0627256280865607
0.7438445883537496   0.0876651047987088   0.0627256280865607
0.7438445883537496   0.0876651047987088   0.0627256280865607
-0.058557842333534796   -0.19922861936736264   -0.030787936868131565
-0.058557842333534796   -0.19922861936736264   -0.030787936868131565
-0.058557842333534796   -0.19922861936736264   -0.030787936868131565
-0.058557842333534796   -0.19922861936736264   -0.030787936868131565
0.005711789653139477   -0.04672790313248228   0.011018994725087255
0.005711789653139477   -0.04672790313248228   0.011018994725087255
0.005711789653139477   -0.04672790313248228   0.011018994725087255
0.005711789653139477   -0.04672790313248228   0.011018994725087255
0.7369272994937665   -0.01815915828974774   -0.005753097188090778
0.7369272994937665   -0.01815915828974774   -0.005753097188090778
0.7369272994937665   -0.01815915828974774   -0.005753097188090778
0.7369272994937665   -0.01815915828974774   -0.005753097188090778
0.34374078953042186   -0.041935231523628   -0.024486932082524865
0.34374078953042186   -0.041935231523628   -0.024486932082524865
0.34374078953042186   -0.041935231523628   -0.024486932082524865
0.34374078953042186   -0.041935231523628   -0.024486932082524865
0.7761767545697886   0.11635691240523716   0.05597810749703522
0.7761767545697886   0.11635691240523716   0.05597810749703522
0.7761767545697886   0.11635691240523716   0.05597810749703522
0.7761767545697886   0.11635691240523716   0.05597810749703522
-0.031992748139626236   -0.17969905654421134   -0.04453254082701606
-0.031992748139626236   -0.17969905654421134   -0.04453254082701606
-0.031992748139626236   -0.17969905654421134   -0.04453254082701606
-0.031992748139626236   -0.17969905654421134   -0.04453254082701606
0.028963148231424377   -0.013836189161699776   0.003920175734978401
0.028963148231424377   -0.013836189161699776   0.003920175734978401
0.028963148231424377   -0.013836189161699776   0.003920175734978401
0.028963148231424377   -0.013836189161699776   0.003920175734978401
0.7596415990990295   0.008850661670547405   -0.014105554046743796
0.7596415990990295   0.008850661670547405   -0.014105554046743796
0.7596415990990295   0.008850661670547405   -0.014105554046743796
0.7596415990990295   0.008850661670547405   -0.014105554046743796
0.3752437495669282   -0.016141927617410956   -0.010246828184120843
0.3752437495669282   -0.016141927617410956   -0.010246828184120843
0.3752437495669282   -0.016141927617410956   -0.010246828184120843
0.3752437495669282   -0.016141927617410956   -0.010246828184120843
-0.030808106213939146   0.017742549975500985   0.035174615069922845
-0.030808106213939146   0.017742549975500985   0.035174615069922845
-0.030808106213939146   0.017742549975500985   0.035174615069922845
-0.030808106213939146   0.017742549975500985   0.035174615069922845
-0.814221659791737   -0.2662289650354616   -0.016287824509576915
-0.814221659791737   -0.2662289650354616   -0.016287824509576915
-0.814221659791737   -0.2662289650354616   -0.016287824509576915
-0.814221659791737   -0.2662289650354616   -0.016287824509576915
-0.7495058080828237   -0.11479815856911084   -0.017129730229138523
-0.7495058080828237   -0.11479815856911084   -0.017129730229138523
-0.7495058080828237   -0.11479815856911084   -0.017129730229138523
-0.7495058080828237   -0.11479815856911084   -0.017129730229138523
-0.027739190242832345   -0.09177541585535928   0.015852120073377295
-0.027739190242832345   -0.09177541585535928   0.015852120073377295
-0.027739190242832345   -0.09177541585535928   0.015852120073377295
-0.027739190242832345   -0.09177541585535928   0.015852120073377295
-0.40741882794037476   -0.10766784180462234   -0.03374501697339964
-0.40741882794037476   -0.10766784180462234   -0.03374501697339964
-0.40741882794037476   -0.10766784180462234   -0.03374501697339964
-0.40741882794037476   -0.10766784180462234   -0.03374501697339964
0.002092511713470669   0.04466207852990198   0.02857313546963111
0.002092511713470669   0.04466207852990198   0.02857313546963111
0.002092511713470669   0.04466207852990198   0.02857313546963111
0.002092511713470669   0.04466207852990198   0.02857313546963111
-0.7774600171981676   -0.2493581601134129   -0.022340774261555563
-0.7774600171981676   -0.2493581601134129   -0.022340774261555563
-0.7774600171981676   -0.2493581601134129   -0.022340774261555563
-0.7774600171981676   -0.2493581601134129   -0.022340774261555563
-0.7127662381967405   -0.083606896847721   -0.023333514988904513
-0.7127662381967405   -0.083606896847721   -0.023333514988904513
-0.7127662381967405   -0.083606896847721   -0.023333514988904513
-0.7127662381967405   -0.083606896847721   -0.023333514988904513
-0.00013923858843659272   -0.07142129780803254   0.006457248192753329
-0.00013923858843659272   -0.07142129780803254   0.006457248192753329
-0.00013923858843659272   -0.07142129780803254   0.006457248192753329
-0.00013923858843659272   -0.07142129780803254   0.006457248192753329
-0.3717537034060901   -0.08524765058649206   -0.0187484667091901
-0.3717537034060901   -0.08524765058649206   -0.0187484667091901
-0.3717537034060901   -0.08524765058649206   -0.0187484667091901
-0.3717537034060901   -0.08524765058649206   -0.0187484667091901
0.03220058973581048   0.07450015844813442   0.022234933557821693
0.03220058973581048   0.07450015844813442   0.022234933557821693
0.03220058973581048   0.07450015844813442   0.022234933557821693
0.03220058973581048   0.07450015844813442   0.022234933557821693
-0.7451234900569652   -0.2295457766398758   -0.03918089449787304
-0.7451234900569652   -0.2295457766398758   -0.03918089449787304
-0.7451234900569652   -0.2295457766398758   -0.03918089449787304
-0.7451234900569652   -0.2295457766398758   -0.03918089449787304
-0.6868050331859143   -0.053878371589377326   -0.030271692204580286
-0.6868050331859143   -0.053878371589377326   -0.030271692204580286
-0.6868050331859143   -0.053878371589377326   -0.030271692204580286
-0.6868050331859143   -0.053878371589377326   -0.030271692204580286
0.017987145600143126   -0.0551660631774231   -0.009629963405704543
0.017987145600143126   -0.0551660631774231   -0.009629963405704543
0.017987145600143126   -0.0551660631774231   -0.009629963405704543
0.017987145600143126   -0.0551660631774231   -0.009629963405704543
-0.3455930181151576   -0.06434202547626613   -0.009366566993711953
-0.3455930181151576   -0.06434202547626613   -0.009366566993711953
-0.3455930181151576   -0.06434202547626613   -0.009366566993711953
-0.3455930181151576   -0.06434202547626613   -0.009366566993711953
-0.7623724573469026   -0.02210612412728155   -0.0011646531935845528
-0.7623724573469026   -0.02210612412728155   -0.0011646531935845528
-0.7623724573469026   -0.02210612412728155   -0.0011646531935845528
-0.7623724573469026   -0.02210612412728155   -0.0011646531935845528
-1.5438862431762024   -0.2862280187750777   -0.013113632327192426
-1.5438862431762024   -0.2862280187750777   -0.013113632327192426
-1.5438862431762024   -0.2862280187750777   -0.013113632327192426
-1.5438862431762024   -0.2862280187750777   -0.013113632327192426
-1.4743558992601793   -0.14696111427012107   -0.050994112960023485
-1.4743558992601793   -0.14696111427012107   -0.050994112960023485
-1.4743558992601793   -0.14696111427012107   -0.050994112960023485
-1.4743558992601793   -0.14696111427012107   -0.050994112960023485
-0.7354588918436302   -0.0953365247411822   0.03364321713890031
-0.7354588918436302   -0.0953365247411822   0.03364321713890031
-0.7354588918436302   -0.0953365247411822   0.03364321713890031
-0.7354588918436302   -0.0953365247411822   0.03364321713890031
-1.1191213141775087   -0.12940412387572853   -0.023789009248038617
-1.1191213141775087   -0.12940412387572853   -0.023789009248038617
-1.1191213141775087   -0.12940412387572853   -0.023789009248038617
-1.1191213141775087   -0.12940412387572853   -0.023789009248038617
-0.7217863669718848   0.012571231775693047   -0.0059019150192475
-0.7217863669718848   0.012571231775693047   -0.0059019150192475
-0.7217863669718848   0.012571231775693047   -0.0059019150192475
-0.7217863669718848   0.012571231775693047   -0.0059019150192475
-1.4886320522980028   -0.255472498953072   -0.01386349346617638
-1.4886320522980028   -0.255472498953072   -0.01386349346617638
-1.4886320522980028   -0.255472498953072   -0.01386349346617638
-1.4886320522980028   -0.255472498953072   -0.01386349346617638
-1.4218464667774107   -0.11438316636519144   -0.05906299142560961
-1.4218464667774107   -0.11438316636519144   -0.05906299142560961
-1.4218464667774107   -0.11438316636519144   -0.05906299142560961
-1.4218464667774107   -0.11438316636519144   -0.05906299142560961
-0.6997733442229691   -0.07087011193660853   0.028894169968845
-0.6997733442229691   -0.07087011193660853   0.028894169968845
-0.6997733442229691   -0.07087011193660853   0.028894169968845
-0.6997733442229691   -0.07087011193660853   0.028894169968845
-1.0651724986368298   -0.09814888244108613   -0.007834728551910919
-1.0651724986368298   -0.09814888244108613   -0.007834728551910919
-1.0651724986368298   -0.09814888244108613   -0.007834728551910919
-1.0651724986368298   -0.09814888244108613   -0.007834728551910919
-0.6849580303588242   0.04268937056186584   -0.010588743208909762
-0.6849580303588242   0.04268937056186584   -0.010588743208909762
-0.6849580303588242   0.04268937056186584   -0.010588743208909762
-0.6849580303588242   0.04268937056186584   -0.010588743208909762
-1.439199636050994   -0.23048050427310296   -0.029731499885602364
-1.439199636050994   -0.23048050427310296   -0.029731499885602364
-1.439199636050994   -0.23048050427310296   -0.029731499885602364
-1.439199636050994   -0.23048050427310296   -0.029731499885602364
-1.3792297866611423   -0.08002622457880473   -0.06094162127026692
-1.3792297866611423   -0.08002622457880473   -0.06094162127026692
-1.3792297866611423   -0.08002622457880473   -0.06094162127026692
-1.3792297866611423   -0.08002622457880473   -0.06094162127026692
-0.6792710167088295   -0.055315614090215084   0.008835632681686245
-0.6792710167088295   -0.055315614090215084   0.008835632681686245
-0.6792710167088295   -0.055315614090215084   0.008835632681686245
-0.6792710167088295   -0.055315614090215084   0.008835632681686245
-1.035373334046477   -0.0790920520051143   -0.002631669283634508
-1.035373334046477   -0.0790920520051143   -0.002631669283634508
-1.035373334046477   -0.0790920520051143   -0.002631669283634508
-1.035373334046477   -0.0790920520051143   -0.002631669283634508
-1.5016902889719204   -0.051077593360430926   -0.03728428672042977
-1.5016902889719204   -0.051077593360430926   -0.03728428672042977
-1.5016902889719204   -0.051077593360430926   -0.03728428672042977
-1.5016902889719204   -0.051077593360430926   -0.03728428672042977
-2.2643342100120507   -0.1934023116929177   0.08574941691935123
-2.2643342100120507   -0.1934023116929177   0.08574941691935123
-2.2643342100120507   -0.1934023116929177   0.08574941691935123
-2.2643342100120507   -0.1934023116929177   0.08574941691935123
-2.1864505129035314   -0.1539964006992968   -0.049860171157142585
-2.1864505129035314   -0.1539964006992968   -0.049860171157142585
-2.1864505129035314   -0.1539964006992968   -0.049860171157142585
-2.1864505129035314   -0.1539964006992968   -0.049860171157142585
-1.410926713568598   0.04038901989867322   0.07880168132907867
-1.410926713568598   0.04038901989867322   0.07880168132907867
-1.410926713568598   0.04038901989867322   0.07880168132907867
-1.410926713568598   0.04038901989867322   0.07880168132907867
-1.7585066145763693   -0.06072936966424124   0.008343803145488882
-1.7585066145763693   -0.06072936966424124   0.008343803145488882
-1.7585066145763693   -0.06072936966424124   0.008343803145488882
-1.7585066145763693   -0.06072936966424124   0.008343803145488882
-1.4437807622057934   -0.0037552705999682745   -0.04132427135823841
-1.4437807622057934   -0.0037552705999682745   -0.04132427135823841
-1.4437807622057934   -0.0037552705999682745   -0.04132427135823841
-1.4437807622057934   -0.0037552705999682745   -0.04132427135823841
-2.1482971760056753   -0.10455282193999474   0.0914629345728164
-2.1482971760056753   -0.10455282193999474   0.0914629345728164
-2.1482971760056753   -0.10455282193999474   0.0914629345728164
-2.1482971760056753   -0.10455282193999474   0.0914629345728164
-2.1029103940309453   -0.12957949624603277   -0.05937807819169055
-2.1029103940309453   -0.12957949624603277   -0.05937807819169055
-2.1029103940309453   -0.12957949624603277   -0.05937807819169055
-2.1029103940309453   -0.12957949624603277   -0.05937807819169055
-1.3589901902174093   0.06472987189054169   0.07610535311866512
-1.3589901902174093   0.06472987189054169   0.07610535311866512
-1.3589901902174093   0.06472987189054169   0.07610535311866512
-1.3589901902174093   0.06472987189054169   0.07610535311866512
-1.7091264375251571   -0.024498144023791635   0.03500480255300853
-1.7091264375251571   -0.024498144023791635   0.03500480255300853
-1.7091264375251571   -0.024498144023791635   0.03500480255300853
-1.7091264375251571   -0.024498144023791635   0.03500480255300853
-1.3930114338057753   0.01535142737568053   -0.0446224203082935
-1.3930114338057753   0.01535142737568053   -0.0446224203082935
-1.3930114338057753   0.01535142737568053   -0.0446224203082935
-1.3930114338057753   0.01535142737568053   -0.0446224203082935
-2.0678216622949477   -0.07913356358353593   0.06561964782581547
-2.0678216622949477   -0.07913356358353593   0.06561964782581547
-2.0678216622949477   -0.07913356358353593   0.06561964782581547
-2.0678216622949477   -0.07913356358353593   0.06561964782581547
-2.0165199377292566   -0.10649156373376104   -0.071754907783041
-2.0165199377292566   -0.10649156373376104   -0.071754907783041
-2.0165199377292566   -0.10649156373376104   -0.071754907783041
-2.0165199377292566   -0.10649156373376104   -0.071754907783041
-1.3204791149968362   0.09389733941051213   0.05888817306195221
-1.3204791149968362   0.09389733941051213   0.05888817306195221
-1.3204791149968362   0.09389733941051213   0.05888817306195221
-1.3204791149968362   0.09389733941051213   0.05888817306195221
-1.616274585261017   0.00648256327199738   0.06169279313073939
-1.616274585261017   0.00648256327199738   0.06169279313073939
-1.616274585261017   0.00648256327199738   0.06169279313073939
-1.616274585261017   0.00648256327199738   0.06169279313073939
1.994331694989002   0.11953613941726729   0.0723704299882516
1.994331694989002   0.11953613941726729   0.0723704299882516
1.994331694989002   0.11953613941726729   0.0723704299882516
1.994331694989002   0.11953613941726729   0.0723704299882516
0.9508568837608465   -0.17816577919924262   0.016266730277067737
0.9508568837608465   -0.17816577919924262   0.016266730277067737
0.9508568837608465   -0.17816577919924262   0.016266730277067737
0.9508568837608465   -0.17816577919924262   0.016266730277067737
1.0033948117742035   -0.07512069599906637   0.055695753350399585
1.0033948117742035   -0.07512069599906637   0.055695753350399585
1.0033948117742035   -0.07512069599906637   0.055695753350399585
1.0033948117742035   -0.07512069599906637   0.055695753350399585
2.0048841201483656   0.016882480201848765   -0.016041535212884983
2.0048841201483656   0.016882480201848765   -0.016041535212884983
2.0048841201483656   0.016882480201848765   -0.016041535212884983
2.0048841201483656   0.016882480201848765   -0.016041535212884983
1.4022252875907035   -0.038315273524869214   -0.09322788245649449
1.4022252875907035   -0.038315273524869214   -0.09322788245649449
1.4022252875907035   -0.038315273524869214   -0.09322788245649449
1.4022252875907035   -0.038315273524869214   -0.09322788245649449
2.0427755762822084   0.13306329280340878   0.057234932854770215
2.0427755762822084   0.13306329280340878   0.057234932854770215
2.0427755762822084   0.13306329280340878   0.057234932854770215
2.0427755762822084   0.13306329280340878   0.057234932854770215
0.9746002485165973   -0.18220461572438956   0.0188068567876917
0.9746002485165973   -0.18220461572438956   0.0188068567876917
0.9746002485165973   -0.18220461572438956   0.0188068567876917
0.9746002485165973   -0.18220461572438956   0.0188068567876917
1.0233125718548803   -0.0638383524654894   0.042388118448984435
1.0233125718548803   -0.0638383524654894   0.042388118448984435
1.0233125718548803   -0.0638383524654894   0.042388118448984435
1.0233125718548803   -0.0638383524654894   0.042388118448984435
2.040062319819967   0.029605316759761524   -0.004839328203362525
2.040062319819967   0.029605316759761524   -0.004839328203362525
2.040062319819967   0.029605316759761524   -0.004839328203362525
2.040062319819967   0.029605316759761524   -0.004839328203362525
1.460115254443124   -0.030310698771661274   -0.0636745669581425
1.460115254443124   -0.030310698771661274   -0.0636745669581425
1.460115254443124   -0.030310698771661274   -0.0636745669581425
1.460115254443124   -0.030310698771661274   -0.0636745669581425
2.0721160589184726   0.14537638172268108   0.03965830232624451
2.0721160589184726   0.14537638172268108   0.03965830232624451
2.0721160589184726   0.14537638172268108   0.03965830232624451
2.0721160589184726   0.14537638172268108   0.03965830232624451
0.9975870174799641   -0.17328123270481974   0.023203226813734268
0.9975870174799641   -0.17328123270481974   0.023203226813734268
0.9975870174799641   -0.17328123270481974   0.023203226813734268
0.9975870174799641   -0.17328123270481974   0.023203226813734268
1.0526181140534856   -0.01984999377272985   0.03874961785549269
1.0526181140534856   -0.01984999377272985   0.03874961785549269
1.0526181140534856   -0.01984999377272985   0.03874961785549269
1.0526181140534856   -0.01984999377272985   0.03874961785549269
2.0766376896824053   0.05873026715426355   -0.0007204097294241096
2.0766376896824053   0.05873026715426355   -0.0007204097294241096
2.0766376896824053   0.05873026715426355   -0.0007204097294241096
2.0766376896824053   0.05873026715426355   -0.0007204097294241096
1.4673475827357854   -0.014007330585573366   -0.04757669515993207
1.4673475827357854   -0.014007330585573366   -0.04757669515993207
1.4673475827357854   -0.014007330585573366   -0.04757669515993207
1.4673475827357854   -0.014007330585573366   -0.04757669515993207
1.0034776819153766   0.0253903960600238   0.07581454579045227
1.0034776819153766   0.0253903960600238   0.07581454579045227
1.0034776819153766   0.0253903960600238   0.07581454579045227
1.0034776819153766   0.0253903960600238   0.07581454579045227
0.053119635752925165   -0.35505179148127247   0.03651463717664151
0.053119635752925165   -0.35505179148127247   0.03651463717664151
0.053119635752925165   -0.35505179148127247   0.03651463717664151
0.053119635752925165   -0.35505179148127247   0.03651463717664151
0.12161117067493639   -0.15023101490253046   0.034031072447496806
0.12161117067493639   -0.15023101490253046   0.034031072447496806
0.12161117067493639   -0.15023101490253046   0.034031072447496806
0.12161117067493639   -0.15023101490253046   0.034031072447496806
0.9777162699617163   -0.1709078458901678   0.02309019417905664
0.9777162699617163   -0.1709078458901678   0.02309019417905664
0.9777162699617163   -0.1709078458901678   0.02309019417905664
0.9777162699617163   -0.1709078458901678   0.02309019417905664
0.5214640628112585   -0.1592564819365775   -0.05965300681396091
0.5214640628112585   -0.1592564819365775   -0.05965300681396091
0.5214640628112585   -0.1592564819365775   -0.05965300681396091
0.5214640628112585   -0.1592564819365775   -0.05965300681396091
1.0272925034055091   0.03675978354638164   0.06330373196148445
1.0272925034055091   0.03675978354638164   0.06330373196148445
1.0272925034055091   0.03675978354638164   0.06330373196148445
1.0272925034055091   0.03675978354638164   0.06330373196148445
0.08512276538443399   -0.34481081618578724   0.04616884727824154
0.08512276538443399   -0.34481081618578724   0.04616884727824154
0.08512276538443399   -0.34481081618578724   0.04616884727824154
0.08512276538443399   -0.34481081618578724   0.04616884727824154
0.14915734095111055   -0.12962746440438205   0.024675330781393615
0.14915734095111055   -0.12962746440438205   0.024675330781393615
0.14915734095111055   -0.12962746440438205   0.024675330781393615
0.14915734095111055   -0.12962746440438205   0.024675330781393615
1.0012902061191031   -0.1601231951237182   0.028561132428327113
1.0012902061191031   -0.1601231951237182   0.028561132428327113
1.0012902061191031   -0.1601231951237182   0.028561132428327113
1.0012902061191031   -0.1601231951237182   0.028561132428327113
0.544921143848367   -0.15137421638750548   -0.029827046820796843
0.544921143848367   -0.15137421638750548   -0.029827046820796843
0.544921143848367   -0.15137421638750548   -0.029827046820796843
0.544921143848367   -0.15137421638750548   -0.029827046820796843
1.049503463800329   0.05617294929277559   0.053331276417963286
1.049503463800329   0.05617294929277559   0.053331276417963286
1.049503463800329   0.05617294929277559   0.053331276417963286
1.049503463800329   0.05617294929277559   0.053331276417963286
0.11353624208462063   -0.3333314500061398   0.050273822050701786
0.11353624208462063   -0.3333314500061398   0.050273822050701786
0.11353624208462063   -0.3333314500061398   0.050273822050701786
0.11353624208462063   -0.3333314500061398   0.050273822050701786
0.19143110015325968   -0.09869991591790563   0.016352056956822264
0.19143110015325968   -0.09869991591790563   0.016352056956822264
0.19143110015325968   -0.09869991591790563   0.016352056956822264
0.19143110015325968   -0.09869991591790563   0.016352056956822264
1.0270959365133325   -0.14372710064947436   0.03501583703147626
1.0270959365133325   -0.14372710064947436   0.03501583703147626
1.0270959365133325   -0.14372710064947436   0.03501583703147626
1.0270959365133325   -0.14372710064947436   0.03501583703147626
0.5860216432099116   -0.1322716033492343   0.004879461525691645
0.5860216432099116   -0.1322716033492343   0.004879461525691645
0.5860216432099116   -0.1322716033492343   0.004879461525691645
0.5860216432099116   -0.1322716033492343   0.004879461525691645
0.11303784432589506   -0.06775726799831341   0.04881115655853195
0.11303784432589506   -0.06775726799831341   0.04881115655853195
0.11303784432589506   -0.06775726799831341   0.04881115655853195
0.11303784432589506   -0.06775726799831341   0.04881115655853195
-0.8520567152293277   -0.6099872947337168   0.052858249458884066
-0.8520567152293277   -0.6099872947337168   0.052858249458884066
-0.8520567152293277   -0.6099872947337168   0.052858249458884066
-0.8520567152293277   -0.6099872947337168   0.052858249458884066
-0.7437541289772494   -0.23743597154671653   0.003564280351069621
-0.7437541289772494   -0.23743597154671653   0.003564280351069621
-0.7437541289772494   -0.23743597154671653   0.003564280351069621
-0.7437541289772494   -0.23743597154671653   0.003564280351069621
0.06005411419501726   -0.4440809300132865   0.02009570515865712
0.06005411419501726   -0.4440809300132865   0.02009570515865712
0.06005411419501726   -0.4440809300132865   0.02009570515865712
0.06005411419501726   -0.4440809300132865   0.02009570515865712
-0.36684334273775704   -0.3422536907429431   -0.07158201413423033
-0.36684334273775704   -0.3422536907429431   -0.07158201413423033
-0.36684334273775704   -0.3422536907429431   -0.07158201413423033
-0.36684334273775704   -0.3422536907429431   -0.07158201413423033
0.1418822195317609   -0.05332541462442553   0.038480716453514224
0.1418822195317609   -0.05332541462442553   0.038480716453514224
0.1418822195317609   -0.05332541462442553   0.038480716453514224
0.1418822195317609   -0.05332541462442553   0.038480716453514224
-0.8066479535184065   -0.6092572061399903   0.0609163922385616
-0.8066479535184065   -0.6092572061399903   0.0609163922385616
-0.8066479535184065   -0.6092572061399903   0.0609163922385616
-0.8066479535184065   -0.6092572061399903   0.0609163922385616
-0.7019802065657876   -0.21307872610890113   1.1074665822813357e-05
-0.7019802065657876   -0.21307872610890113   1.1074665822813357e-05
-0.7019802065657876   -0.21307872610890113   1.1074665822813357e-05
-0.7019802065657876   -0.21307872610890113   1.1074665822813357e-05
0.08909147092934797   -0.43433852946348583   0.02905704573168462
0.08909147092934797   -0.43433852946348583   0.02905704573168462
0.08909147092934797   -0.43433852946348583   0.02905704573168462
0.08909147092934797   -0.43433852946348583   0.02905704573168462
-0.3245392006683877   -0.3305939301339759   -0.026707528166505873
-0.3245392006683877   -0.3305939301339759   -0.026707528166505873
-0.3245392006683877   -0.3305939301339759   -0.026707528166505873
-0.3245392006683877   -0.3305939301339759   -0.026707528166505873
0.1682533308565767   -0.034107225313936944   0.024635041218279405
0.1682533308565767   -0.034107225313936944   0.024635041218279405
0.1682533308565767   -0.034107225313936944   0.024635041218279405
0.1682533308565767   -0.034107225313936944   0.024635041218279405
-0.7640460749628196   -0.5962140387282514   0.07281704530002414
-0.7640460749628196   -0.5962140387282514   0.07281704530002414
-0.7640460749628196   -0.5962140387282514   0.07281704530002414
-0.7640460749628196   -0.5962140387282514   0.07281704530002414
-0.6330473960347447   -0.18501904468369856   -0.007860329302194241
-0.6330473960347447   -0.18501904468369856   -0.007860329302194241
-0.6330473960347447   -0.18501904468369856   -0.007860329302194241
-0.6330473960347447   -0.18501904468369856   -0.007860329302194241
0.13442072316004897   -0.40709729349512763   0.03969754956799064
0.13442072316004897   -0.40709729349512763   0.03969754956799064
0.13442072316004897   -0.40709729349512763   0.03969754956799064
0.13442072316004897   -0.40709729349512763   0.03969754956799064
-0.2696324878137137   -0.3044512121044231   0.020275142764697274
-0.2696324878137137   -0.3044512121044231   0.020275142764697274
-0.2696324878137137   -0.3044512121044231   0.020275142764697274
-0.2696324878137137   -0.3044512121044231   0.020275142764697274
-0.760430379976663   -0.12226132789337252   0.0232639588818557
-0.760430379976663   -0.12226132789337252   0.0232639588818557
-0.760430379976663   -0.12226132789337252   0.0232639588818557
-0.760430379976663   -0.12226132789337252   0.0232639588818557
-1.896260346616018   -0.9496837106038177   -0.04482897056855284
-1.896260346616018   -0.9496837106038177   -0.04482897056855284
-1.896260346616018   -0.9496837106038177   -0.04482897056855284
-1.896260346616018   -0.9496837106038177   -0.04482897056855284
-1.717509614235183   -0.3089519304208909   -0.052383088868151906
-1.717509614235183   -0.3089519304208909   -0.052383088868151906
-1.717509614235183   -0.3089519304208909   -0.052383088868151906
-1.717509614235183   -0.3089519304208909   -0.052383088868151906
-0.8526398343769778   -0.794199418975321   0.01589920078103163
-0.8526398343769778   -0.794199418975321   0.01589920078103163
-0.8526398343769778   -0.794199418975321   0.01589920078103163
-0.8526398343769778   -0.794199418975321   0.01589920078103163
-1.305230559153409   -0.5617181520234927   -0.0751827727977406
-1.305230559153409   -0.5617181520234927   -0.0751827727977406
-1.305230559153409   -0.5617181520234927   -0.0751827727977406
-1.305230559153409   -0.5617181520234927   -0.0751827727977406
-0.7110749143199843   -0.09273624687173751   0.022260628962416207
-0.7110749143199843   -0.09273624687173751   0.022260628962416207
-0.7110749143199843   -0.09273624687173751   0.022260628962416207
-0.7110749143199843   -0.09273624687173751   0.022260628962416207
-1.8547897339347992   -1.0061303021670944   -0.041605315620013905
-1.8547897339347992   -1.0061303021670944   -0.041605315620013905
-1.8547897339347992   -1.0061303021670944   -0.041605315620013905
-1.8547897339347992   -1.0061303021670944   -0.041605315620013905
-1.6619088328278737   -0.2797509516746519   -0.05337454011646725
-1.6619088328278737   -0.2797509516746519   -0.05337454011646725
-1.6619088328278737   -0.2797509516746519   -0.05337454011646725
-1.6619088328278737   -0.2797509516746519   -0.05337454011646725
-0.8121466868099194   -0.7879734495599879   0.024073396896258814
-0.8121466868099194   -0.7879734495599879   0.024073396896258814
-0.8121466868099194   -0.7879734495599879   0.024073396896258814
-0.8121466868099194   -0.7879734495599879   0.024073396896258814
-1.2468992514026882   -0.5465465380934713   -0.052769547818307005
-1.2468992514026882   -0.5465465380934713   -0.052769547818307005
-1.2468992514026882   -0.5465465380934713   -0.052769547818307005
-1.2468992514026882   -0.5465465380934713   -0.052769547818307005
-0.6717800064869399   -0.06955300716078167   0.007486356111950088
-0.6717800064869399   -0.06955300716078167   0.007486356111950088
-0.6717800064869399   -0.06955300716078167   0.007486356111950088
-0.6717800064869399   -0.06955300716078167   0.007486356111950088
-1.8022023785268375   -0.99809825944984   -0.03649496083608372
-1.8022023785268375   -0.99809825944984   -0.03649496083608372
-1.8022023785268375   -0.99809825944984   -0.03649496083608372
-1.8022023785268375   -0.99809825944984   -0.03649496083608372
-1.5751820526827185   -0.24836596280499545   -0.06050507491832652
-1.5751820526827185   -0.24836596280499545   -0.06050507491832652
-1.5751820526827185   -0.24836596280499545   -0.06050507491832652
-1.5751820526827185   -0.24836596280499545   -0.06050507491832652
-0.7245414519577041   -0.7085920260394816   0.05824237243880043
-0.7245414519577041   -0.7085920260394816   0.05824237243880043
-0.7245414519577041   -0.7085920260394816   0.05824237243880043
-0.7245414519577041   -0.7085920260394816   0.05824237243880043
-1.1818160441077272   -0.49543304229623253   -0.029398564876633115
-1.1818160441077272   -0.49543304229623253   -0.029398564876633115
-1.1818160441077272   -0.49543304229623253   -0.029398564876633115
-1.1818160441077272   -0.49543304229623253   -0.029398564876633115
-1.7206131595937468   -0.10421944517110865   -0.01205730088990753
-1.7206131595937468   -0.10421944517110865   -0.01205730088990753
-1.7206131595937468   -0.10421944517110865   -0.01205730088990753
-1.7206131595937468   -0.10421944517110865   -0.01205730088990753
-3.0367837051911475   -0.6011611021135582   0.03097819462335616
-3.0367837051911475   -0.6011611021135582   0.03097819462335616
-3.0367837051911475   -0.6011611021135582   0.03097819462335616
-3.0367837051911475   -0.6011611021135582   0.03097819462335616
-2.917170791415992   -0.2894246034803954   -0.06402235771893183
-2.917170791415992   -0.2894246034803954   -0.06402235771893183
-2.917170791415992   -0.2894246034803954   -0.06402235771893183
-2.917170791415992   -0.2894246034803954   -0.06402235771893183
-1.6823918335094676   -0.31135632486165576   0.12561020920118893
-1.6823918335094676   -0.31135632486165576   0.12561020920118893
-1.6823918335094676   -0.31135632486165576   0.12561020920118893
-1.6823918335094676   -0.31135632486165576   0.12561020920118893
-2.2444724661846642   -0.34871719957731584   0.032179186732524734
-2.2444724661846642   -0.34871719957731584   0.032179186732524734
-2.2444724661846642   -0.34871719957731584   0.032179186732524734
-2.2444724661846642   -0.34871719957731584   0.032179186732524734
-1.6497774995496877   -0.023063635613049915   0.0003891897514911036
-1.6497774995496877   -0.023063635613049915   0.0003891897514911036
-1.6497774995496877   -0.023063635613049915   0.0003891897514911036
-1.6497774995496877   -0.023063635613049915   0.0003891897514911036
-2.9611833309764823   -0.589115498329714   0.01560583932791193
-2.9611833309764823   -0.589115498329714   0.01560583932791193
-2.9611833309764823   -0.589115498329714   0.01560583932791193
-2.9611833309764823   -0.589115498329714   0.01560583932791193
-2.8512626323324906   -0.26519750585115065   -0.08125909347477622
-2.8512626323324906   -0.26519750585115065   -0.08125909347477622
-2.8512626323324906   -0.26519750585115065   -0.08125909347477622
-2.8512626323324906   -0.26519750585115065   -0.08125909347477622
-1.6251545128550684   -0.29575140079702444   0.14639750886994624
-1.6251545128550684   -0.29575140079702444   0.14639750886994624
-1.6251545128550684   -0.29575140079702444   0.14639750886994624
-1.6251545128550684   -0.29575140079702444   0.14639750886994624
-2.2096663015865974   -0.2871800237761208   0.030931084731092295
-2.2096663015865974   -0.2871800237761208   0.030931084731092295
-2.2096663015865974   -0.2871800237761208   0.030931084731092295
-2.2096663015865974   -0.2871800237761208   0.030931084731092295
-1.5987843251080842   -0.00162551362479825   -0.015877439567359486
-1.5987843251080842   -0.00162551362479825   -0.015877439567359486
-1.5987843251080842   -0.00162551362479825   -0.015877439567359486
-1.5987843251080842   -0.00162551362479825   -0.015877439567359486
-2.8818233628972587   -0.563513935841175   0.06425368369138384
-2.8818233628972587   -0.563513935841175   0.06425368369138384
-2.8818233628972587   -0.563513935841175   0.06425368369138384
-2.8818233628972587   -0.563513935841175   0.06425368369138384
-2.714401178644495   -0.21483189216342455   -0.09083592116007255
-2.714401178644495   -0.21483189216342455   -0.09083592116007255
-2.714401178644495   -0.21483189216342455   -0.09083592116007255
-2.714401178644495   -0.21483189216342455   -0.09083592116007255
-1.53612950383138   -0.2749562995496675   0.16134800608304262
-1.53612950383138   -0.2749562995496675   0.16134800608304262
-1.53612950383138   -0.2749562995496675   0.16134800608304262
-1.53612950383138   -0.2749562995496675   0.16134800608304262
-2.07733799929924   -0.21953404343612637   0.06338296418454814
-2.07733799929924   -0.21953404343612637   0.06338296418454814
-2.07733799929924   -0.21953404343612637   0.06338296418454814
-2.07733799929924   -0.21953404343612637   0.06338296418454814
2.184391984446172   0.07144229500382313   0.030772000607071137
2.184391984446172   0.07144229500382313   0.030772000607071137
2.184391984446172   0.07144229500382313   0.030772000607071137
2.184391984446172   0.07144229500382313   0.030772000607071137
1.1155630851753182   -0.058669186059170264   0.02270257981964824
1.1155630851753182   -0.058669186059170264   0.02270257981964824
1.1155630851753182   -0.058669186059170264   0.02270257981964824
1.1155630851753182   -0.058669186059170264   0.02270257981964824
1.0719066205163104   -0.15758619373789948   0.04459259472042912
1.0719066205163104   -0.15758619373789948   0.04459259472042912
1.0719066205163104   -0.15758619373789948   0.04459259472042912
1.0719066205163104   -0.15758619373789948   0.04459259472042912
2.168526281895668   0.12219139897750647   0.016451431380861692
2.168526281895668   0.12219139897750647   0.016451431380861692
2.168526281895668   0.12219139897750647   0.016451431380861692
2.168526281895668   0.12219139897750647   0.016451431380861692
1.5479513515979422   -0.02201965639792021   -0.057147781917111395
1.5479513515979422   -0.02201965639792021   -0.057147781917111395
1.5479513515979422   -0.02201965639792021   -0.057147781917111395
1.5479513515979422   -0.02201965639792021   -0.057147781917111395
2.1565366586087285   0.05513353143436023   0.023561182489309496
2.1565366586087285   0.05513353143436023   0.023561182489309496
2.1565366586087285   0.05513353143436023   0.023561182489309496
2.1565366586087285   0.05513353143436023   0.023561182489309496
1.08032008296351   -0.09410448703449335   0.023178200253020864
1.08032008296351   -0.09410448703449335   0.023178200253020864
1.08032008296351   -0.09410448703449335   0.023178200253020864
1.08032008296351   -0.09410448703449335   0.023178200253020864
1.0440792094870495   -0.16124450545918495   0.03689467103482302
1.0440792094870495   -0.16124450545918495   0.03689467103482302
1.0440792094870495   -0.16124450545918495   0.03689467103482302
1.0440792094870495   -0.16124450545918495   0.03689467103482302
2.1430863224549856   0.11687817771557982   0.02843291096834244
2.1430863224549856   0.11687817771557982   0.02843291096834244
2.1430863224549856   0.11687817771557982   0.02843291096834244
2.1430863224549856   0.11687817771557982   0.02843291096834244
1.5432772992365258   -0.03037851299973439   -0.06619145322128966
1.5432772992365258   -0.03037851299973439   -0.06619145322128966
1.5432772992365258   -0.03037851299973439   -0.06619145322128966
1.5432772992365258   -0.03037851299973439   -0.06619145322128966
2.1252397600590287   0.0490202714908915   0.007058005213226082
2.1252397600590287   0.0490202714908915   0.007058005213226082
2.1252397600590287   0.0490202714908915   0.007058005213226082
2.1252397600590287   0.0490202714908915   0.007058005213226082
1.0555079942370702   -0.09980437688043615   0.0325984662061779
1.0555079942370702   -0.09980437688043615   0.0325984662061779
1.0555079942370702   -0.09980437688043615   0.0325984662061779
1.0555079942370702   -0.09980437688043615   0.0325984662061779
1.0147138019370097   -0.14713902333303056   0.03185702557950121
1.0147138019370097   -0.14713902333303056   0.03185702557950121
1.0147138019370097   -0.14713902333303056   0.03185702557950121
1.0147138019370097   -0.14713902333303056   0.03185702557950121
2.1038750794073415   0.118142162563186   0.04085955556338178
2.1038750794073415   0.118142162563186   0.04085955556338178
2.1038750794073415   0.118142162563186   0.04085955556338178
2.1038750794073415   0.118142162563186   0.04085955556338178
1.4852350941358952   -0.030633500597120403   -0.08940289152358577
1.4852350941358952   -0.030633500597120403   -0.08940289152358577
1.4852350941358952   -0.030633500597120403   -0.08940289152358577
1.4852350941358952   -0.030633500597120403   -0.08940289152358577
1.1054931913862365   -0.14095268568910382   0.05463661050417348
1.1054931913862365   -0.14095268568910382   0.05463661050417348
1.1054931913862365   -0.14095268568910382   0.05463661050417348
1.1054931913862365   -0.14095268568910382   0.05463661050417348
0.21524363355092   -0.1316574443794484   0.011765039130267926
0.21524363355092   -0.1316574443794484   0.011765039130267926
0.21524363355092   -0.1316574443794484   0.011765039130267926
0.21524363355092   -0.1316574443794484   0.011765039130267926
0.1399653712774158   -0.33135128744508374   0.05862388508877738
0.1399653712774158   -0.33135128744508374   0.05862388508877738
0.1399653712774158   -0.33135128744508374   0.05862388508877738
0.1399653712774158   -0.33135128744508374   0.05862388508877738
1.1115410330418352   0.04295538083780673   0.04222308277234704
1.1115410330418352   0.04295538083780673   0.04222308277234704
1.1115410330418352   0.04295538083780673   0.04222308277234704
1.1115410330418352   0.04295538083780673   0.04222308277234704
0.6331794727487402   -0.14081252124868568   -0.0024208959497252214
0.6331794727487402   -0.14081252124868568   -0.0024208959497252214
0.6331794727487402   -0.14081252124868568   -0.0024208959497252214
0.6331794727487402   -0.14081252124868568   -0.0024208959497252214
1.0742444313305948   -0.14706763453451005   0.04576308958846706
1.0742444313305948   -0.14706763453451005   0.04576308958846706
1.0742444313305948   -0.14706763453451005   0.04576308958846706
1.0742444313305948   -0.14706763453451005   0.04576308958846706
0.16784362561296295   -0.15074661944845935   0.017410488769888835
0.16784362561296295   -0.15074661944845935   0.017410488769888835
0.16784362561296295   -0.15074661944845935   0.017410488769888835
0.16784362561296295   -0.15074661944845935   0.017410488769888835
0.10625634159373648   -0.3343444264197969   0.05248884047330011
0.10625634159373648   -0.3343444264197969   0.05248884047330011
0.10625634159373648   -0.3343444264197969   0.05248884047330011
0.10625634159373648   -0.3343444264197969   0.05248884047330011
1.0858774863738363   0.03460914305632308   0.0500324069532494
1.0858774863738363   0.03460914305632308   0.0500324069532494
1.0858774863738363   0.03460914305632308   0.0500324069532494
1.0858774863738363   0.03460914305632308   0.0500324069532494
0.587405933401595   -0.15009061982773325   -0.030384248811209116
0.587405933401595   -0.15009061982773325   -0.030384248811209116
0.587405933401595   -0.15009061982773325   -0.030384248811209116
0.587405933401595   -0.15009061982773325   -0.030384248811209116
1.0466792534758866   -0.14918961252838592   0.03783999804820479
1.0466792534758866   -0.14918961252838592   0.03783999804820479
1.0466792534758866   -0.14918961252838592   0.03783999804820479
1.0466792534758866   -0.14918961252838592   0.03783999804820479
0.13522013900043772   -0.1607801063263372   0.023743507413346535
0.13522013900043772   -0.1607801063263372   0.023743507413346535
0.13522013900043772   -0.1607801063263372   0.023743507413346535
0.13522013900043772   -0.1607801063263372   0.023743507413346535
0.06853424511460128   -0.33422360812909435   0.04109499103210777
0.06853424511460128   -0.33422360812909435   0.04109499103210777
0.06853424511460128   -0.33422360812909435   0.04109499103210777
0.06853424511460128   -0.33422360812909435   0.04109499103210777
1.0567519941487324   0.03508401811707607   0.05982494518801354
1.0567519941487324   0.03508401811707607   0.05982494518801354
1.0567519941487324   0.03508401811707607   0.05982494518801354
1.0567519941487324   0.03508401811707607   0.05982494518801354
0.5594317884350563   -0.14897203996483788   -0.05417734571618711
0.5594317884350563   -0.14897203996483788   -0.05417734571618711
0.5594317884350563   -0.14897203996483788   -0.05417734571618711
0.5594317884350563   -0.14897203996483788   -0.05417734571618711
0.16767831254047513   -0.4067964509431789   0.04907744064177022
0.16767831254047513   -0.4067964509431789   0.04907744064177022
0.16767831254047513   -0.4067964509431789   0.04907744064177022
0.16767831254047513   -0.4067964509431789   0.04907744064177022
-0.6502364708501156   -0.204373898539107   0.0007869792592307412
-0.6502364708501156   -0.204373898539107   0.0007869792592307412
-0.6502364708501156   -0.204373898539107   0.0007869792592307412
-0.6502364708501156   -0.204373898539107   0.0007869792592307412
-0.786426836957274   -0.6039582546494464   0.06719003313014893
-0.786426836957274   -0.6039582546494464   0.06719003313014893
-0.786426836957274   -0.6039582546494464   0.06719003313014893
-0.786426836957274   -0.6039582546494464   0.06719003313014893
0.19289978005859768   -0.03473592979840839   0.026680571348011467
0.19289978005859768   -0.03473592979840839   0.026680571348011467
0.19289978005859768   -0.03473592979840839   0.026680571348011467
0.19289978005859768   -0.03473592979840839   0.026680571348011467
-0.2654112330617661   -0.30806790917570065   0.011571080289080743
-0.2654112330617661   -0.30806790917570065   0.011571080289080743
-0.2654112330617661   -0.30806790917570065   0.011571080289080743
-0.2654112330617661   -0.30806790917570065   0.011571080289080743
0.11556638070811084   -0.4299517406524712   0.03522938544964013
0.11556638070811084   -0.4299517406524712   0.03522938544964013
0.11556638070811084   -0.4299517406524712   0.03522938544964013
0.11556638070811084   -0.4299517406524712   0.03522938544964013
-0.72226805198099   -0.2219170581695877   0.005942761531702423
-0.72226805198099   -0.2219170581695877   0.005942761531702423
-0.72226805198099   -0.2219170581695877   0.005942761531702423
-0.72226805198099   -0.2219170581695877   0.005942761531702423
-0.8333908746153105   -0.6137109977805403   0.054677049691070845
-0.8333908746153105   -0.6137109977805403   0.054677049691070845
-0.8333908746153105   -0.6137109977805403   0.054677049691070845
-0.8333908746153105   -0.6137109977805403   0.054677049691070845
0.16131778189108337   -0.04400252364580661   0.03745413918604423
0.16131778189108337   -0.04400252364580661   0.03745413918604423
0.16131778189108337   -0.04400252364580661   0.03745413918604423
0.16131778189108337   -0.04400252364580661   0.03745413918604423
-0.3240913496061475   -0.32682792538770233   -0.02763125213576334
-0.3240913496061475   -0.32682792538770233   -0.02763125213576334
-0.3240913496061475   -0.32682792538770233   -0.02763125213576334
-0.3240913496061475   -0.32682792538770233   -0.02763125213576334
0.07965957388096359   -0.43750350243463304   0.02266407792427172
0.07965957388096359   -0.43750350243463304   0.02266407792427172
0.07965957388096359   -0.43750350243463304   0.02266407792427172
0.07965957388096359   -0.43750350243463304   0.02266407792427172
-0.7673950192733154   -0.23587237165982936   0.006817700280329214
-0.7673950192733154   -0.23587237165982936   0.006817700280329214
-0.7673950192733154   -0.23587237165982936   0.006817700280329214
-0.7673950192733154   -0.23587237165982936   0.006817700280329214
-0.8842744701029183   -0.6095552158935295   0.04610313083894885
-0.8842744701029183   -0.6095552158935295   0.04610313083894885
-0.8842744701029183   -0.6095552158935295   0.04610313083894885
-0.8842744701029183   -0.6095552158935295   0.04610313083894885
0.12617545987804335   -0.049177613444926785   0.04425507016515051
0.12617545987804335   -0.049177613444926785   0.04425507016515051
0.12617545987804335   -0.049177613444926785   0.04425507016515051
0.12617545987804335   -0.049177613444926785   0.04425507016515051
-0.3716910185629749   -0.33397034374220264   -0.06677190440066073
-0.3716910185629749   -0.33397034374220264   -0.06677190440066073
-0.3716910185629749   -0.33397034374220264   -0.06677190440066073
-0.3716910185629749   -0.33397034374220264   -0.06677190440066073
-0.7372986510255495   -0.6972542845028513   0.0583564643458121
-0.7372986510255495   -0.6972542845028513   0.0583564643458121
-0.7372986510255495   -0.6972542845028513   0.0583564643458121
-0.7372986510255495   -0.6972542845028513   0.0583564643458121
-1.6345137769715927   -0.254471023607322   -0.0378999176653001
-1.6345137769715927   -0.254471023607322   -0.0378999176653001
-1.6345137769715927   -0.254471023607322   -0.0378999176653001
-1.6345137769715927   -0.254471023607322   -0.0378999176653001
-1.872490141579953   -1.0118509979794144   -0.0525083870364591
-1.872490141579953   -1.0118509979794144   -0.0525083870364591
-1.872490141579953   -1.0118509979794144   -0.0525083870364591
-1.872490141579953   -1.0118509979794144   -0.0525083870364591
-0.6859324909780565   -0.05734920547056837   0.023052713847350276
-0.6859324909780565   -0.05734920547056837   0.023052713847350276
-0.6859324909780565   -0.05734920547056837   0.023052713847350276
-0.6859324909780565   -0.05734920547056837   0.023052713847350276
-1.220766382958642   -0.4856594919249426   -0.0419211757943046
-1.220766382958642   -0.4856594919249426   -0.0419211757943046
-1.220766382958642   -0.4856594919249426   -0.0419211757943046
-1.220766382958642   -0.4856594919249426   -0.0419211757943046
-0.8330685107498732   -0.7895502604188056   0.0195736699365045
-0.8330685107498732   -0.7895502604188056   0.0195736699365045
-0.8330685107498732   -0.7895502604188056   0.0195736699365045
-0.8330685107498732   -0.7895502604188056   0.0195736699365045
-1.7215730618226124   -0.27586888304565577   -0.033905103183530905
-1.7215730618226124   -0.27586888304565577   -0.033905103183530905
-1.7215730618226124   -0.27586888304565577   -0.033905103183530905
-1.7215730618226124   -0.27586888304565577   -0.033905103183530905
-1.9283401074604793   -1.0281715406746854   -0.060723638026668136
-1.9283401074604793   -1.0281715406746854   -0.060723638026668136
-1.9283401074604793   -1.0281715406746854   -0.060723638026668136
-1.9283401074604793   -1.0281715406746854   -0.060723638026668136
-0.7292068616674591   -0.07254357881545384   0.03442969546523536
-0.7292068616674591   -0.07254357881545384   0.03442969546523536
-0.7292068616674591   -0.07254357881545384   0.03442969546523536
-0.7292068616674591   -0.07254357881545384   0.03442969546523536
-1.2890047757445289   -0.5380418461089547   -0.05923941721434767
-1.2890047757445289   -0.5380418461089547   -0.05923941721434767
-1.2890047757445289   -0.5380418461089547   -0.05923941721434767
-1.2890047757445289   -0.5380418461089547   -0.05923941721434767
-0.8810627954246335   -0.8050417175745004   0.007648165438410071
-0.8810627954246335   -0.8050417175745004   0.007648165438410071
-0.8810627954246335   -0.8050417175745004   0.007648165438410071
-0.8810627954246335   -0.8050417175745004   0.007648165438410071
-1.7767010017181413   -0.29589022993047687   -0.03480942005919763
-1.7767010017181413   -0.29589022993047687   -0.03480942005919763
-1.7767010017181413   -0.29589022993047687   -0.03480942005919763
-1.7767010017181413   -0.29589022993047687   -0.03480942005919763
-1.9759895708768571   -0.9842257018690586   -0.06847788778993136
-1.9759895708768571   -0.9842257018690586   -0.06847788778993136
-1.9759895708768571   -0.9842257018690586   -0.06847788778993136
-1.9759895708768571   -0.9842257018690586   -0.06847788778993136
-0.7840091342621447   -0.09399563122103552   0.03187022537032291
-0.7840091342621447   -0.09399563122103552   0.03187022537032291
-0.7840091342621447   -0.09399563122103552   0.03187022537032291
-0.7840091342621447   -0.09399563122103552   0.03187022537032291
-1.3518268861505403   -0.555921542748601   -0.07577006905018885
-1.3518268861505403   -0.555921542748601   -0.07577006905018885
-1.3518268861505403   -0.555921542748601   -0.07577006905018885
-1.3518268861505403   -0.555921542748601   -0.07577006905018885
-1.6054995872202324   -0.2921332632893471   0.14483327077349695
-1.6054995872202324   -0.2921332632893471   0.14483327077349695
-1.6054995872202324   -0.2921332632893471   0.14483327077349695
-1.6054995872202324   -0.2921332632893471   0.14483327077349695
-2.828266114203144   -0.2117658014885557   -0.05035262292730891
-2.828266114203144   -0.2117658014885557   -0.05035262292730891
-2.828266114203144   -0.2117658014885557   -0.05035262292730891
-2.828266114203144   -0.2117658014885557   -0.05035262292730891
-3.0016346798053157   -0.5923738457671003   0.0397654509698141
-3.0016346798053157   -0.5923738457671003   0.0397654509698141
-3.0016346798053157   -0.5923738457671003   0.0397654509698141
-3.0016346798053157   -0.5923738457671003   0.0397654509698141
-1.6520291740589306   0.023711870792105127   0.014233581797116923
-1.6520291740589306   0.023711870792105127   0.014233581797116923
-1.6520291740589306   0.023711870792105127   0.014233581797116923
-1.6520291740589306   0.023711870792105127   0.014233581797116923
-2.163662782325636   -0.20809645376076494   0.043513998942219856
-2.163662782325636   -0.20809645376076494   0.043513998942219856
-2.163662782325636   -0.20809645376076494   0.043513998942219856
-2.163662782325636   -0.20809645376076494   0.043513998942219856
-1.6966373240852028   -0.313622103604558   0.12852680606241262
-1.6966373240852028   -0.313622103604558   0.12852680606241262
-1.6966373240852028   -0.313622103604558   0.12852680606241262
-1.6966373240852028   -0.313622103604558   0.12852680606241262
-2.949418679300511   -0.2474320208919022   -0.04409637138133893
-2.949418679300511   -0.2474320208919022   -0.04409637138133893
-2.949418679300511   -0.2474320208919022   -0.04409637138133893
-2.949418679300511   -0.2474320208919022   -0.04409637138133893
-3.07527931732169   -0.617639494916016   -0.012918157258389962
-3.07527931732169   -0.617639494916016   -0.012918157258389962
-3.07527931732169   -0.617639494916016   -0.012918157258389962
-3.07527931732169   -0.617639494916016   -0.012918157258389962
-1.7040002206969171   0.006684177888088685   0.026120077228357075
-1.7040002206969171   0.006684177888088685   0.026120077228357075
-1.7040002206969171   0.006684177888088685   0.026120077228357075
-1.7040002206969171   0.006684177888088685   0.026120077228357075
-2.293290221427934   -0.27476514703538446   0.017948903328199983
-2.293290221427934   -0.27476514703538446   0.017948903328199983
-2.293290221427934   -0.27476514703538446   0.017948903328199983
-2.293290221427934   -0.27476514703538446   0.017948903328199983
-1.755188644478215   -0.32972108471137646   0.10658322092133266
-1.755188644478215   -0.32972108471137646   0.10658322092133266
-1.755188644478215   -0.32972108471137646   0.10658322092133266
-1.755188644478215   -0.32972108471137646   0.10658322092133266
-3.008835924942172   -0.26597926371832675   -0.03236142655846508
-3.008835924942172   -0.26597926371832675   -0.03236142655846508
-3.008835924942172   -0.26597926371832675   -0.03236142655846508
-3.008835924942172   -0.26597926371832675   -0.03236142655846508
-3.1394314688995557   -0.6279159623417493   -0.00014834280919040488
-3.1394314688995557   -0.6279159623417493   -0.00014834280919040488
-3.1394314688995557   -0.6279159623417493   -0.00014834280919040488
-3.1394314688995557   -0.6279159623417493   -0.00014834280919040488
-1.7769642255455105   -0.06824403680307568   0.010667173800809449
-1.7769642255455105   -0.06824403680307568   0.010667173800809449
-1.7769642255455105   -0.06824403680307568   0.010667173800809449
-1.7769642255455105   -0.06824403680307568   0.010667173800809449
-2.321346540096289   -0.33203507562889945   0.02834259735263145
-2.321346540096289   -0.33203507562889945   0.02834259735263145
-2.321346540096289   -0.33203507562889945   0.02834259735263145
-2.321346540096289   -0.33203507562889945   0.02834259735263145
1.912475258687849   0.08784721048767231   -0.04162761095866968
1.912475258687849   0.08784721048767231   -0.04162761095866968
1.912475258687849   0.08784721048767231   -0.04162761095866968
1.912475258687849   0.08784721048767231   -0.04162761095866968
0.9628449867221527   -0.01925754681324337   0.020520430406390955
0.9628449867221527   -0.01925754681324337   0.020520430406390955
0.9628449867221527   -0.01925754681324337   0.020520430406390955
0.9628449867221527   -0.01925754681324337   0.020520430406390955
0.9014612800873067   -0.141863204643281   -0.03675658491477582
0.9014612800873067   -0.141863204643281   -0.03675658491477582
0.9014612800873067   -0.141863204643281   -0.03675658491477582
0.9014612800873067   -0.141863204643281   -0.03675658491477582
1.8902950246035193   0.13812447704346695   0.024008686118338618
1.8902950246035193   0.13812447704346695   0.024008686118338618
1.8902950246035193   0.13812447704346695   0.024008686118338618
1.8902950246035193   0.13812447704346695   0.024008686118338618
1.3425018327093396   0.0032906311539327993   -0.05186180024635373
1.3425018327093396   0.0032906311539327993   -0.05186180024635373
1.3425018327093396   0.0032906311539327993   -0.05186180024635373
1.3425018327093396   0.0032906311539327993   -0.05186180024635373
1.8591970653169623   0.04863661894284339   -0.041993252213809174
1.8591970653169623   0.04863661894284339   -0.041993252213809174
1.8591970653169623   0.04863661894284339   -0.041993252213809174
1.8591970653169623   0.04863661894284339   -0.041993252213809174
0.9308286097936691   -0.05410597612285122   0.02232283509659791
0.9308286097936691   -0.05410597612285122   0.02232283509659791
0.9308286097936691   -0.05410597612285122   0.02232283509659791
0.9308286097936691   -0.05410597612285122   0.02232283509659791
0.8684153555309995   -0.14981142440437764   -0.030344132707458865
0.8684153555309995   -0.14981142440437764   -0.030344132707458865
0.8684153555309995   -0.14981142440437764   -0.030344132707458865
0.8684153555309995   -0.14981142440437764   -0.030344132707458865
1.8443786819441816   0.12687046756230275   0.03506924761915625
1.8443786819441816   0.12687046756230275   0.03506924761915625
1.8443786819441816   0.12687046756230275   0.03506924761915625
1.8443786819441816   0.12687046756230275   0.03506924761915625
1.3243984747612887   -0.01347657666866188   -0.0619510466448307
1.3243984747612887   -0.01347657666866188   -0.0619510466448307
1.3243984747612887   -0.01347657666866188   -0.0619510466448307
1.3243984747612887   -0.01347657666866188   -0.0619510466448307
1.8130537205088197   0.03854004727800664   -0.033225139273357684
1.8130537205088197   0.03854004727800664   -0.033225139273357684
1.8130537205088197   0.03854004727800664   -0.033225139273357684
1.8130537205088197   0.03854004727800664   -0.033225139273357684
0.897343434810569   -0.06387788627587396   0.028362725561885405
0.897343434810569   -0.06387788627587396   0.028362725561885405
0.897343434810569   -0.06387788627587396   0.028362725561885405
0.897343434810569   -0.06387788627587396   0.028362725561885405
0.836401415606285   -0.1476842459775832   -0.020798823339407774
0.836401415606285   -0.1476842459775832   -0.020798823339407774
0.836401415606285   -0.1476842459775832   -0.020798823339407774
0.836401415606285   -0.1476842459775832   -0.020798823339407774
1.787517981926706   0.11917524993423334   0.04560456795480705
1.787517981926706   0.11917524993423334   0.04560456795480705
1.787517981926706   0.11917524993423334   0.04560456795480705
1.787517981926706   0.11917524993423334   0.04560456795480705
1.258789974505152   -0.023526926325614345   -0.08139720450787519
1.258789974505152   -0.023526926325614345   -0.08139720450787519
1.258789974505152   -0.023526926325614345   -0.08139720450787519
1.258789974505152   -0.023526926325614345   -0.08139720450787519
0.9679539614152293   0.018244303982554944   0.008563453075975502
0.9679539614152293   0.018244303982554944   0.008563453075975502
0.9679539614152293   0.018244303982554944   0.008563453075975502
0.9679539614152293   0.018244303982554944   0.008563453075975502
0.09356051232142129   -0.05791275151750325   -0.002151873181103074
0.09356051232142129   -0.05791275151750325   -0.002151873181103074
0.09356051232142129   -0.05791275151750325   -0.002151873181103074
0.09356051232142129   -0.05791275151750325   -0.002151873181103074
0.03571929610787749   -0.18772421979160875   -0.03535318344077264
0.03571929610787749   -0.18772421979160875   -0.03535318344077264
0.03571929610787749   -0.18772421979160875   -0.03535318344077264
0.03571929610787749   -0.18772421979160875   -0.03535318344077264
0.9691303491281802   0.11174711949671445   0.04797843614958805
0.9691303491281802   0.11174711949671445   0.04797843614958805
0.9691303491281802   0.11174711949671445   0.04797843614958805
0.9691303491281802   0.11174711949671445   0.04797843614958805
0.5071099856001369   -0.026442446670383632   -0.020137735864329875
0.5071099856001369   -0.026442446670383632   -0.020137735864329875
0.5071099856001369   -0.026442446670383632   -0.020137735864329875
0.5071099856001369   -0.026442446670383632   -0.020137735864329875
0.9407996085382953   0.0033140416016713622   0.0147578110952101
0.9407996085382953   0.0033140416016713622   0.0147578110952101
0.9407996085382953   0.0033140416016713622   0.0147578110952101
0.9407996085382953   0.0033140416016713622   0.0147578110952101
0.06512135130224811   -0.07821982729207938   0.0021527000315510227
0.06512135130224811   -0.07821982729207938   0.0021527000315510227
0.06512135130224811   -0.07821982729207938   0.0021527000315510227
0.06512135130224811   -0.07821982729207938   0.0021527000315510227
0.0038565646589560493   -0.1967177526911948   -0.02458115006945963
0.0038565646589560493   -0.1967177526911948   -0.02458115006945963
0.0038565646589560493   -0.1967177526911948   -0.02458115006945963
0.0038565646589560493   -0.1967177526911948   -0.02458115006945963
0.9341493189520292   0.09558840653372683   0.05292585345958553
0.9341493189520292   0.09558840653372683   0.05292585345958553
0.9341493189520292   0.09558840653372683   0.05292585345958553
0.9341493189520292   0.09558840653372683   0.05292585345958553
0.4704574252612133   -0.041308253962007484   -0.028513043102364077
0.4704574252612133   -0.041308253962007484   -0.028513043102364077
0.4704574252612133   -0.041308253962007484   -0.028513043102364077
0.4704574252612133   -0.041308253962007484   -0.028513043102364077
0.9074085485942277   -0.006774203541155231   0.02158461174546636
0.9074085485942277   -0.006774203541155231   0.02158461174546636
0.9074085485942277   -0.006774203541155231   0.02158461174546636
0.9074085485942277   -0.006774203541155231   0.02158461174546636
0.030443962078315696   -0.09450851555475351   0.006146599890897339
0.030443962078315696   -0.09450851555475351   0.006146599890897339
0.030443962078315696   -0.09450851555475351   0.006146599890897339
0.030443962078315696   -0.09450851555475351   0.006146599890897339
-0.030354395667918237   -0.19765137972382085   -0.016745654199820617
-0.030354395667918237   -0.19765137972382085   -0.016745654199820617
-0.030354395667918237   -0.19765137972382085   -0.016745654199820617
-0.030354395667918237   -0.19765137972382085   -0.016745654199820617
0.8988567775037255   0.08529397401210209   0.05849976615811228
0.8988567775037255   0.08529397401210209   0.05849976615811228
0.8988567775037255   0.08529397401210209   0.05849976615811228
0.8988567775037255   0.08529397401210209   0.05849976615811228
0.4417518680926136   -0.04726246404910432   -0.03572106784269642
0.4417518680926136   -0.04726246404910432   -0.03572106784269642
0.4417518680926136   -0.04726246404910432   -0.03572106784269642
0.4417518680926136   -0.04726246404910432   -0.03572106784269642
0.09523820836655852   -0.05480965620183463   0.003133511728918392
0.09523820836655852   -0.05480965620183463   0.003133511728918392
0.09523820836655852   -0.05480965620183463   0.003133511728918392
0.09523820836655852   -0.05480965620183463   0.003133511728918392
-0.7466515049307232   -0.08632217168086209   -0.023501239616060154
-0.7466515049307232   -0.08632217168086209   -0.023501239616060154
-0.7466515049307232   -0.08632217168086209   -0.023501239616060154
-0.7466515049307232   -0.08632217168086209   -0.023501239616060154
-0.8109547013606371   -0.24889512268632089   -0.040260911672316324
-0.8109547013606371   -0.24889512268632089   -0.040260911672316324
-0.8109547013606371   -0.24889512268632089   -0.040260911672316324
-0.8109547013606371   -0.24889512268632089   -0.040260911672316324
0.10219944232187786   0.08180405392927631   0.027519273908344154
0.10219944232187786   0.08180405392927631   0.027519273908344154
0.10219944232187786   0.08180405392927631   0.027519273908344154
0.10219944232187786   0.08180405392927631   0.027519273908344154
-0.3410552851528998   -0.07336362038248927   -0.019998914004036902
-0.3410552851528998   -0.07336362038248927   -0.019998914004036902
-0.3410552851528998   -0.07336362038248927   -0.019998914004036902
-0.3410552851528998   -0.07336362038248927   -0.019998914004036902
0.07129949846518693   -0.06118948222988304   0.016013090784048892
0.07129949846518693   -0.06118948222988304   0.016013090784048892
0.07129949846518693   -0.06118948222988304   0.016013090784048892
0.07129949846518693   -0.06118948222988304   0.016013090784048892
-0.7776927106396652   -0.10353953966288051   -0.019306541090896967
-0.7776927106396652   -0.10353953966288051   -0.019306541090896967
-0.7776927106396652   -0.10353953966288051   -0.019306541090896967
-0.7776927106396652   -0.10353953966288051   -0.019306541090896967
-0.848324545240845   -0.2587487937569493   -0.026634884237740908
-0.848324545240845   -0.2587487937569493   -0.026634884237740908
-0.848324545240845   -0.2587487937569493   -0.026634884237740908
-0.848324545240845   -0.2587487937569493   -0.026634884237740908
0.0672413595845662   0.06450367060080482   0.03112140126659148
0.0672413595845662   0.06450367060080482   0.03112140126659148
0.0672413595845662   0.06450367060080482   0.03112140126659148
0.0672413595845662   0.06450367060080482   0.03112140126659148
-0.37196664933772583   -0.08367554185801461   -0.02399188678040133
-0.37196664933772583   -0.08367554185801461   -0.02399188678040133
-0.37196664933772583   -0.08367554185801461   -0.02399188678040133
-0.37196664933772583   -0.08367554185801461   -0.02399188678040133
0.03821221496156723   -0.07168216259869865   0.02216151135110015
0.03821221496156723   -0.07168216259869865   0.02216151135110015
0.03821221496156723   -0.07168216259869865   0.02216151135110015
0.03821221496156723   -0.07168216259869865   0.02216151135110015
-0.8188018554266713   -0.12206941536627103   -0.015700813557550264
-0.8188018554266713   -0.12206941536627103   -0.015700813557550264
-0.8188018554266713   -0.12206941536627103   -0.015700813557550264
-0.8188018554266713   -0.12206941536627103   -0.015700813557550264
-0.8897940772449676   -0.2659583982280896   -0.02367931662765252
-0.8897940772449676   -0.2659583982280896   -0.02367931662765252
-0.8897940772449676   -0.2659583982280896   -0.02367931662765252
-0.8897940772449676   -0.2659583982280896   -0.02367931662765252
0.029429572492266097   0.049731151493868725   0.03479165538341148
0.029429572492266097   0.049731151493868725   0.03479165538341148
0.029429572492266097   0.049731151493868725   0.03479165538341148
0.029429572492266097   0.049731151493868725   0.03479165538341148
-0.41213114287618907   -0.09602199369855793   -0.03360569451208756
-0.41213114287618907   -0.09602199369855793   -0.03360569451208756
-0.41213114287618907   -0.09602199369855793   -0.03360569451208756
-0.41213114287618907   -0.09602199369855793   -0.03360569451208756
-0.7352851450633885   -0.06470303007055148   0.011711418110287253
-0.7352851450633885   -0.06470303007055148   0.011711418110287253
-0.7352851450633885   -0.06470303007055148   0.011711418110287253
-0.7352851450633885   -0.06470303007055148   0.011711418110287253
-1.566555399077719   -0.10101748933612473   -0.04144950153174265
-1.566555399077719   -0.10101748933612473   -0.04144950153174265
-1.566555399077719   -0.10101748933612473   -0.04144950153174265
-1.566555399077719   -0.10101748933612473   -0.04144950153174265
-1.6396645990674805   -0.26074306805263114   -0.040184490973539544
-1.6396645990674805   -0.26074306805263114   -0.040184490973539544
-1.6396645990674805   -0.26074306805263114   -0.040184490973539544
-1.6396645990674805   -0.26074306805263114   -0.040184490973539544
-0.7390818762483142   0.06244247562198241   0.007765615580990565
-0.7390818762483142   0.06244247562198241   0.007765615580990565
-0.7390818762483142   0.06244247562198241   0.007765615580990565
-0.7390818762483142   0.06244247562198241   0.007765615580990565
-1.160499084501429   -0.0867869460775828   -0.01682440794785428
-1.160499084501429   -0.0867869460775828   -0.01682440794785428
-1.160499084501429   -0.0867869460775828   -0.01682440794785428
-1.160499084501429   -0.0867869460775828   -0.01682440794785428
-0.7618020678995132   -0.07151019752911114   0.028117330476093078
-0.7618020678995132   -0.07151019752911114   0.028117330476093078
-0.7618020678995132   -0.07151019752911114   0.028117330476093078
-0.7618020678995132   -0.07151019752911114   0.028117330476093078
-1.6123091472924065   -0.12215513477765345   -0.041995165373158005
-1.6123091472924065   -0.12215513477765345   -0.041995165373158005
-1.6123091472924065   -0.12215513477765345   -0.041995165373158005
-1.6123091472924065   -0.12215513477765345   -0.041995165373158005
-1.691374216075705   -0.277501354453285   -0.028191828315674405
-1.691374216075705   -0.277501354453285   -0.028191828315674405
-1.691374216075705   -0.277501354453285   -0.028191828315674405
-1.691374216075705   -0.277501354453285   -0.028191828315674405
-0.7806474472537875   0.0434928270181181   0.009508984922479036
-0.7806474472537875   0.0434928270181181   0.009508984922479036
-0.7806474472537875   0.0434928270181181   0.009508984922479036
-0.7806474472537875   0.0434928270181181   0.009508984922479036
-1.1932203267020127   -0.09608284005804069   -0.01688436696109652
-1.1932203267020127   -0.09608284005804069   -0.01688436696109652
-1.1932203267020127   -0.09608284005804069   -0.01688436696109652
-1.1932203267020127   -0.09608284005804069   -0.01688436696109652
-0.8030856126876885   -0.08836922596527366   0.02918021073636573
-0.8030856126876885   -0.08836922596527366   0.02918021073636573
-0.8030856126876885   -0.08836922596527366   0.02918021073636573
-0.8030856126876885   -0.08836922596527366   0.02918021073636573
-1.6658303717223109   -0.14253362255040275   -0.03544033845160188
-1.6658303717223109   -0.14253362255040275   -0.03544033845160188
-1.6658303717223109   -0.14253362255040275   -0.03544033845160188
-1.6658303717223109   -0.14253362255040275   -0.03544033845160188
-1.7498948064153734   -0.2995842059669327   -0.030186976205934524
-1.7498948064153734   -0.2995842059669327   -0.030186976205934524
-1.7498948064153734   -0.2995842059669327   -0.030186976205934524
-1.7498948064153734   -0.2995842059669327   -0.030186976205934524
-0.8255666027284387   0.020116281392951248   0.011383376333940293
-0.8255666027284387   0.020116281392951248   0.011383376333940293
-0.8255666027284387   0.020116281392951248   0.011383376333940293
-0.8255666027284387   0.020116281392951248   0.011383376333940293
-1.2512361698608638   -0.11870762316499353   -0.027422270159176032
-1.2512361698608638   -0.11870762316499353   -0.027422270159176032
-1.2512361698608638   -0.11870762316499353   -0.027422270159176032
-1.2512361698608638   -0.11870762316499353   -0.027422270159176032
-1.513442504230157   0.07157411813791024   0.05152336523203349
-1.513442504230157   0.07157411813791024   0.05152336523203349
-1.513442504230157   0.07157411813791024   0.05152336523203349
-1.513442504230157   0.07157411813791024   0.05152336523203349
-2.346741923929982   -0.11693366938416253   -0.031627760169967045
-2.346741923929982   -0.11693366938416253   -0.031627760169967045
-2.346741923929982   -0.11693366938416253   -0.031627760169967045
-2.346741923929982   -0.11693366938416253   -0.031627760169967045
-2.4046069550748395   -0.11906659159509111   0.05291905087704485
-2.4046069550748395   -0.11906659159509111   0.05291905087704485
-2.4046069550748395   -0.11906659159509111   0.05291905087704485
-2.4046069550748395   -0.11906659159509111   0.05291905087704485
-1.5722857893409368   0.04863214276974728   -0.012665653163211832
-1.5722857893409368   0.04863214276974728   -0.012665653163211832
-1.5722857893409368   0.04863214276974728   -0.012665653163211832
-1.5722857893409368   0.04863214276974728   -0.012665653163211832
-1.8679673115780264   0.001448095902730942   0.047393687863352685
-1.8679673115780264   0.001448095902730942   0.047393687863352685
-1.8679673115780264   0.001448095902730942   0.047393687863352685
-1.8679673115780264   0.001448095902730942   0.047393687863352685
-1.5558505761151054   0.05310782097382012   0.0650347347618665
-1.5558505761151054   0.05310782097382012   0.0650347347618665
-1.5558505761151054   0.05310782097382012   0.0650347347618665
-1.5558505761151054   0.05310782097382012   0.0650347347618665
-2.4199651674107323   -0.12246526890921583   -0.020473333488293388
-2.4199651674107323   -0.12246526890921583   -0.020473333488293388
-2.4199651674107323   -0.12246526890921583   -0.020473333488293388
-2.4199651674107323   -0.12246526890921583   -0.020473333488293388
-2.477670190494532   -0.13888113063068577   0.07196350443209953
-2.477670190494532   -0.13888113063068577   0.07196350443209953
-2.477670190494532   -0.13888113063068577   0.07196350443209953
-2.477670190494532   -0.13888113063068577   0.07196350443209953
-1.6258489214305947   0.035171153084868054   -0.013237862628291408
-1.6258489214305947   0.035171153084868054   -0.013237862628291408
-1.6258489214305947   0.035171153084868054   -0.013237862628291408
-1.6258489214305947   0.035171153084868054   -0.013237862628291408
-1.962151683581322   -0.021750125400562426   0.025855770803916267
-1.962151683581322   -0.021750125400562426   0.025855770803916267
-1.962151683581322   -0.021750125400562426   0.025855770803916267
-1.962151683581322   -0.021750125400562426   0.025855770803916267
-1.6108259125653648   0.03292057585439427   0.06412775892833261
-1.6108259125653648   0.03292057585439427   0.06412775892833261
-1.6108259125653648   0.03292057585439427   0.06412775892833261
-1.6108259125653648   0.03292057585439427   0.06412775892833261
-2.495522246431365   -0.13945960047181222   -0.01671830541092234
-2.495522246431365   -0.13945960047181222   -0.01671830541092234
-2.495522246431365   -0.13945960047181222   -0.01671830541092234
-2.495522246431365   -0.13945960047181222   -0.01671830541092234
-2.5815201885149612   -0.21878036402395787   0.0625415006658494
-2.5815201885149612   -0.21878036402395787   0.0625415006658494
-2.5815201885149612   -0.21878036402395787   0.0625415006658494
-2.5815201885149612   -0.21878036402395787   0.0625415006658494
-1.687603830367359   -0.005856663551891045   -0.0124596383809088
-1.687603830367359   -0.005856663551891045   -0.0124596383809088
-1.687603830367359   -0.005856663551891045   -0.0124596383809088
-1.687603830367359   -0.005856663551891045   -0.0124596383809088
-2.0023653313198784   -0.05094068930682545   0.006882643746073058
-2.0023653313198784   -0.05094068930682545   0.006882643746073058
-2.0023653313198784   -0.05094068930682545   0.006882643746073058
-2.0023653313198784   -0.05094068930682545   0.006882643746073058
1.5489688578357221   0.08279880499938481   -0.05532168164403761
1.5489688578357221   0.08279880499938481   -0.05532168164403761
1.5489688578357221   0.08279880499938481   -0.05532168164403761
1.5489688578357221   0.08279880499938481   -0.05532168164403761
0.7680579198517387   -0.0006755667578922445   0.02007358024002498
0.7680579198517387   -0.0006755667578922445   0.02007358024002498
0.7680579198517387   -0.0006755667578922445   0.02007358024002498
0.7680579198517387   -0.0006755667578922445   0.02007358024002498
0.7018647955839977   -0.11450846424563654   -0.050725791307718676
0.7018647955839977   -0.11450846424563654   -0.050725791307718676
0.7018647955839977   -0.11450846424563654   -0.050725791307718676
0.7018647955839977   -0.11450846424563654   -0.050725791307718676
1.519743133989253   0.12530444201710464   0.025171289014409404
1.519743133989253   0.12530444201710464   0.025171289014409404
1.519743133989253   0.12530444201710464   0.025171289014409404
1.519743133989253   0.12530444201710464   0.025171289014409404
1.075998294101547   0.00950921702533851   -0.03540877386831964
1.075998294101547   0.00950921702533851   -0.03540877386831964
1.075998294101547   0.00950921702533851   -0.03540877386831964
1.075998294101547   0.00950921702533851   -0.03540877386831964
1.4874097510413185   0.04208954030477473   -0.053280724012921665
1.4874097510413185   0.04208954030477473   -0.053280724012921665
1.4874097510413185   0.04208954030477473   -0.053280724012921665
1.4874097510413185   0.04208954030477473   -0.053280724012921665
0.7328102567423335   -0.03268148432291585   0.02217453456122645
0.7328102567423335   -0.03268148432291585   0.02217453456122645
0.7328102567423335   -0.03268148432291585   0.02217453456122645
0.7328102567423335   -0.03268148432291585   0.02217453456122645
0.6687568607548752   -0.12408521885073742   -0.044087363256738094
0.6687568607548752   -0.12408521885073742   -0.044087363256738094
0.6687568607548752   -0.12408521885073742   -0.044087363256738094
0.6687568607548752   -0.12408521885073742   -0.044087363256738094
1.4702182223646456   0.11214642834014722   0.03440180539179244
1.4702182223646456   0.11214642834014722   0.03440180539179244
1.4702182223646456   0.11214642834014722   0.03440180539179244
1.4702182223646456   0.11214642834014722   0.03440180539179244
1.050058737862079   -0.007739991831894721   -0.04654478610893226
1.050058737862079   -0.007739991831894721   -0.04654478610893226
1.050058737862079   -0.007739991831894721   -0.04654478610893226
1.050058737862079   -0.007739991831894721   -0.04654478610893226
1.4385780849181293   0.030305006610948135   -0.04195746011156454
1.4385780849181293   0.030305006610948135   -0.04195746011156454
1.4385780849181293   0.030305006610948135   -0.04195746011156454
1.4385780849181293   0.030305006610948135   -0.04195746011156454
0.6991536166581039   -0.04348717866482253   0.0272983760734853
0.6991536166581039   -0.04348717866482253   0.0272983760734853
0.6991536166581039   -0.04348717866482253   0.0272983760734853
0.6991536166581039   -0.04348717866482253   0.0272983760734853
0.6385211273916093   -0.12694819405945978   -0.036015797478623324
0.6385211273916093   -0.12694819405945978   -0.036015797478623324
0.6385211273916093   -0.12694819405945978   -0.036015797478623324
0.6385211273916093   -0.12694819405945978   -0.036015797478623324
1.4143866635242388   0.10059284320131849   0.04279901655399526
1.4143866635242388   0.10059284320131849   0.04279901655399526
1.4143866635242388   0.10059284320131849   0.04279901655399526
1.4143866635242388   0.10059284320131849   0.04279901655399526
0.9897106064979949   -0.019626258428361396   -0.06322975247895254
0.9897106064979949   -0.019626258428361396   -0.06322975247895254
0.9897106064979949   -0.019626258428361396   -0.06322975247895254
0.9897106064979949   -0.019626258428361396   -0.06322975247895254
0.7812004810278586   0.08088981727712599   0.004221002085605996
0.7812004810278586   0.08088981727712599   0.004221002085605996
0.7812004810278586   0.08088981727712599   0.004221002085605996
0.7812004810278586   0.08088981727712599   0.004221002085605996
0.026958148079031227   -0.025515918465969983   -0.003157560926422083
0.026958148079031227   -0.025515918465969983   -0.003157560926422083
0.026958148079031227   -0.025515918465969983   -0.003157560926422083
0.026958148079031227   -0.025515918465969983   -0.003157560926422083
-0.02293411814866659   -0.1031615739405172   -0.03450056375972344
-0.02293411814866659   -0.1031615739405172   -0.03450056375972344
-0.02293411814866659   -0.1031615739405172   -0.03450056375972344
-0.02293411814866659   -0.1031615739405172   -0.03450056375972344
0.7661033405456519   0.1134505762704299   0.04250789298447202
0.7661033405456519   0.1134505762704299   0.04250789298447202
0.7661033405456519   0.1134505762704299   0.04250789298447202
0.7661033405456519   0.1134505762704299   0.04250789298447202
0.38179045448937693   0.016159043052958625   -0.004381759358049228
0.38179045448937693   0.016159043052958625   -0.004381759358049228
0.38179045448937693   0.016159043052958625   -0.004381759358049228
0.38179045448937693   0.016159043052958625   -0.004381759358049228
0.7485972937728549   0.05977539022826337   0.00865284516265799
0.7485972937728549   0.05977539022826337   0.00865284516265799
0.7485972937728549   0.05977539022826337   0.00865284516265799
0.7485972937728549   0.05977539022826337   0.00865284516265799
-0.005118168681322456   -0.049176485203802814   0.0005940948402828137
-0.005118168681322456   -0.049176485203802814   0.0005940948402828137
-0.005118168681322456   -0.049176485203802814   0.0005940948402828137
-0.005118168681322456   -0.049176485203802814   0.0005940948402828137
-0.05429742655422773   -0.11864951174552844   -0.029816992430433956
-0.05429742655422773   -0.11864951174552844   -0.029816992430433956
-0.05429742655422773   -0.11864951174552844   -0.029816992430433956
-0.05429742655422773   -0.11864951174552844   -0.029816992430433956
0.7305758095196895   0.09388184977942446   0.04704031193716568
0.7305758095196895   0.09388184977942446   0.04704031193716568
0.7305758095196895   0.09388184977942446   0.04704031193716568
0.7305758095196895   0.09388184977942446   0.04704031193716568
0.3434926254069248   -0.003121400475546529   -0.015339589030054473
0.3434926254069248   -0.003121400475546529   -0.015339589030054473
0.3434926254069248   -0.003121400475546529   -0.015339589030054473
0.3434926254069248   -0.003121400475546529   -0.015339589030054473
0.7137245823921757   0.04354291145470362   0.013123114624323001
0.7137245823921757   0.04354291145470362   0.013123114624323001
0.7137245823921757   0.04354291145470362   0.013123114624323001
0.7137245823921757   0.04354291145470362   0.013123114624323001
-0.03741564695431468   -0.06828002094840746   0.0042224147720103175
-0.03741564695431468   -0.06828002094840746   0.0042224147720103175
-0.03741564695431468   -0.06828002094840746   0.0042224147720103175
-0.03741564695431468   -0.06828002094840746   0.0042224147720103175
-0.0853448270373266   -0.12798769905416582   -0.023706994632113974
-0.0853448270373266   -0.12798769905416582   -0.023706994632113974
-0.0853448270373266   -0.12798769905416582   -0.023706994632113974
-0.0853448270373266   -0.12798769905416582   -0.023706994632113974
0.6967862982572925   0.07736626222003024   0.05099560057029358
0.6967862982572925   0.07736626222003024   0.05099560057029358
0.6967862982572925   0.07736626222003024   0.05099560057029358
0.6967862982572925   0.07736626222003024   0.05099560057029358
0.31515563982120376   -0.01547062261324968   -0.023421836124419046
0.31515563982120376   -0.01547062261324968   -0.023421836124419046
0.31515563982120376   -0.01547062261324968   -0.023421836124419046
0.31515563982120376   -0.01547062261324968   -0.023421836124419046
0.052555091032397534   0.08173470209154207   0.017576533282901242
0.052555091032397534   0.08173470209154207   0.017576533282901242
0.052555091032397534   0.08173470209154207   0.017576533282901242
0.052555091032397534   0.08173470209154207   0.017576533282901242
-0.6911173837087358   -0.04468687553919985   -0.023784876601021854
-0.6911173837087358   -0.04468687553919985   -0.023784876601021854
-0.6911173837087358   -0.04468687553919985   -0.023784876601021854
-0.6911173837087358   -0.04468687553919985   -0.023784876601021854
-0.7300429584200845   -0.09451177103785102   -0.021817450185330184
-0.7300429584200845   -0.09451177103785102   -0.021817450185330184
-0.7300429584200845   -0.09451177103785102   -0.021817450185330184
-0.7300429584200845   -0.09451177103785102   -0.021817450185330184
0.027295640341678216   0.09289461127681807   0.020592043474665308
0.027295640341678216   0.09289461127681807   0.020592043474665308
0.027295640341678216   0.09289461127681807   0.020592043474665308
0.027295640341678216   0.09289461127681807   0.020592043474665308
-0.3349080562963306   0.010437157913213316   0.0012670127354943855
-0.3349080562963306   0.010437157913213316   0.0012670127354943855
-0.3349080562963306   0.010437157913213316   0.0012670127354943855
-0.3349080562963306   0.010437157913213316   0.0012670127354943855
0.0219516509661876   0.0646699853760629   0.02209672249796738
0.0219516509661876   0.0646699853760629   0.02209672249796738
0.0219516509661876   0.0646699853760629   0.02209672249796738
0.0219516509661876   0.0646699853760629   0.02209672249796738
-0.7238441067221753   -0.06543228281467717   -0.019902679918957472
-0.7238441067221753   -0.06543228281467717   -0.019902679918957472
-0.7238441067221753   -0.06543228281467717   -0.019902679918957472
-0.7238441067221753   -0.06543228281467717   -0.019902679918957472
-0.7637021583078671   -0.11153064350978359   -0.018106651393917206
-0.7637021583078671   -0.11153064350978359   -0.018106651393917206
-0.7637021583078671   -0.11153064350978359   -0.018106651393917206
-0.7637021583078671   -0.11153064350978359   -0.018106651393917206
-0.00505240534595487   0.07276338109774101   0.02499522076766471
-0.00505240534595487   0.07276338109774101   0.02499522076766471
-0.00505240534595487   0.07276338109774101   0.02499522076766471
-0.00505240534595487   0.07276338109774101   0.02499522076766471
-0.36715457927057066   -0.00621083783015863   -0.006973138827674391
-0.36715457927057066   -0.00621083783015863   -0.006973138827674391
-0.36715457927057066   -0.00621083783015863   -0.006973138827674391
-0.36715457927057066   -0.00621083783015863   -0.006973138827674391
-0.009618298294273   0.048244405163734114   0.026684731960077125
-0.009618298294273   0.048244405163734114   0.026684731960077125
-0.009618298294273   0.048244405163734114   0.026684731960077125
-0.009618298294273   0.048244405163734114   0.026684731960077125
-0.758401069322914   -0.08627647153914228   -0.016855378439792595
-0.758401069322914   -0.08627647153914228   -0.016855378439792595
-0.758401069322914   -0.08627647153914228   -0.016855378439792595
-0.758401069322914   -0.08627647153914228   -0.016855378439792595
-0.7971352953531704   -0.12492799671439589   -0.011939217812475061
-0.7971352953531704   -0.12492799671439589   -0.011939217812475061
-0.7971352953531704   -0.12492799671439589   -0.011939217812475061
-0.7971352953531704   -0.12492799671439589   -0.011939217812475061
-0.038564347323926856   0.053799188327457934   0.02840851655326096
-0.038564347323926856   0.053799188327457934   0.02840851655326096
-0.038564347323926856   0.053799188327457934   0.02840851655326096
-0.038564347323926856   0.053799188327457934   0.02840851655326096
-0.40185077084491916   -0.023142518532823193   -0.01597536041713543
-0.40185077084491916   -0.023142518532823193   -0.01597536041713543
-0.40185077084491916   -0.023142518532823193   -0.01597536041713543
-0.40185077084491916   -0.023142518532823193   -0.01597536041713543
-0.6516708740640939   0.09666789599130077   0.032092900091698295
-0.6516708740640939   0.09666789599130077   0.032092900091698295
-0.6516708740640939   0.09666789599130077   0.032092900091698295
-0.6516708740640939   0.09666789599130077   0.032092900091698295
-1.3852463908487707   -0.061472411916818986   -0.03899021612108483
-1.3852463908487707   -0.061472411916818986   -0.03899021612108483
-1.3852463908487707   -0.061472411916818986   -0.03899021612108483
-1.3852463908487707   -0.061472411916818986   -0.03899021612108483
-1.4155994672248666   -0.07565117619616213   -0.006185052533179691
-1.4155994672248666   -0.07565117619616213   -0.006185052533179691
-1.4155994672248666   -0.07565117619616213   -0.006185052533179691
-1.4155994672248666   -0.07565117619616213   -0.006185052533179691
-0.6929613676615879   0.07024585904421458   -0.0011671264749090193
-0.6929613676615879   0.07024585904421458   -0.0011671264749090193
-0.6929613676615879   0.07024585904421458   -0.0011671264749090193
-0.6929613676615879   0.07024585904421458   -0.0011671264749090193
-1.0288856458939883   0.010637388048250651   0.007492849380093869
-1.0288856458939883   0.010637388048250651   0.007492849380093869
-1.0288856458939883   0.010637388048250651   0.007492849380093869
-1.0288856458939883   0.010637388048250651   0.007492849380093869
-0.68373967221576   0.0791626960599868   0.0360245137384583
-0.68373967221576   0.0791626960599868   0.0360245137384583
-0.68373967221576   0.0791626960599868   0.0360245137384583
-0.68373967221576   0.0791626960599868   0.0360245137384583
-1.423657188160275   -0.08340403870151483   -0.038720794704868944
-1.423657188160275   -0.08340403870151483   -0.038720794704868944
-1.423657188160275   -0.08340403870151483   -0.038720794704868944
-1.423657188160275   -0.08340403870151483   -0.038720794704868944
-1.457053488649188   -0.0947841453992361   -0.005469835768830145
-1.457053488649188   -0.0947841453992361   -0.005469835768830145
-1.457053488649188   -0.0947841453992361   -0.005469835768830145
-1.457053488649188   -0.0947841453992361   -0.005469835768830145
-0.7270164072616129   0.05103511982623991   0.0027563405013384112
-0.7270164072616129   0.05103511982623991   0.0027563405013384112
-0.7270164072616129   0.05103511982623991   0.0027563405013384112
-0.7270164072616129   0.05103511982623991   0.0027563405013384112
-1.057927407142826   -0.004602090537894829   0.0007317555318517854
-1.057927407142826   -0.004602090537894829   0.0007317555318517854
-1.057927407142826   -0.004602090537894829   0.0007317555318517854
-1.057927407142826   -0.004602090537894829   0.0007317555318517854
-0.7169180103397524   0.0626613386698276   0.041622106267052844
-0.7169180103397524   0.0626613386698276   0.041622106267052844
-0.7169180103397524   0.0626613386698276   0.041622106267052844
-0.7169180103397524   0.0626613386698276   0.041622106267052844
-1.4647916238119174   -0.10405010248369273   -0.034894554498020314
-1.4647916238119174   -0.10405010248369273   -0.034894554498020314
-1.4647916238119174   -0.10405010248369273   -0.034894554498020314
-1.4647916238119174   -0.10405010248369273   -0.034894554498020314
-1.4952264178071428   -0.11526554325132833   0.00413406819124662
-1.4952264178071428   -0.11526554325132833   0.00413406819124662
-1.4952264178071428   -0.11526554325132833   0.00413406819124662
-1.4952264178071428   -0.11526554325132833   0.00413406819124662
-0.7631055251578569   0.02818550979054065   0.005096126659155792
-0.7631055251578569   0.02818550979054065   0.005096126659155792
-0.7631055251578569   0.02818550979054065   0.005096126659155792
-0.7631055251578569   0.02818550979054065   0.005096126659155792
-1.1032095152671908   -0.02596589393373684   -0.008348955605753217
-1.1032095152671908   -0.02596589393373684   -0.008348955605753217
-1.1032095152671908   -0.02596589393373684   -0.008348955605753217
-1.1032095152671908   -0.02596589393373684   -0.008348955605753217
-1.3360583659383045   0.10052007795920773   0.04495741855520674
-1.3360583659383045   0.10052007795920773   0.04495741855520674
-1.3360583659383045   0.10052007795920773   0.04495741855520674
-1.3360583659383045   0.10052007795920773   0.04495741855520674
-2.0447156842108565   -0.09456164683755701   -0.03601190382746128
-2.0447156842108565   -0.09456164683755701   -0.03601190382746128
-2.0447156842108565   -0.09456164683755701   -0.03601190382746128
-2.0447156842108565   -0.09456164683755701   -0.03601190382746128
-2.0728708588597016   -0.04129698245538213   0.03827379022984434
-2.0728708588597016   -0.04129698245538213   0.03827379022984434
-2.0728708588597016   -0.04129698245538213   0.03827379022984434
-2.0728708588597016   -0.04129698245538213   0.03827379022984434
-1.3948856320980325   0.04196377407700169   -0.020230827172173116
-1.3948856320980325   0.04196377407700169   -0.020230827172173116
-1.3948856320980325   0.04196377407700169   -0.020230827172173116
-1.3948856320980325   0.04196377407700169   -0.020230827172173116
-1.6364877329878516   0.020954470292652544   0.037563607360258544
-1.6364877329878516   0.020954470292652544   0.037563607360258544
-1.6364877329878516   0.020954470292652544   0.037563607360258544
-1.6364877329878516   0.020954470292652544   0.037563607360258544
-1.3684468787790385   0.10226533184561531   0.05166138165416856
-1.3684468787790385   0.10226533184561531   0.05166138165416856
-1.3684468787790385   0.10226533184561531   0.05166138165416856
-1.3684468787790385   0.10226533184561531   0.05166138165416856
-2.097748694196351   -0.1000376222416512   -0.027374746667119254
-2.097748694196351   -0.1000376222416512   -0.027374746667119254
-2.097748694196351   -0.1000376222416512   -0.027374746667119254
-2.097748694196351   -0.1000376222416512   -0.027374746667119254
-2.1243539503322326   -0.05130613273746204   0.052880737161757396
-2.1243539503322326   -0.05130613273746204   0.052880737161757396
-2.1243539503322326   -0.05130613273746204   0.052880737161757396
-2.1243539503322326   -0.05130613273746204   0.052880737161757396
-1.434419803250147   0.030922463174732184   -0.018008017347593497
-1.434419803250147   0.030922463174732184   -0.018008017347593497
-1.434419803250147   0.030922463174732184   -0.018008017347593497
-1.434419803250147   0.030922463174732184   -0.018008017347593497
-1.707230900132651   0.010329996677557504   0.02409973157649875
-1.707230900132651   0.010329996677557504   0.02409973157649875
-1.707230900132651   0.010329996677557504   0.02409973157649875
-1.707230900132651   0.010329996677557504   0.02409973157649875
-1.4052193887118645   0.094773279881652   0.0641432386368983
-1.4052193887118645   0.094773279881652   0.0641432386368983
-1.4052193887118645   0.094773279881652   0.0641432386368983
-1.4052193887118645   0.094773279881652   0.0641432386368983
-2.1520481190046854   -0.11365070357853832   -0.023245535359407543
-2.1520481190046854   -0.11365070357853832   -0.023245535359407543
-2.1520481190046854   -0.11365070357853832   -0.023245535359407543
-2.1520481190046854   -0.11365070357853832   -0.023245535359407543
-2.1941796025854656   -0.09415777253000715   0.05261058894661741
-2.1941796025854656   -0.09415777253000715   0.05261058894661741
-2.1941796025854656   -0.09415777253000715   0.05261058894661741
-2.1941796025854656   -0.09415777253000715   0.05261058894661741
-1.476807582914163   -0.0021246456445491446   -0.016912654950640704
-1.476807582914163   -0.0021246456445491446   -0.016912654950640704
-1.476807582914163   -0.0021246456445491446   -0.016912654950640704
-1.476807582914163   -0.0021246456445491446   -0.016912654950640704
-1.7279403482983595   -0.00493513166469621   0.01961605883340245
-1.7279403482983595   -0.00493513166469621   0.01961605883340245
-1.7279403482983595   -0.00493513166469621   0.01961605883340245
-1.7279403482983595   -0.00493513166469621   0.01961605883340245
1.173355713029372   0.06514151990982497   -0.05613877959902236
1.173355713029372   0.06514151990982497   -0.05613877959902236
1.173355713029372   0.06514151990982497   -0.05613877959902236
1.173355713029372   0.06514151990982497   -0.05613877959902236
0.5581025502295804   0.011308986006892292   0.021431491259220184
0.5581025502295804   0.011308986006892292   0.021431491259220184
0.5581025502295804   0.011308986006892292   0.021431491259220184
0.5581025502295804   0.011308986006892292   0.021431491259220184
0.4957184866208744   -0.0951943581982987   -0.053298064694228764
0.4957184866208744   -0.0951943581982987   -0.053298064694228764
0.4957184866208744   -0.0951943581982987   -0.053298064694228764
0.4957184866208744   -0.0951943581982987   -0.053298064694228764
1.1478678214633977   0.10791103884942119   0.02649733726691067
1.1478678214633977   0.10791103884942119   0.02649733726691067
1.1478678214633977   0.10791103884942119   0.02649733726691067
1.1478678214633977   0.10791103884942119   0.02649733726691067
0.8001846010817043   0.010826165357451477   -0.023658765370480256
0.8001846010817043   0.010826165357451477   -0.023658765370480256
0.8001846010817043   0.010826165357451477   -0.023658765370480256
0.8001846010817043   0.010826165357451477   -0.023658765370480256
1.1161652826743644   0.02894479198788981   -0.0530491098167149
1.1161652826743644   0.02894479198788981   -0.0530491098167149
1.1161652826743644   0.02894479198788981   -0.0530491098167149
1.1161652826743644   0.02894479198788981   -0.0530491098167149
0.5267954369373608   -0.016853699809323847   0.023746028499222624
0.5267954369373608   -0.016853699809323847   0.023746028499222624
0.5267954369373608   -0.016853699809323847   0.023746028499222624
0.5267954369373608   -0.016853699809323847   0.023746028499222624
0.46656909830722176   -0.10455337250201935   -0.04544807476161661
0.46656909830722176   -0.10455337250201935   -0.04544807476161661
0.46656909830722176   -0.10455337250201935   -0.04544807476161661
0.46656909830722176   -0.10455337250201935   -0.04544807476161661
1.1025449777664178   0.09453834215688778   0.03483620577565444
1.1025449777664178   0.09453834215688778   0.03483620577565444
1.1025449777664178   0.09453834215688778   0.03483620577565444
1.1025449777664178   0.09453834215688778   0.03483620577565444
0.7740540229474862   -0.0053920486769021975   -0.03325458305477058
0.7740540229474862   -0.0053920486769021975   -0.03325458305477058
0.7740540229474862   -0.0053920486769021975   -0.03325458305477058
0.7740540229474862   -0.0053920486769021975   -0.03325458305477058
1.0715849474214927   0.01704524292895296   -0.04247084672102591
1.0715849474214927   0.01704524292895296   -0.04247084672102591
1.0715849474214927   0.01704524292895296   -0.04247084672102591
1.0715849474214927   0.01704524292895296   -0.04247084672102591
0.49674146551224724   -0.027847936413983056   0.02870832517547066
0.49674146551224724   -0.027847936413983056   0.02870832517547066
0.49674146551224724   -0.027847936413983056   0.02870832517547066
0.49674146551224724   -0.027847936413983056   0.02870832517547066
0.44029306357534703   -0.11035514568881966   -0.037847327947865134
0.44029306357534703   -0.11035514568881966   -0.037847327947865134
0.44029306357534703   -0.11035514568881966   -0.037847327947865134
0.44029306357534703   -0.11035514568881966   -0.037847327947865134
1.0514404547783875   0.08003358719653808   0.041372088733358625
1.0514404547783875   0.08003358719653808   0.041372088733358625
1.0514404547783875   0.08003358719653808   0.041372088733358625
1.0514404547783875   0.08003358719653808   0.041372088733358625
0.7225149674081685   -0.01766026884166242   -0.0474338318474031
0.7225149674081685   -0.01766026884166242   -0.0474338318474031
0.7225149674081685   -0.01766026884166242   -0.0474338318474031
0.7225149674081685   -0.01766026884166242   -0.0474338318474031
0.5673719146750527   0.08251317244767929   -0.0034258729541971344
0.5673719146750527   0.08251317244767929   -0.0034258729541971344
0.5673719146750527   0.08251317244767929   -0.0034258729541971344
0.5673719146750527   0.08251317244767929   -0.0034258729541971344
-0.03694090187238238   -0.007964457108320083   -0.0002571511353167081
-0.03694090187238238   -0.007964457108320083   -0.0002571511353167081
-0.03694090187238238   -0.007964457108320083   -0.0002571511353167081
-0.03694090187238238   -0.007964457108320083   -0.0002571511353167081
-0.08088650424985425   -0.0712225341930903   -0.03386781453762286
-0.08088650424985425   -0.0712225341930903   -0.03386781453762286
-0.08088650424985425   -0.0712225341930903   -0.03386781453762286
-0.08088650424985425   -0.0712225341930903   -0.03386781453762286
0.5525657762242938   0.09806807155648342   0.037675953568081066
0.5525657762242938   0.09806807155648342   0.037675953568081066
0.5525657762242938   0.09806807155648342   0.037675953568081066
0.5525657762242938   0.09806807155648342   0.037675953568081066
0.24666874862650415   0.024214759411991103   0.0017501709173873073
0.24666874862650415   0.024214759411991103   0.0017501709173873073
0.24666874862650415   0.024214759411991103   0.0017501709173873073
0.24666874862650415   0.024214759411991103   0.0017501709173873073
0.5376513873442428   0.059577519315108594   0.0015945614092131855
0.5376513873442428   0.059577519315108594   0.0015945614092131855
0.5376513873442428   0.059577519315108594   0.0015945614092131855
0.5376513873442428   0.059577519315108594   0.0015945614092131855
-0.06571612537837923   -0.032475991960279206   0.0032375375869411124
-0.06571612537837923   -0.032475991960279206   0.0032375375869411124
-0.06571612537837923   -0.032475991960279206   0.0032375375869411124
-0.06571612537837923   -0.032475991960279206   0.0032375375869411124
-0.10834416515824012   -0.08890975940256533   -0.027997759294853604
-0.10834416515824012   -0.08890975940256533   -0.027997759294853604
-0.10834416515824012   -0.08890975940256533   -0.027997759294853604
-0.10834416515824012   -0.08890975940256533   -0.027997759294853604
0.5201990097494533   0.07695885577000978   0.041189254177507864
0.5201990097494533   0.07695885577000978   0.041189254177507864
0.5201990097494533   0.07695885577000978   0.041189254177507864
0.5201990097494533   0.07695885577000978   0.041189254177507864
0.21284039045142533   0.003344956916821516   -0.008728679232100169
0.21284039045142533   0.003344956916821516   -0.008728679232100169
0.21284039045142533   0.003344956916821516   -0.008728679232100169
0.21284039045142533   0.003344956916821516   -0.008728679232100169
0.5057781291674108   0.04060249394083112   0.0054412130964777705
0.5057781291674108   0.04060249394083112   0.0054412130964777705
0.5057781291674108   0.04060249394083112   0.0054412130964777705
0.5057781291674108   0.04060249394083112   0.0054412130964777705
-0.09413170218547645   -0.052761815182664894   0.006916611349064239
-0.09413170218547645   -0.052761815182664894   0.006916611349064239
-0.09413170218547645   -0.052761815182664894   0.006916611349064239
-0.09413170218547645   -0.052761815182664894   0.006916611349064239
-0.13544434725614563   -0.10377547001713654   -0.02248241510210207
-0.13544434725614563   -0.10377547001713654   -0.02248241510210207
-0.13544434725614563   -0.10377547001713654   -0.02248241510210207
-0.13544434725614563   -0.10377547001713654   -0.02248241510210207
0.49031552788289506   0.05743093580721367   0.04447891209383954
0.49031552788289506   0.05743093580721367   0.04447891209383954
0.49031552788289506   0.05743093580721367   0.04447891209383954
0.49031552788289506   0.05743093580721367   0.04447891209383954
0.18687755426291208   -0.012487117373255405   -0.017462813024518804
0.18687755426291208   -0.012487117373255405   -0.017462813024518804
0.18687755426291208   -0.012487117373255405   -0.017462813024518804
0.18687755426291208   -0.012487117373255405   -0.017462813024518804
-0.012871875339140505   0.0984532552828657   0.013670269139710709
-0.012871875339140505   0.0984532552828657   0.013670269139710709
-0.012871875339140505   0.0984532552828657   0.013670269139710709
-0.012871875339140505   0.0984532552828657   0.013670269139710709
-0.6193045638617314   -0.02680209038571361   -0.020542356022094796
-0.6193045638617314   -0.02680209038571361   -0.020542356022094796
-0.6193045638617314   -0.02680209038571361   -0.020542356022094796
-0.6193045638617314   -0.02680209038571361   -0.020542356022094796
-0.6476283864756974   -0.04941514915719267   -0.01603273187801274
-0.6476283864756974   -0.04941514915719267   -0.01603273187801274
-0.6476283864756974   -0.04941514915719267   -0.01603273187801274
-0.6476283864756974   -0.04941514915719267   -0.01603273187801274
-0.040744687710832776   0.0792031257047808   0.01641560825961339
-0.040744687710832776   0.0792031257047808   0.01641560825961339
-0.040744687710832776   0.0792031257047808   0.01641560825961339
-0.040744687710832776   0.0792031257047808   0.01641560825961339
-0.32935550602878505   0.025531757938599728   0.006461830555340928
-0.32935550602878505   0.025531757938599728   0.006461830555340928
-0.32935550602878505   0.025531757938599728   0.006461830555340928
-0.32935550602878505   0.025531757938599728   0.006461830555340928
-0.040195454967774796   0.07912580254660935   0.019239095133074778
-0.040195454967774796   0.07912580254660935   0.019239095133074778
-0.040195454967774796   0.07912580254660935   0.019239095133074778
-0.040195454967774796   0.07912580254660935   0.019239095133074778
-0.6476469920339893   -0.04880719881425524   -0.016733710012410252
-0.6476469920339893   -0.04880719881425524   -0.016733710012410252
-0.6476469920339893   -0.04880719881425524   -0.016733710012410252
-0.6476469920339893   -0.04880719881425524   -0.016733710012410252
-0.6757527965615382   -0.06855763912884116   -0.010909489149662888
-0.6757527965615382   -0.06855763912884116   -0.010909489149662888
-0.6757527965615382   -0.06855763912884116   -0.010909489149662888
-0.6757527965615382   -0.06855763912884116   -0.010909489149662888
-0.06937024241091652   0.05746681872225789   0.02049527631694107
-0.06937024241091652   0.05746681872225789   0.02049527631694107
-0.06937024241091652   0.05746681872225789   0.02049527631694107
-0.06937024241091652   0.05746681872225789   0.02049527631694107
-0.35776935425637796   0.00665060328842431   -0.002042041087634172
-0.35776935425637796   0.00665060328842431   -0.002042041087634172
-0.35776935425637796   0.00665060328842431   -0.002042041087634172
-0.35776935425637796   0.00665060328842431   -0.002042041087634172
-0.0682539664747422   0.05986059971872062   0.023682875001350044
-0.0682539664747422   0.05986059971872062   0.023682875001350044
-0.0682539664747422   0.05986059971872062   0.023682875001350044
-0.0682539664747422   0.05986059971872062   0.023682875001350044
-0.6767126258528839   -0.07079497348047398   -0.013471301254750934
-0.6767126258528839   -0.07079497348047398   -0.013471301254750934
-0.6767126258528839   -0.07079497348047398   -0.013471301254750934
-0.6767126258528839   -0.07079497348047398   -0.013471301254750934
-0.7035474749670706   -0.08604688912914801   -0.005838743086625048
-0.7035474749670706   -0.08604688912914801   -0.005838743086625048
-0.7035474749670706   -0.08604688912914801   -0.005838743086625048
-0.7035474749670706   -0.08604688912914801   -0.005838743086625048
-0.0981115951133098   0.036444066495761526   0.02396180909918285
-0.0981115951133098   0.036444066495761526   0.02396180909918285
-0.0981115951133098   0.036444066495761526   0.02396180909918285
-0.0981115951133098   0.036444066495761526   0.02396180909918285
-0.38748374979680883   -0.01239023419001068   -0.011511483730712743
-0.38748374979680883   -0.01239023419001068   -0.011511483730712743
-0.38748374979680883   -0.01239023419001068   -0.011511483730712743
-0.38748374979680883   -0.01239023419001068   -0.011511483730712743
-0.5812755037763816   0.1130666496047097   0.029734204414230886
-0.5812755037763816   0.1130666496047097   0.029734204414230886
-0.5812755037763816   0.1130666496047097   0.029734204414230886
-0.5812755037763816   0.1130666496047097   0.029734204414230886
-1.1882737769515361   -0.04604005901719761   -0.037047403152734804
-1.1882737769515361   -0.04604005901719761   -0.037047403152734804
-1.1882737769515361   -0.04604005901719761   -0.037047403152734804
-1.1882737769515361   -0.04604005901719761   -0.037047403152734804
-1.2037558252662883   -0.0309990951104048   0.0034025603566944507
-1.2037558252662883   -0.0309990951104048   0.0034025603566944507
-1.2037558252662883   -0.0309990951104048   0.0034025603566944507
-1.2037558252662883   -0.0309990951104048   0.0034025603566944507
-0.6241194831579276   0.056867964464865375   -0.004771328911218245
-0.6241194831579276   0.056867964464865375   -0.004771328911218245
-0.6241194831579276   0.056867964464865375   -0.004771328911218245
-0.6241194831579276   0.056867964464865375   -0.004771328911218245
-0.8935187747281162   0.02436549800363423   0.010952128951760981
-0.8935187747281162   0.02436549800363423   0.010952128951760981
-0.8935187747281162   0.02436549800363423   0.010952128951760981
-0.8935187747281162   0.02436549800363423   0.010952128951760981
-0.608647523670753   0.09436111644604528   0.03509531654347103
-0.608647523670753   0.09436111644604528   0.03509531654347103
-0.608647523670753   0.09436111644604528   0.03509531654347103
-0.608647523670753   0.09436111644604528   0.03509531654347103
-1.2190827512999718   -0.06834721363810578   -0.03588395128402991
-1.2190827512999718   -0.06834721363810578   -0.03588395128402991
-1.2190827512999718   -0.06834721363810578   -0.03588395128402991
-1.2190827512999718   -0.06834721363810578   -0.03588395128402991
-1.2365045736546956   -0.05034966079722328   0.005320603777105248
-1.2365045736546956   -0.05034966079722328   0.005320603777105248
-1.2365045736546956   -0.05034966079722328   0.005320603777105248
-1.2365045736546956   -0.05034966079722328   0.005320603777105248
-0.6526365475746235   0.03673691501146881   -0.0006227983553923067
-0.6526365475746235   0.03673691501146881   -0.0006227983553923067
-0.6526365475746235   0.03673691501146881   -0.0006227983553923067
-0.6526365475746235   0.03673691501146881   -0.0006227983553923067
-0.9175582349701185   0.007516631351320864   0.0030355237891835085
-0.9175582349701185   0.007516631351320864   0.0030355237891835085
-0.9175582349701185   0.007516631351320864   0.0030355237891835085
-0.9175582349701185   0.007516631351320864   0.0030355237891835085
-0.6365195057534562   0.07660258098332193   0.04009674477859182
-0.6365195057534562   0.07660258098332193   0.04009674477859182
-0.6365195057534562   0.07660258098332193   0.04009674477859182
-0.6365195057534562   0.07660258098332193   0.04009674477859182
-1.2517914845280371   -0.08938519582125165   -0.032078415565581164
-1.2517914845280371   -0.08938519582125165   -0.032078415565581164
-1.2517914845280371   -0.08938519582125165   -0.032078415565581164
-1.2517914845280371   -0.08938519582125165   -0.032078415565581164
-1.2662126744701117   -0.07117593148992246   0.011396069569094891
-1.2662126744701117   -0.07117593148992246   0.011396069569094891
-1.2662126744701117   -0.07117593148992246   0.011396069569094891
-1.2662126744701117   -0.07117593148992246   0.011396069569094891
-0.6819519387958872   0.013710181489506479   0.002381867150644479
-0.6819519387958872   0.013710181489506479   0.002381867150644479
-0.6819519387958872   0.013710181489506479   0.002381867150644479
-0.6819519387958872   0.013710181489506479   0.002381867150644479
-0.9541452121312133   -0.013602959442801293   -0.007011554095775752
-0.9541452121312133   -0.013602959442801293   -0.007011554095775752
-0.9541452121312133   -0.013602959442801293   -0.007011554095775752
-0.9541452121312133   -0.013602959442801293   -0.007011554095775752
-1.142968811907794   0.10139798416525259   0.04203937888352477
-1.142968811907794   0.10139798416525259   0.04203937888352477
-1.142968811907794   0.10139798416525259   0.04203937888352477
-1.142968811907794   0.10139798416525259   0.04203937888352477
-1.7292184489545126   -0.07976908070116999   -0.04085906358021457
-1.7292184489545126   -0.07976908070116999   -0.04085906358021457
-1.7292184489545126   -0.07976908070116999   -0.04085906358021457
-1.7292184489545126   -0.07976908070116999   -0.04085906358021457
-1.7485009881548836   -0.0169629778642552   0.03875076917839354
-1.7485009881548836   -0.0169629778642552   0.03875076917839354
-1.7485009881548836   -0.0169629778642552   0.03875076917839354
-1.7485009881548836   -0.0169629778642552   0.03875076917839354
-1.197296649026929   0.028619426839549746   -0.023920080396463567
-1.197296649026929   0.028619426839549746   -0.023920080396463567
-1.197296649026929   0.028619426839549746   -0.023920080396463567
-1.197296649026929   0.028619426839549746   -0.023920080396463567
-1.3901617821330465   0.0228269242637225   0.034024996109253025
-1.3901617821330465   0.0228269242637225   0.034024996109253025
-1.3901617821330465   0.0228269242637225   0.034024996109253025
-1.3901617821330465   0.0228269242637225   0.034024996109253025
-1.1681298768510098   0.10122311002114383   0.0493100973015147
-1.1681298768510098   0.10122311002114383   0.0493100973015147
-1.1681298768510098   0.10122311002114383   0.0493100973015147
-1.1681298768510098   0.10122311002114383   0.0493100973015147
-1.7771738122181129   -0.08907271293316958   -0.032503616068814856
-1.7771738122181129   -0.08907271293316958   -0.032503616068814856
-1.7771738122181129   -0.08907271293316958   -0.032503616068814856
-1.7771738122181129   -0.08907271293316958   -0.032503616068814856
-1.7913684697029217   -0.027170731364921652   0.048474676406912165
-1.7913684697029217   -0.027170731364921652   0.048474676406912165
-1.7913684697029217   -0.027170731364921652   0.048474676406912165
-1.7913684697029217   -0.027170731364921652   0.048474676406912165
-1.2280818821166295   0.01758227949162785   -0.02049787882141471
-1.2280818821166295   0.01758227949162785   -0.02049787882141471
-1.2280818821166295   0.01758227949162785   -0.02049787882141471
-1.2280818821166295   0.01758227949162785   -0.02049787882141471
-1.4499952346880929   0.011431823850212436   0.020668392118390333
-1.4499952346880929   0.011431823850212436   0.020668392118390333
-1.4499952346880929   0.011431823850212436   0.020668392118390333
-1.4499952346880929   0.011431823850212436   0.020668392118390333
-1.1971425641520295   0.09361309380209745   0.05816789669111533
-1.1971425641520295   0.09361309380209745   0.05816789669111533
-1.1971425641520295   0.09361309380209745   0.05816789669111533
-1.1971425641520295   0.09361309380209745   0.05816789669111533
-1.8214941809996563   -0.10238793900752434   -0.02693667243414888
-1.8214941809996563   -0.10238793900752434   -0.02693667243414888
-1.8214941809996563   -0.10238793900752434   -0.02693667243414888
-1.8214941809996563   -0.10238793900752434   -0.02693667243414888
-1.8479443897716707   -0.06344625602639793   0.047616099997623174
-1.8479443897716707   -0.06344625602639793   0.047616099997623174
-1.8479443897716707   -0.06344625602639793   0.047616099997623174
-1.8479443897716707   -0.06344625602639793   0.047616099997623174
-1.2605855431674156   -0.013070014398457397   -0.018574191008897234
-1.2605855431674156   -0.013070014398457397   -0.018574191008897234
-1.2605855431674156   -0.013070014398457397   -0.018574191008897234
-1.2605855431674156   -0.013070014398457397   -0.018574191008897234
-1.465486537617992   -0.0027316343191977205   0.016201931900689304
-1.465486537617992   -0.0027316343191977205   0.016201931900689304
-1.465486537617992   -0.0027316343191977205   0.016201931900689304
-1.465486537617992   -0.0027316343191977205   0.016201931900689304
0.8052102039615014   0.04554264552162705   -0.054507864899027064
0.8052102039615014   0.04554264552162705   -0.054507864899027064
0.8052102039615014   0.04554264552162705   -0.054507864899027064
0.8052102039615014   0.04554264552162705   -0.054507864899027064
0.34394468894224633   0.02207780156863968   0.023411526724080367
0.34394468894224633   0.02207780156863968   0.023411526724080367
0.34394468894224633   0.02207780156863968   0.023411526724080367
0.34394468894224633   0.02207780156863968   0.023411526724080367
0.2877489487635958   -0.07957542540728374   -0.05081611131681196
0.2877489487635958   -0.07957542540728374   -0.05081611131681196
0.2877489487635958   -0.07957542540728374   -0.05081611131681196
0.2877489487635958   -0.07957542540728374   -0.05081611131681196
0.7862621962898303   0.09154777143590048   0.028442497407469125
0.7862621962898303   0.09154777143590048   0.028442497407469125
0.7862621962898303   0.09154777143590048   0.028442497407469125
0.7862621962898303   0.09154777143590048   0.028442497407469125
0.5263549245235286   0.011677314771492212   -0.014383054897668834
0.5263549245235286   0.011677314771492212   -0.014383054897668834
0.5263549245235286   0.011677314771492212   -0.014383054897668834
0.5263549245235286   0.011677314771492212   -0.014383054897668834
0.7548650330497175   0.013843253534885878   -0.05083880089208559
0.7548650330497175   0.013843253534885878   -0.05083880089208559
0.7548650330497175   0.013843253534885878   -0.05083880089208559
0.7548650330497175   0.013843253534885878   -0.05083880089208559
0.3185563951314553   -0.0024606243785224684   0.02610631949372942
0.3185563951314553   -0.0024606243785224684   0.02610631949372942
0.3185563951314553   -0.0024606243785224684   0.02610631949372942
0.3185563951314553   -0.0024606243785224684   0.02610631949372942
0.2638070131213389   -0.08882570332050228   -0.043246056966217056
0.2638070131213389   -0.08882570332050228   -0.043246056966217056
0.2638070131213389   -0.08882570332050228   -0.043246056966217056
0.2638070131213389   -0.08882570332050228   -0.043246056966217056
0.746874824291084   0.07842351251935951   0.03664620224428414
0.746874824291084   0.07842351251935951   0.03664620224428414
0.746874824291084   0.07842351251935951   0.03664620224428414
0.746874824291084   0.07842351251935951   0.03664620224428414
0.5015777955850604   -0.003573754446222724   -0.02345018489896128
0.5015777955850604   -0.003573754446222724   -0.02345018489896128
0.5015777955850604   -0.003573754446222724   -0.02345018489896128
0.5015777955850604   -0.003573754446222724   -0.02345018489896128
0.7159952530945204   0.001996273186284314   -0.04132441440546558
0.7159952530945204   0.001996273186284314   -0.04132441440546558
0.7159952530945204   0.001996273186284314   -0.04132441440546558
0.7159952530945204   0.001996273186284314   -0.04132441440546558
0.293817526684054   -0.013267521621276365   0.031248329148134777
0.293817526684054   -0.013267521621276365   0.031248329148134777
0.293817526684054   -0.013267521621276365   0.031248329148134777
0.293817526684054   -0.013267521621276365   0.031248329148134777
0.24240245567789626   -0.09725667528328386   -0.03604122456525971
0.24240245567789626   -0.09725667528328386   -0.03604122456525971
0.24240245567789626   -0.09725667528328386   -0.03604122456525971
0.24240245567789626   -0.09725667528328386   -0.03604122456525971
0.7009007664955903   0.061149795253487946   0.04181794162290549
0.7009007664955903   0.061149795253487946   0.04181794162290549
0.7009007664955903   0.061149795253487946   0.04181794162290549
0.7009007664955903   0.061149795253487946   0.04181794162290549
0.4597335964768672   -0.016098251547751734   -0.03588822788183463
0.4597335964768672   -0.016098251547751734   -0.03588822788183463
0.4597335964768672   -0.016098251547751734   -0.03588822788183463
0.4597335964768672   -0.016098251547751734   -0.03588822788183463
0.3462254529555443   0.06674906146347448   -0.009855913104270614
0.3462254529555443   0.06674906146347448   -0.009855913104270614
0.3462254529555443   0.06674906146347448   -0.009855913104270614
0.3462254529555443   0.06674906146347448   -0.009855913104270614
-0.10643387106276316   0.005830818941838002   0.0031948210318729284
-0.10643387106276316   0.005830818941838002   0.0031948210318729284
-0.10643387106276316   0.005830818941838002   0.0031948210318729284
-0.10643387106276316   0.005830818941838002   0.0031948210318729284
-0.144851334816963   -0.055208136068643686   -0.03128797351629754
-0.144851334816963   -0.055208136068643686   -0.03128797351629754
-0.144851334816963   -0.055208136068643686   -0.03128797351629754
-0.144851334816963   -0.055208136068643686   -0.03128797351629754
0.33659529751052203   0.08026176573877748   0.03357844127176307
0.33659529751052203   0.08026176573877748   0.03357844127176307
0.33659529751052203   0.08026176573877748   0.03357844127176307
0.33659529751052203   0.08026176573877748   0.03357844127176307
0.10551631089072006   0.023223662182464466   0.004043280947985086
0.10551631089072006   0.023223662182464466   0.004043280947985086
0.10551631089072006   0.023223662182464466   0.004043280947985086
0.10551631089072006   0.023223662182464466   0.004043280947985086
0.3214128975292451   0.043239955437239894   -0.005311748333087757
0.3214128975292451   0.043239955437239894   -0.005311748333087757
0.3214128975292451   0.043239955437239894   -0.005311748333087757
0.3214128975292451   0.043239955437239894   -0.005311748333087757
-0.12989256375434086   -0.018409954685760878   0.006707700413934141
-0.12989256375434086   -0.018409954685760878   0.006707700413934141
-0.12989256375434086   -0.018409954685760878   0.006707700413934141
-0.12989256375434086   -0.018409954685760878   0.006707700413934141
-0.16712062507823433   -0.07380474460752513   -0.025309112882479095
-0.16712062507823433   -0.07380474460752513   -0.025309112882479095
-0.16712062507823433   -0.07380474460752513   -0.025309112882479095
-0.16712062507823433   -0.07380474460752513   -0.025309112882479095
0.3092847796040257   0.058810792385640936   0.03650627974107619
0.3092847796040257   0.058810792385640936   0.03650627974107619
0.3092847796040257   0.058810792385640936   0.03650627974107619
0.3092847796040257   0.058810792385640936   0.03650627974107619
0.07806127774527667   0.002203817621078393   -0.006054226646959517
0.07806127774527667   0.002203817621078393   -0.006054226646959517
0.07806127774527667   0.002203817621078393   -0.006054226646959517
0.07806127774527667   0.002203817621078393   -0.006054226646959517
0.294582300848658   0.023298832353603235   -0.0014941540037295559
0.294582300848658   0.023298832353603235   -0.0014941540037295559
0.294582300848658   0.023298832353603235   -0.0014941540037295559
0.294582300848658   0.023298832353603235   -0.0014941540037295559
-0.1529849254215722   -0.03885956367419381   0.01042420446750033
-0.1529849254215722   -0.03885956367419381   0.01042420446750033
-0.1529849254215722   -0.03885956367419381   0.01042420446750033
-0.1529849254215722   -0.03885956367419381   0.01042420446750033
-0.18909496230283163   -0.09130383351695243   -0.0197844443412643
-0.18909496230283163   -0.09130383351695243   -0.0197844443412643
-0.18909496230283163   -0.09130383351695243   -0.0197844443412643
-0.18909496230283163   -0.09130383351695243   -0.0197844443412643
0.2846393412424012   0.03818360965827292   0.0397029183157141
0.2846393412424012   0.03818360965827292   0.0397029183157141
0.2846393412424012   0.03818360965827292   0.0397029183157141
0.2846393412424012   0.03818360965827292   0.0397029183157141
0.056006860734648924   -0.015258521664194462   -0.014977780283811703
0.056006860734648924   -0.015258521664194462   -0.014977780283811703
0.056006860734648924   -0.015258521664194462   -0.014977780283811703
0.056006860734648924   -0.015258521664194462   -0.014977780283811703
-0.08974021721615166   0.0847650266576458   0.007728882549122615
-0.08974021721615166   0.0847650266576458   0.007728882549122615
-0.08974021721615166   0.0847650266576458   0.007728882549122615
-0.08974021721615166   0.0847650266576458   0.007728882549122615
-0.5501431618908373   -0.013826371863222296   -0.01672074786760036
-0.5501431618908373   -0.013826371863222296   -0.01672074786760036
-0.5501431618908373   -0.013826371863222296   -0.01672074786760036
-0.5501431618908373   -0.013826371863222296   -0.01672074786760036
-0.5721106435598022   -0.03281439363942605   -0.012306032612451431
-0.5721106435598022   -0.03281439363942605   -0.012306032612451431
-0.5721106435598022   -0.03281439363942605   -0.012306032612451431
-0.5721106435598022   -0.03281439363942605   -0.012306032612451431
-0.1127090935330061   0.06120123673782493   0.013013860097022111
-0.1127090935330061   0.06120123673782493   0.013013860097022111
-0.1127090935330061   0.06120123673782493   0.013013860097022111
-0.1127090935330061   0.06120123673782493   0.013013860097022111
-0.33036991532201093   0.024447837110358906   0.006527325625081404
-0.33036991532201093   0.024447837110358906   0.006527325625081404
-0.33036991532201093   0.024447837110358906   0.006527325625081404
-0.33036991532201093   0.024447837110358906   0.006527325625081404
-0.11201765248616706   0.06433322625966578   0.013339075809372544
-0.11201765248616706   0.06433322625966578   0.013339075809372544
-0.11201765248616706   0.06433322625966578   0.013339075809372544
-0.11201765248616706   0.06433322625966578   0.013339075809372544
-0.5728639376823259   -0.036008236236955996   -0.012878660627532082
-0.5728639376823259   -0.036008236236955996   -0.012878660627532082
-0.5728639376823259   -0.036008236236955996   -0.012878660627532082
-0.5728639376823259   -0.036008236236955996   -0.012878660627532082
-0.5946093308700211   -0.053076043579483784   -0.006979946732662723
-0.5946093308700211   -0.053076043579483784   -0.006979946732662723
-0.5946093308700211   -0.053076043579483784   -0.006979946732662723
-0.5946093308700211   -0.053076043579483784   -0.006979946732662723
-0.13607723089791732   0.039125296241005275   0.01697781717057169
-0.13607723089791732   0.039125296241005275   0.01697781717057169
-0.13607723089791732   0.039125296241005275   0.01697781717057169
-0.13607723089791732   0.039125296241005275   0.01697781717057169
-0.35350168107960456   0.00472399468315339   -0.002155131548105968
-0.35350168107960456   0.00472399468315339   -0.002155131548105968
-0.35350168107960456   0.00472399468315339   -0.002155131548105968
-0.35350168107960456   0.00472399468315339   -0.002155131548105968
-0.1349039687658857   0.04387908583518637   0.018090338236552643
-0.1349039687658857   0.04387908583518637   0.018090338236552643
-0.1349039687658857   0.04387908583518637   0.018090338236552643
-0.1349039687658857   0.04387908583518637   0.018090338236552643
-0.5961408170138104   -0.058188057185421325   -0.009525363845668211
-0.5961408170138104   -0.058188057185421325   -0.009525363845668211
-0.5961408170138104   -0.058188057185421325   -0.009525363845668211
-0.5961408170138104   -0.058188057185421325   -0.009525363845668211
-0.6167300258475699   -0.07243243623171419   -0.0018022738039358
-0.6167300258475699   -0.07243243623171419   -0.0018022738039358
-0.6167300258475699   -0.07243243623171419   -0.0018022738039358
-0.6167300258475699   -0.07243243623171419   -0.0018022738039358
-0.15924679778387127   0.01767400167225148   0.02047854306432957
-0.15924679778387127   0.01767400167225148   0.02047854306432957
-0.15924679778387127   0.01767400167225148   0.02047854306432957
-0.15924679778387127   0.01767400167225148   0.02047854306432957
-0.37758542626269637   -0.015022189001085064   -0.011565920542733074
-0.37758542626269637   -0.015022189001085064   -0.011565920542733074
-0.37758542626269637   -0.015022189001085064   -0.011565920542733074
-0.37758542626269637   -0.015022189001085064   -0.011565920542733074
-0.5190088333187891   0.1002060958048187   0.024918427324599757
-0.5190088333187891   0.1002060958048187   0.024918427324599757
-0.5190088333187891   0.1002060958048187   0.024918427324599757
-0.5190088333187891   0.1002060958048187   0.024918427324599757
-0.985961269452803   -0.033375106038437484   -0.034047314967792036
-0.985961269452803   -0.033375106038437484   -0.034047314967792036
-0.985961269452803   -0.033375106038437484   -0.034047314967792036
-0.985961269452803   -0.033375106038437484   -0.034047314967792036
-0.9942193236045916   -0.01458691456063018   0.008054116407967937
-0.9942193236045916   -0.01458691456063018   0.008054116407967937
-0.9942193236045916   -0.01458691456063018   0.008054116407967937
-0.9942193236045916   -0.01458691456063018   0.008054116407967937
-0.5565639313834932   0.03987730168595854   -0.007264167056295401
-0.5565639313834932   0.03987730168595854   -0.007264167056295401
-0.5565639313834932   0.03987730168595854   -0.007264167056295401
-0.5565639313834932   0.03987730168595854   -0.007264167056295401
-0.7594105447811959   0.023256315287337827   0.009480979233969095
-0.7594105447811959   0.023256315287337827   0.009480979233969095
-0.7594105447811959   0.023256315287337827   0.009480979233969095
-0.7594105447811959   0.023256315287337827   0.009480979233969095
-0.5408730495004943   0.0805708548229413   0.030496689221728046
-0.5408730495004943   0.0805708548229413   0.030496689221728046
-0.5408730495004943   0.0805708548229413   0.030496689221728046
-0.5408730495004943   0.0805708548229413   0.030496689221728046
-1.0105944813211185   -0.05596474353114021   -0.03244384320416402
-1.0105944813211185   -0.05596474353114021   -0.03244384320416402
-1.0105944813211185   -0.05596474353114021   -0.03244384320416402
-1.0105944813211185   -0.05596474353114021   -0.03244384320416402
-1.0207397537233953   -0.034654529536901825   0.01052318505152619
-1.0207397537233953   -0.034654529536901825   0.01052318505152619
-1.0207397537233953   -0.034654529536901825   0.01052318505152619
-1.0207397537233953   -0.034654529536901825   0.01052318505152619
-0.5793030011477246   0.019533736977124155   -0.003058078677796172
-0.5793030011477246   0.019533736977124155   -0.003058078677796172
-0.5793030011477246   0.019533736977124155   -0.003058078677796172
-0.5793030011477246   0.019533736977124155   -0.003058078677796172
-0.7788923593758572   0.005366884283745085   0.0007750336139693559
-0.7788923593758572   0.005366884283745085   0.0007750336139693559
-0.7788923593758572   0.005366884283745085   0.0007750336139693559
-0.7788923593758572   0.005366884283745085   0.0007750336139693559
-0.5630482023391603   0.06194089516506002   0.03580875717710057
-0.5630482023391603   0.06194089516506002   0.03580875717710057
-0.5630482023391603   0.06194089516506002   0.03580875717710057
-0.5630482023391603   0.06194089516506002   0.03580875717710057
-1.0370535742604705   -0.07712070945334937   -0.02857973771741787
-1.0370535742604705   -0.07712070945334937   -0.02857973771741787
-1.0370535742604705   -0.07712070945334937   -0.02857973771741787
-1.0370535742604705   -0.07712070945334937   -0.02857973771741787
-1.0443559338756072   -0.05603108771951587   0.016079516185252718
-1.0443559338756072   -0.05603108771951587   0.016079516185252718
-1.0443559338756072   -0.05603108771951587   0.016079516185252718
-1.0443559338756072   -0.05603108771951587   0.016079516185252718
-0.6024390843554239   -0.003027163915021565   0.00024716134008900825
-0.6024390843554239   -0.003027163915021565   0.00024716134008900825
-0.6024390843554239   -0.003027163915021565   0.00024716134008900825
-0.6024390843554239   -0.003027163915021565   0.00024716134008900825
-0.8081128194211704   -0.01538939301733444   -0.009326552966630791
-0.8081128194211704   -0.01538939301733444   -0.009326552966630791
-0.8081128194211704   -0.01538939301733444   -0.009326552966630791
-0.8081128194211704   -0.01538939301733444   -0.009326552966630791
-0.9460681542109559   0.09286785167015459   0.039175303532851646
-0.9460681542109559   0.09286785167015459   0.039175303532851646
-0.9460681542109559   0.09286785167015459   0.039175303532851646
-0.9460681542109559   0.09286785167015459   0.039175303532851646
-1.395813276325077   -0.06425026881165692   -0.044245070357535665
-1.395813276325077   -0.06425026881165692   -0.044245070357535665
-1.395813276325077   -0.06425026881165692   -0.044245070357535665
-1.395813276325077   -0.06425026881165692   -0.044245070357535665
-1.4093175361510863   -0.0012351536269250424   0.03882790439531969
-1.4093175361510863   -0.0012351536269250424   0.03882790439531969
-1.4093175361510863   -0.0012351536269250424   0.03882790439531969
-1.4093175361510863   -0.0012351536269250424   0.03882790439531969
-0.9955133695308505   0.013566404993118154   -0.026569432777090368
-0.9955133695308505   0.013566404993118154   -0.026569432777090368
-0.9955133695308505   0.013566404993118154   -0.026569432777090368
-0.9955133695308505   0.013566404993118154   -0.026569432777090368
-1.1344692315517815   0.021567840068011032   0.028705666067641078
-1.1344692315517815   0.021567840068011032   0.028705666067641078
-1.1344692315517815   0.021567840068011032   0.028705666067641078
-1.1344692315517815   0.021567840068011032   0.028705666067641078
-0.9658850670745653   0.0889278801739973   0.04621060432347199
-0.9658850670745653   0.0889278801739973   0.04621060432347199
-0.9658850670745653   0.0889278801739973   0.04621060432347199
-0.9658850670745653   0.0889278801739973   0.04621060432347199
-1.4395296519135898   -0.07718044211403284   -0.03628738593010589
-1.4395296519135898   -0.07718044211403284   -0.03628738593010589
-1.4395296519135898   -0.07718044211403284   -0.03628738593010589
-1.4395296519135898   -0.07718044211403284   -0.03628738593010589
-1.4467820165804737   -0.012271160945613133   0.048935053456224675
-1.4467820165804737   -0.012271160945613133   0.048935053456224675
-1.4467820165804737   -0.012271160945613133   0.048935053456224675
-1.4467820165804737   -0.012271160945613133   0.048935053456224675
-1.019959771301081   0.002410433433417028   -0.022641865807245504
-1.019959771301081   0.002410433433417028   -0.022641865807245504
-1.019959771301081   0.002410433433417028   -0.022641865807245504
-1.019959771301081   0.002410433433417028   -0.022641865807245504
-1.1849709079029151   0.008880480860437176   0.015016995004712708
-1.1849709079029151   0.008880480860437176   0.015016995004712708
-1.1849709079029151   0.008880480860437176   0.015016995004712708
-1.1849709079029151   0.008880480860437176   0.015016995004712708
-0.988944107533821   0.0803989895541406   0.05444789690834051
-0.988944107533821   0.0803989895541406   0.05444789690834051
-0.988944107533821   0.0803989895541406   0.05444789690834051
-0.988944107533821   0.0803989895541406   0.05444789690834051
-1.4782195639134292   -0.09068160063202686   -0.029842243522147593
-1.4782195639134292   -0.09068160063202686   -0.029842243522147593
-1.4782195639134292   -0.09068160063202686   -0.029842243522147593
-1.4782195639134292   -0.09068160063202686   -0.029842243522147593
-1.4969018102297307   -0.0467984913592424   0.04909969124949298
-1.4969018102297307   -0.0467984913592424   0.04909969124949298
-1.4969018102297307   -0.0467984913592424   0.04909969124949298
-1.4969018102297307   -0.0467984913592424   0.04909969124949298
-1.0455370918866453   -0.025837551864578506   -0.020019809724898696
-1.0455370918866453   -0.025837551864578506   -0.020019809724898696
-1.0455370918866453   -0.025837551864578506   -0.020019809724898696
-1.0455370918866453   -0.025837551864578506   -0.020019809724898696
-1.1992934471854306   -0.005589429351241487   0.008499114687619547
-1.1992934471854306   -0.005589429351241487   0.008499114687619547
-1.1992934471854306   -0.005589429351241487   0.008499114687619547
-1.1992934471854306   -0.005589429351241487   0.008499114687619547
0.4425455222485004   0.026451650570290662   -0.05332006157391883
0.4425455222485004   0.026451650570290662   -0.05332006157391883
0.4425455222485004   0.026451650570290662   -0.05332006157391883
0.4425455222485004   0.026451650570290662   -0.05332006157391883
0.1285422869106948   0.03206259053965863   0.025515722554468073
0.1285422869106948   0.03206259053965863   0.025515722554468073
0.1285422869106948   0.03206259053965863   0.025515722554468073
0.1285422869106948   0.03206259053965863   0.025515722554468073
0.07890208307854735   -0.06501589754200776   -0.0470157342707891
0.07890208307854735   -0.06501589754200776   -0.0470157342707891
0.07890208307854735   -0.06501589754200776   -0.0470157342707891
0.07890208307854735   -0.06501589754200776   -0.0470157342707891
0.4303170759908314   0.07553579801229529   0.030700797148711406
0.4303170759908314   0.07553579801229529   0.030700797148711406
0.4303170759908314   0.07553579801229529   0.030700797148711406
0.4303170759908314   0.07553579801229529   0.030700797148711406
0.25429584339958666   0.012594320939013536   -0.005887086898582569
0.25429584339958666   0.012594320939013536   -0.005887086898582569
0.25429584339958666   0.012594320939013536   -0.005887086898582569
0.25429584339958666   0.012594320939013536   -0.005887086898582569
0.3990201098369886   -0.0013656603815032572   -0.04888257522670786
0.3990201098369886   -0.0013656603815032572   -0.04888257522670786
0.3990201098369886   -0.0013656603815032572   -0.04888257522670786
0.3990201098369886   -0.0013656603815032572   -0.04888257522670786
0.10922226475494635   0.010908776374346521   0.0286605001948526
0.10922226475494635   0.010908776374346521   0.0286605001948526
0.10922226475494635   0.010908776374346521   0.0286605001948526
0.10922226475494635   0.010908776374346521   0.0286605001948526
0.06016085215616504   -0.07423401583500618   -0.03992746739262537
0.06016085215616504   -0.07423401583500618   -0.03992746739262537
0.06016085215616504   -0.07423401583500618   -0.03992746739262537
0.06016085215616504   -0.07423401583500618   -0.03992746739262537
0.3966298053630803   0.06281510137573197   0.039434178128747104
0.3966298053630803   0.06281510137573197   0.039434178128747104
0.3966298053630803   0.06281510137573197   0.039434178128747104
0.3966298053630803   0.06281510137573197   0.039434178128747104
0.23076330427473402   -0.0018022047582813075   -0.015231111922412041
0.23076330427473402   -0.0018022047582813075   -0.015231111922412041
0.23076330427473402   -0.0018022047582813075   -0.015231111922412041
0.23076330427473402   -0.0018022047582813075   -0.015231111922412041
0.36551303731503404   -0.01320416455987694   -0.040130396175878935
0.36551303731503404   -0.01320416455987694   -0.040130396175878935
0.36551303731503404   -0.01320416455987694   -0.040130396175878935
0.36551303731503404   -0.01320416455987694   -0.040130396175878935
0.08996995432568639   0.0004775842220825933   0.03440644339789409
0.08996995432568639   0.0004775842220825933   0.03440644339789409
0.08996995432568639   0.0004775842220825933   0.03440644339789409
0.08996995432568639   0.0004775842220825933   0.03440644339789409
0.04340248162493727   -0.08536425536782334   -0.03325402661299795
0.04340248162493727   -0.08536425536782334   -0.03325402661299795
0.04340248162493727   -0.08536425536782334   -0.03325402661299795
0.04340248162493727   -0.08536425536782334   -0.03325402661299795
0.35491819005840763   0.04245783231362765   0.04377733712062893
0.35491819005840763   0.04245783231362765   0.04377733712062893
0.35491819005840763   0.04245783231362765   0.04377733712062893
0.35491819005840763   0.04245783231362765   0.04377733712062893
0.19826404203713696   -0.014628072991117149   -0.02664993659784741
0.19826404203713696   -0.014628072991117149   -0.02664993659784741
0.19826404203713696   -0.014628072991117149   -0.02664993659784741
0.19826404203713696   -0.014628072991117149   -0.02664993659784741
0.12355337631594379   0.04809671352939912   -0.015462953409028445
0.12355337631594379   0.04809671352939912   -0.015462953409028445
0.12355337631594379   0.04809671352939912   -0.015462953409028445
0.12355337631594379   0.04809671352939912   -0.015462953409028445
-0.18010071403669775   0.015528467377429418   0.006204697368507123
-0.18010071403669775   0.015528467377429418   0.006204697368507123
-0.18010071403669775   0.015528467377429418   0.006204697368507123
-0.18010071403669775   0.015528467377429418   0.006204697368507123
-0.2120755822955424   -0.04167503695562297   -0.02743469239417473
-0.2120755822955424   -0.04167503695562297   -0.02743469239417473
-0.2120755822955424   -0.04167503695562297   -0.02743469239417473
-0.2120755822955424   -0.04167503695562297   -0.02743469239417473
0.11907842587235677   0.05969970826448538   0.02915037389176582
0.11907842587235677   0.05969970826448538   0.02915037389176582
0.11907842587235677   0.05969970826448538   0.02915037389176582
0.11907842587235677   0.05969970826448538   0.02915037389176582
-0.038443872947761026   0.01955167698956875   0.004952519910030869
-0.038443872947761026   0.01955167698956875   0.004952519910030869
-0.038443872947761026   0.01955167698956875   0.004952519910030869
-0.038443872947761026   0.01955167698956875   0.004952519910030869
0.1039855058583028   0.02475101297598098   -0.01136553089000019
0.1039855058583028   0.02475101297598098   -0.01136553089000019
0.1039855058583028   0.02475101297598098   -0.01136553089000019
0.1039855058583028   0.02475101297598098   -0.01136553089000019
-0.19781526186559065   -0.0075589412512208735   0.009750814051181965
-0.19781526186559065   -0.0075589412512208735   0.009750814051181965
-0.19781526186559065   -0.0075589412512208735   0.009750814051181965
-0.19781526186559065   -0.0075589412512208735   0.009750814051181965
-0.2288412677885424   -0.060412169721088475   -0.021482483399972073
-0.2288412677885424   -0.060412169721088475   -0.021482483399972073
-0.2288412677885424   -0.060412169721088475   -0.021482483399972073
-0.2288412677885424   -0.060412169721088475   -0.021482483399972073
0.09708109183374983   0.03865767068712491   0.03178204447316897
0.09708109183374983   0.03865767068712491   0.03178204447316897
0.09708109183374983   0.03865767068712491   0.03178204447316897
0.09708109183374983   0.03865767068712491   0.03178204447316897
-0.059157505493004914   -0.0006559616367867952   -0.004730413575673029
-0.059157505493004914   -0.0006559616367867952   -0.004730413575673029
-0.059157505493004914   -0.0006559616367867952   -0.004730413575673029
-0.059157505493004914   -0.0006559616367867952   -0.004730413575673029
0.08243430662749034   0.0046504997232646806   -0.007444710594269734
0.08243430662749034   0.0046504997232646806   -0.007444710594269734
0.08243430662749034   0.0046504997232646806   -0.007444710594269734
0.08243430662749034   0.0046504997232646806   -0.007444710594269734
-0.21527211651507538   -0.027482632690020305   0.01343373593629879
-0.21527211651507538   -0.027482632690020305   0.01343373593629879
-0.21527211651507538   -0.027482632690020305   0.01343373593629879
-0.21527211651507538   -0.027482632690020305   0.01343373593629879
-0.24547903913168215   -0.0790012408204407   -0.01610295370377065
-0.24547903913168215   -0.0790012408204407   -0.01610295370377065
-0.24547903913168215   -0.0790012408204407   -0.01610295370377065
-0.24547903913168215   -0.0790012408204407   -0.01610295370377065
0.07782123983751374   0.017995271188516234   0.03548023789354629
0.07782123983751374   0.017995271188516234   0.03548023789354629
0.07782123983751374   0.017995271188516234   0.03548023789354629
0.07782123983751374   0.017995271188516234   0.03548023789354629
-0.07708631635274206   -0.01875364929530883   -0.01387545435835053
-0.07708631635274206   -0.01875364929530883   -0.01387545435835053
-0.07708631635274206   -0.01875364929530883   -0.01387545435835053
-0.07708631635274206   -0.01875364929530883   -0.01387545435835053
-0.17081320733306019   0.06584825689556506   0.00232244136855932
-0.17081320733306019   0.06584825689556506   0.00232244136855932
-0.17081320733306019   0.06584825689556506   0.00232244136855932
-0.17081320733306019   0.06584825689556506   0.00232244136855932
-0.4846450189340963   -0.005765163448312571   -0.013316793176746
-0.4846450189340963   -0.005765163448312571   -0.013316793176746
-0.4846450189340963   -0.005765163448312571   -0.013316793176746
-0.4846450189340963   -0.005765163448312571   -0.013316793176746
-0.499745136275394   -0.02039991406711505   -0.007955851185289867
-0.499745136275394   -0.02039991406711505   -0.007955851185289867
-0.499745136275394   -0.02039991406711505   -0.007955851185289867
-0.499745136275394   -0.02039991406711505   -0.007955851185289867
-0.18854019638624486   0.039296743977978624   0.009270456218707535
-0.18854019638624486   0.039296743977978624   0.009270456218707535
-0.18854019638624486   0.039296743977978624   0.009270456218707535
-0.18854019638624486   0.039296743977978624   0.009270456218707535
-0.33513960537976173   0.019330262830715456   0.0051351480313414355
-0.33513960537976173   0.019330262830715456   0.0051351480313414355
-0.33513960537976173   0.019330262830715456   0.0051351480313414355
-0.33513960537976173   0.019330262830715456   0.0051351480313414355
-0.1876405717153783   0.045187694826787105   0.00787762872423587
-0.1876405717153783   0.045187694826787105   0.00787762872423587
-0.1876405717153783   0.045187694826787105   0.00787762872423587
-0.1876405717153783   0.045187694826787105   0.00787762872423587
-0.5013738508468596   -0.027019954816527   -0.009479383293205856
-0.5013738508468596   -0.027019954816527   -0.009479383293205856
-0.5013738508468596   -0.027019954816527   -0.009479383293205856
-0.5013738508468596   -0.027019954816527   -0.009479383293205856
-0.5164377951931037   -0.040854934404791154   -0.002562771763254687
-0.5164377951931037   -0.040854934404791154   -0.002562771763254687
-0.5164377951931037   -0.040854934404791154   -0.002562771763254687
-0.5164377951931037   -0.040854934404791154   -0.002562771763254687
-0.2062372214969493   0.017956139968125454   0.013169438368779499
-0.2062372214969493   0.017956139968125454   0.013169438368779499
-0.2062372214969493   0.017956139968125454   0.013169438368779499
-0.2062372214969493   0.017956139968125454   0.013169438368779499
-0.3525557692569494   -9.698531818419162e-05   -0.0035458961949494244
-0.3525557692569494   -9.698531818419162e-05   -0.0035458961949494244
-0.3525557692569494   -9.698531818419162e-05   -0.0035458961949494244
-0.3525557692569494   -9.698531818419162e-05   -0.0035458961949494244
-0.20503085205116553   0.024475411407839008   0.012682014157988607
-0.20503085205116553   0.024475411407839008   0.012682014157988607
-0.20503085205116553   0.024475411407839008   0.012682014157988607
-0.20503085205116553   0.024475411407839008   0.012682014157988607
-0.5186806500814701   -0.04841069128709184   -0.0062212893227860805
-0.5186806500814701   -0.04841069128709184   -0.0062212893227860805
-0.5186806500814701   -0.04841069128709184   -0.0062212893227860805
-0.5186806500814701   -0.04841069128709184   -0.0062212893227860805
-0.5328103117723162   -0.06060285417745242   0.0026577778042243816
-0.5328103117723162   -0.06060285417745242   0.0026577778042243816
-0.5328103117723162   -0.06060285417745242   0.0026577778042243816
-0.5328103117723162   -0.06060285417745242   0.0026577778042243816
-0.22363093153304398   -0.0026017966681079474   0.01673814013708734
-0.22363093153304398   -0.0026017966681079474   0.01673814013708734
-0.22363093153304398   -0.0026017966681079474   0.01673814013708734
-0.22363093153304398   -0.0026017966681079474   0.01673814013708734
-0.37088029171645703   -0.01957072840392712   -0.0129712231006439
-0.37088029171645703   -0.01957072840392712   -0.0129712231006439
-0.37088029171645703   -0.01957072840392712   -0.0129712231006439
-0.37088029171645703   -0.01957072840392712   -0.0129712231006439
-0.46017076130762363   0.08270860407134811   0.02058072743595646
-0.46017076130762363   0.08270860407134811   0.02058072743595646
-0.46017076130762363   0.08270860407134811   0.02058072743595646
-0.46017076130762363   0.08270860407134811   0.02058072743595646
-0.78252086230707   -0.023239167140727338   -0.030392459794439497
-0.78252086230707   -0.023239167140727338   -0.030392459794439497
-0.78252086230707   -0.023239167140727338   -0.030392459794439497
-0.78252086230707   -0.023239167140727338   -0.030392459794439497
-0.7840156067379005   -0.0016217002261339208   0.012692498737649549
-0.7840156067379005   -0.0016217002261339208   0.012692498737649549
-0.7840156067379005   -0.0016217002261339208   0.012692498737649549
-0.7840156067379005   -0.0016217002261339208   0.012692498737649549
-0.49195119171766416   0.020199127150037566   -0.009585169613789746
-0.49195119171766416   0.020199127150037566   -0.009585169613789746
-0.49195119171766416   0.020199127150037566   -0.009585169613789746
-0.49195119171766416   0.020199127150037566   -0.009585169613789746
-0.6264581897589598   0.01947468287568707   0.006762012977566789
-0.6264581897589598   0.01947468287568707   0.006762012977566789
-0.6264581897589598   0.01947468287568707   0.006762012977566789
-0.6264581897589598   0.01947468287568707   0.006762012977566789
-0.47632145482483734   0.06260929900752102   0.026153342992861026
-0.47632145482483734   0.06260929900752102   0.026153342992861026
-0.47632145482483734   0.06260929900752102   0.026153342992861026
-0.47632145482483734   0.06260929900752102   0.026153342992861026
-0.8010453154212455   -0.045431843874136735   -0.028645901031079946
-0.8010453154212455   -0.045431843874136735   -0.028645901031079946
-0.8010453154212455   -0.045431843874136735   -0.028645901031079946
-0.8010453154212455   -0.045431843874136735   -0.028645901031079946
-0.8045655621276113   -0.02178768918243841   0.015597351504277768
-0.8045655621276113   -0.02178768918243841   0.015597351504277768
-0.8045655621276113   -0.02178768918243841   0.015597351504277768
-0.8045655621276113   -0.02178768918243841   0.015597351504277768
-0.5087315886354152   0.0005502220900038927   -0.0054368954696105976
-0.5087315886354152   0.0005502220900038927   -0.0054368954696105976
-0.5087315886354152   0.0005502220900038927   -0.0054368954696105976
-0.5087315886354152   0.0005502220900038927   -0.0054368954696105976
-0.6412601489847558   0.0013689059224935157   -0.0023394834811666376
-0.6412601489847558   0.0013689059224935157   -0.0023394834811666376
-0.6412601489847558   0.0013689059224935157   -0.0023394834811666376
-0.6412601489847558   0.0013689059224935157   -0.0023394834811666376
-0.4926862921948811   0.04378054688988799   0.03155926193317951
-0.4926862921948811   0.04378054688988799   0.03155926193317951
-0.4926862921948811   0.04378054688988799   0.03155926193317951
-0.4926862921948811   0.04378054688988799   0.03155926193317951
-0.8214836300927257   -0.06589078550690342   -0.02488989199683661
-0.8214836300927257   -0.06589078550690342   -0.02488989199683661
-0.8214836300927257   -0.06589078550690342   -0.02488989199683661
-0.8214836300927257   -0.06589078550690342   -0.02488989199683661
-0.8223176068391221   -0.042806230362792415   0.021230351584963586
-0.8223176068391221   -0.042806230362792415   0.021230351584963586
-0.8223176068391221   -0.042806230362792415   0.021230351584963586
-0.8223176068391221   -0.042806230362792415   0.021230351584963586
-0.5257218375877948   -0.020462764069995927   -0.0020399413806320155
-0.5257218375877948   -0.020462764069995927   -0.0020399413806320155
-0.5257218375877948   -0.020462764069995927   -0.0020399413806320155
-0.5257218375877948   -0.020462764069995927   -0.0020399413806320155
-0.6632728624932123   -0.01835756190986526   -0.01225830849357562
-0.6632728624932123   -0.01835756190986526   -0.01225830849357562
-0.6632728624932123   -0.01835756190986526   -0.01225830849357562
-0.6632728624932123   -0.01835756190986526   -0.01225830849357562
-0.7482213297291178   0.08140861814164047   0.03645741781296136
-0.7482213297291178   0.08140861814164047   0.03645741781296136
-0.7482213297291178   0.08140861814164047   0.03645741781296136
-0.7482213297291178   0.08140861814164047   0.03645741781296136
-1.0530031418728927   -0.048453699322724836   -0.04614326224410342
-1.0530031418728927   -0.048453699322724836   -0.04614326224410342
-1.0530031418728927   -0.048453699322724836   -0.04614326224410342
-1.0530031418728927   -0.048453699322724836   -0.04614326224410342
-1.06071875557786   0.013504158177064698   0.03832471918965208
-1.06071875557786   0.013504158177064698   0.03832471918965208
-1.06071875557786   0.013504158177064698   0.03832471918965208
-1.06071875557786   0.013504158177064698   0.03832471918965208
-0.7923462792905169   -0.002394045407164827   -0.028188518844416366
-0.7923462792905169   -0.002394045407164827   -0.028188518844416366
-0.7923462792905169   -0.002394045407164827   -0.028188518844416366
-0.7923462792905169   -0.002394045407164827   -0.028188518844416366
-0.8743104375168804   0.01952943482432664   0.021168280250694005
-0.8743104375168804   0.01952943482432664   0.021168280250694005
-0.8743104375168804   0.01952943482432664   0.021168280250694005
-0.8743104375168804   0.01952943482432664   0.021168280250694005
-0.7627966940388374   0.07404724920691967   0.043118112799904185
-0.7627966940388374   0.07404724920691967   0.043118112799904185
-0.7627966940388374   0.07404724920691967   0.043118112799904185
-0.7627966940388374   0.07404724920691967   0.043118112799904185
-1.0917582602817049   -0.06442705588918256   -0.03894159026331706
-1.0917582602817049   -0.06442705588918256   -0.03894159026331706
-1.0917582602817049   -0.06442705588918256   -0.03894159026331706
-1.0917582602817049   -0.06442705588918256   -0.03894159026331706
-1.092722639194095   0.0021752646078990745   0.04894515795817869
-1.092722639194095   0.0021752646078990745   0.04894515795817869
-1.092722639194095   0.0021752646078990745   0.04894515795817869
-1.092722639194095   0.0021752646078990745   0.04894515795817869
-0.8108370016403421   -0.01335805478479743   -0.024189480457031565
-0.8108370016403421   -0.01335805478479743   -0.024189480457031565
-0.8108370016403421   -0.01335805478479743   -0.024189480457031565
-0.8108370016403421   -0.01335805478479743   -0.024189480457031565
-0.915212517994513   0.0061305006431989564   0.007626222305050445
-0.915212517994513   0.0061305006431989564   0.007626222305050445
-0.915212517994513   0.0061305006431989564   0.007626222305050445
-0.915212517994513   0.0061305006431989564   0.007626222305050445
-0.7800344718020784   0.06518074107047173   0.05128437287902515
-0.7800344718020784   0.06518074107047173   0.05128437287902515
-0.7800344718020784   0.06518074107047173   0.05128437287902515
-0.7800344718020784   0.06518074107047173   0.05128437287902515
-1.1249352987182224   -0.07777366093323107   -0.032169214121319456
-1.1249352987182224   -0.07777366093323107   -0.032169214121319456
-1.1249352987182224   -0.07777366093323107   -0.032169214121319456
-1.1249352987182224   -0.07777366093323107   -0.032169214121319456
-1.1369814541680026   -0.03001471110958502   0.05053875633142607
-1.1369814541680026   -0.03001471110958502   0.05053875633142607
-1.1369814541680026   -0.03001471110958502   0.05053875633142607
-1.1369814541680026   -0.03001471110958502   0.05053875633142607
-0.8299174325262404   -0.038480426526064225   -0.02109458068737191
-0.8299174325262404   -0.038480426526064225   -0.02109458068737191
-0.8299174325262404   -0.038480426526064225   -0.02109458068737191
-0.8299174325262404   -0.038480426526064225   -0.02109458068737191
-0.9285517666672843   -0.00811882766474361   -0.0004297265256412719
-0.9285517666672843   -0.00811882766474361   -0.0004297265256412719
-0.9285517666672843   -0.00811882766474361   -0.0004297265256412719
-0.9285517666672843   -0.00811882766474361   -0.0004297265256412719
0.07976017069411613   0.006561952169609385   -0.05320535307916882
0.07976017069411613   0.006561952169609385   -0.05320535307916882
0.07976017069411613   0.006561952169609385   -0.05320535307916882
0.07976017069411613   0.006561952169609385   -0.05320535307916882
-0.08663335143991222   0.039893056921652126   0.027209255677276514
-0.08663335143991222   0.039893056921652126   0.027209255677276514
-0.08663335143991222   0.039893056921652126   0.027209255677276514
-0.08663335143991222   0.039893056921652126   0.027209255677276514
-0.12999314421759953   -0.05123664772391426   -0.04285121132390537
-0.12999314421759953   -0.05123664772391426   -0.04285121132390537
-0.12999314421759953   -0.05123664772391426   -0.04285121132390537
-0.12999314421759953   -0.05123664772391426   -0.04285121132390537
0.0731905577189345   0.05638238659039149   0.033408140562923974
0.0731905577189345   0.05638238659039149   0.033408140562923974
0.0731905577189345   0.05638238659039149   0.033408140562923974
0.0731905577189345   0.05638238659039149   0.033408140562923974
-0.017737961275390863   0.012373751931006646   0.00462221569080755
-0.017737961275390863   0.012373751931006646   0.00462221569080755
-0.017737961275390863   0.012373751931006646   0.00462221569080755
-0.017737961275390863   0.012373751931006646   0.00462221569080755
0.042168674810682476   -0.017748182609221425   -0.04757070477872323
0.042168674810682476   -0.017748182609221425   -0.04757070477872323
0.042168674810682476   -0.017748182609221425   -0.04757070477872323
0.042168674810682476   -0.017748182609221425   -0.04757070477872323
-0.10080415838464322   0.021061024400402945   0.030796045716558987
-0.10080415838464322   0.021061024400402945   0.030796045716558987
-0.10080415838464322   0.021061024400402945   0.030796045716558987
-0.10080415838464322   0.021061024400402945   0.030796045716558987
-0.1442817893212455   -0.06051923579784113   -0.0363259130548233
-0.1442817893212455   -0.06051923579784113   -0.0363259130548233
-0.1442817893212455   -0.06051923579784113   -0.0363259130548233
-0.1442817893212455   -0.06051923579784113   -0.0363259130548233
0.04377794800060977   0.0437755923238359   0.04582269088550339
0.04377794800060977   0.0437755923238359   0.04582269088550339
0.04377794800060977   0.0437755923238359   0.04582269088550339
0.04377794800060977   0.0437755923238359   0.04582269088550339
-0.040940997523219815   -0.0015340029796981893   -0.0060991572764315
-0.040940997523219815   -0.0015340029796981893   -0.0060991572764315
-0.040940997523219815   -0.0015340029796981893   -0.0060991572764315
-0.040940997523219815   -0.0015340029796981893   -0.0060991572764315
0.012038222988489888   -0.0298417659126515   -0.03925857593861054
0.012038222988489888   -0.0298417659126515   -0.03925857593861054
0.012038222988489888   -0.0298417659126515   -0.03925857593861054
0.012038222988489888   -0.0298417659126515   -0.03925857593861054
-0.11508590891149083   0.010554277836280494   0.03857997535982699
-0.11508590891149083   0.010554277836280494   0.03857997535982699
-0.11508590891149083   0.010554277836280494   0.03857997535982699
-0.11508590891149083   0.010554277836280494   0.03857997535982699
-0.15736877120099396   -0.07477749070077502   -0.03011231669201351
-0.15736877120099396   -0.07477749070077502   -0.03011231669201351
-0.15736877120099396   -0.07477749070077502   -0.03011231669201351
-0.15736877120099396   -0.07477749070077502   -0.03011231669201351
0.0029303588897102682   0.017356593601688303   0.05224485905299569
0.0029303588897102682   0.017356593601688303   0.05224485905299569
0.0029303588897102682   0.017356593601688303   0.05224485905299569
0.0029303588897102682   0.017356593601688303   0.05224485905299569
-0.06587838754660125   -0.015532786829894578   -0.018465312335405656
-0.06587838754660125   -0.015532786829894578   -0.018465312335405656
-0.06587838754660125   -0.015532786829894578   -0.018465312335405656
-0.06587838754660125   -0.015532786829894578   -0.018465312335405656
-0.09903134390647968   0.026269893319158227   -0.021157543053066902
-0.09903134390647968   0.026269893319158227   -0.021157543053066902
-0.09903134390647968   0.026269893319158227   -0.021157543053066902
-0.09903134390647968   0.026269893319158227   -0.021157543053066902
-0.2548168240537724   0.010721172736496708   0.007097841544604737
-0.2548168240537724   0.010721172736496708   0.007097841544604737
-0.2548168240537724   0.010721172736496708   0.007097841544604737
-0.2548168240537724   0.010721172736496708   0.007097841544604737
-0.27719023399259723   -0.029841540110933797   -0.022287208120345403
-0.27719023399259723   -0.029841540110933797   -0.022287208120345403
-0.27719023399259723   -0.029841540110933797   -0.022287208120345403
-0.27719023399259723   -0.029841540110933797   -0.022287208120345403
-0.101819417137588   0.025489454332355922   0.021291322019882118
-0.101819417137588   0.025489454332355922   0.021291322019882118
-0.101819417137588   0.025489454332355922   0.021291322019882118
-0.101819417137588   0.025489454332355922   0.021291322019882118
-0.18284178553251185   0.007639561184516825   0.004073474694482833
-0.18284178553251185   0.007639561184516825   0.004073474694482833
-0.18284178553251185   0.007639561184516825   0.004073474694482833
-0.18284178553251185   0.007639561184516825   0.004073474694482833
-0.1138927914865257   0.003798475779882667   -0.017384571172334582
-0.1138927914865257   0.003798475779882667   -0.017384571172334582
-0.1138927914865257   0.003798475779882667   -0.017384571172334582
-0.1138927914865257   0.003798475779882667   -0.017384571172334582
-0.266622277731334   -0.009655979646134665   0.010367012721175198
-0.266622277731334   -0.009655979646134665   0.010367012721175198
-0.266622277731334   -0.009655979646134665   0.010367012721175198
-0.266622277731334   -0.009655979646134665   0.010367012721175198
-0.28831528578417903   -0.04806822315370099   -0.016451047113031733
-0.28831528578417903   -0.04806822315370099   -0.016451047113031733
-0.28831528578417903   -0.04806822315370099   -0.016451047113031733
-0.28831528578417903   -0.04806822315370099   -0.016451047113031733
-0.11904199909521213   0.005347941319280311   0.02400586095822068
-0.11904199909521213   0.005347941319280311   0.02400586095822068
-0.11904199909521213   0.005347941319280311   0.02400586095822068
-0.11904199909521213   0.005347941319280311   0.02400586095822068
-0.19689546583945178   -0.010654132913027142   -0.0051057527442272335
-0.19689546583945178   -0.010654132913027142   -0.0051057527442272335
-0.19689546583945178   -0.010654132913027142   -0.0051057527442272335
-0.19689546583945178   -0.010654132913027142   -0.0051057527442272335
-0.13068029419132612   -0.015848791710953332   -0.012988881492115599
-0.13068029419132612   -0.015848791710953332   -0.012988881492115599
-0.13068029419132612   -0.015848791710953332   -0.012988881492115599
-0.13068029419132612   -0.015848791710953332   -0.012988881492115599
-0.2782931263378136   -0.028487625773221056   0.014079152738315295
-0.2782931263378136   -0.028487625773221056   0.014079152738315295
-0.2782931263378136   -0.028487625773221056   0.014079152738315295
-0.2782931263378136   -0.028487625773221056   0.014079152738315295
-0.29951367359491987   -0.06682434256772822   -0.011282917455211691
-0.29951367359491987   -0.06682434256772822   -0.011282917455211691
-0.29951367359491987   -0.06682434256772822   -0.011282917455211691
-0.29951367359491987   -0.06682434256772822   -0.011282917455211691
-0.1334459471298656   -0.015060665988369356   0.029784978951222063
-0.1334459471298656   -0.015060665988369356   0.029784978951222063
-0.1334459471298656   -0.015060665988369356   0.029784978951222063
-0.1334459471298656   -0.015060665988369356   0.029784978951222063
-0.2109325779655857   -0.028747553305790166   -0.01444090341755102
-0.2109325779655857   -0.028747553305790166   -0.01444090341755102
-0.2109325779655857   -0.028747553305790166   -0.01444090341755102
-0.2109325779655857   -0.028747553305790166   -0.01444090341755102
-0.2501600449904872   0.04334647657938656   -0.0022435669818593462
-0.2501600449904872   0.04334647657938656   -0.0022435669818593462
-0.2501600449904872   0.04334647657938656   -0.0022435669818593462
-0.2501600449904872   0.04334647657938656   -0.0022435669818593462
-0.4214695989295345   -0.014445861528030426   -0.011914295492666191
-0.4214695989295345   -0.014445861528030426   -0.011914295492666191
-0.4214695989295345   -0.014445861528030426   -0.011914295492666191
-0.4214695989295345   -0.014445861528030426   -0.011914295492666191
-0.42590200657887334   -0.010534105111975361   -0.002521979038433972
-0.42590200657887334   -0.010534105111975361   -0.002521979038433972
-0.42590200657887334   -0.010534105111975361   -0.002521979038433972
-0.42590200657887334   -0.010534105111975361   -0.002521979038433972
-0.2656155663546398   0.002458942851149861   0.003285647107361893
-0.2656155663546398   0.002458942851149861   0.003285647107361893
-0.2656155663546398   0.002458942851149861   0.003285647107361893
-0.2656155663546398   0.002458942851149861   0.003285647107361893
-0.34007410887632245   0.004873467189168885   0.0013923077503781855
-0.34007410887632245   0.004873467189168885   0.0013923077503781855
-0.34007410887632245   0.004873467189168885   0.0013923077503781855
-0.34007410887632245   0.004873467189168885   0.0013923077503781855
-0.2614115529720384   0.02351776065948515   0.003246896212033626
-0.2614115529720384   0.02351776065948515   0.003246896212033626
-0.2614115529720384   0.02351776065948515   0.003246896212033626
-0.2614115529720384   0.02351776065948515   0.003246896212033626
-0.4315543665354676   -0.0330412694943035   -0.00827661443907711
-0.4315543665354676   -0.0330412694943035   -0.00827661443907711
-0.4315543665354676   -0.0330412694943035   -0.00827661443907711
-0.4315543665354676   -0.0330412694943035   -0.00827661443907711
-0.43633369325201576   -0.030115118977947945   0.0029096153934789343
-0.43633369325201576   -0.030115118977947945   0.0029096153934789343
-0.43633369325201576   -0.030115118977947945   0.0029096153934789343
-0.43633369325201576   -0.030115118977947945   0.0029096153934789343
-0.2774131999953038   -0.01679072126663735   0.006781879944280589
-0.2774131999953038   -0.01679072126663735   0.006781879944280589
-0.2774131999953038   -0.01679072126663735   0.006781879944280589
-0.2774131999953038   -0.01679072126663735   0.006781879944280589
-0.3513821396546373   -0.01293485549559623   -0.007037986775425012
-0.3513821396546373   -0.01293485549559623   -0.007037986775425012
-0.3513821396546373   -0.01293485549559623   -0.007037986775425012
-0.3513821396546373   -0.01293485549559623   -0.007037986775425012
-0.27308092904229064   0.003570011228207687   0.008082502214501339
-0.27308092904229064   0.003570011228207687   0.008082502214501339
-0.27308092904229064   0.003570011228207687   0.008082502214501339
-0.27308092904229064   0.003570011228207687   0.008082502214501339
-0.4424120838526212   -0.052221971120380184   -0.005375485467116137
-0.4424120838526212   -0.052221971120380184   -0.005375485467116137
-0.4424120838526212   -0.052221971120380184   -0.005375485467116137
-0.4424120838526212   -0.052221971120380184   -0.005375485467116137
-0.44649326747899337   -0.0488981529100871   0.008118694873110219
-0.44649326747899337   -0.0488981529100871   0.008118694873110219
-0.44649326747899337   -0.0488981529100871   0.008118694873110219
-0.44649326747899337   -0.0488981529100871   0.008118694873110219
-0.28874307937360144   -0.03495081350179467   0.010696524585443012
-0.28874307937360144   -0.03495081350179467   0.010696524585443012
-0.28874307937360144   -0.03495081350179467   0.010696524585443012
-0.28874307937360144   -0.03495081350179467   0.010696524585443012
-0.36355048552896296   -0.03085361400835065   -0.016198423018510183
-0.36355048552896296   -0.03085361400835065   -0.016198423018510183
-0.36355048552896296   -0.03085361400835065   -0.016198423018510183
-0.36355048552896296   -0.03085361400835065   -0.016198423018510183
-0.4001893137561862   0.06276157358128857   0.017279695264756242
-0.4001893137561862   0.06276157358128857   0.017279695264756242
-0.4001893137561862   0.06276157358128857   0.017279695264756242
-0.4001893137561862   0.06276157358128857   0.017279695264756242
-0.5815525003548725   -0.024031599506822498   -0.026725952205703937
-0.5815525003548725   -0.024031599506822498   -0.026725952205703937
-0.5815525003548725   -0.024031599506822498   -0.026725952205703937
-0.5815525003548725   -0.024031599506822498   -0.026725952205703937
-0.5737528297381007   0.009330864060633506   0.01787515295962655
-0.5737528297381007   0.009330864060633506   0.01787515295962655
-0.5737528297381007   0.009330864060633506   0.01787515295962655
-0.5737528297381007   0.009330864060633506   0.01787515295962655
-0.42735505518915934   -0.00843259396904555   -0.011888733232793991
-0.42735505518915934   -0.00843259396904555   -0.011888733232793991
-0.42735505518915934   -0.00843259396904555   -0.011888733232793991
-0.42735505518915934   -0.00843259396904555   -0.011888733232793991
-0.4939953879646293   0.009976214051018027   0.0023821920803710345
-0.4939953879646293   0.009976214051018027   0.0023821920803710345
-0.4939953879646293   0.009976214051018027   0.0023821920803710345
-0.4939953879646293   0.009976214051018027   0.0023821920803710345
-0.4101270504831571   0.0430372738211094   0.02278142250706232
-0.4101270504831571   0.0430372738211094   0.02278142250706232
-0.4101270504831571   0.0430372738211094   0.02278142250706232
-0.4101270504831571   0.0430372738211094   0.02278142250706232
-0.5930958962787284   -0.0442540655641442   -0.025255250118748948
-0.5930958962787284   -0.0442540655641442   -0.025255250118748948
-0.5930958962787284   -0.0442540655641442   -0.025255250118748948
-0.5930958962787284   -0.0442540655641442   -0.025255250118748948
-0.5877333333032139   -0.009939765537669683   0.02111491105982019
-0.5877333333032139   -0.009939765537669683   0.02111491105982019
-0.5877333333032139   -0.009939765537669683   0.02111491105982019
-0.5877333333032139   -0.009939765537669683   0.02111491105982019
-0.43769647573843884   -0.02593552802981128   -0.00808388798677312
-0.43769647573843884   -0.02593552802981128   -0.00808388798677312
-0.43769647573843884   -0.02593552802981128   -0.00808388798677312
-0.43769647573843884   -0.02593552802981128   -0.00808388798677312
-0.503491708787719   -0.007184267487382653   -0.00675627969426193
-0.503491708787719   -0.007184267487382653   -0.00675627969426193
-0.503491708787719   -0.007184267487382653   -0.00675627969426193
-0.503491708787719   -0.007184267487382653   -0.00675627969426193
-0.4202748534107089   0.024955572794400225   0.028133122827664767
-0.4202748534107089   0.024955572794400225   0.028133122827664767
-0.4202748534107089   0.024955572794400225   0.028133122827664767
-0.4202748534107089   0.024955572794400225   0.028133122827664767
-0.6068251414809211   -0.06250105221185993   -0.02178284315453402
-0.6068251414809211   -0.06250105221185993   -0.02178284315453402
-0.6068251414809211   -0.06250105221185993   -0.02178284315453402
-0.6068251414809211   -0.06250105221185993   -0.02178284315453402
-0.5990980984240282   -0.029350993409859957   0.026895172756311814
-0.5990980984240282   -0.029350993409859957   0.026895172756311814
-0.5990980984240282   -0.029350993409859957   0.026895172756311814
-0.5990980984240282   -0.029350993409859957   0.026895172756311814
-0.4480758978306156   -0.04385729646370766   -0.00483531333138032
-0.4480758978306156   -0.04385729646370766   -0.00483531333138032
-0.4480758978306156   -0.04385729646370766   -0.00483531333138032
-0.4480758978306156   -0.04385729646370766   -0.00483531333138032
-0.5177869989536696   -0.024687412165679715   -0.016122301193073618
-0.5177869989536696   -0.024687412165679715   -0.016122301193073618
-0.5177869989536696   -0.024687412165679715   -0.016122301193073618
-0.5177869989536696   -0.024687412165679715   -0.016122301193073618
-0.5509635645704635   0.06801691169040967   0.03417021551910923
-0.5509635645704635   0.06801691169040967   0.03417021551910923
-0.5509635645704635   0.06801691169040967   0.03417021551910923
-0.5509635645704635   0.06801691169040967   0.03417021551910923
-0.7091482628140318   -0.03547327791977046   -0.044700347214393976
-0.7091482628140318   -0.03547327791977046   -0.044700347214393976
-0.7091482628140318   -0.03547327791977046   -0.044700347214393976
-0.7091482628140318   -0.03547327791977046   -0.044700347214393976
-0.7097067825814142   0.027305112082596318   0.03766777189525608
-0.7097067825814142   0.027305112082596318   0.03766777189525608
-0.7097067825814142   0.027305112082596318   0.03766777189525608
-0.7097067825814142   0.027305112082596318   0.03766777189525608
-0.588668208513331   -0.020023419099889743   -0.027347457756009275
-0.588668208513331   -0.020023419099889743   -0.027347457756009275
-0.588668208513331   -0.020023419099889743   -0.027347457756009275
-0.588668208513331   -0.020023419099889743   -0.027347457756009275
-0.6137422268396763   0.01613748405289478   0.011873367882207608
-0.6137422268396763   0.01613748405289478   0.011873367882207608
-0.6137422268396763   0.01613748405289478   0.011873367882207608
-0.6137422268396763   0.01613748405289478   0.011873367882207608
-0.5595593576446612   0.05786309849031504   0.040310278997127275
-0.5595593576446612   0.05786309849031504   0.040310278997127275
-0.5595593576446612   0.05786309849031504   0.040310278997127275
-0.5595593576446612   0.05786309849031504   0.040310278997127275
-0.7410126541113613   -0.05277842616889076   -0.038778047502984136
-0.7410126541113613   -0.05277842616889076   -0.038778047502984136
-0.7410126541113613   -0.05277842616889076   -0.038778047502984136
-0.7410126541113613   -0.05277842616889076   -0.038778047502984136
-0.7351351734583272   0.016326973540463134   0.048533832987287195
-0.7351351734583272   0.016326973540463134   0.048533832987287195
-0.7351351734583272   0.016326973540463134   0.048533832987287195
-0.7351351734583272   0.016326973540463134   0.048533832987287195
-0.6007769327110969   -0.030085172687398607   -0.023957678829873527
-0.6007769327110969   -0.030085172687398607   -0.023957678829873527
-0.6007769327110969   -0.030085172687398607   -0.023957678829873527
-0.6007769327110969   -0.030085172687398607   -0.023957678829873527
-0.6440116207769251   0.002789341332850713   -0.0008047766395468114
-0.6440116207769251   0.002789341332850713   -0.0008047766395468114
-0.6440116207769251   0.002789341332850713   -0.0008047766395468114
-0.6440116207769251   0.002789341332850713   -0.0008047766395468114
-0.5704558935757803   0.04922377645948095   0.04833856769982933
-0.5704558935757803   0.04922377645948095   0.04833856769982933
-0.5704558935757803   0.04922377645948095   0.04833856769982933
-0.5704558935757803   0.04922377645948095   0.04833856769982933
-0.767695113692735   -0.0652208767055   -0.032718017938772964
-0.767695113692735   -0.0652208767055   -0.032718017938772964
-0.767695113692735   -0.0652208767055   -0.032718017938772964
-0.767695113692735   -0.0652208767055   -0.032718017938772964
-0.772713238110608   -0.012556964029264067   0.051318537380996426
-0.772713238110608   -0.012556964029264067   0.051318537380996426
-0.772713238110608   -0.012556964029264067   0.051318537380996426
-0.772713238110608   -0.012556964029264067   0.051318537380996426
-0.6129352628678042   -0.05094748823574842   -0.020694154636688333
-0.6129352628678042   -0.05094748823574842   -0.020694154636688333
-0.6129352628678042   -0.05094748823574842   -0.020694154636688333
-0.6129352628678042   -0.05094748823574842   -0.020694154636688333
-0.6556321913186852   -0.010434996216854932   -0.009803780236201237
-0.6556321913186852   -0.010434996216854932   -0.009803780236201237
-0.6556321913186852   -0.010434996216854932   -0.009803780236201237
-0.6556321913186852   -0.010434996216854932   -0.009803780236201237
-0.3004033934674763   -0.019604404185211758   -0.05650800782947883
-0.3004033934674763   -0.019604404185211758   -0.05650800782947883
-0.3004033934674763   -0.019604404185211758   -0.05650800782947883
-0.3004033934674763   -0.019604404185211758   -0.05650800782947883
-0.2975078916980271   0.043264939513680635   0.025418079743330754
-0.2975078916980271   0.043264939513680635   0.025418079743330754
-0.2975078916980271   0.043264939513680635   0.025418079743330754
-0.2975078916980271   0.043264939513680635   0.025418079743330754
-0.33479182897342596   -0.03955825948272577   -0.03831270311030182
-0.33479182897342596   -0.03955825948272577   -0.03831270311030182
-0.33479182897342596   -0.03955825948272577   -0.03831270311030182
-0.33479182897342596   -0.03955825948272577   -0.03831270311030182
-0.3066298400349238   0.022650419484542786   0.03818597012200771
-0.3066298400349238   0.022650419484542786   0.03818597012200771
-0.3066298400349238   0.022650419484542786   0.03818597012200771
-0.3066298400349238   0.022650419484542786   0.03818597012200771
-0.29427951724806556   0.007299063378911331   0.025932088999358435
-0.29427951724806556   0.007299063378911331   0.025932088999358435
-0.29427951724806556   0.007299063378911331   0.025932088999358435
-0.29427951724806556   0.007299063378911331   0.025932088999358435
-0.3366149561306397   -0.04173181872209466   -0.04735737214993256
-0.3366149561306397   -0.04173181872209466   -0.04735737214993256
-0.3366149561306397   -0.04173181872209466   -0.04735737214993256
-0.3366149561306397   -0.04173181872209466   -0.04735737214993256
-0.30852948155388277   0.02110121004773927   0.03233956445694916
-0.30852948155388277   0.02110121004773927   0.03233956445694916
-0.30852948155388277   0.02110121004773927   0.03233956445694916
-0.30852948155388277   0.02110121004773927   0.03233956445694916
-0.34601906426893536   -0.0498335170575519   -0.032425843751890414
-0.34601906426893536   -0.0498335170575519   -0.032425843751890414
-0.34601906426893536   -0.0498335170575519   -0.032425843751890414
-0.34601906426893536   -0.0498335170575519   -0.032425843751890414
-0.3355526250669369   0.008664150229540042   0.07099634217157132
-0.3355526250669369   0.008664150229540042   0.07099634217157132
-0.3355526250669369   0.008664150229540042   0.07099634217157132
-0.3355526250669369   0.008664150229540042   0.07099634217157132
-0.320934574885259   -0.010353129758652407   0.01036965522729695
-0.320934574885259   -0.010353129758652407   0.01036965522729695
-0.320934574885259   -0.010353129758652407   0.01036965522729695
-0.320934574885259   -0.010353129758652407   0.01036965522729695
-0.3699711003020285   -0.05552094355721274   -0.0369109402171322
-0.3699711003020285   -0.05552094355721274   -0.0369109402171322
-0.3699711003020285   -0.05552094355721274   -0.0369109402171322
-0.3699711003020285   -0.05552094355721274   -0.0369109402171322
-0.3204146306626759   0.005537535100374191   0.040225272121481026
-0.3204146306626759   0.005537535100374191   0.040225272121481026
-0.3204146306626759   0.005537535100374191   0.040225272121481026
-0.3204146306626759   0.005537535100374191   0.040225272121481026
-0.3552121455092285   -0.06982510895217475   -0.02552114931741145
-0.3552121455092285   -0.06982510895217475   -0.02552114931741145
-0.3552121455092285   -0.06982510895217475   -0.02552114931741145
-0.3552121455092285   -0.06982510895217475   -0.02552114931741145
-0.38050651827223303   -0.037555667397391065   0.06644023767553131
-0.38050651827223303   -0.037555667397391065   0.06644023767553131
-0.38050651827223303   -0.037555667397391065   0.06644023767553131
-0.38050651827223303   -0.037555667397391065   0.06644023767553131
-0.34404335496895166   -0.031219892484261602   -0.014290728266463715
-0.34404335496895166   -0.031219892484261602   -0.014290728266463715
-0.34404335496895166   -0.031219892484261602   -0.014290728266463715
-0.34404335496895166   -0.031219892484261602   -0.014290728266463715
-0.3189321384384607   -0.009340917781994406   -0.0290972966631625
-0.3189321384384607   -0.009340917781994406   -0.0290972966631625
-0.3189321384384607   -0.009340917781994406   -0.0290972966631625
-0.3189321384384607   -0.009340917781994406   -0.0290972966631625
-0.3233922716412555   -0.039738731216104994   -0.0016936147150564684
-0.3233922716412555   -0.039738731216104994   -0.0016936147150564684
-0.3233922716412555   -0.039738731216104994   -0.0016936147150564684
-0.3233922716412555   -0.039738731216104994   -0.0016936147150564684
-0.3257505363574554   -0.02646006355029189   -0.014525148173489585
-0.3257505363574554   -0.02646006355029189   -0.014525148173489585
-0.3257505363574554   -0.02646006355029189   -0.014525148173489585
-0.3257505363574554   -0.02646006355029189   -0.014525148173489585
-0.33013106512331525   -0.05400633374834222   -0.0005608095941314478
-0.33013106512331525   -0.05400633374834222   -0.0005608095941314478
-0.33013106512331525   -0.05400633374834222   -0.0005608095941314478
-0.33013106512331525   -0.05400633374834222   -0.0005608095941314478
-0.3217927671609328   -0.033793127447240986   -0.0011442692056147091
-0.3217927671609328   -0.033793127447240986   -0.0011442692056147091
-0.3217927671609328   -0.033793127447240986   -0.0011442692056147091
-0.3217927671609328   -0.033793127447240986   -0.0011442692056147091
-0.33014744443055133   -0.02947018625495828   -0.025178853623694868
-0.33014744443055133   -0.02947018625495828   -0.025178853623694868
-0.33014744443055133   -0.02947018625495828   -0.025178853623694868
-0.33014744443055133   -0.02947018625495828   -0.025178853623694868
-0.3278104757882535   -0.05307252978171499   0.001787620903942938
-0.3278104757882535   -0.05307252978171499   0.001787620903942938
-0.3278104757882535   -0.05307252978171499   0.001787620903942938
-0.3278104757882535   -0.05307252978171499   0.001787620903942938
-0.3312168125178669   -0.04376284710237047   -0.009373267727378454
-0.3312168125178669   -0.04376284710237047   -0.009373267727378454
-0.3312168125178669   -0.04376284710237047   -0.009373267727378454
-0.3312168125178669   -0.04376284710237047   -0.009373267727378454
-0.34210176132966325   -0.0700647605044391   0.00739191439135739
-0.34210176132966325   -0.0700647605044391   0.00739191439135739
-0.34210176132966325   -0.0700647605044391   0.00739191439135739
-0.34210176132966325   -0.0700647605044391   0.00739191439135739
-0.329194365771717   -0.04777174406465761   -0.009157685979713143
-0.329194365771717   -0.04777174406465761   -0.009157685979713143
-0.329194365771717   -0.04777174406465761   -0.009157685979713143
-0.329194365771717   -0.04777174406465761   -0.009157685979713143
-0.34289647164073334   -0.047961170762628735   -0.018685226905803362
-0.34289647164073334   -0.047961170762628735   -0.018685226905803362
-0.34289647164073334   -0.047961170762628735   -0.018685226905803362
-0.34289647164073334   -0.047961170762628735   -0.018685226905803362
-0.3330774185415724   -0.06852175317895645   0.0060826082306798535
-0.3330774185415724   -0.06852175317895645   0.0060826082306798535
-0.3330774185415724   -0.06852175317895645   0.0060826082306798535
-0.3330774185415724   -0.06852175317895645   0.0060826082306798535
-0.3361243848132749   -0.062407566745543944   -0.00427108715124154
-0.3361243848132749   -0.062407566745543944   -0.00427108715124154
-0.3361243848132749   -0.062407566745543944   -0.00427108715124154
-0.3361243848132749   -0.062407566745543944   -0.00427108715124154
-0.3512628758640681   -0.09045668842076372   0.014856778376974994
-0.3512628758640681   -0.09045668842076372   0.014856778376974994
-0.3512628758640681   -0.09045668842076372   0.014856778376974994
-0.3512628758640681   -0.09045668842076372   0.014856778376974994
-0.33937291486402393   -0.06465626092371142   -0.01934986857258121
-0.33937291486402393   -0.06465626092371142   -0.01934986857258121
-0.33937291486402393   -0.06465626092371142   -0.01934986857258121
-0.33937291486402393   -0.06465626092371142   -0.01934986857258121
-0.31452092240433976   0.008259677438520999   -0.005335277185103786
-0.31452092240433976   0.008259677438520999   -0.005335277185103786
-0.31452092240433976   0.008259677438520999   -0.005335277185103786
-0.31452092240433976   0.008259677438520999   -0.005335277185103786
-0.3559626298129484   -0.06758056205300883   -0.017064273804485747
-0.3559626298129484   -0.06758056205300883   -0.017064273804485747
-0.3559626298129484   -0.06758056205300883   -0.017064273804485747
-0.3559626298129484   -0.06758056205300883   -0.017064273804485747
-0.34143236571813146   -0.012463626824975742   0.004489598090225547
-0.34143236571813146   -0.012463626824975742   0.004489598090225547
-0.34143236571813146   -0.012463626824975742   0.004489598090225547
-0.34143236571813146   -0.012463626824975742   0.004489598090225547
-0.3342688904783111   -0.07304649174067801   -0.010530490587382091
-0.3342688904783111   -0.07304649174067801   -0.010530490587382091
-0.3342688904783111   -0.07304649174067801   -0.010530490587382091
-0.3342688904783111   -0.07304649174067801   -0.010530490587382091
-0.33631094683281765   -0.03735462168577884   -0.007610516770974074
-0.33631094683281765   -0.03735462168577884   -0.007610516770974074
-0.33631094683281765   -0.03735462168577884   -0.007610516770974074
-0.33631094683281765   -0.03735462168577884   -0.007610516770974074
-0.31935177365375605   -0.008953089726002308   -3.830847928264214e-05
-0.31935177365375605   -0.008953089726002308   -3.830847928264214e-05
-0.31935177365375605   -0.008953089726002308   -3.830847928264214e-05
-0.31935177365375605   -0.008953089726002308   -3.830847928264214e-05
-0.3582346833446486   -0.0784422296416136   -0.013543387225722486
-0.3582346833446486   -0.0784422296416136   -0.013543387225722486
-0.3582346833446486   -0.0784422296416136   -0.013543387225722486
-0.3582346833446486   -0.0784422296416136   -0.013543387225722486
-0.34536191082876666   -0.02981543052287634   0.009607044496548492
-0.34536191082876666   -0.02981543052287634   0.009607044496548492
-0.34536191082876666   -0.02981543052287634   0.009607044496548492
-0.34536191082876666   -0.02981543052287634   0.009607044496548492
-0.3393852347331347   -0.08672116748116461   -0.007257058424923218
-0.3393852347331347   -0.08672116748116461   -0.007257058424923218
-0.3393852347331347   -0.08672116748116461   -0.007257058424923218
-0.3393852347331347   -0.08672116748116461   -0.007257058424923218
-0.3404841365237321   -0.05057205784126492   -0.014482003383785885
-0.3404841365237321   -0.05057205784126492   -0.014482003383785885
-0.3404841365237321   -0.05057205784126492   -0.014482003383785885
-0.3404841365237321   -0.05057205784126492   -0.014482003383785885
-0.3248854200843292   -0.026614476504763934   0.0051353238427037234
-0.3248854200843292   -0.026614476504763934   0.0051353238427037234
-0.3248854200843292   -0.026614476504763934   0.0051353238427037234
-0.3248854200843292   -0.026614476504763934   0.0051353238427037234
-0.36196763482928995   -0.09202803085099989   -0.011208975177944336
-0.36196763482928995   -0.09202803085099989   -0.011208975177944336
-0.36196763482928995   -0.09202803085099989   -0.011208975177944336
-0.36196763482928995   -0.09202803085099989   -0.011208975177944336
-0.3485620696882983   -0.0461313897540184   0.014612633639021183
-0.3485620696882983   -0.0461313897540184   0.014612633639021183
-0.3485620696882983   -0.0461313897540184   0.014612633639021183
-0.3485620696882983   -0.0461313897540184   0.014612633639021183
-0.3431973331267769   -0.09983864284476851   -0.0022047526195234646
-0.3431973331267769   -0.09983864284476851   -0.0022047526195234646
-0.3431973331267769   -0.09983864284476851   -0.0022047526195234646
-0.3431973331267769   -0.09983864284476851   -0.0022047526195234646
-0.34545703211094897   -0.06439518953443338   -0.022031845672952008
-0.34545703211094897   -0.06439518953443338   -0.022031845672952008
-0.34545703211094897   -0.06439518953443338   -0.022031845672952008
-0.34545703211094897   -0.06439518953443338   -0.022031845672952008
-0.32867826748934953   0.03520319388293573   0.01657378187756424
-0.32867826748934953   0.03520319388293573   0.01657378187756424
-0.32867826748934953   0.03520319388293573   0.01657378187756424
-0.32867826748934953   0.03520319388293573   0.01657378187756424
-0.3885837319368375   -0.050427235339719864   -0.023784389524232633
-0.3885837319368375   -0.050427235339719864   -0.023784389524232633
-0.3885837319368375   -0.050427235339719864   -0.023784389524232633
-0.3885837319368375   -0.050427235339719864   -0.023784389524232633
-0.3676399313896225   0.010479951807467584   0.022958871850204107
-0.3676399313896225   0.010479951807467584   0.022958871850204107
-0.3676399313896225   0.010479951807467584   0.022958871850204107
-0.3676399313896225   0.010479951807467584   0.022958871850204107
-0.3539711874097308   -0.056265220232922096   -0.014402916959824985
-0.3539711874097308   -0.056265220232922096   -0.014402916959824985
-0.3539711874097308   -0.056265220232922096   -0.014402916959824985
-0.3539711874097308   -0.056265220232922096   -0.014402916959824985
-0.35968579442419296   -0.014874542037351068   -0.0045451366254559145
-0.35968579442419296   -0.014874542037351068   -0.0045451366254559145
-0.35968579442419296   -0.014874542037351068   -0.0045451366254559145
-0.35968579442419296   -0.014874542037351068   -0.0045451366254559145
-0.3320254342784732   0.017352668793632214   0.021707959669908697
-0.3320254342784732   0.017352668793632214   0.021707959669908697
-0.3320254342784732   0.017352668793632214   0.021707959669908697
-0.3320254342784732   0.017352668793632214   0.021707959669908697
-0.3920891468567136   -0.0656413995549254   -0.023165854122858695
-0.3920891468567136   -0.0656413995549254   -0.023165854122858695
-0.3920891468567136   -0.0656413995549254   -0.023165854122858695
-0.3920891468567136   -0.0656413995549254   -0.023165854122858695
-0.37445059712102796   -0.006463177233177551   0.026031987378984656
-0.37445059712102796   -0.006463177233177551   0.026031987378984656
-0.37445059712102796   -0.006463177233177551   0.026031987378984656
-0.37445059712102796   -0.006463177233177551   0.026031987378984656
-0.35739197180089793   -0.0688935765819455   -0.011465114305038632
-0.35739197180089793   -0.0688935765819455   -0.011465114305038632
-0.35739197180089793   -0.0688935765819455   -0.011465114305038632
-0.35739197180089793   -0.0688935765819455   -0.011465114305038632
-0.3631223825338543   -0.02920158688138818   -0.012604095420692851
-0.3631223825338543   -0.02920158688138818   -0.012604095420692851
-0.3631223825338543   -0.02920158688138818   -0.012604095420692851
-0.3631223825338543   -0.02920158688138818   -0.012604095420692851
-0.335696962292023   0.001420352990258958   0.026696003667131527
-0.335696962292023   0.001420352990258958   0.026696003667131527
-0.335696962292023   0.001420352990258958   0.026696003667131527
-0.335696962292023   0.001420352990258958   0.026696003667131527
-0.39831495297328257   -0.07894645314875916   -0.020806515966706893
-0.39831495297328257   -0.07894645314875916   -0.020806515966706893
-0.39831495297328257   -0.07894645314875916   -0.020806515966706893
-0.39831495297328257   -0.07894645314875916   -0.020806515966706893
-0.37895721331476084   -0.02271698573963192   0.03174755577314364
-0.37895721331476084   -0.02271698573963192   0.03174755577314364
-0.37895721331476084   -0.02271698573963192   0.03174755577314364
-0.37895721331476084   -0.02271698573963192   0.03174755577314364
-0.36033254078262783   -0.08157896782353372   -0.008792143763118876
-0.36033254078262783   -0.08157896782353372   -0.008792143763118876
-0.36033254078262783   -0.08157896782353372   -0.008792143763118876
-0.36033254078262783   -0.08157896782353372   -0.008792143763118876
-0.36913806855423126   -0.04270730502556017   -0.020413199671687587
-0.36913806855423126   -0.04270730502556017   -0.020413199671687587
-0.36913806855423126   -0.04270730502556017   -0.020413199671687587
-0.36913806855423126   -0.04270730502556017   -0.020413199671687587
-0.35702175444545503   0.05050978809617969   0.03308847449678
-0.35702175444545503   0.05050978809617969   0.03308847449678
-0.35702175444545503   0.05050978809617969   0.03308847449678
-0.35702175444545503   0.05050978809617969   0.03308847449678
-0.38172118118525394   -0.03046270742774438   -0.03446246141676291
-0.38172118118525394   -0.03046270742774438   -0.03446246141676291
-0.38172118118525394   -0.03046270742774438   -0.03446246141676291
-0.38172118118525394   -0.03046270742774438   -0.03446246141676291
-0.3731605986182116   0.035902044450084186   0.03677225009874083
-0.3731605986182116   0.035902044450084186   0.03677225009874083
-0.3731605986182116   0.035902044450084186   0.03677225009874083
-0.3731605986182116   0.035902044450084186   0.03677225009874083
-0.38635327351432897   -0.039062530161728434   -0.021065356804132657
-0.38635327351432897   -0.039062530161728434   -0.021065356804132657
-0.38635327351432897   -0.039062530161728434   -0.021065356804132657
-0.38635327351432897   -0.039062530161728434   -0.021065356804132657
-0.3618222350882967   0.009017958112228594   0.0014160864864478095
-0.3618222350882967   0.009017958112228594   0.0014160864864478095
-0.3618222350882967   0.009017958112228594   0.0014160864864478095
-0.3618222350882967   0.009017958112228594   0.0014160864864478095
-0.3588656466891176   0.03905719520682836   0.038253051953367714
-0.3588656466891176   0.03905719520682836   0.038253051953367714
-0.3588656466891176   0.03905719520682836   0.038253051953367714
-0.3588656466891176   0.03905719520682836   0.038253051953367714
-0.40268834524922736   -0.04425780072427701   -0.030706637881977153
-0.40268834524922736   -0.04425780072427701   -0.030706637881977153
-0.40268834524922736   -0.04425780072427701   -0.030706637881977153
-0.40268834524922736   -0.04425780072427701   -0.030706637881977153
-0.38959534677293983   0.026411354276982456   0.04734337005387479
-0.38959534677293983   0.026411354276982456   0.04734337005387479
-0.38959534677293983   0.026411354276982456   0.04734337005387479
-0.38959534677293983   0.026411354276982456   0.04734337005387479
-0.3915074606866388   -0.046495225586990346   -0.019220282095256724
-0.3915074606866388   -0.046495225586990346   -0.019220282095256724
-0.3915074606866388   -0.046495225586990346   -0.019220282095256724
-0.3915074606866388   -0.046495225586990346   -0.019220282095256724
-0.3795261905525872   -0.0024809228055037123   -0.00809669644040488
-0.3795261905525872   -0.0024809228055037123   -0.00809669644040488
-0.3795261905525872   -0.0024809228055037123   -0.00809669644040488
-0.3795261905525872   -0.0024809228055037123   -0.00809669644040488
-0.3629203587210944   0.03143473192139297   0.04578527022408191
-0.3629203587210944   0.03143473192139297   0.04578527022408191
-0.3629203587210944   0.03143473192139297   0.04578527022408191
-0.3629203587210944   0.03143473192139297   0.04578527022408191
-0.4208401300532902   -0.05417628454620684   -0.028292907524687785
-0.4208401300532902   -0.05417628454620684   -0.028292907524687785
-0.4208401300532902   -0.05417628454620684   -0.028292907524687785
-0.4208401300532902   -0.05417628454620684   -0.028292907524687785
-0.418573750194638   0.002180970048553915   0.05058662411165703
-0.418573750194638   0.002180970048553915   0.05058662411165703
-0.418573750194638   0.002180970048553915   0.05058662411165703
-0.418573750194638   0.002180970048553915   0.05058662411165703
-0.39621083497076615   -0.060534280425058734   -0.016703257821463702
-0.39621083497076615   -0.060534280425058734   -0.016703257821463702
-0.39621083497076615   -0.060534280425058734   -0.016703257821463702
-0.39621083497076615   -0.060534280425058734   -0.016703257821463702
-0.38792079533175566   -0.013062616264535865   -0.01667578245469578
-0.38792079533175566   -0.013062616264535865   -0.01667578245469578
-0.38792079533175566   -0.013062616264535865   -0.01667578245469578
-0.38792079533175566   -0.013062616264535865   -0.01667578245469578
-0.76621316152523   -0.07001238126564432   -0.07226325432609108
-0.76621316152523   -0.07001238126564432   -0.07226325432609108
-0.76621316152523   -0.07001238126564432   -0.07226325432609108
-0.76621316152523   -0.07001238126564432   -0.07226325432609108
-0.4859778573644498   0.04151896385350367   0.017038065424142018
-0.4859778573644498   0.04151896385350367   0.017038065424142018
-0.4859778573644498   0.04151896385350367   0.017038065424142018
-0.4859778573644498   0.04151896385350367   0.017038065424142018
-0.5103026438602537   -0.032166778149265496   -0.03222721422170373
-0.5103026438602537   -0.032166778149265496   -0.03222721422170373
-0.5103026438602537   -0.032166778149265496   -0.03222721422170373
-0.5103026438602537   -0.032166778149265496   -0.03222721422170373
-0.8145597549611648   -0.09169022084093449   0.08100758087000104
-0.8145597549611648   -0.09169022084093449   0.08100758087000104
-0.8145597549611648   -0.09169022084093449   0.08100758087000104
-0.8145597549611648   -0.09169022084093449   0.08100758087000104
-0.5922897884919515   -0.022519292443372828   0.07854975432041542
-0.5922897884919515   -0.022519292443372828   0.07854975432041542
-0.5922897884919515   -0.022519292443372828   0.07854975432041542
-0.5922897884919515   -0.022519292443372828   0.07854975432041542
-0.8436054659060395   -0.1029701155442847   -0.05294107915101404
-0.8436054659060395   -0.1029701155442847   -0.05294107915101404
-0.8436054659060395   -0.1029701155442847   -0.05294107915101404
-0.8436054659060395   -0.1029701155442847   -0.05294107915101404
-0.5016829370957147   -0.041312887626250044   0.020017429077973117
-0.5016829370957147   -0.041312887626250044   0.020017429077973117
-0.5016829370957147   -0.041312887626250044   0.020017429077973117
-0.5016829370957147   -0.041312887626250044   0.020017429077973117
-0.5180991791862931   -0.046670158796314185   -0.02312864883834352
-0.5180991791862931   -0.046670158796314185   -0.02312864883834352
-0.5180991791862931   -0.046670158796314185   -0.02312864883834352
-0.5180991791862931   -0.046670158796314185   -0.02312864883834352
-0.8404400624562854   -0.12812856869956718   0.002023819966874091
-0.8404400624562854   -0.12812856869956718   0.002023819966874091
-0.8404400624562854   -0.12812856869956718   0.002023819966874091
-0.8404400624562854   -0.12812856869956718   0.002023819966874091
-0.6557024885600059   -0.0773138305125548   0.018141499168365938
-0.6557024885600059   -0.0773138305125548   0.018141499168365938
-0.6557024885600059   -0.0773138305125548   0.018141499168365938
-0.6557024885600059   -0.0773138305125548   0.018141499168365938
-0.8470134358947006   -0.11635133629606637   -0.04262027962869708
-0.8470134358947006   -0.11635133629606637   -0.04262027962869708
-0.8470134358947006   -0.11635133629606637   -0.04262027962869708
-0.8470134358947006   -0.11635133629606637   -0.04262027962869708
-0.5177168566140602   -0.06463844206599699   -0.0032487527075001355
-0.5177168566140602   -0.06463844206599699   -0.0032487527075001355
-0.5177168566140602   -0.06463844206599699   -0.0032487527075001355
-0.5177168566140602   -0.06463844206599699   -0.0032487527075001355
-0.5184159823454031   -0.08179386332724914   -0.01684127790058898
-0.5184159823454031   -0.08179386332724914   -0.01684127790058898
-0.5184159823454031   -0.08179386332724914   -0.01684127790058898
-0.5184159823454031   -0.08179386332724914   -0.01684127790058898
-0.860496044610744   -0.19569481638164427   0.012877523189304907
-0.860496044610744   -0.19569481638164427   0.012877523189304907
-0.860496044610744   -0.19569481638164427   0.012877523189304907
-0.860496044610744   -0.19569481638164427   0.012877523189304907
-0.6549567839273267   -0.10628639520349768   0.0013522355975855993
-0.6549567839273267   -0.10628639520349768   0.0013522355975855993
-0.6549567839273267   -0.10628639520349768   0.0013522355975855993
-0.6549567839273267   -0.10628639520349768   0.0013522355975855993
-0.5247810935123781   -0.08897466911643054   -0.04648448234556156
-0.5247810935123781   -0.08897466911643054   -0.04648448234556156
-0.5247810935123781   -0.08897466911643054   -0.04648448234556156
-0.5247810935123781   -0.08897466911643054   -0.04648448234556156
-0.3605227823803595   -0.23296730551956032   -0.04367903319656624
-0.3605227823803595   -0.23296730551956032   -0.04367903319656624
-0.3605227823803595   -0.23296730551956032   -0.04367903319656624
-0.3605227823803595   -0.23296730551956032   -0.04367903319656624
-0.31666965937331765   -0.0517522498782979   -0.0027517959939073466
-0.31666965937331765   -0.0517522498782979   -0.0027517959939073466
-0.31666965937331765   -0.0517522498782979   -0.0027517959939073466
-0.31666965937331765   -0.0517522498782979   -0.0027517959939073466
-0.557859175560837   -0.24711221657337681   -0.05506443430051153
-0.557859175560837   -0.24711221657337681   -0.05506443430051153
-0.557859175560837   -0.24711221657337681   -0.05506443430051153
-0.557859175560837   -0.24711221657337681   -0.05506443430051153
-0.4348524470316534   -0.16472431590791864   -0.012674793826013109
-0.4348524470316534   -0.16472431590791864   -0.012674793826013109
-0.4348524470316534   -0.16472431590791864   -0.012674793826013109
-0.4348524470316534   -0.16472431590791864   -0.012674793826013109
-0.5243717004419202   -0.0997417949575814   -0.034997480321722285
-0.5243717004419202   -0.0997417949575814   -0.034997480321722285
-0.5243717004419202   -0.0997417949575814   -0.034997480321722285
-0.5243717004419202   -0.0997417949575814   -0.034997480321722285
-0.3522832550775196   -0.20124879207937907   -0.03132323231384006
-0.3522832550775196   -0.20124879207937907   -0.03132323231384006
-0.3522832550775196   -0.20124879207937907   -0.03132323231384006
-0.3522832550775196   -0.20124879207937907   -0.03132323231384006
-0.3202210906324991   -0.06706563381769831   0.0005068771278972373
-0.3202210906324991   -0.06706563381769831   0.0005068771278972373
-0.3202210906324991   -0.06706563381769831   0.0005068771278972373
-0.3202210906324991   -0.06706563381769831   0.0005068771278972373
-0.5598070138048428   -0.2458276433240064   -0.03251033740340378
-0.5598070138048428   -0.2458276433240064   -0.03251033740340378
-0.5598070138048428   -0.2458276433240064   -0.03251033740340378
-0.5598070138048428   -0.2458276433240064   -0.03251033740340378
-0.42998913428763214   -0.154406450893897   -0.013465575327919255
-0.42998913428763214   -0.154406450893897   -0.013465575327919255
-0.42998913428763214   -0.154406450893897   -0.013465575327919255
-0.42998913428763214   -0.154406450893897   -0.013465575327919255
-0.5323554918111897   -0.11484163635903662   -0.026238734400103714
-0.5323554918111897   -0.11484163635903662   -0.026238734400103714
-0.5323554918111897   -0.11484163635903662   -0.026238734400103714
-0.5323554918111897   -0.11484163635903662   -0.026238734400103714
-0.35207238824297715   -0.2024514163994929   -0.023363828342701967
-0.35207238824297715   -0.2024514163994929   -0.023363828342701967
-0.35207238824297715   -0.2024514163994929   -0.023363828342701967
-0.35207238824297715   -0.2024514163994929   -0.023363828342701967
-0.32003791748777954   -0.08615008396401569   0.005164842284426666
-0.32003791748777954   -0.08615008396401569   0.005164842284426666
-0.32003791748777954   -0.08615008396401569   0.005164842284426666
-0.32003791748777954   -0.08615008396401569   0.005164842284426666
-0.5583581670980086   -0.24991394883314966   -0.048432116157720334
-0.5583581670980086   -0.24991394883314966   -0.048432116157720334
-0.5583581670980086   -0.24991394883314966   -0.048432116157720334
-0.5583581670980086   -0.24991394883314966   -0.048432116157720334
-0.43641649403222904   -0.166095969682489   -0.0250085471448417
-0.43641649403222904   -0.166095969682489   -0.0250085471448417
-0.43641649403222904   -0.166095969682489   -0.0250085471448417
-0.43641649403222904   -0.166095969682489   -0.0250085471448417
-0.3174490705615675   -0.05726712613855731   -0.0040106534836091
-0.3174490705615675   -0.05726712613855731   -0.0040106534836091
-0.3174490705615675   -0.05726712613855731   -0.0040106534836091
-0.3174490705615675   -0.05726712613855731   -0.0040106534836091
-0.2661903187016772   -0.17822824297900908   -0.03076736829550404
-0.2661903187016772   -0.17822824297900908   -0.03076736829550404
-0.2661903187016772   -0.17822824297900908   -0.03076736829550404
-0.2661903187016772   -0.17822824297900908   -0.03076736829550404
-0.2293943527197361   -0.04751290340264052   0.01226291334423038
-0.2293943527197361   -0.04751290340264052   0.01226291334423038
-0.2293943527197361   -0.04751290340264052   0.01226291334423038
-0.2293943527197361   -0.04751290340264052   0.01226291334423038
-0.35132437640557596   -0.19377645011316932   -0.0340011809203315
-0.35132437640557596   -0.19377645011316932   -0.0340011809203315
-0.35132437640557596   -0.19377645011316932   -0.0340011809203315
-0.35132437640557596   -0.19377645011316932   -0.0340011809203315
-0.28980571988205206   -0.1208652212434191   -0.014197000731908493
-0.28980571988205206   -0.1208652212434191   -0.014197000731908493
-0.28980571988205206   -0.1208652212434191   -0.014197000731908493
-0.28980571988205206   -0.1208652212434191   -0.014197000731908493
-0.3192216095291961   -0.0678197473030824   0.0005559506514809381
-0.3192216095291961   -0.0678197473030824   0.0005559506514809381
-0.3192216095291961   -0.0678197473030824   0.0005559506514809381
-0.3192216095291961   -0.0678197473030824   0.0005559506514809381
-0.2633805486519879   -0.17535303526859938   -0.02982793445106975
-0.2633805486519879   -0.17535303526859938   -0.02982793445106975
-0.2633805486519879   -0.17535303526859938   -0.02982793445106975
-0.2633805486519879   -0.17535303526859938   -0.02982793445106975
-0.22941628351679821   -0.06009814356174857   0.0158891099558206
-0.22941628351679821   -0.06009814356174857   0.0158891099558206
-0.22941628351679821   -0.06009814356174857   0.0158891099558206
-0.22941628351679821   -0.06009814356174857   0.0158891099558206
-0.35237123343250354   -0.19684866760072137   -0.03046080308910537
-0.35237123343250354   -0.19684866760072137   -0.03046080308910537
-0.35237123343250354   -0.19684866760072137   -0.03046080308910537
-0.35237123343250354   -0.19684866760072137   -0.03046080308910537
-0.2892370669135738   -0.1256065594214051   -0.01842171007437951
-0.2892370669135738   -0.1256065594214051   -0.01842171007437951
-0.2892370669135738   -0.1256065594214051   -0.01842171007437951
-0.2892370669135738   -0.1256065594214051   -0.01842171007437951
-0.3218410065146991   -0.08057714781054233   0.005918811709737362
-0.3218410065146991   -0.08057714781054233   0.005918811709737362
-0.3218410065146991   -0.08057714781054233   0.005918811709737362
-0.3218410065146991   -0.08057714781054233   0.005918811709737362
-0.26098145825351265   -0.1774046111708351   -0.024630296118664977
-0.26098145825351265   -0.1774046111708351   -0.024630296118664977
-0.26098145825351265   -0.1774046111708351   -0.024630296118664977
-0.26098145825351265   -0.1774046111708351   -0.024630296118664977
-0.22664739720252963   -0.07212038482551336   0.019836601552504926
-0.22664739720252963   -0.07212038482551336   0.019836601552504926
-0.22664739720252963   -0.07212038482551336   0.019836601552504926
-0.22664739720252963   -0.07212038482551336   0.019836601552504926
-0.3481042619527105   -0.19936420349958117   -0.021952760504666394
-0.3481042619527105   -0.19936420349958117   -0.021952760504666394
-0.3481042619527105   -0.19936420349958117   -0.021952760504666394
-0.3481042619527105   -0.19936420349958117   -0.021952760504666394
-0.2883051305284594   -0.1318440665376735   -0.02134573029465009
-0.2883051305284594   -0.1318440665376735   -0.02134573029465009
-0.2883051305284594   -0.1318440665376735   -0.02134573029465009
-0.2883051305284594   -0.1318440665376735   -0.02134573029465009
-0.22163167562941624   -0.00793368779669229   0.021731291883483994
-0.22163167562941624   -0.00793368779669229   0.021731291883483994
-0.22163167562941624   -0.00793368779669229   0.021731291883483994
-0.22163167562941624   -0.00793368779669229   0.021731291883483994
-0.20946923862445696   -0.09432455277531424   -0.01840968185046843
-0.20946923862445696   -0.09432455277531424   -0.01840968185046843
-0.20946923862445696   -0.09432455277531424   -0.01840968185046843
-0.20946923862445696   -0.09432455277531424   -0.01840968185046843
-0.1805581713536677   -0.013667499685078542   0.025172669723329683
-0.1805581713536677   -0.013667499685078542   0.025172669723329683
-0.1805581713536677   -0.013667499685078542   0.025172669723329683
-0.1805581713536677   -0.013667499685078542   0.025172669723329683
-0.24676089302478782   -0.10903904751612001   -0.013043644067548543
-0.24676089302478782   -0.10903904751612001   -0.013043644067548543
-0.24676089302478782   -0.10903904751612001   -0.013043644067548543
-0.24676089302478782   -0.10903904751612001   -0.013043644067548543
-0.21532206428289746   -0.05572316095921955   -0.007699279814949514
-0.21532206428289746   -0.05572316095921955   -0.007699279814949514
-0.21532206428289746   -0.05572316095921955   -0.007699279814949514
-0.21532206428289746   -0.05572316095921955   -0.007699279814949514
-0.22171550633880482   -0.021920543547935524   0.025064785394181888
-0.22171550633880482   -0.021920543547935524   0.025064785394181888
-0.22171550633880482   -0.021920543547935524   0.025064785394181888
-0.22171550633880482   -0.021920543547935524   0.025064785394181888
-0.20760611390989334   -0.1027885595235057   -0.020945983219371432
-0.20760611390989334   -0.1027885595235057   -0.020945983219371432
-0.20760611390989334   -0.1027885595235057   -0.020945983219371432
-0.20760611390989334   -0.1027885595235057   -0.020945983219371432
-0.18076290206765716   -0.025863755026151188   0.027054923740707518
-0.18076290206765716   -0.025863755026151188   0.027054923740707518
-0.18076290206765716   -0.025863755026151188   0.027054923740707518
-0.18076290206765716   -0.025863755026151188   0.027054923740707518
-0.2466191356014853   -0.11568187436842833   -0.01454141966093507
-0.2466191356014853   -0.11568187436842833   -0.01454141966093507
-0.2466191356014853   -0.11568187436842833   -0.01454141966093507
-0.2466191356014853   -0.11568187436842833   -0.01454141966093507
-0.21432716744088212   -0.06552119673430103   -0.013064508167999603
-0.21432716744088212   -0.06552119673430103   -0.013064508167999603
-0.21432716744088212   -0.06552119673430103   -0.013064508167999603
-0.21432716744088212   -0.06552119673430103   -0.013064508167999603
-0.2216194190514153   -0.033742487855703274   0.02851777657668992
-0.2216194190514153   -0.033742487855703274   0.02851777657668992
-0.2216194190514153   -0.033742487855703274   0.02851777657668992
-0.2216194190514153   -0.033742487855703274   0.02851777657668992
-0.20697509067466166   -0.1090156135958082   -0.02085416072465803
-0.20697509067466166   -0.1090156135958082   -0.02085416072465803
-0.20697509067466166   -0.1090156135958082   -0.02085416072465803
-0.20697509067466166   -0.1090156135958082   -0.02085416072465803
-0.17915517917578222   -0.03731470923441137   0.031351787575662544
-0.17915517917578222   -0.03731470923441137   0.031351787575662544
-0.17915517917578222   -0.03731470923441137   0.031351787575662544
-0.17915517917578222   -0.03731470923441137   0.031351787575662544
-0.2426458777290942   -0.12232827343851417   -0.009947912467317147
-0.2426458777290942   -0.12232827343851417   -0.009947912467317147
-0.2426458777290942   -0.12232827343851417   -0.009947912467317147
-0.2426458777290942   -0.12232827343851417   -0.009947912467317147
-0.2136170645277726   -0.07394066796963435   -0.01678883153492807
-0.2136170645277726   -0.07394066796963435   -0.01678883153492807
-0.2136170645277726   -0.07394066796963435   -0.01678883153492807
-0.2136170645277726   -0.07394066796963435   -0.01678883153492807
-0.17524937271485103   0.02449763794511514   0.033867456977131755
-0.17524937271485103   0.02449763794511514   0.033867456977131755
-0.17524937271485103   0.02449763794511514   0.033867456977131755
-0.17524937271485103   0.02449763794511514   0.033867456977131755
-0.1163170249163416   -0.031005304900733048   -0.011316559611990542
-0.1163170249163416   -0.031005304900733048   -0.011316559611990542
-0.1163170249163416   -0.031005304900733048   -0.011316559611990542
-0.1163170249163416   -0.031005304900733048   -0.011316559611990542
-0.10149088310471263   0.028810674185416853   0.033438274521977424
-0.10149088310471263   0.028810674185416853   0.033438274521977424
-0.10149088310471263   0.028810674185416853   0.033438274521977424
-0.10149088310471263   0.028810674185416853   0.033438274521977424
-0.1935323361183712   -0.047506885825898126   -0.005858767959368148
-0.1935323361183712   -0.047506885825898126   -0.005858767959368148
-0.1935323361183712   -0.047506885825898126   -0.005858767959368148
-0.1935323361183712   -0.047506885825898126   -0.005858767959368148
-0.14463957207859432   -0.00302955171759253   -0.006125036115247288
-0.14463957207859432   -0.00302955171759253   -0.006125036115247288
-0.14463957207859432   -0.00302955171759253   -0.006125036115247288
-0.14463957207859432   -0.00302955171759253   -0.006125036115247288
-0.17239871399551074   0.015334953723890786   0.0369675031051452
-0.17239871399551074   0.015334953723890786   0.0369675031051452
-0.17239871399551074   0.015334953723890786   0.0369675031051452
-0.17239871399551074   0.015334953723890786   0.0369675031051452
-0.12282572153772801   -0.03423238167452442   -0.010192861783142815
-0.12282572153772801   -0.03423238167452442   -0.010192861783142815
-0.12282572153772801   -0.03423238167452442   -0.010192861783142815
-0.12282572153772801   -0.03423238167452442   -0.010192861783142815
-0.10594239966863041   0.02287569303277632   0.04206924998555291
-0.10594239966863041   0.02287569303277632   0.04206924998555291
-0.10594239966863041   0.02287569303277632   0.04206924998555291
-0.10594239966863041   0.02287569303277632   0.04206924998555291
-0.19261504631468904   -0.05056624560413824   -0.0075033069164572655
-0.19261504631468904   -0.05056624560413824   -0.0075033069164572655
-0.19261504631468904   -0.05056624560413824   -0.0075033069164572655
-0.19261504631468904   -0.05056624560413824   -0.0075033069164572655
-0.14890583968058313   -0.009511961539047058   -0.008636960958208768
-0.14890583968058313   -0.009511961539047058   -0.008636960958208768
-0.14890583968058313   -0.009511961539047058   -0.008636960958208768
-0.14890583968058313   -0.009511961539047058   -0.008636960958208768
-0.17047457083755185   0.010068311479082943   0.04256451338600748
-0.17047457083755185   0.010068311479082943   0.04256451338600748
-0.17047457083755185   0.010068311479082943   0.04256451338600748
-0.17047457083755185   0.010068311479082943   0.04256451338600748
-0.12959863981443606   -0.03927462871911078   -0.014061628991572886
-0.12959863981443606   -0.03927462871911078   -0.014061628991572886
-0.12959863981443606   -0.03927462871911078   -0.014061628991572886
-0.12959863981443606   -0.03927462871911078   -0.014061628991572886
-0.1212281989992034   0.006558172346483097   0.043776370064667364
-0.1212281989992034   0.006558172346483097   0.043776370064667364
-0.1212281989992034   0.006558172346483097   0.043776370064667364
-0.1212281989992034   0.006558172346483097   0.043776370064667364
-0.1898816303270877   -0.05330235956608528   -0.006292817849198662
-0.1898816303270877   -0.05330235956608528   -0.006292817849198662
-0.1898816303270877   -0.05330235956608528   -0.006292817849198662
-0.1898816303270877   -0.05330235956608528   -0.006292817849198662
-0.15094823701528443   -0.014198018156135328   -0.012711028152163767
-0.15094823701528443   -0.014198018156135328   -0.012711028152163767
-0.15094823701528443   -0.014198018156135328   -0.012711028152163767
-0.15094823701528443   -0.014198018156135328   -0.012711028152163767
-1.80731790795377   -0.25624777131380755   -0.15045555982309372
-1.80731790795377   -0.25624777131380755   -0.15045555982309372
-1.80731790795377   -0.25624777131380755   -0.15045555982309372
-1.80731790795377   -0.25624777131380755   -0.15045555982309372
-0.6274256431876165   -0.9889809508683738   -0.1177318123546581
-0.6274256431876165   -0.9889809508683738   -0.1177318123546581
-0.6274256431876165   -0.9889809508683738   -0.1177318123546581
-0.6274256431876165   -0.9889809508683738   -0.1177318123546581
-0.4846427492636769   -0.04177924689658117   0.0006454448942797147
-0.4846427492636769   -0.04177924689658117   0.0006454448942797147
-0.4846427492636769   -0.04177924689658117   0.0006454448942797147
-0.4846427492636769   -0.04177924689658117   0.0006454448942797147
-1.9302455439659398   -1.1620701057234577   -0.6184631299378796
-1.9302455439659398   -1.1620701057234577   -0.6184631299378796
-1.9302455439659398   -1.1620701057234577   -0.6184631299378796
-1.9302455439659398   -1.1620701057234577   -0.6184631299378796
-1.1820940866782714   -0.5780510622800901   -0.08423811576785611
-1.1820940866782714   -0.5780510622800901   -0.08423811576785611
-1.1820940866782714   -0.5780510622800901   -0.08423811576785611
-1.1820940866782714   -0.5780510622800901   -0.08423811576785611
-1.6793882853220379   -0.3217556929795644   -0.20449124946227548
-1.6793882853220379   -0.3217556929795644   -0.20449124946227548
-1.6793882853220379   -0.3217556929795644   -0.20449124946227548
-1.6793882853220379   -0.3217556929795644   -0.20449124946227548
-0.6776315967083408   -0.8242252484412377   -0.18185279078437827
-0.6776315967083408   -0.8242252484412377   -0.18185279078437827
-0.6776315967083408   -0.8242252484412377   -0.18185279078437827
-0.6776315967083408   -0.8242252484412377   -0.18185279078437827
-0.4944833095236536   -0.055622912169675576   0.01859534968370033
-0.4944833095236536   -0.055622912169675576   0.01859534968370033
-0.4944833095236536   -0.055622912169675576   0.01859534968370033
-0.4944833095236536   -0.055622912169675576   0.01859534968370033
-1.8063136938648916   -1.0368414902237642   -0.5686310368177311
-1.8063136938648916   -1.0368414902237642   -0.5686310368177311
-1.8063136938648916   -1.0368414902237642   -0.5686310368177311
-1.8063136938648916   -1.0368414902237642   -0.5686310368177311
-1.1134195227231698   -0.5213277603225124   0.04500459757330516
-1.1134195227231698   -0.5213277603225124   0.04500459757330516
-1.1134195227231698   -0.5213277603225124   0.04500459757330516
-1.1134195227231698   -0.5213277603225124   0.04500459757330516
-1.5770017718445173   -0.3063568816320963   -0.1525560353075397
-1.5770017718445173   -0.3063568816320963   -0.1525560353075397
-1.5770017718445173   -0.3063568816320963   -0.1525560353075397
-1.5770017718445173   -0.3063568816320963   -0.1525560353075397
-0.6594861520203574   -0.7217984412376742   -0.1402433337318161
-0.6594861520203574   -0.7217984412376742   -0.1402433337318161
-0.6594861520203574   -0.7217984412376742   -0.1402433337318161
-0.6594861520203574   -0.7217984412376742   -0.1402433337318161
-0.568389386544555   -0.14577094110661182   -0.02960975850172179
-0.568389386544555   -0.14577094110661182   -0.02960975850172179
-0.568389386544555   -0.14577094110661182   -0.02960975850172179
-0.568389386544555   -0.14577094110661182   -0.02960975850172179
-1.6463466932547766   -0.8717386329594513   -0.5036170652428456
-1.6463466932547766   -0.8717386329594513   -0.5036170652428456
-1.6463466932547766   -0.8717386329594513   -0.5036170652428456
-1.6463466932547766   -0.8717386329594513   -0.5036170652428456
-1.0314026281795696   -0.4520351449472201   0.19102284269968706
-1.0314026281795696   -0.4520351449472201   0.19102284269968706
-1.0314026281795696   -0.4520351449472201   0.19102284269968706
-1.0314026281795696   -0.4520351449472201   0.19102284269968706
-0.46403596123607826   -0.25240583778704967   -0.03735851567829426
-0.46403596123607826   -0.25240583778704967   -0.03735851567829426
-0.46403596123607826   -0.25240583778704967   -0.03735851567829426
-0.46403596123607826   -0.25240583778704967   -0.03735851567829426
-0.21476456769561966   -0.3129962562220506   -0.053074670262722314
-0.21476456769561966   -0.3129962562220506   -0.053074670262722314
-0.21476456769561966   -0.3129962562220506   -0.053074670262722314
-0.21476456769561966   -0.3129962562220506   -0.053074670262722314
-0.18930333036139999   -0.16141301771995792   0.0048757147671460305
-0.18930333036139999   -0.16141301771995792   0.0048757147671460305
-0.18930333036139999   -0.16141301771995792   0.0048757147671460305
-0.18930333036139999   -0.16141301771995792   0.0048757147671460305
-0.5679085270900609   -0.45785874347728706   0.00039605234307035775
-0.5679085270900609   -0.45785874347728706   0.00039605234307035775
-0.5679085270900609   -0.45785874347728706   0.00039605234307035775
-0.5679085270900609   -0.45785874347728706   0.00039605234307035775
-0.3049460430418074   -0.22199451732130088   0.09778142826323444
-0.3049460430418074   -0.22199451732130088   0.09778142826323444
-0.3049460430418074   -0.22199451732130088   0.09778142826323444
-0.3049460430418074   -0.22199451732130088   0.09778142826323444
-0.5282152377865575   -0.23497482590146634   -0.024021418715238607
-0.5282152377865575   -0.23497482590146634   -0.024021418715238607
-0.5282152377865575   -0.23497482590146634   -0.024021418715238607
-0.5282152377865575   -0.23497482590146634   -0.024021418715238607
-0.24504908497467476   -0.40034940060555085   -0.034916675413634884
-0.24504908497467476   -0.40034940060555085   -0.034916675413634884
-0.24504908497467476   -0.40034940060555085   -0.034916675413634884
-0.24504908497467476   -0.40034940060555085   -0.034916675413634884
-0.20452310039577562   -0.16726362682691173   0.005025831673002329
-0.20452310039577562   -0.16726362682691173   0.005025831673002329
-0.20452310039577562   -0.16726362682691173   0.005025831673002329
-0.20452310039577562   -0.16726362682691173   0.005025831673002329
-0.5956973149629536   -0.4520639207795145   -0.09103366890295622
-0.5956973149629536   -0.4520639207795145   -0.09103366890295622
-0.5956973149629536   -0.4520639207795145   -0.09103366890295622
-0.5956973149629536   -0.4520639207795145   -0.09103366890295622
-0.36373079921078383   -0.2847092815406299   0.04458708662798297
-0.36373079921078383   -0.2847092815406299   0.04458708662798297
-0.36373079921078383   -0.2847092815406299   0.04458708662798297
-0.36373079921078383   -0.2847092815406299   0.04458708662798297
-0.5451258483776888   -0.2453644950909376   -0.0448757616652139
-0.5451258483776888   -0.2453644950909376   -0.0448757616652139
-0.5451258483776888   -0.2453644950909376   -0.0448757616652139
-0.5451258483776888   -0.2453644950909376   -0.0448757616652139
-0.2536001328316413   -0.3724686183660903   -0.035154338967147494
-0.2536001328316413   -0.3724686183660903   -0.035154338967147494
-0.2536001328316413   -0.3724686183660903   -0.035154338967147494
-0.2536001328316413   -0.3724686183660903   -0.035154338967147494
-0.2280116199200131   -0.17267759838088553   0.007403088925612464
-0.2280116199200131   -0.17267759838088553   0.007403088925612464
-0.2280116199200131   -0.17267759838088553   0.007403088925612464
-0.2280116199200131   -0.17267759838088553   0.007403088925612464
-0.637024055369973   -0.4393023479843509   -0.07925169575107455
-0.637024055369973   -0.4393023479843509   -0.07925169575107455
-0.637024055369973   -0.4393023479843509   -0.07925169575107455
-0.637024055369973   -0.4393023479843509   -0.07925169575107455
-0.38065076858948477   -0.26835022165857714   0.04716488619757003
-0.38065076858948477   -0.26835022165857714   0.04716488619757003
-0.38065076858948477   -0.26835022165857714   0.04716488619757003
-0.38065076858948477   -0.26835022165857714   0.04716488619757003
-0.16944979188633763   -0.15052172787042742   0.011024680432064726
-0.16944979188633763   -0.15052172787042742   0.011024680432064726
-0.16944979188633763   -0.15052172787042742   0.011024680432064726
-0.16944979188633763   -0.15052172787042742   0.011024680432064726
-0.1036720207605653   -0.09785880646179576   -0.02592219683285217
-0.1036720207605653   -0.09785880646179576   -0.02592219683285217
-0.1036720207605653   -0.09785880646179576   -0.02592219683285217
-0.1036720207605653   -0.09785880646179576   -0.02592219683285217
-0.10048448039503047   -0.1345878595152813   0.01110187605857086
-0.10048448039503047   -0.1345878595152813   0.01110187605857086
-0.10048448039503047   -0.1345878595152813   0.01110187605857086
-0.10048448039503047   -0.1345878595152813   0.01110187605857086
-0.18718045693360807   -0.13413694912328547   -0.011785986690566845
-0.18718045693360807   -0.13413694912328547   -0.011785986690566845
-0.18718045693360807   -0.13413694912328547   -0.011785986690566845
-0.18718045693360807   -0.13413694912328547   -0.011785986690566845
-0.11838146294299363   -0.10904124671259109   0.04904435807430954
-0.11838146294299363   -0.10904124671259109   0.04904435807430954
-0.11838146294299363   -0.10904124671259109   0.04904435807430954
-0.11838146294299363   -0.10904124671259109   0.04904435807430954
-0.18591990017049917   -0.15151612423479296   0.011895972236481256
-0.18591990017049917   -0.15151612423479296   0.011895972236481256
-0.18591990017049917   -0.15151612423479296   0.011895972236481256
-0.18591990017049917   -0.15151612423479296   0.011895972236481256
-0.10337838603454969   -0.11884203328018349   -0.01911347837411532
-0.10337838603454969   -0.11884203328018349   -0.01911347837411532
-0.10337838603454969   -0.11884203328018349   -0.01911347837411532
-0.10337838603454969   -0.11884203328018349   -0.01911347837411532
-0.10161022145846466   -0.13863016352064744   0.009870705337225387
-0.10161022145846466   -0.13863016352064744   0.009870705337225387
-0.10161022145846466   -0.13863016352064744   0.009870705337225387
-0.10161022145846466   -0.13863016352064744   0.009870705337225387
-0.19875391498433806   -0.15650342233522024   0.023111554238498658
-0.19875391498433806   -0.15650342233522024   0.023111554238498658
-0.19875391498433806   -0.15650342233522024   0.023111554238498658
-0.19875391498433806   -0.15650342233522024   0.023111554238498658
-0.12872257329049866   -0.12149907897928183   0.041544541573933474
-0.12872257329049866   -0.12149907897928183   0.041544541573933474
-0.12872257329049866   -0.12149907897928183   0.041544541573933474
-0.12872257329049866   -0.12149907897928183   0.041544541573933474
-0.20028985921405063   -0.15712879165688884   0.016057202411604313
-0.20028985921405063   -0.15712879165688884   0.016057202411604313
-0.20028985921405063   -0.15712879165688884   0.016057202411604313
-0.20028985921405063   -0.15712879165688884   0.016057202411604313
-0.10869265072859592   -0.1466231676988227   -0.01754843683525567
-0.10869265072859592   -0.1466231676988227   -0.01754843683525567
-0.10869265072859592   -0.1466231676988227   -0.01754843683525567
-0.10869265072859592   -0.1466231676988227   -0.01754843683525567
-0.10276186813435423   -0.1431315247990728   0.013868239179519265
-0.10276186813435423   -0.1431315247990728   0.013868239179519265
-0.10276186813435423   -0.1431315247990728   0.013868239179519265
-0.10276186813435423   -0.1431315247990728   0.013868239179519265
-0.23245573743218514   -0.19255280066840938   0.005057703652280046
-0.23245573743218514   -0.19255280066840938   0.005057703652280046
-0.23245573743218514   -0.19255280066840938   0.005057703652280046
-0.23245573743218514   -0.19255280066840938   0.005057703652280046
-0.14372935054615965   -0.13851442539154707   0.019627044540629385
-0.14372935054615965   -0.13851442539154707   0.019627044540629385
-0.14372935054615965   -0.13851442539154707   0.019627044540629385
-0.14372935054615965   -0.13851442539154707   0.019627044540629385
-0.08508214029062189   -0.05994293077286643   0.029111329827935552
-0.08508214029062189   -0.05994293077286643   0.029111329827935552
-0.08508214029062189   -0.05994293077286643   0.029111329827935552
-0.08508214029062189   -0.05994293077286643   0.029111329827935552
-0.05967775504316622   -0.00010454284344240403   -0.005821184290301566
-0.05967775504316622   -0.00010454284344240403   -0.005821184290301566
-0.05967775504316622   -0.00010454284344240403   -0.005821184290301566
-0.05967775504316622   -0.00010454284344240403   -0.005821184290301566
-0.056633687726575094   -0.06479209361055584   0.018063920162059627
-0.056633687726575094   -0.06479209361055584   0.018063920162059627
-0.056633687726575094   -0.06479209361055584   0.018063920162059627
-0.056633687726575094   -0.06479209361055584   0.018063920162059627
-0.07882033265614974   -0.011487622368914091   -0.003677622393392723
-0.07882033265614974   -0.011487622368914091   -0.003677622393392723
-0.07882033265614974   -0.011487622368914091   -0.003677622393392723
-0.07882033265614974   -0.011487622368914091   -0.003677622393392723
-0.06477486076499586   -0.03278355698943633   0.014439950632667956
-0.06477486076499586   -0.03278355698943633   0.014439950632667956
-0.06477486076499586   -0.03278355698943633   0.014439950632667956
-0.06477486076499586   -0.03278355698943633   0.014439950632667956
-0.08397458127204402   -0.06838362826701433   0.027447140425236133
-0.08397458127204402   -0.06838362826701433   0.027447140425236133
-0.08397458127204402   -0.06838362826701433   0.027447140425236133
-0.08397458127204402   -0.06838362826701433   0.027447140425236133
-0.05000020602219928   -0.006416854623974072   -0.007143910302643089
-0.05000020602219928   -0.006416854623974072   -0.007143910302643089
-0.05000020602219928   -0.006416854623974072   -0.007143910302643089
-0.05000020602219928   -0.006416854623974072   -0.007143910302643089
-0.05189101158139088   -0.07049689146043538   0.01665537085894303
-0.05189101158139088   -0.07049689146043538   0.01665537085894303
-0.05189101158139088   -0.07049689146043538   0.01665537085894303
-0.05189101158139088   -0.07049689146043538   0.01665537085894303
-0.07938730532350935   -0.022581684943979143   0.004936807435333642
-0.07938730532350935   -0.022581684943979143   0.004936807435333642
-0.07938730532350935   -0.022581684943979143   0.004936807435333642
-0.07938730532350935   -0.022581684943979143   0.004936807435333642
-0.05942051253752828   -0.03757650758435747   0.01721484971844401
-0.05942051253752828   -0.03757650758435747   0.01721484971844401
-0.05942051253752828   -0.03757650758435747   0.01721484971844401
-0.05942051253752828   -0.03757650758435747   0.01721484971844401
-0.08439893467690615   -0.07405846258871077   0.03135543831308128
-0.08439893467690615   -0.07405846258871077   0.03135543831308128
-0.08439893467690615   -0.07405846258871077   0.03135543831308128
-0.08439893467690615   -0.07405846258871077   0.03135543831308128
-0.04732915085937124   -0.0194698824470809   -0.011562334544313237
-0.04732915085937124   -0.0194698824470809   -0.011562334544313237
-0.04732915085937124   -0.0194698824470809   -0.011562334544313237
-0.04732915085937124   -0.0194698824470809   -0.011562334544313237
-0.0433663547774183   -0.07682150470825533   0.018306408232301216
-0.0433663547774183   -0.07682150470825533   0.018306408232301216
-0.0433663547774183   -0.07682150470825533   0.018306408232301216
-0.0433663547774183   -0.07682150470825533   0.018306408232301216
-0.08554591888746056   -0.049657568714850824   0.006474029329765731
-0.08554591888746056   -0.049657568714850824   0.006474029329765731
-0.08554591888746056   -0.049657568714850824   0.006474029329765731
-0.08554591888746056   -0.049657568714850824   0.006474029329765731
-0.057143425790310426   -0.04742714041812136   0.014890556964655913
-0.057143425790310426   -0.04742714041812136   0.014890556964655913
-0.057143425790310426   -0.04742714041812136   0.014890556964655913
-0.057143425790310426   -0.04742714041812136   0.014890556964655913
-0.0547499861197918   -0.01057163476866613   0.029284752251794225
-0.0547499861197918   -0.01057163476866613   0.029284752251794225
-0.0547499861197918   -0.01057163476866613   0.029284752251794225
-0.0547499861197918   -0.01057163476866613   0.029284752251794225
-0.009605459152285405   0.006382902518280258   -0.0005913438093417073
-0.009605459152285405   0.006382902518280258   -0.0005913438093417073
-0.009605459152285405   0.006382902518280258   -0.0005913438093417073
-0.009605459152285405   0.006382902518280258   -0.0005913438093417073
0.0031921476375221646   -0.003367675319854228   0.018112800814957978
0.0031921476375221646   -0.003367675319854228   0.018112800814957978
0.0031921476375221646   -0.003367675319854228   0.018112800814957978
0.0031921476375221646   -0.003367675319854228   0.018112800814957978
-0.04678545200386612   0.004779016899001355   -0.002266011733952698
-0.04678545200386612   0.004779016899001355   -0.002266011733952698
-0.04678545200386612   0.004779016899001355   -0.002266011733952698
-0.04678545200386612   0.004779016899001355   -0.002266011733952698
-0.027444048406341452   -0.0020626294368361504   -0.002270265777736271
-0.027444048406341452   -0.0020626294368361504   -0.002270265777736271
-0.027444048406341452   -0.0020626294368361504   -0.002270265777736271
-0.027444048406341452   -0.0020626294368361504   -0.002270265777736271
-0.043235534914040356   -0.010186044891935695   0.030448635506113167
-0.043235534914040356   -0.010186044891935695   0.030448635506113167
-0.043235534914040356   -0.010186044891935695   0.030448635506113167
-0.043235534914040356   -0.010186044891935695   0.030448635506113167
0.0012776781740889438   0.013232834097475363   -0.00806005591953772
0.0012776781740889438   0.013232834097475363   -0.00806005591953772
0.0012776781740889438   0.013232834097475363   -0.00806005591953772
0.0012776781740889438   0.013232834097475363   -0.00806005591953772
0.009661756762620925   -0.004145834961477531   0.022321943219536344
0.009661756762620925   -0.004145834961477531   0.022321943219536344
0.009661756762620925   -0.004145834961477531   0.022321943219536344
0.009661756762620925   -0.004145834961477531   0.022321943219536344
-0.0410594194928426   0.0036573515943549976   -0.003340911753105939
-0.0410594194928426   0.0036573515943549976   -0.003340911753105939
-0.0410594194928426   0.0036573515943549976   -0.003340911753105939
-0.0410594194928426   0.0036573515943549976   -0.003340911753105939
-0.01795301805855348   -0.0004748442675425958   0.0028893030531866115
-0.01795301805855348   -0.0004748442675425958   0.0028893030531866115
-0.01795301805855348   -0.0004748442675425958   0.0028893030531866115
-0.01795301805855348   -0.0004748442675425958   0.0028893030531866115
-0.036858173520234086   -0.011374729767581226   0.032697399471872876
-0.036858173520234086   -0.011374729767581226   0.032697399471872876
-0.036858173520234086   -0.011374729767581226   0.032697399471872876
-0.036858173520234086   -0.011374729767581226   0.032697399471872876
0.006933114154670741   0.012358849765117027   -0.007825954546809134
0.006933114154670741   0.012358849765117027   -0.007825954546809134
0.006933114154670741   0.012358849765117027   -0.007825954546809134
0.006933114154670741   0.012358849765117027   -0.007825954546809134
0.01627374539182002   -0.006478298014337405   0.021672114190633
0.01627374539182002   -0.006478298014337405   0.021672114190633
0.01627374539182002   -0.006478298014337405   0.021672114190633
0.01627374539182002   -0.006478298014337405   0.021672114190633
-0.031671347340456395   0.00374728171664771   -0.003787341007784642
-0.031671347340456395   0.00374728171664771   -0.003787341007784642
-0.031671347340456395   0.00374728171664771   -0.003787341007784642
-0.031671347340456395   0.00374728171664771   -0.003787341007784642
-0.009473729964477437   0.0005141906952862122   0.0074336537209527265
-0.009473729964477437   0.0005141906952862122   0.0074336537209527265
-0.009473729964477437   0.0005141906952862122   0.0074336537209527265
-0.009473729964477437   0.0005141906952862122   0.0074336537209527265
              </DataArray>   
             <DataArray type="Float64" NumberOfComponents="3" Name="Displacements" format="ascii">   
0.0   0.0   0.0
-0.005031594879983917   -0.0033013995013429403   -0.0016855452601660735
0.0   0.0   0.0
0.0   0.0   0.0
-0.005031594879983917   -0.0033013995013429403   -0.0016855452601660735
-0.0032017849092163104   -0.0029668896825201722   -0.0012383817733873062
0.0   0.0   0.0
-0.0031385309837744734   -0.003115758524123889   -0.0010374867009399582
0.0   0.0   0.0
0.0   0.0   0.0
-0.0031385309837744734   -0.003115758524123889   -0.0010374867009399582
0.0   0.0   0.0
0.0   0.0   0.0
-0.0031385309837744734   -0.003115758524123889   -0.0010374867009399582
-0.005265885044773334   -0.0035171552424020157   -0.001353238935956294
-0.005031594879983917   -0.0033013995013429403   -0.0016855452601660735
0.0   0.0   0.0
-0.0031385309837744734   -0.003115758524123889   -0.0010374867009399582
-0.005031594879983917   -0.0033013995013429403   -0.0016855452601660735
0.0   0.0   0.0
0.0   0.0   0.0
-0.005265885044773334   -0.0035171552424020157   -0.001353238935956294
0.0   0.0   0.0
0.0   0.0   0.0
-0.005265885044773334   -0.0035171552424020157   -0.001353238935956294
-0.0031385309837744734   -0.003115758524123889   -0.0010374867009399582
0.0   0.0   0.0
-0.0031474546656274226   -0.003192040850999215   -0.0008368727525822461
0.0   0.0   0.0
0.0   0.0   0.0
-0.0031474546656274226   -0.003192040850999215   -0.0008368727525822461
0.0   0.0   0.0
0.0   0.0   0.0
-0.0031474546656274226   -0.003192040850999215   -0.0008368727525822461
-0.0054304580009890075   -0.0036220681769741467   -0.0010348221314416838
-0.005265885044773334   -0.0035171552424020157   -0.001353238935956294
0.0   0.0   0.0
-0.0031474546656274226   -0.003192040850999215   -0.0008368727525822461
-0.005265885044773334   -0.0035171552424020157   -0.001353238935956294
0.0   0.0   0.0
0.0   0.0   0.0
-0.0054304580009890075   -0.0036220681769741467   -0.0010348221314416838
0.0   0.0   0.0
0.0   0.0   0.0
-0.0054304580009890075   -0.0036220681769741467   -0.0010348221314416838
-0.0031474546656274226   -0.003192040850999215   -0.0008368727525822461
0.0   0.0   0.0
-0.003145881986853978   -0.003211630939044556   -0.0006294249736123902
0.0   0.0   0.0
0.0   0.0   0.0
-0.003145881986853978   -0.003211630939044556   -0.0006294249736123902
0.0   0.0   0.0
0.0   0.0   0.0
-0.003145881986853978   -0.003211630939044556   -0.0006294249736123902
-0.005784921569658505   -0.0037014928436343466   -0.0006654031395461697
-0.0054304580009890075   -0.0036220681769741467   -0.0010348221314416838
0.0   0.0   0.0
-0.003145881986853978   -0.003211630939044556   -0.0006294249736123902
-0.0054304580009890075   -0.0036220681769741467   -0.0010348221314416838
0.0   0.0   0.0
0.0   0.0   0.0
-0.0032017849092163104   -0.0029668896825201722   -0.0012383817733873062
0.0   0.0   0.0
0.0   0.0   0.0
-0.0032017849092163104   -0.0029668896825201722   -0.0012383817733873062
-0.0014580263563495495   -0.00284419165239448   -0.0009419076156021826
0.0   0.0   0.0
-0.0014023797536370107   -0.002941096702033789   -0.0008470757457748113
0.0   0.0   0.0
0.0   0.0   0.0
-0.0014023797536370107   -0.002941096702033789   -0.0008470757457748113
0.0   0.0   0.0
0.0   0.0   0.0
-0.0014023797536370107   -0.002941096702033789   -0.0008470757457748113
-0.0031385309837744734   -0.003115758524123889   -0.0010374867009399582
-0.0032017849092163104   -0.0029668896825201722   -0.0012383817733873062
0.0   0.0   0.0
-0.0014023797536370107   -0.002941096702033789   -0.0008470757457748113
-0.0032017849092163104   -0.0029668896825201722   -0.0012383817733873062
0.0   0.0   0.0
0.0   0.0   0.0
-0.0031385309837744734   -0.003115758524123889   -0.0010374867009399582
0.0   0.0   0.0
0.0   0.0   0.0
-0.0031385309837744734   -0.003115758524123889   -0.0010374867009399582
-0.0014023797536370107   -0.002941096702033789   -0.0008470757457748113
0.0   0.0   0.0
-0.0013711565317597947   -0.0029780303870160377   -0.000754712221856182
0.0   0.0   0.0
0.0   0.0   0.0
-0.0013711565317597947   -0.0029780303870160377   -0.000754712221856182
0.0   0.0   0.0
0.0   0.0   0.0
-0.0013711565317597947   -0.0029780303870160377   -0.000754712221856182
-0.0031474546656274226   -0.003192040850999215   -0.0008368727525822461
-0.0031385309837744734   -0.003115758524123889   -0.0010374867009399582
0.0   0.0   0.0
-0.0013711565317597947   -0.0029780303870160377   -0.000754712221856182
-0.0031385309837744734   -0.003115758524123889   -0.0010374867009399582
0.0   0.0   0.0
0.0   0.0   0.0
-0.0031474546656274226   -0.003192040850999215   -0.0008368727525822461
0.0   0.0   0.0
0.0   0.0   0.0
-0.0031474546656274226   -0.003192040850999215   -0.0008368727525822461
-0.0013711565317597947   -0.0029780303870160377   -0.000754712221856182
0.0   0.0   0.0
-0.0013427373140695268   -0.0029626151006981595   -0.0006592166113537284
0.0   0.0   0.0
0.0   0.0   0.0
-0.0013427373140695268   -0.0029626151006981595   -0.0006592166113537284
0.0   0.0   0.0
0.0   0.0   0.0
-0.0013427373140695268   -0.0029626151006981595   -0.0006592166113537284
-0.003145881986853978   -0.003211630939044556   -0.0006294249736123902
-0.0031474546656274226   -0.003192040850999215   -0.0008368727525822461
0.0   0.0   0.0
-0.0013427373140695268   -0.0029626151006981595   -0.0006592166113537284
-0.0031474546656274226   -0.003192040850999215   -0.0008368727525822461
0.0   0.0   0.0
0.0   0.0   0.0
-0.0014580263563495495   -0.00284419165239448   -0.0009419076156021826
0.0   0.0   0.0
0.0   0.0   0.0
-0.0014580263563495495   -0.00284419165239448   -0.0009419076156021826
0.00018955983568077938   -0.0028599013020143334   -0.0007529757524562102
0.0   0.0   0.0
0.00022504537694523826   -0.0029101359404889032   -0.0007661184714054608
0.0   0.0   0.0
0.0   0.0   0.0
0.00022504537694523826   -0.0029101359404889032   -0.0007661184714054608
0.0   0.0   0.0
0.0   0.0   0.0
0.00022504537694523826   -0.0029101359404889032   -0.0007661184714054608
-0.0014023797536370107   -0.002941096702033789   -0.0008470757457748113
-0.0014580263563495495   -0.00284419165239448   -0.0009419076156021826
0.0   0.0   0.0
0.00022504537694523826   -0.0029101359404889032   -0.0007661184714054608
-0.0014580263563495495   -0.00284419165239448   -0.0009419076156021826
0.0   0.0   0.0
0.0   0.0   0.0
-0.0014023797536370107   -0.002941096702033789   -0.0008470757457748113
0.0   0.0   0.0
0.0   0.0   0.0
-0.0014023797536370107   -0.002941096702033789   -0.0008470757457748113
0.00022504537694523826   -0.0029101359404889032   -0.0007661184714054608
0.0   0.0   0.0
0.00025304323691134704   -0.0029059781172295907   -0.0007779831816561799
0.0   0.0   0.0
0.0   0.0   0.0
0.00025304323691134704   -0.0029059781172295907   -0.0007779831816561799
0.0   0.0   0.0
0.0   0.0   0.0
0.00025304323691134704   -0.0029059781172295907   -0.0007779831816561799
-0.0013711565317597947   -0.0029780303870160377   -0.000754712221856182
-0.0014023797536370107   -0.002941096702033789   -0.0008470757457748113
0.0   0.0   0.0
0.00025304323691134704   -0.0029059781172295907   -0.0007779831816561799
-0.0014023797536370107   -0.002941096702033789   -0.0008470757457748113
0.0   0.0   0.0
0.0   0.0   0.0
-0.0013711565317597947   -0.0029780303870160377   -0.000754712221856182
0.0   0.0   0.0
0.0   0.0   0.0
-0.0013711565317597947   -0.0029780303870160377   -0.000754712221856182
0.00025304323691134704   -0.0029059781172295907   -0.0007779831816561799
0.0   0.0   0.0
0.0002907385478225813   -0.002842965806501553   -0.000790168947611339
0.0   0.0   0.0
0.0   0.0   0.0
0.0002907385478225813   -0.002842965806501553   -0.000790168947611339
0.0   0.0   0.0
0.0   0.0   0.0
0.0002907385478225813   -0.002842965806501553   -0.000790168947611339
-0.0013427373140695268   -0.0029626151006981595   -0.0006592166113537284
-0.0013711565317597947   -0.0029780303870160377   -0.000754712221856182
0.0   0.0   0.0
0.0002907385478225813   -0.002842965806501553   -0.000790168947611339
-0.0013711565317597947   -0.0029780303870160377   -0.000754712221856182
0.0   0.0   0.0
0.0   0.0   0.0
0.00018955983568077938   -0.0028599013020143334   -0.0007529757524562102
0.0   0.0   0.0
0.0   0.0   0.0
0.00018955983568077938   -0.0028599013020143334   -0.0007529757524562102
0.0019779280629478235   -0.0029990955283499495   -0.0006595311099882086
0.0   0.0   0.0
0.001981323889172662   -0.003015082223424627   -0.0007862866156155111
0.0   0.0   0.0
0.0   0.0   0.0
0.001981323889172662   -0.003015082223424627   -0.0007862866156155111
0.0   0.0   0.0
0.0   0.0   0.0
0.001981323889172662   -0.003015082223424627   -0.0007862866156155111
0.00022504537694523826   -0.0029101359404889032   -0.0007661184714054608
0.00018955983568077938   -0.0028599013020143334   -0.0007529757524562102
0.0   0.0   0.0
0.001981323889172662   -0.003015082223424627   -0.0007862866156155111
0.00018955983568077938   -0.0028599013020143334   -0.0007529757524562102
0.0   0.0   0.0
0.0   0.0   0.0
0.00022504537694523826   -0.0029101359404889032   -0.0007661184714054608
0.0   0.0   0.0
0.0   0.0   0.0
0.00022504537694523826   -0.0029101359404889032   -0.0007661184714054608
0.001981323889172662   -0.003015082223424627   -0.0007862866156155111
0.0   0.0   0.0
0.0019727336644574066   -0.002972027118926371   -0.0009078804690077655
0.0   0.0   0.0
0.0   0.0   0.0
0.0019727336644574066   -0.002972027118926371   -0.0009078804690077655
0.0   0.0   0.0
0.0   0.0   0.0
0.0019727336644574066   -0.002972027118926371   -0.0009078804690077655
0.00025304323691134704   -0.0029059781172295907   -0.0007779831816561799
0.00022504537694523826   -0.0029101359404889032   -0.0007661184714054608
0.0   0.0   0.0
0.0019727336644574066   -0.002972027118926371   -0.0009078804690077655
0.00022504537694523826   -0.0029101359404889032   -0.0007661184714054608
0.0   0.0   0.0
0.0   0.0   0.0
0.00025304323691134704   -0.0029059781172295907   -0.0007779831816561799
0.0   0.0   0.0
0.0   0.0   0.0
0.00025304323691134704   -0.0029059781172295907   -0.0007779831816561799
0.0019727336644574066   -0.002972027118926371   -0.0009078804690077655
0.0   0.0   0.0
0.0020108391671077833   -0.002856741726340096   -0.0010271548526131669
0.0   0.0   0.0
0.0   0.0   0.0
0.0020108391671077833   -0.002856741726340096   -0.0010271548526131669
0.0   0.0   0.0
0.0   0.0   0.0
0.0020108391671077833   -0.002856741726340096   -0.0010271548526131669
0.0002907385478225813   -0.002842965806501553   -0.000790168947611339
0.00025304323691134704   -0.0029059781172295907   -0.0007779831816561799
0.0   0.0   0.0
0.0020108391671077833   -0.002856741726340096   -0.0010271548526131669
0.00025304323691134704   -0.0029059781172295907   -0.0007779831816561799
0.0   0.0   0.0
0.0   0.0   0.0
0.0019779280629478235   -0.0029990955283499495   -0.0006595311099882086
0.0   0.0   0.0
0.0   0.0   0.0
0.0019779280629478235   -0.0029990955283499495   -0.0006595311099882086
0.0044648138828566955   -0.003351903302777153   -0.0006222864032828351
0.0   0.0   0.0
0.004193023249847782   -0.003315303926921059   -0.0009096489030752919
0.0   0.0   0.0
0.0   0.0   0.0
0.004193023249847782   -0.003315303926921059   -0.0009096489030752919
0.0   0.0   0.0
0.0   0.0   0.0
0.004193023249847782   -0.003315303926921059   -0.0009096489030752919
0.001981323889172662   -0.003015082223424627   -0.0007862866156155111
0.0019779280629478235   -0.0029990955283499495   -0.0006595311099882086
0.0   0.0   0.0
0.004193023249847782   -0.003315303926921059   -0.0009096489030752919
0.0019779280629478235   -0.0029990955283499495   -0.0006595311099882086
0.0   0.0   0.0
0.0   0.0   0.0
0.001981323889172662   -0.003015082223424627   -0.0007862866156155111
0.0   0.0   0.0
0.0   0.0   0.0
0.001981323889172662   -0.003015082223424627   -0.0007862866156155111
0.004193023249847782   -0.003315303926921059   -0.0009096489030752919
0.0   0.0   0.0
0.004067642519118739   -0.0032463757983967226   -0.001152646769146234
0.0   0.0   0.0
0.0   0.0   0.0
0.004067642519118739   -0.0032463757983967226   -0.001152646769146234
0.0   0.0   0.0
0.0   0.0   0.0
0.004067642519118739   -0.0032463757983967226   -0.001152646769146234
0.0019727336644574066   -0.002972027118926371   -0.0009078804690077655
0.001981323889172662   -0.003015082223424627   -0.0007862866156155111
0.0   0.0   0.0
0.004067642519118739   -0.0032463757983967226   -0.001152646769146234
0.001981323889172662   -0.003015082223424627   -0.0007862866156155111
0.0   0.0   0.0
0.0   0.0   0.0
0.0019727336644574066   -0.002972027118926371   -0.0009078804690077655
0.0   0.0   0.0
0.0   0.0   0.0
0.0019727336644574066   -0.002972027118926371   -0.0009078804690077655
0.004067642519118739   -0.0032463757983967226   -0.001152646769146234
0.0   0.0   0.0
0.0038810589190797907   -0.003070017300632707   -0.0014097826859163086
0.0   0.0   0.0
0.0   0.0   0.0
0.0038810589190797907   -0.003070017300632707   -0.0014097826859163086
0.0   0.0   0.0
0.0   0.0   0.0
0.0038810589190797907   -0.003070017300632707   -0.0014097826859163086
0.0020108391671077833   -0.002856741726340096   -0.0010271548526131669
0.0019727336644574066   -0.002972027118926371   -0.0009078804690077655
0.0   0.0   0.0
0.0038810589190797907   -0.003070017300632707   -0.0014097826859163086
0.0019727336644574066   -0.002972027118926371   -0.0009078804690077655
0.0   0.0   0.0
-0.005031594879983917   -0.0033013995013429403   -0.0016855452601660735
-0.009397844185435825   -0.009215344323659945   -0.0022708777450189616
-0.0032017849092163104   -0.0029668896825201722   -0.0012383817733873062
-0.005265885044773334   -0.0035171552424020157   -0.001353238935956294
-0.009397844185435825   -0.009215344323659945   -0.0022708777450189616
-0.0059982757011422345   -0.008914502653601854   -0.0018692095132480198
-0.0032017849092163104   -0.0029668896825201722   -0.0012383817733873062
-0.006005432062371445   -0.009066814925475203   -0.0016834050350641677
-0.005265885044773334   -0.0035171552424020157   -0.001353238935956294
-0.0031385309837744734   -0.003115758524123889   -0.0010374867009399582
-0.006005432062371445   -0.009066814925475203   -0.0016834050350641677
-0.0032017849092163104   -0.0029668896825201722   -0.0012383817733873062
-0.005265885044773334   -0.0035171552424020157   -0.001353238935956294
-0.006005432062371445   -0.009066814925475203   -0.0016834050350641677
-0.009679502905116448   -0.009427872635159986   -0.0019691506786190137
-0.009397844185435825   -0.009215344323659945   -0.0022708777450189616
-0.005265885044773334   -0.0035171552424020157   -0.001353238935956294
-0.006005432062371445   -0.009066814925475203   -0.0016834050350641677
-0.009397844185435825   -0.009215344323659945   -0.0022708777450189616
-0.0032017849092163104   -0.0029668896825201722   -0.0012383817733873062
-0.005265885044773334   -0.0035171552424020157   -0.001353238935956294
-0.009679502905116448   -0.009427872635159986   -0.0019691506786190137
-0.0031385309837744734   -0.003115758524123889   -0.0010374867009399582
-0.0054304580009890075   -0.0036220681769741467   -0.0010348221314416838
-0.009679502905116448   -0.009427872635159986   -0.0019691506786190137
-0.006005432062371445   -0.009066814925475203   -0.0016834050350641677
-0.0031385309837744734   -0.003115758524123889   -0.0010374867009399582
-0.006029158929074052   -0.00915965973793431   -0.0015048501413521922
-0.0054304580009890075   -0.0036220681769741467   -0.0010348221314416838
-0.0031474546656274226   -0.003192040850999215   -0.0008368727525822461
-0.006029158929074052   -0.00915965973793431   -0.0015048501413521922
-0.0031385309837744734   -0.003115758524123889   -0.0010374867009399582
-0.0054304580009890075   -0.0036220681769741467   -0.0010348221314416838
-0.006029158929074052   -0.00915965973793431   -0.0015048501413521922
-0.009875226669497033   -0.009547893798550712   -0.0016737022645602903
-0.009679502905116448   -0.009427872635159986   -0.0019691506786190137
-0.0054304580009890075   -0.0036220681769741467   -0.0010348221314416838
-0.006029158929074052   -0.00915965973793431   -0.0015048501413521922
-0.009679502905116448   -0.009427872635159986   -0.0019691506786190137
-0.0031385309837744734   -0.003115758524123889   -0.0010374867009399582
-0.0054304580009890075   -0.0036220681769741467   -0.0010348221314416838
-0.009875226669497033   -0.009547893798550712   -0.0016737022645602903
-0.0031474546656274226   -0.003192040850999215   -0.0008368727525822461
-0.005784921569658505   -0.0037014928436343466   -0.0006654031395461697
-0.009875226669497033   -0.009547893798550712   -0.0016737022645602903
-0.006029158929074052   -0.00915965973793431   -0.0015048501413521922
-0.0031474546656274226   -0.003192040850999215   -0.0008368727525822461
-0.006011274274039254   -0.009207830112752526   -0.0013377122826880345
-0.005784921569658505   -0.0037014928436343466   -0.0006654031395461697
-0.003145881986853978   -0.003211630939044556   -0.0006294249736123902
-0.006011274274039254   -0.009207830112752526   -0.0013377122826880345
-0.0031474546656274226   -0.003192040850999215   -0.0008368727525822461
-0.005784921569658505   -0.0037014928436343466   -0.0006654031395461697
-0.006011274274039254   -0.009207830112752526   -0.0013377122826880345
-0.010106567566263817   -0.009617662923808404   -0.0014048894110925525
-0.009875226669497033   -0.009547893798550712   -0.0016737022645602903
-0.005784921569658505   -0.0037014928436343466   -0.0006654031395461697
-0.006011274274039254   -0.009207830112752526   -0.0013377122826880345
-0.009875226669497033   -0.009547893798550712   -0.0016737022645602903
-0.0031474546656274226   -0.003192040850999215   -0.0008368727525822461
-0.0032017849092163104   -0.0029668896825201722   -0.0012383817733873062
-0.0059982757011422345   -0.008914502653601854   -0.0018692095132480198
-0.0014580263563495495   -0.00284419165239448   -0.0009419076156021826
-0.0031385309837744734   -0.003115758524123889   -0.0010374867009399582
-0.0059982757011422345   -0.008914502653601854   -0.0018692095132480198
-0.0027830618431985542   -0.008774517104084651   -0.0015950128521934129
-0.0014580263563495495   -0.00284419165239448   -0.0009419076156021826
-0.002759125482992836   -0.00887145633031072   -0.00149980434280472
-0.0031385309837744734   -0.003115758524123889   -0.0010374867009399582
-0.0014023797536370107   -0.002941096702033789   -0.0008470757457748113
-0.002759125482992836   -0.00887145633031072   -0.00149980434280472
-0.0014580263563495495   -0.00284419165239448   -0.0009419076156021826
-0.0031385309837744734   -0.003115758524123889   -0.0010374867009399582
-0.002759125482992836   -0.00887145633031072   -0.00149980434280472
-0.006005432062371445   -0.009066814925475203   -0.0016834050350641677
-0.0059982757011422345   -0.008914502653601854   -0.0018692095132480198
-0.0031385309837744734   -0.003115758524123889   -0.0010374867009399582
-0.002759125482992836   -0.00887145633031072   -0.00149980434280472
-0.0059982757011422345   -0.008914502653601854   -0.0018692095132480198
-0.0014580263563495495   -0.00284419165239448   -0.0009419076156021826
-0.0031385309837744734   -0.003115758524123889   -0.0010374867009399582
-0.006005432062371445   -0.009066814925475203   -0.0016834050350641677
-0.0014023797536370107   -0.002941096702033789   -0.0008470757457748113
-0.0031474546656274226   -0.003192040850999215   -0.0008368727525822461
-0.006005432062371445   -0.009066814925475203   -0.0016834050350641677
-0.002759125482992836   -0.00887145633031072   -0.00149980434280472
-0.0014023797536370107   -0.002941096702033789   -0.0008470757457748113
-0.002737922344186193   -0.008918469897297875   -0.001413493165810032
-0.0031474546656274226   -0.003192040850999215   -0.0008368727525822461
-0.0013711565317597947   -0.0029780303870160377   -0.000754712221856182
-0.002737922344186193   -0.008918469897297875   -0.001413493165810032
-0.0014023797536370107   -0.002941096702033789   -0.0008470757457748113
-0.0031474546656274226   -0.003192040850999215   -0.0008368727525822461
-0.002737922344186193   -0.008918469897297875   -0.001413493165810032
-0.006029158929074052   -0.00915965973793431   -0.0015048501413521922
-0.006005432062371445   -0.009066814925475203   -0.0016834050350641677
-0.0031474546656274226   -0.003192040850999215   -0.0008368727525822461
-0.002737922344186193   -0.008918469897297875   -0.001413493165810032
-0.006005432062371445   -0.009066814925475203   -0.0016834050350641677
-0.0014023797536370107   -0.002941096702033789   -0.0008470757457748113
-0.0031474546656274226   -0.003192040850999215   -0.0008368727525822461
-0.006029158929074052   -0.00915965973793431   -0.0015048501413521922
-0.0013711565317597947   -0.0029780303870160377   -0.000754712221856182
-0.003145881986853978   -0.003211630939044556   -0.0006294249736123902
-0.006029158929074052   -0.00915965973793431   -0.0015048501413521922
-0.002737922344186193   -0.008918469897297875   -0.001413493165810032
-0.0013711565317597947   -0.0029780303870160377   -0.000754712221856182
-0.002706246376527426   -0.00891733014102873   -0.0013383458052300676
-0.003145881986853978   -0.003211630939044556   -0.0006294249736123902
-0.0013427373140695268   -0.0029626151006981595   -0.0006592166113537284
-0.002706246376527426   -0.00891733014102873   -0.0013383458052300676
-0.0013711565317597947   -0.0029780303870160377   -0.000754712221856182
-0.003145881986853978   -0.003211630939044556   -0.0006294249736123902
-0.002706246376527426   -0.00891733014102873   -0.0013383458052300676
-0.006011274274039254   -0.009207830112752526   -0.0013377122826880345
-0.006029158929074052   -0.00915965973793431   -0.0015048501413521922
-0.003145881986853978   -0.003211630939044556   -0.0006294249736123902
-0.002706246376527426   -0.00891733014102873   -0.0013383458052300676
-0.006029158929074052   -0.00915965973793431   -0.0015048501413521922
-0.0013711565317597947   -0.0029780303870160377   -0.000754712221856182
-0.0014580263563495495   -0.00284419165239448   -0.0009419076156021826
-0.0027830618431985542   -0.008774517104084651   -0.0015950128521934129
0.00018955983568077938   -0.0028599013020143334   -0.0007529757524562102
-0.0014023797536370107   -0.002941096702033789   -0.0008470757457748113
-0.0027830618431985542   -0.008774517104084651   -0.0015950128521934129
0.0003174272935170503   -0.008778680566163925   -0.0014216594533757257
0.00018955983568077938   -0.0028599013020143334   -0.0007529757524562102
0.00034686131872686804   -0.008824602748911918   -0.0014153689505721264
-0.0014023797536370107   -0.002941096702033789   -0.0008470757457748113
0.00022504537694523826   -0.0029101359404889032   -0.0007661184714054608
0.00034686131872686804   -0.008824602748911918   -0.0014153689505721264
0.00018955983568077938   -0.0028599013020143334   -0.0007529757524562102
-0.0014023797536370107   -0.002941096702033789   -0.0008470757457748113
0.00034686131872686804   -0.008824602748911918   -0.0014153689505721264
-0.002759125482992836   -0.00887145633031072   -0.00149980434280472
-0.0027830618431985542   -0.008774517104084651   -0.0015950128521934129
-0.0014023797536370107   -0.002941096702033789   -0.0008470757457748113
0.00034686131872686804   -0.008824602748911918   -0.0014153689505721264
-0.0027830618431985542   -0.008774517104084651   -0.0015950128521934129
0.00018955983568077938   -0.0028599013020143334   -0.0007529757524562102
-0.0014023797536370107   -0.002941096702033789   -0.0008470757457748113
-0.002759125482992836   -0.00887145633031072   -0.00149980434280472
0.00022504537694523826   -0.0029101359404889032   -0.0007661184714054608
-0.0013711565317597947   -0.0029780303870160377   -0.000754712221856182
-0.002759125482992836   -0.00887145633031072   -0.00149980434280472
0.00034686131872686804   -0.008824602748911918   -0.0014153689505721264
0.00022504537694523826   -0.0029101359404889032   -0.0007661184714054608
0.00036664258923107504   -0.008821769871409127   -0.0014191770593343907
-0.0013711565317597947   -0.0029780303870160377   -0.000754712221856182
0.00025304323691134704   -0.0029059781172295907   -0.0007779831816561799
0.00036664258923107504   -0.008821769871409127   -0.0014191770593343907
0.00022504537694523826   -0.0029101359404889032   -0.0007661184714054608
-0.0013711565317597947   -0.0029780303870160377   -0.000754712221856182
0.00036664258923107504   -0.008821769871409127   -0.0014191770593343907
-0.002737922344186193   -0.008918469897297875   -0.001413493165810032
-0.002759125482992836   -0.00887145633031072   -0.00149980434280472
-0.0013711565317597947   -0.0029780303870160377   -0.000754712221856182
0.00036664258923107504   -0.008821769871409127   -0.0014191770593343907
-0.002759125482992836   -0.00887145633031072   -0.00149980434280472
0.00022504537694523826   -0.0029101359404889032   -0.0007661184714054608
-0.0013711565317597947   -0.0029780303870160377   -0.000754712221856182
-0.002737922344186193   -0.008918469897297875   -0.001413493165810032
0.00025304323691134704   -0.0029059781172295907   -0.0007779831816561799
-0.0013427373140695268   -0.0029626151006981595   -0.0006592166113537284
-0.002737922344186193   -0.008918469897297875   -0.001413493165810032
0.00036664258923107504   -0.008821769871409127   -0.0014191770593343907
0.00025304323691134704   -0.0029059781172295907   -0.0007779831816561799
0.00038787046494258477   -0.00876869379660611   -0.001433243554183294
-0.0013427373140695268   -0.0029626151006981595   -0.0006592166113537284
0.0002907385478225813   -0.002842965806501553   -0.000790168947611339
0.00038787046494258477   -0.00876869379660611   -0.001433243554183294
0.00025304323691134704   -0.0029059781172295907   -0.0007779831816561799
-0.0013427373140695268   -0.0029626151006981595   -0.0006592166113537284
0.00038787046494258477   -0.00876869379660611   -0.001433243554183294
-0.002706246376527426   -0.00891733014102873   -0.0013383458052300676
-0.002737922344186193   -0.008918469897297875   -0.001413493165810032
-0.0013427373140695268   -0.0029626151006981595   -0.0006592166113537284
0.00038787046494258477   -0.00876869379660611   -0.001433243554183294
-0.002737922344186193   -0.008918469897297875   -0.001413493165810032
0.00025304323691134704   -0.0029059781172295907   -0.0007779831816561799
0.00018955983568077938   -0.0028599013020143334   -0.0007529757524562102
0.0003174272935170503   -0.008778680566163925   -0.0014216594533757257
0.0019779280629478235   -0.0029990955283499495   -0.0006595311099882086
0.00022504537694523826   -0.0029101359404889032   -0.0007661184714054608
0.0003174272935170503   -0.008778680566163925   -0.0014216594533757257
0.0036030367673917096   -0.008921788422867628   -0.0013408001975309944
0.0019779280629478235   -0.0029990955283499495   -0.0006595311099882086
0.003619664587800467   -0.008921359981061182   -0.0014263116773904456
0.00022504537694523826   -0.0029101359404889032   -0.0007661184714054608
0.001981323889172662   -0.003015082223424627   -0.0007862866156155111
0.003619664587800467   -0.008921359981061182   -0.0014263116773904456
0.0019779280629478235   -0.0029990955283499495   -0.0006595311099882086
0.00022504537694523826   -0.0029101359404889032   -0.0007661184714054608
0.003619664587800467   -0.008921359981061182   -0.0014263116773904456
0.00034686131872686804   -0.008824602748911918   -0.0014153689505721264
0.0003174272935170503   -0.008778680566163925   -0.0014216594533757257
0.00022504537694523826   -0.0029101359404889032   -0.0007661184714054608
0.003619664587800467   -0.008921359981061182   -0.0014263116773904456
0.0003174272935170503   -0.008778680566163925   -0.0014216594533757257
0.0019779280629478235   -0.0029990955283499495   -0.0006595311099882086
0.00022504537694523826   -0.0029101359404889032   -0.0007661184714054608
0.00034686131872686804   -0.008824602748911918   -0.0014153689505721264
0.001981323889172662   -0.003015082223424627   -0.0007862866156155111
0.00025304323691134704   -0.0029059781172295907   -0.0007779831816561799
0.00034686131872686804   -0.008824602748911918   -0.0014153689505721264
0.003619664587800467   -0.008921359981061182   -0.0014263116773904456
0.001981323889172662   -0.003015082223424627   -0.0007862866156155111
0.0036028820388510317   -0.008873122248708851   -0.0015232486806306734
0.00025304323691134704   -0.0029059781172295907   -0.0007779831816561799
0.0019727336644574066   -0.002972027118926371   -0.0009078804690077655
0.0036028820388510317   -0.008873122248708851   -0.0015232486806306734
0.001981323889172662   -0.003015082223424627   -0.0007862866156155111
0.00025304323691134704   -0.0029059781172295907   -0.0007779831816561799
0.0036028820388510317   -0.008873122248708851   -0.0015232486806306734
0.00036664258923107504   -0.008821769871409127   -0.0014191770593343907
0.00034686131872686804   -0.008824602748911918   -0.0014153689505721264
0.00025304323691134704   -0.0029059781172295907   -0.0007779831816561799
0.0036028820388510317   -0.008873122248708851   -0.0015232486806306734
0.00034686131872686804   -0.008824602748911918   -0.0014153689505721264
0.001981323889172662   -0.003015082223424627   -0.0007862866156155111
0.00025304323691134704   -0.0029059781172295907   -0.0007779831816561799
0.00036664258923107504   -0.008821769871409127   -0.0014191770593343907
0.0019727336644574066   -0.002972027118926371   -0.0009078804690077655
0.0002907385478225813   -0.002842965806501553   -0.000790168947611339
0.00036664258923107504   -0.008821769871409127   -0.0014191770593343907
0.0036028820388510317   -0.008873122248708851   -0.0015232486806306734
0.0019727336644574066   -0.002972027118926371   -0.0009078804690077655
0.003593244235133532   -0.00876388330095114   -0.0016280248886136226
0.0002907385478225813   -0.002842965806501553   -0.000790168947611339
0.0020108391671077833   -0.002856741726340096   -0.0010271548526131669
0.003593244235133532   -0.00876388330095114   -0.0016280248886136226
0.0019727336644574066   -0.002972027118926371   -0.0009078804690077655
0.0002907385478225813   -0.002842965806501553   -0.000790168947611339
0.003593244235133532   -0.00876388330095114   -0.0016280248886136226
0.00038787046494258477   -0.00876869379660611   -0.001433243554183294
0.00036664258923107504   -0.008821769871409127   -0.0014191770593343907
0.0002907385478225813   -0.002842965806501553   -0.000790168947611339
0.003593244235133532   -0.00876388330095114   -0.0016280248886136226
0.00036664258923107504   -0.008821769871409127   -0.0014191770593343907
0.0019727336644574066   -0.002972027118926371   -0.0009078804690077655
0.0019779280629478235   -0.0029990955283499495   -0.0006595311099882086
0.0036030367673917096   -0.008921788422867628   -0.0013408001975309944
0.0044648138828566955   -0.003351903302777153   -0.0006222864032828351
0.001981323889172662   -0.003015082223424627   -0.0007862866156155111
0.0036030367673917096   -0.008921788422867628   -0.0013408001975309944
0.007567758450929117   -0.009187800163493017   -0.0013190806241740257
0.0044648138828566955   -0.003351903302777153   -0.0006222864032828351
0.007413727442442526   -0.009162708356909266   -0.0015114530178583357
0.001981323889172662   -0.003015082223424627   -0.0007862866156155111
0.004193023249847782   -0.003315303926921059   -0.0009096489030752919
0.007413727442442526   -0.009162708356909266   -0.0015114530178583357
0.0044648138828566955   -0.003351903302777153   -0.0006222864032828351
0.001981323889172662   -0.003015082223424627   -0.0007862866156155111
0.007413727442442526   -0.009162708356909266   -0.0015114530178583357
0.003619664587800467   -0.008921359981061182   -0.0014263116773904456
0.0036030367673917096   -0.008921788422867628   -0.0013408001975309944
0.001981323889172662   -0.003015082223424627   -0.0007862866156155111
0.007413727442442526   -0.009162708356909266   -0.0015114530178583357
0.0036030367673917096   -0.008921788422867628   -0.0013408001975309944
0.0044648138828566955   -0.003351903302777153   -0.0006222864032828351
0.001981323889172662   -0.003015082223424627   -0.0007862866156155111
0.003619664587800467   -0.008921359981061182   -0.0014263116773904456
0.004193023249847782   -0.003315303926921059   -0.0009096489030752919
0.0019727336644574066   -0.002972027118926371   -0.0009078804690077655
0.003619664587800467   -0.008921359981061182   -0.0014263116773904456
0.007413727442442526   -0.009162708356909266   -0.0015114530178583357
0.004193023249847782   -0.003315303926921059   -0.0009096489030752919
0.007276078396492352   -0.00908834066333439   -0.001727866005777406
0.0019727336644574066   -0.002972027118926371   -0.0009078804690077655
0.004067642519118739   -0.0032463757983967226   -0.001152646769146234
0.007276078396492352   -0.00908834066333439   -0.001727866005777406
0.004193023249847782   -0.003315303926921059   -0.0009096489030752919
0.0019727336644574066   -0.002972027118926371   -0.0009078804690077655
0.007276078396492352   -0.00908834066333439   -0.001727866005777406
0.0036028820388510317   -0.008873122248708851   -0.0015232486806306734
0.003619664587800467   -0.008921359981061182   -0.0014263116773904456
0.0019727336644574066   -0.002972027118926371   -0.0009078804690077655
0.007276078396492352   -0.00908834066333439   -0.001727866005777406
0.003619664587800467   -0.008921359981061182   -0.0014263116773904456
0.004193023249847782   -0.003315303926921059   -0.0009096489030752919
0.0019727336644574066   -0.002972027118926371   -0.0009078804690077655
0.0036028820388510317   -0.008873122248708851   -0.0015232486806306734
0.004067642519118739   -0.0032463757983967226   -0.001152646769146234
0.0020108391671077833   -0.002856741726340096   -0.0010271548526131669
0.0036028820388510317   -0.008873122248708851   -0.0015232486806306734
0.007276078396492352   -0.00908834066333439   -0.001727866005777406
0.004067642519118739   -0.0032463757983967226   -0.001152646769146234
0.007069844997963242   -0.008922868951619181   -0.001953142844194061
0.0020108391671077833   -0.002856741726340096   -0.0010271548526131669
0.0038810589190797907   -0.003070017300632707   -0.0014097826859163086
0.007069844997963242   -0.008922868951619181   -0.001953142844194061
0.004067642519118739   -0.0032463757983967226   -0.001152646769146234
0.0020108391671077833   -0.002856741726340096   -0.0010271548526131669
0.007069844997963242   -0.008922868951619181   -0.001953142844194061
0.003593244235133532   -0.00876388330095114   -0.0016280248886136226
0.0036028820388510317   -0.008873122248708851   -0.0015232486806306734
0.0020108391671077833   -0.002856741726340096   -0.0010271548526131669
0.007069844997963242   -0.008922868951619181   -0.001953142844194061
0.0036028820388510317   -0.008873122248708851   -0.0015232486806306734
0.004067642519118739   -0.0032463757983967226   -0.001152646769146234
-0.009397844185435825   -0.009215344323659945   -0.0022708777450189616
-0.012876471936435591   -0.017281981101224836   -0.0025865503995632557
-0.0059982757011422345   -0.008914502653601854   -0.0018692095132480198
-0.009679502905116448   -0.009427872635159986   -0.0019691506786190137
-0.012876471936435591   -0.017281981101224836   -0.0025865503995632557
-0.008278709761945547   -0.01705208129156246   -0.002260788521230241
-0.0059982757011422345   -0.008914502653601854   -0.0018692095132480198
-0.008296930268325495   -0.01718354179041679   -0.002116636312128378
-0.009679502905116448   -0.009427872635159986   -0.0019691506786190137
-0.006005432062371445   -0.009066814925475203   -0.0016834050350641677
-0.008296930268325495   -0.01718354179041679   -0.002116636312128378
-0.0059982757011422345   -0.008914502653601854   -0.0018692095132480198
-0.009679502905116448   -0.009427872635159986   -0.0019691506786190137
-0.008296930268325495   -0.01718354179041679   -0.002116636312128378
-0.013105536337443888   -0.01746164036945675   -0.002361538349838372
-0.012876471936435591   -0.017281981101224836   -0.0025865503995632557
-0.009679502905116448   -0.009427872635159986   -0.0019691506786190137
-0.008296930268325495   -0.01718354179041679   -0.002116636312128378
-0.012876471936435591   -0.017281981101224836   -0.0025865503995632557
-0.0059982757011422345   -0.008914502653601854   -0.0018692095132480198
-0.009679502905116448   -0.009427872635159986   -0.0019691506786190137
-0.013105536337443888   -0.01746164036945675   -0.002361538349838372
-0.006005432062371445   -0.009066814925475203   -0.0016834050350641677
-0.009875226669497033   -0.009547893798550712   -0.0016737022645602903
-0.013105536337443888   -0.01746164036945675   -0.002361538349838372
-0.008296930268325495   -0.01718354179041679   -0.002116636312128378
-0.006005432062371445   -0.009066814925475203   -0.0016834050350641677
-0.008318377949397344   -0.017275027150385674   -0.0019829142254131253
-0.009875226669497033   -0.009547893798550712   -0.0016737022645602903
-0.006029158929074052   -0.00915965973793431   -0.0015048501413521922
-0.008318377949397344   -0.017275027150385674   -0.0019829142254131253
-0.006005432062371445   -0.009066814925475203   -0.0016834050350641677
-0.009875226669497033   -0.009547893798550712   -0.0016737022645602903
-0.008318377949397344   -0.017275027150385674   -0.0019829142254131253
-0.013249972925651405   -0.01757429988615935   -0.0021518155908663303
-0.013105536337443888   -0.01746164036945675   -0.002361538349838372
-0.009875226669497033   -0.009547893798550712   -0.0016737022645602903
-0.008318377949397344   -0.017275027150385674   -0.0019829142254131253
-0.013105536337443888   -0.01746164036945675   -0.002361538349838372
-0.006005432062371445   -0.009066814925475203   -0.0016834050350641677
-0.009875226669497033   -0.009547893798550712   -0.0016737022645602903
-0.013249972925651405   -0.01757429988615935   -0.0021518155908663303
-0.006029158929074052   -0.00915965973793431   -0.0015048501413521922
-0.010106567566263817   -0.009617662923808404   -0.0014048894110925525
-0.013249972925651405   -0.01757429988615935   -0.0021518155908663303
-0.008318377949397344   -0.017275027150385674   -0.0019829142254131253
-0.006029158929074052   -0.00915965973793431   -0.0015048501413521922
-0.008302857551578809   -0.01733521672734393   -0.0018574003157494
-0.010106567566263817   -0.009617662923808404   -0.0014048894110925525
-0.006011274274039254   -0.009207830112752526   -0.0013377122826880345
-0.008302857551578809   -0.01733521672734393   -0.0018574003157494
-0.006029158929074052   -0.00915965973793431   -0.0015048501413521922
-0.010106567566263817   -0.009617662923808404   -0.0014048894110925525
-0.008302857551578809   -0.01733521672734393   -0.0018574003157494
-0.013414312541812228   -0.017655323552907484   -0.00195881188671417
-0.013249972925651405   -0.01757429988615935   -0.0021518155908663303
-0.010106567566263817   -0.009617662923808404   -0.0014048894110925525
-0.008302857551578809   -0.01733521672734393   -0.0018574003157494
-0.013249972925651405   -0.01757429988615935   -0.0021518155908663303
-0.006029158929074052   -0.00915965973793431   -0.0015048501413521922
-0.0059982757011422345   -0.008914502653601854   -0.0018692095132480198
-0.008278709761945547   -0.01705208129156246   -0.002260788521230241
-0.0027830618431985542   -0.008774517104084651   -0.0015950128521934129
-0.006005432062371445   -0.009066814925475203   -0.0016834050350641677
-0.008278709761945547   -0.01705208129156246   -0.002260788521230241
-0.003943585914567045   -0.016937456072568448   -0.002034463218017605
-0.0027830618431985542   -0.008774517104084651   -0.0015950128521934129
-0.00393378060973986   -0.017021515572003803   -0.0019529988308267616
-0.006005432062371445   -0.009066814925475203   -0.0016834050350641677
-0.002759125482992836   -0.00887145633031072   -0.00149980434280472
-0.00393378060973986   -0.017021515572003803   -0.0019529988308267616
-0.0027830618431985542   -0.008774517104084651   -0.0015950128521934129
-0.006005432062371445   -0.009066814925475203   -0.0016834050350641677
-0.00393378060973986   -0.017021515572003803   -0.0019529988308267616
-0.008296930268325495   -0.01718354179041679   -0.002116636312128378
-0.008278709761945547   -0.01705208129156246   -0.002260788521230241
-0.006005432062371445   -0.009066814925475203   -0.0016834050350641677
-0.00393378060973986   -0.017021515572003803   -0.0019529988308267616
-0.008278709761945547   -0.01705208129156246   -0.002260788521230241
-0.0027830618431985542   -0.008774517104084651   -0.0015950128521934129
-0.006005432062371445   -0.009066814925475203   -0.0016834050350641677
-0.008296930268325495   -0.01718354179041679   -0.002116636312128378
-0.002759125482992836   -0.00887145633031072   -0.00149980434280472
-0.006029158929074052   -0.00915965973793431   -0.0015048501413521922
-0.008296930268325495   -0.01718354179041679   -0.002116636312128378
-0.00393378060973986   -0.017021515572003803   -0.0019529988308267616
-0.002759125482992836   -0.00887145633031072   -0.00149980434280472
-0.003921753466252629   -0.017070891991924242   -0.0018814666260472343
-0.006029158929074052   -0.00915965973793431   -0.0015048501413521922
-0.002737922344186193   -0.008918469897297875   -0.001413493165810032
-0.003921753466252629   -0.017070891991924242   -0.0018814666260472343
-0.002759125482992836   -0.00887145633031072   -0.00149980434280472
-0.006029158929074052   -0.00915965973793431   -0.0015048501413521922
-0.003921753466252629   -0.017070891991924242   -0.0018814666260472343
-0.008318377949397344   -0.017275027150385674   -0.0019829142254131253
-0.008296930268325495   -0.01718354179041679   -0.002116636312128378
-0.006029158929074052   -0.00915965973793431   -0.0015048501413521922
-0.003921753466252629   -0.017070891991924242   -0.0018814666260472343
-0.008296930268325495   -0.01718354179041679   -0.002116636312128378
-0.002759125482992836   -0.00887145633031072   -0.00149980434280472
-0.006029158929074052   -0.00915965973793431   -0.0015048501413521922
-0.008318377949397344   -0.017275027150385674   -0.0019829142254131253
-0.002737922344186193   -0.008918469897297875   -0.001413493165810032
-0.006011274274039254   -0.009207830112752526   -0.0013377122826880345
-0.008318377949397344   -0.017275027150385674   -0.0019829142254131253
-0.003921753466252629   -0.017070891991924242   -0.0018814666260472343
-0.002737922344186193   -0.008918469897297875   -0.001413493165810032
-0.0039019379116628167   -0.017086291226424338   -0.0018198368793674083
-0.006011274274039254   -0.009207830112752526   -0.0013377122826880345
-0.002706246376527426   -0.00891733014102873   -0.0013383458052300676
-0.0039019379116628167   -0.017086291226424338   -0.0018198368793674083
-0.002737922344186193   -0.008918469897297875   -0.001413493165810032
-0.006011274274039254   -0.009207830112752526   -0.0013377122826880345
-0.0039019379116628167   -0.017086291226424338   -0.0018198368793674083
-0.008302857551578809   -0.01733521672734393   -0.0018574003157494
-0.008318377949397344   -0.017275027150385674   -0.0019829142254131253
-0.006011274274039254   -0.009207830112752526   -0.0013377122826880345
-0.0039019379116628167   -0.017086291226424338   -0.0018198368793674083
-0.008318377949397344   -0.017275027150385674   -0.0019829142254131253
-0.002737922344186193   -0.008918469897297875   -0.001413493165810032
-0.0027830618431985542   -0.008774517104084651   -0.0015950128521934129
-0.003943585914567045   -0.016937456072568448   -0.002034463218017605
0.0003174272935170503   -0.008778680566163925   -0.0014216594533757257
-0.002759125482992836   -0.00887145633031072   -0.00149980434280472
-0.003943585914567045   -0.016937456072568448   -0.002034463218017605
0.0002642468337317027   -0.016931355355719938   -0.001894143928108618
0.0003174272935170503   -0.008778680566163925   -0.0014216594533757257
0.00028233806537980653   -0.016968758059846545   -0.0018750311700727986
-0.002759125482992836   -0.00887145633031072   -0.00149980434280472
0.00034686131872686804   -0.008824602748911918   -0.0014153689505721264
0.00028233806537980653   -0.016968758059846545   -0.0018750311700727986
0.0003174272935170503   -0.008778680566163925   -0.0014216594533757257
-0.002759125482992836   -0.00887145633031072   -0.00149980434280472
0.00028233806537980653   -0.016968758059846545   -0.0018750311700727986
-0.00393378060973986   -0.017021515572003803   -0.0019529988308267616
-0.003943585914567045   -0.016937456072568448   -0.002034463218017605
-0.002759125482992836   -0.00887145633031072   -0.00149980434280472
0.00028233806537980653   -0.016968758059846545   -0.0018750311700727986
-0.003943585914567045   -0.016937456072568448   -0.002034463218017605
0.0003174272935170503   -0.008778680566163925   -0.0014216594533757257
-0.002759125482992836   -0.00887145633031072   -0.00149980434280472
-0.00393378060973986   -0.017021515572003803   -0.0019529988308267616
0.00034686131872686804   -0.008824602748911918   -0.0014153689505721264
-0.002737922344186193   -0.008918469897297875   -0.001413493165810032
-0.00393378060973986   -0.017021515572003803   -0.0019529988308267616
0.00028233806537980653   -0.016968758059846545   -0.0018750311700727986
0.00034686131872686804   -0.008824602748911918   -0.0014153689505721264
0.00029391080352348477   -0.016971616997215225   -0.0018655909714383058
-0.002737922344186193   -0.008918469897297875   -0.001413493165810032
0.00036664258923107504   -0.008821769871409127   -0.0014191770593343907
0.00029391080352348477   -0.016971616997215225   -0.0018655909714383058
0.00034686131872686804   -0.008824602748911918   -0.0014153689505721264
-0.002737922344186193   -0.008918469897297875   -0.001413493165810032
0.00029391080352348477   -0.016971616997215225   -0.0018655909714383058
-0.003921753466252629   -0.017070891991924242   -0.0018814666260472343
-0.00393378060973986   -0.017021515572003803   -0.0019529988308267616
-0.002737922344186193   -0.008918469897297875   -0.001413493165810032
0.00029391080352348477   -0.016971616997215225   -0.0018655909714383058
-0.00393378060973986   -0.017021515572003803   -0.0019529988308267616
0.00034686131872686804   -0.008824602748911918   -0.0014153689505721264
-0.002737922344186193   -0.008918469897297875   -0.001413493165810032
-0.003921753466252629   -0.017070891991924242   -0.0018814666260472343
0.00036664258923107504   -0.008821769871409127   -0.0014191770593343907
-0.002706246376527426   -0.00891733014102873   -0.0013383458052300676
-0.003921753466252629   -0.017070891991924242   -0.0018814666260472343
0.00029391080352348477   -0.016971616997215225   -0.0018655909714383058
0.00036664258923107504   -0.008821769871409127   -0.0014191770593343907
0.00030226173084486744   -0.01693941708455226   -0.0018664113469150792
-0.002706246376527426   -0.00891733014102873   -0.0013383458052300676
0.00038787046494258477   -0.00876869379660611   -0.001433243554183294
0.00030226173084486744   -0.01693941708455226   -0.0018664113469150792
0.00036664258923107504   -0.008821769871409127   -0.0014191770593343907
-0.002706246376527426   -0.00891733014102873   -0.0013383458052300676
0.00030226173084486744   -0.01693941708455226   -0.0018664113469150792
-0.0039019379116628167   -0.017086291226424338   -0.0018198368793674083
-0.003921753466252629   -0.017070891991924242   -0.0018814666260472343
-0.002706246376527426   -0.00891733014102873   -0.0013383458052300676
0.00030226173084486744   -0.01693941708455226   -0.0018664113469150792
-0.003921753466252629   -0.017070891991924242   -0.0018814666260472343
0.00036664258923107504   -0.008821769871409127   -0.0014191770593343907
0.0003174272935170503   -0.008778680566163925   -0.0014216594533757257
0.0002642468337317027   -0.016931355355719938   -0.001894143928108618
0.0036030367673917096   -0.008921788422867628   -0.0013408001975309944
0.00034686131872686804   -0.008824602748911918   -0.0014153689505721264
0.0002642468337317027   -0.016931355355719938   -0.001894143928108618
0.00465165529686662   -0.017027328721765954   -0.0018374317592105747
0.0036030367673917096   -0.008921788422867628   -0.0013408001975309944
0.004667443065869296   -0.017021967878665792   -0.0018819659094603766
0.00034686131872686804   -0.008824602748911918   -0.0014153689505721264
0.003619664587800467   -0.008921359981061182   -0.0014263116773904456
0.004667443065869296   -0.017021967878665792   -0.0018819659094603766
0.0036030367673917096   -0.008921788422867628   -0.0013408001975309944
0.00034686131872686804   -0.008824602748911918   -0.0014153689505721264
0.004667443065869296   -0.017021967878665792   -0.0018819659094603766
0.00028233806537980653   -0.016968758059846545   -0.0018750311700727986
0.0002642468337317027   -0.016931355355719938   -0.001894143928108618
0.00034686131872686804   -0.008824602748911918   -0.0014153689505721264
0.004667443065869296   -0.017021967878665792   -0.0018819659094603766
0.0002642468337317027   -0.016931355355719938   -0.001894143928108618
0.0036030367673917096   -0.008921788422867628   -0.0013408001975309944
0.00034686131872686804   -0.008824602748911918   -0.0014153689505721264
0.00028233806537980653   -0.016968758059846545   -0.0018750311700727986
0.003619664587800467   -0.008921359981061182   -0.0014263116773904456
0.00036664258923107504   -0.008821769871409127   -0.0014191770593343907
0.00028233806537980653   -0.016968758059846545   -0.0018750311700727986
0.004667443065869296   -0.017021967878665792   -0.0018819659094603766
0.003619664587800467   -0.008921359981061182   -0.0014263116773904456
0.004655565448587532   -0.016982803370625084   -0.0019354618838536666
0.00036664258923107504   -0.008821769871409127   -0.0014191770593343907
0.0036028820388510317   -0.008873122248708851   -0.0015232486806306734
0.004655565448587532   -0.016982803370625084   -0.0019354618838536666
0.003619664587800467   -0.008921359981061182   -0.0014263116773904456
0.00036664258923107504   -0.008821769871409127   -0.0014191770593343907
0.004655565448587532   -0.016982803370625084   -0.0019354618838536666
0.00029391080352348477   -0.016971616997215225   -0.0018655909714383058
0.00028233806537980653   -0.016968758059846545   -0.0018750311700727986
0.00036664258923107504   -0.008821769871409127   -0.0014191770593343907
0.004655565448587532   -0.016982803370625084   -0.0019354618838536666
0.00028233806537980653   -0.016968758059846545   -0.0018750311700727986
0.003619664587800467   -0.008921359981061182   -0.0014263116773904456
0.00036664258923107504   -0.008821769871409127   -0.0014191770593343907
0.00029391080352348477   -0.016971616997215225   -0.0018655909714383058
0.0036028820388510317   -0.008873122248708851   -0.0015232486806306734
0.00038787046494258477   -0.00876869379660611   -0.001433243554183294
0.00029391080352348477   -0.016971616997215225   -0.0018655909714383058
0.004655565448587532   -0.016982803370625084   -0.0019354618838536666
0.0036028820388510317   -0.008873122248708851   -0.0015232486806306734
0.004637805452935776   -0.016901465608198992   -0.0019989813058853456
0.00038787046494258477   -0.00876869379660611   -0.001433243554183294
0.003593244235133532   -0.00876388330095114   -0.0016280248886136226
0.004637805452935776   -0.016901465608198992   -0.0019989813058853456
0.0036028820388510317   -0.008873122248708851   -0.0015232486806306734
0.00038787046494258477   -0.00876869379660611   -0.001433243554183294
0.004637805452935776   -0.016901465608198992   -0.0019989813058853456
0.00030226173084486744   -0.01693941708455226   -0.0018664113469150792
0.00029391080352348477   -0.016971616997215225   -0.0018655909714383058
0.00038787046494258477   -0.00876869379660611   -0.001433243554183294
0.004637805452935776   -0.016901465608198992   -0.0019989813058853456
0.00029391080352348477   -0.016971616997215225   -0.0018655909714383058
0.0036028820388510317   -0.008873122248708851   -0.0015232486806306734
0.0036030367673917096   -0.008921788422867628   -0.0013408001975309944
0.00465165529686662   -0.017027328721765954   -0.0018374317592105747
0.007567758450929117   -0.009187800163493017   -0.0013190806241740257
0.003619664587800467   -0.008921359981061182   -0.0014263116773904456
0.00465165529686662   -0.017027328721765954   -0.0018374317592105747
0.009648227602521266   -0.01720141231537123   -0.0018385711361796233
0.007567758450929117   -0.009187800163493017   -0.0013190806241740257
0.009564245093538542   -0.017171413460124674   -0.001954946288974074
0.003619664587800467   -0.008921359981061182   -0.0014263116773904456
0.007413727442442526   -0.009162708356909266   -0.0015114530178583357
0.009564245093538542   -0.017171413460124674   -0.001954946288974074
0.007567758450929117   -0.009187800163493017   -0.0013190806241740257
0.003619664587800467   -0.008921359981061182   -0.0014263116773904456
0.009564245093538542   -0.017171413460124674   -0.001954946288974074
0.004667443065869296   -0.017021967878665792   -0.0018819659094603766
0.00465165529686662   -0.017027328721765954   -0.0018374317592105747
0.003619664587800467   -0.008921359981061182   -0.0014263116773904456
0.009564245093538542   -0.017171413460124674   -0.001954946288974074
0.00465165529686662   -0.017027328721765954   -0.0018374317592105747
0.007567758450929117   -0.009187800163493017   -0.0013190806241740257
0.003619664587800467   -0.008921359981061182   -0.0014263116773904456
0.004667443065869296   -0.017021967878665792   -0.0018819659094603766
0.007413727442442526   -0.009162708356909266   -0.0015114530178583357
0.0036028820388510317   -0.008873122248708851   -0.0015232486806306734
0.004667443065869296   -0.017021967878665792   -0.0018819659094603766
0.009564245093538542   -0.017171413460124674   -0.001954946288974074
0.007413727442442526   -0.009162708356909266   -0.0015114530178583357
0.009480420009333013   -0.01711111316555558   -0.0020874818341289534
0.0036028820388510317   -0.008873122248708851   -0.0015232486806306734
0.007276078396492352   -0.00908834066333439   -0.001727866005777406
0.009480420009333013   -0.01711111316555558   -0.0020874818341289534
0.007413727442442526   -0.009162708356909266   -0.0015114530178583357
0.0036028820388510317   -0.008873122248708851   -0.0015232486806306734
0.009480420009333013   -0.01711111316555558   -0.0020874818341289534
0.004655565448587532   -0.016982803370625084   -0.0019354618838536666
0.004667443065869296   -0.017021967878665792   -0.0018819659094603766
0.0036028820388510317   -0.008873122248708851   -0.0015232486806306734
0.009480420009333013   -0.01711111316555558   -0.0020874818341289534
0.004667443065869296   -0.017021967878665792   -0.0018819659094603766
0.007413727442442526   -0.009162708356909266   -0.0015114530178583357
0.0036028820388510317   -0.008873122248708851   -0.0015232486806306734
0.004655565448587532   -0.016982803370625084   -0.0019354618838536666
0.007276078396492352   -0.00908834066333439   -0.001727866005777406
0.003593244235133532   -0.00876388330095114   -0.0016280248886136226
0.004655565448587532   -0.016982803370625084   -0.0019354618838536666
0.009480420009333013   -0.01711111316555558   -0.0020874818341289534
0.007276078396492352   -0.00908834066333439   -0.001727866005777406
0.009331529584662223   -0.016984622126329823   -0.00223619495323077
0.003593244235133532   -0.00876388330095114   -0.0016280248886136226
0.007069844997963242   -0.008922868951619181   -0.001953142844194061
0.009331529584662223   -0.016984622126329823   -0.00223619495323077
0.007276078396492352   -0.00908834066333439   -0.001727866005777406
0.003593244235133532   -0.00876388330095114   -0.0016280248886136226
0.009331529584662223   -0.016984622126329823   -0.00223619495323077
0.004637805452935776   -0.016901465608198992   -0.0019989813058853456
0.004655565448587532   -0.016982803370625084   -0.0019354618838536666
0.003593244235133532   -0.00876388330095114   -0.0016280248886136226
0.009331529584662223   -0.016984622126329823   -0.00223619495323077
0.004655565448587532   -0.016982803370625084   -0.0019354618838536666
0.007276078396492352   -0.00908834066333439   -0.001727866005777406
-0.012876471936435591   -0.017281981101224836   -0.0025865503995632557
-0.015376627351139103   -0.02684679231995791   -0.0027585381786663066
-0.008278709761945547   -0.01705208129156246   -0.002260788521230241
-0.013105536337443888   -0.01746164036945675   -0.002361538349838372
-0.015376627351139103   -0.02684679231995791   -0.0027585381786663066
-0.009980932043348874   -0.026700524120804404   -0.002492952636837571
-0.008278709761945547   -0.01705208129156246   -0.002260788521230241
-0.009992958854960356   -0.026813599548992807   -0.00238977583055075
-0.013105536337443888   -0.01746164036945675   -0.002361538349838372
-0.008296930268325495   -0.01718354179041679   -0.002116636312128378
-0.009992958854960356   -0.026813599548992807   -0.00238977583055075
-0.008278709761945547   -0.01705208129156246   -0.002260788521230241
-0.013105536337443888   -0.01746164036945675   -0.002361538349838372
-0.009992958854960356   -0.026813599548992807   -0.00238977583055075
-0.015530942693091736   -0.026999768139395607   -0.0026091328679052365
-0.015376627351139103   -0.02684679231995791   -0.0027585381786663066
-0.013105536337443888   -0.01746164036945675   -0.002361538349838372
-0.009992958854960356   -0.026813599548992807   -0.00238977583055075
-0.015376627351139103   -0.02684679231995791   -0.0027585381786663066
-0.008278709761945547   -0.01705208129156246   -0.002260788521230241
-0.013105536337443888   -0.01746164036945675   -0.002361538349838372
-0.015530942693091736   -0.026999768139395607   -0.0026091328679052365
-0.008296930268325495   -0.01718354179041679   -0.002116636312128378
-0.013249972925651405   -0.01757429988615935   -0.0021518155908663303
-0.015530942693091736   -0.026999768139395607   -0.0026091328679052365
-0.009992958854960356   -0.026813599548992807   -0.00238977583055075
-0.008296930268325495   -0.01718354179041679   -0.002116636312128378
-0.010001545926583618   -0.026903246457793434   -0.0022968803594679444
-0.013249972925651405   -0.01757429988615935   -0.0021518155908663303
-0.008318377949397344   -0.017275027150385674   -0.0019829142254131253
-0.010001545926583618   -0.026903246457793434   -0.0022968803594679444
-0.008296930268325495   -0.01718354179041679   -0.002116636312128378
-0.013249972925651405   -0.01757429988615935   -0.0021518155908663303
-0.010001545926583618   -0.026903246457793434   -0.0022968803594679444
-0.015619497498267645   -0.027108003933724416   -0.0024740634930962746
-0.015530942693091736   -0.026999768139395607   -0.0026091328679052365
-0.013249972925651405   -0.01757429988615935   -0.0021518155908663303
-0.010001545926583618   -0.026903246457793434   -0.0022968803594679444
-0.015530942693091736   -0.026999768139395607   -0.0026091328679052365
-0.008296930268325495   -0.01718354179041679   -0.002116636312128378
-0.013249972925651405   -0.01757429988615935   -0.0021518155908663303
-0.015619497498267645   -0.027108003933724416   -0.0024740634930962746
-0.008318377949397344   -0.017275027150385674   -0.0019829142254131253
-0.013414312541812228   -0.017655323552907484   -0.00195881188671417
-0.015619497498267645   -0.027108003933724416   -0.0024740634930962746
-0.010001545926583618   -0.026903246457793434   -0.0022968803594679444
-0.008318377949397344   -0.017275027150385674   -0.0019829142254131253
-0.009980874218706847   -0.02697689942825521   -0.0022128996023324373
-0.013414312541812228   -0.017655323552907484   -0.00195881188671417
-0.008302857551578809   -0.01733521672734393   -0.0018574003157494
-0.009980874218706847   -0.02697689942825521   -0.0022128996023324373
-0.008318377949397344   -0.017275027150385674   -0.0019829142254131253
-0.013414312541812228   -0.017655323552907484   -0.00195881188671417
-0.009980874218706847   -0.02697689942825521   -0.0022128996023324373
-0.01571071480179149   -0.027205029441244873   -0.0023550340350625355
-0.015619497498267645   -0.027108003933724416   -0.0024740634930962746
-0.013414312541812228   -0.017655323552907484   -0.00195881188671417
-0.009980874218706847   -0.02697689942825521   -0.0022128996023324373
-0.015619497498267645   -0.027108003933724416   -0.0024740634930962746
-0.008318377949397344   -0.017275027150385674   -0.0019829142254131253
-0.008278709761945547   -0.01705208129156246   -0.002260788521230241
-0.009980932043348874   -0.026700524120804404   -0.002492952636837571
-0.003943585914567045   -0.016937456072568448   -0.002034463218017605
-0.008296930268325495   -0.01718354179041679   -0.002116636312128378
-0.009980932043348874   -0.026700524120804404   -0.002492952636837571
-0.004922594514347307   -0.02662491464444044   -0.0023090501693544814
-0.003943585914567045   -0.016937456072568448   -0.002034463218017605
-0.004913263564541547   -0.026695867289865213   -0.002240930330648754
-0.008296930268325495   -0.01718354179041679   -0.002116636312128378
-0.00393378060973986   -0.017021515572003803   -0.0019529988308267616
-0.004913263564541547   -0.026695867289865213   -0.002240930330648754
-0.003943585914567045   -0.016937456072568448   -0.002034463218017605
-0.008296930268325495   -0.01718354179041679   -0.002116636312128378
-0.004913263564541547   -0.026695867289865213   -0.002240930330648754
-0.009992958854960356   -0.026813599548992807   -0.00238977583055075
-0.009980932043348874   -0.026700524120804404   -0.002492952636837571
-0.008296930268325495   -0.01718354179041679   -0.002116636312128378
-0.004913263564541547   -0.026695867289865213   -0.002240930330648754
-0.009980932043348874   -0.026700524120804404   -0.002492952636837571
-0.003943585914567045   -0.016937456072568448   -0.002034463218017605
-0.008296930268325495   -0.01718354179041679   -0.002116636312128378
-0.009992958854960356   -0.026813599548992807   -0.00238977583055075
-0.00393378060973986   -0.017021515572003803   -0.0019529988308267616
-0.008318377949397344   -0.017275027150385674   -0.0019829142254131253
-0.009992958854960356   -0.026813599548992807   -0.00238977583055075
-0.004913263564541547   -0.026695867289865213   -0.002240930330648754
-0.00393378060973986   -0.017021515572003803   -0.0019529988308267616
-0.004900509426653871   -0.026747187027234203   -0.002182937330158581
-0.008318377949397344   -0.017275027150385674   -0.0019829142254131253
-0.003921753466252629   -0.017070891991924242   -0.0018814666260472343
-0.004900509426653871   -0.026747187027234203   -0.002182937330158581
-0.00393378060973986   -0.017021515572003803   -0.0019529988308267616
-0.008318377949397344   -0.017275027150385674   -0.0019829142254131253
-0.004900509426653871   -0.026747187027234203   -0.002182937330158581
-0.010001545926583618   -0.026903246457793434   -0.0022968803594679444
-0.009992958854960356   -0.026813599548992807   -0.00238977583055075
-0.008318377949397344   -0.017275027150385674   -0.0019829142254131253
-0.004900509426653871   -0.026747187027234203   -0.002182937330158581
-0.009992958854960356   -0.026813599548992807   -0.00238977583055075
-0.00393378060973986   -0.017021515572003803   -0.0019529988308267616
-0.008318377949397344   -0.017275027150385674   -0.0019829142254131253
-0.010001545926583618   -0.026903246457793434   -0.0022968803594679444
-0.003921753466252629   -0.017070891991924242   -0.0018814666260472343
-0.008302857551578809   -0.01733521672734393   -0.0018574003157494
-0.010001545926583618   -0.026903246457793434   -0.0022968803594679444
-0.004900509426653871   -0.026747187027234203   -0.002182937330158581
-0.003921753466252629   -0.017070891991924242   -0.0018814666260472343
-0.004881472741784385   -0.02677921025357714   -0.0021352389554393208
-0.008302857551578809   -0.01733521672734393   -0.0018574003157494
-0.0039019379116628167   -0.017086291226424338   -0.0018198368793674083
-0.004881472741784385   -0.02677921025357714   -0.0021352389554393208
-0.003921753466252629   -0.017070891991924242   -0.0018814666260472343
-0.008302857551578809   -0.01733521672734393   -0.0018574003157494
-0.004881472741784385   -0.02677921025357714   -0.0021352389554393208
-0.009980874218706847   -0.02697689942825521   -0.0022128996023324373
-0.010001545926583618   -0.026903246457793434   -0.0022968803594679444
-0.008302857551578809   -0.01733521672734393   -0.0018574003157494
-0.004881472741784385   -0.02677921025357714   -0.0021352389554393208
-0.010001545926583618   -0.026903246457793434   -0.0022968803594679444
-0.003921753466252629   -0.017070891991924242   -0.0018814666260472343
-0.003943585914567045   -0.016937456072568448   -0.002034463218017605
-0.004922594514347307   -0.02662491464444044   -0.0023090501693544814
0.0002642468337317027   -0.016931355355719938   -0.001894143928108618
-0.00393378060973986   -0.017021515572003803   -0.0019529988308267616
-0.004922594514347307   -0.02662491464444044   -0.0023090501693544814
-1.6149582935167917e-06   -0.026611904597966595   -0.002201951912730139
0.0002642468337317027   -0.016931355355719938   -0.001894143928108618
1.5973562649570724e-05   -0.026640507715446075   -0.0021691614098197634
-0.00393378060973986   -0.017021515572003803   -0.0019529988308267616
0.00028233806537980653   -0.016968758059846545   -0.0018750311700727986
1.5973562649570724e-05   -0.026640507715446075   -0.0021691614098197634
0.0002642468337317027   -0.016931355355719938   -0.001894143928108618
-0.00393378060973986   -0.017021515572003803   -0.0019529988308267616
1.5973562649570724e-05   -0.026640507715446075   -0.0021691614098197634
-0.004913263564541547   -0.026695867289865213   -0.002240930330648754
-0.004922594514347307   -0.02662491464444044   -0.0023090501693544814
-0.00393378060973986   -0.017021515572003803   -0.0019529988308267616
1.5973562649570724e-05   -0.026640507715446075   -0.0021691614098197634
-0.004922594514347307   -0.02662491464444044   -0.0023090501693544814
0.0002642468337317027   -0.016931355355719938   -0.001894143928108618
-0.00393378060973986   -0.017021515572003803   -0.0019529988308267616
-0.004913263564541547   -0.026695867289865213   -0.002240930330648754
0.00028233806537980653   -0.016968758059846545   -0.0018750311700727986
-0.003921753466252629   -0.017070891991924242   -0.0018814666260472343
-0.004913263564541547   -0.026695867289865213   -0.002240930330648754
1.5973562649570724e-05   -0.026640507715446075   -0.0021691614098197634
0.00028233806537980653   -0.016968758059846545   -0.0018750311700727986
2.8487241302191113e-05   -0.026649342567878806   -0.0021463693633422066
-0.003921753466252629   -0.017070891991924242   -0.0018814666260472343
0.00029391080352348477   -0.016971616997215225   -0.0018655909714383058
2.8487241302191113e-05   -0.026649342567878806   -0.0021463693633422066
0.00028233806537980653   -0.016968758059846545   -0.0018750311700727986
-0.003921753466252629   -0.017070891991924242   -0.0018814666260472343
2.8487241302191113e-05   -0.026649342567878806   -0.0021463693633422066
-0.004900509426653871   -0.026747187027234203   -0.002182937330158581
-0.004913263564541547   -0.026695867289865213   -0.002240930330648754
-0.003921753466252629   -0.017070891991924242   -0.0018814666260472343
2.8487241302191113e-05   -0.026649342567878806   -0.0021463693633422066
-0.004913263564541547   -0.026695867289865213   -0.002240930330648754
0.00028233806537980653   -0.016968758059846545   -0.0018750311700727986
-0.003921753466252629   -0.017070891991924242   -0.0018814666260472343
-0.004900509426653871   -0.026747187027234203   -0.002182937330158581
0.00029391080352348477   -0.016971616997215225   -0.0018655909714383058
-0.0039019379116628167   -0.017086291226424338   -0.0018198368793674083
-0.004900509426653871   -0.026747187027234203   -0.002182937330158581
2.8487241302191113e-05   -0.026649342567878806   -0.0021463693633422066
0.00029391080352348477   -0.016971616997215225   -0.0018655909714383058
3.6422551663732116e-05   -0.026638138102284128   -0.0021340182544816295
-0.0039019379116628167   -0.017086291226424338   -0.0018198368793674083
0.00030226173084486744   -0.01693941708455226   -0.0018664113469150792
3.6422551663732116e-05   -0.026638138102284128   -0.0021340182544816295
0.00029391080352348477   -0.016971616997215225   -0.0018655909714383058
-0.0039019379116628167   -0.017086291226424338   -0.0018198368793674083
3.6422551663732116e-05   -0.026638138102284128   -0.0021340182544816295
-0.004881472741784385   -0.02677921025357714   -0.0021352389554393208
-0.004900509426653871   -0.026747187027234203   -0.002182937330158581
-0.0039019379116628167   -0.017086291226424338   -0.0018198368793674083
3.6422551663732116e-05   -0.026638138102284128   -0.0021340182544816295
-0.004900509426653871   -0.026747187027234203   -0.002182937330158581
0.00029391080352348477   -0.016971616997215225   -0.0018655909714383058
0.0002642468337317027   -0.016931355355719938   -0.001894143928108618
-1.6149582935167917e-06   -0.026611904597966595   -0.002201951912730139
0.00465165529686662   -0.017027328721765954   -0.0018374317592105747
0.00028233806537980653   -0.016968758059846545   -0.0018750311700727986
-1.6149582935167917e-06   -0.026611904597966595   -0.002201951912730139
0.0050885864224694145   -0.026656146578895024   -0.0021712254082726407
0.00465165529686662   -0.017027328721765954   -0.0018374317592105747
0.005110113340881282   -0.02664486257410087   -0.002174508976951416
0.00028233806537980653   -0.016968758059846545   -0.0018750311700727986
0.004667443065869296   -0.017021967878665792   -0.0018819659094603766
0.005110113340881282   -0.02664486257410087   -0.002174508976951416
0.00465165529686662   -0.017027328721765954   -0.0018374317592105747
0.00028233806537980653   -0.016968758059846545   -0.0018750311700727986
0.005110113340881282   -0.02664486257410087   -0.002174508976951416
1.5973562649570724e-05   -0.026640507715446075   -0.0021691614098197634
-1.6149582935167917e-06   -0.026611904597966595   -0.002201951912730139
0.00028233806537980653   -0.016968758059846545   -0.0018750311700727986
0.005110113340881282   -0.02664486257410087   -0.002174508976951416
-1.6149582935167917e-06   -0.026611904597966595   -0.002201951912730139
0.00465165529686662   -0.017027328721765954   -0.0018374317592105747
0.00028233806537980653   -0.016968758059846545   -0.0018750311700727986
1.5973562649570724e-05   -0.026640507715446075   -0.0021691614098197634
0.004667443065869296   -0.017021967878665792   -0.0018819659094603766
0.00029391080352348477   -0.016971616997215225   -0.0018655909714383058
1.5973562649570724e-05   -0.026640507715446075   -0.0021691614098197634
0.005110113340881282   -0.02664486257410087   -0.002174508976951416
0.004667443065869296   -0.017021967878665792   -0.0018819659094603766
0.005111756196863382   -0.026615322850430542   -0.002187252787302708
0.00029391080352348477   -0.016971616997215225   -0.0018655909714383058
0.004655565448587532   -0.016982803370625084   -0.0019354618838536666
0.005111756196863382   -0.026615322850430542   -0.002187252787302708
0.004667443065869296   -0.017021967878665792   -0.0018819659094603766
0.00029391080352348477   -0.016971616997215225   -0.0018655909714383058
0.005111756196863382   -0.026615322850430542   -0.002187252787302708
2.8487241302191113e-05   -0.026649342567878806   -0.0021463693633422066
1.5973562649570724e-05   -0.026640507715446075   -0.0021691614098197634
0.00029391080352348477   -0.016971616997215225   -0.0018655909714383058
0.005111756196863382   -0.026615322850430542   -0.002187252787302708
1.5973562649570724e-05   -0.026640507715446075   -0.0021691614098197634
0.004667443065869296   -0.017021967878665792   -0.0018819659094603766
0.00029391080352348477   -0.016971616997215225   -0.0018655909714383058
2.8487241302191113e-05   -0.026649342567878806   -0.0021463693633422066
0.004655565448587532   -0.016982803370625084   -0.0019354618838536666
0.00030226173084486744   -0.01693941708455226   -0.0018664113469150792
2.8487241302191113e-05   -0.026649342567878806   -0.0021463693633422066
0.005111756196863382   -0.026615322850430542   -0.002187252787302708
0.004655565448587532   -0.016982803370625084   -0.0019354618838536666
0.005100611897854333   -0.026560133772199464   -0.0022098170811768025
0.00030226173084486744   -0.01693941708455226   -0.0018664113469150792
0.004637805452935776   -0.016901465608198992   -0.0019989813058853456
0.005100611897854333   -0.026560133772199464   -0.0022098170811768025
0.004655565448587532   -0.016982803370625084   -0.0019354618838536666
0.00030226173084486744   -0.01693941708455226   -0.0018664113469150792
0.005100611897854333   -0.026560133772199464   -0.0022098170811768025
3.6422551663732116e-05   -0.026638138102284128   -0.0021340182544816295
2.8487241302191113e-05   -0.026649342567878806   -0.0021463693633422066
0.00030226173084486744   -0.01693941708455226   -0.0018664113469150792
0.005100611897854333   -0.026560133772199464   -0.0022098170811768025
2.8487241302191113e-05   -0.026649342567878806   -0.0021463693633422066
0.004655565448587532   -0.016982803370625084   -0.0019354618838536666
0.00465165529686662   -0.017027328721765954   -0.0018374317592105747
0.0050885864224694145   -0.026656146578895024   -0.0021712254082726407
0.009648227602521266   -0.01720141231537123   -0.0018385711361796233
0.004667443065869296   -0.017021967878665792   -0.0018819659094603766
0.0050885864224694145   -0.026656146578895024   -0.0021712254082726407
0.010709423157477306   -0.026737455096845476   -0.0022001908199795494
0.009648227602521266   -0.01720141231537123   -0.0018385711361796233
0.010699557957879906   -0.02669915716434007   -0.0022423998184089274
0.004667443065869296   -0.017021967878665792   -0.0018819659094603766
0.009564245093538542   -0.017171413460124674   -0.001954946288974074
0.010699557957879906   -0.02669915716434007   -0.0022423998184089274
0.009648227602521266   -0.01720141231537123   -0.0018385711361796233
0.004667443065869296   -0.017021967878665792   -0.0018819659094603766
0.010699557957879906   -0.02669915716434007   -0.0022423998184089274
0.005110113340881282   -0.02664486257410087   -0.002174508976951416
0.0050885864224694145   -0.026656146578895024   -0.0021712254082726407
0.004667443065869296   -0.017021967878665792   -0.0018819659094603766
0.010699557957879906   -0.02669915716434007   -0.0022423998184089274
0.0050885864224694145   -0.026656146578895024   -0.0021712254082726407
0.009648227602521266   -0.01720141231537123   -0.0018385711361796233
0.004667443065869296   -0.017021967878665792   -0.0018819659094603766
0.005110113340881282   -0.02664486257410087   -0.002174508976951416
0.009564245093538542   -0.017171413460124674   -0.001954946288974074
0.004655565448587532   -0.016982803370625084   -0.0019354618838536666
0.005110113340881282   -0.02664486257410087   -0.002174508976951416
0.010699557957879906   -0.02669915716434007   -0.0022423998184089274
0.009564245093538542   -0.017171413460124674   -0.001954946288974074
0.010672779693490961   -0.02665096567250976   -0.002299957342820501
0.004655565448587532   -0.016982803370625084   -0.0019354618838536666
0.009480420009333013   -0.01711111316555558   -0.0020874818341289534
0.010672779693490961   -0.02665096567250976   -0.002299957342820501
0.009564245093538542   -0.017171413460124674   -0.001954946288974074
0.004655565448587532   -0.016982803370625084   -0.0019354618838536666
0.010672779693490961   -0.02665096567250976   -0.002299957342820501
0.005111756196863382   -0.026615322850430542   -0.002187252787302708
0.005110113340881282   -0.02664486257410087   -0.002174508976951416
0.004655565448587532   -0.016982803370625084   -0.0019354618838536666
0.010672779693490961   -0.02665096567250976   -0.002299957342820501
0.005110113340881282   -0.02664486257410087   -0.002174508976951416
0.009564245093538542   -0.017171413460124674   -0.001954946288974074
0.004655565448587532   -0.016982803370625084   -0.0019354618838536666
0.005111756196863382   -0.026615322850430542   -0.002187252787302708
0.009480420009333013   -0.01711111316555558   -0.0020874818341289534
0.004637805452935776   -0.016901465608198992   -0.0019989813058853456
0.005111756196863382   -0.026615322850430542   -0.002187252787302708
0.010672779693490961   -0.02665096567250976   -0.002299957342820501
0.009480420009333013   -0.01711111316555558   -0.0020874818341289534
0.0105996979631051   -0.026559105805172387   -0.0023727521009926627
0.004637805452935776   -0.016901465608198992   -0.0019989813058853456
0.009331529584662223   -0.016984622126329823   -0.00223619495323077
0.0105996979631051   -0.026559105805172387   -0.0023727521009926627
0.009480420009333013   -0.01711111316555558   -0.0020874818341289534
0.004637805452935776   -0.016901465608198992   -0.0019989813058853456
0.0105996979631051   -0.026559105805172387   -0.0023727521009926627
0.005100611897854333   -0.026560133772199464   -0.0022098170811768025
0.005111756196863382   -0.026615322850430542   -0.002187252787302708
0.004637805452935776   -0.016901465608198992   -0.0019989813058853456
0.0105996979631051   -0.026559105805172387   -0.0023727521009926627
0.005111756196863382   -0.026615322850430542   -0.002187252787302708
0.009480420009333013   -0.01711111316555558   -0.0020874818341289534
-0.015376627351139103   -0.02684679231995791   -0.0027585381786663066
-0.016890272889173847   -0.03725800321886747   -0.0028091109318665484
-0.009980932043348874   -0.026700524120804404   -0.002492952636837571
-0.015530942693091736   -0.026999768139395607   -0.0026091328679052365
-0.016890272889173847   -0.03725800321886747   -0.0028091109318665484
-0.011098513786323105   -0.037198402467051445   -0.002597579160122712
-0.009980932043348874   -0.026700524120804404   -0.002492952636837571
-0.011094099819809937   -0.03729484448131366   -0.0025342990200542415
-0.015530942693091736   -0.026999768139395607   -0.0026091328679052365
-0.009992958854960356   -0.026813599548992807   -0.00238977583055075
-0.011094099819809937   -0.03729484448131366   -0.0025342990200542415
-0.009980932043348874   -0.026700524120804404   -0.002492952636837571
-0.015530942693091736   -0.026999768139395607   -0.0026091328679052365
-0.011094099819809937   -0.03729484448131366   -0.0025342990200542415
-0.01696234878455155   -0.03738764782333186   -0.0027320762695822298
-0.016890272889173847   -0.03725800321886747   -0.0028091109318665484
-0.015530942693091736   -0.026999768139395607   -0.0026091328679052365
-0.011094099819809937   -0.03729484448131366   -0.0025342990200542415
-0.016890272889173847   -0.03725800321886747   -0.0028091109318665484
-0.009980932043348874   -0.026700524120804404   -0.002492952636837571
-0.015530942693091736   -0.026999768139395607   -0.0026091328679052365
-0.01696234878455155   -0.03738764782333186   -0.0027320762695822298
-0.009992958854960356   -0.026813599548992807   -0.00238977583055075
-0.015619497498267645   -0.027108003933724416   -0.0024740634930962746
-0.01696234878455155   -0.03738764782333186   -0.0027320762695822298
-0.011094099819809937   -0.03729484448131366   -0.0025342990200542415
-0.009992958854960356   -0.026813599548992807   -0.00238977583055075
-0.01107922309060993   -0.03738381845840827   -0.002481526471297857
-0.015619497498267645   -0.027108003933724416   -0.0024740634930962746
-0.010001545926583618   -0.026903246457793434   -0.0022968803594679444
-0.01107922309060993   -0.03738381845840827   -0.002481526471297857
-0.009992958854960356   -0.026813599548992807   -0.00238977583055075
-0.015619497498267645   -0.027108003933724416   -0.0024740634930962746
-0.01107922309060993   -0.03738381845840827   -0.002481526471297857
-0.016985301183960067   -0.03749339659335466   -0.0026701653020305177
-0.01696234878455155   -0.03738764782333186   -0.0027320762695822298
-0.015619497498267645   -0.027108003933724416   -0.0024740634930962746
-0.01107922309060993   -0.03738381845840827   -0.002481526471297857
-0.01696234878455155   -0.03738764782333186   -0.0027320762695822298
-0.009992958854960356   -0.026813599548992807   -0.00238977583055075
-0.015619497498267645   -0.027108003933724416   -0.0024740634930962746
-0.016985301183960067   -0.03749339659335466   -0.0026701653020305177
-0.010001545926583618   -0.026903246457793434   -0.0022968803594679444
-0.01571071480179149   -0.027205029441244873   -0.0023550340350625355
-0.016985301183960067   -0.03749339659335466   -0.0026701653020305177
-0.01107922309060993   -0.03738381845840827   -0.002481526471297857
-0.010001545926583618   -0.026903246457793434   -0.0022968803594679444
-0.011042563171654371   -0.037472107105504894   -0.002438524695171562
-0.01571071480179149   -0.027205029441244873   -0.0023550340350625355
-0.009980874218706847   -0.02697689942825521   -0.0022128996023324373
-0.011042563171654371   -0.037472107105504894   -0.002438524695171562
-0.010001545926583618   -0.026903246457793434   -0.0022968803594679444
-0.01571071480179149   -0.027205029441244873   -0.0023550340350625355
-0.011042563171654371   -0.037472107105504894   -0.002438524695171562
-0.016992982520482914   -0.03760825687011745   -0.0026246775987155157
-0.016985301183960067   -0.03749339659335466   -0.0026701653020305177
-0.01571071480179149   -0.027205029441244873   -0.0023550340350625355
-0.011042563171654371   -0.037472107105504894   -0.002438524695171562
-0.016985301183960067   -0.03749339659335466   -0.0026701653020305177
-0.010001545926583618   -0.026903246457793434   -0.0022968803594679444
-0.009980932043348874   -0.026700524120804404   -0.002492952636837571
-0.011098513786323105   -0.037198402467051445   -0.002597579160122712
-0.004922594514347307   -0.02662491464444044   -0.0023090501693544814
-0.009992958854960356   -0.026813599548992807   -0.00238977583055075
-0.011098513786323105   -0.037198402467051445   -0.002597579160122712
-0.005718375417974888   -0.03716418910826283   -0.0024535707147665875
-0.004922594514347307   -0.02662491464444044   -0.0023090501693544814
-0.005698277544826734   -0.03722255963987592   -0.00239839570736275
-0.009992958854960356   -0.026813599548992807   -0.00238977583055075
-0.004913263564541547   -0.026695867289865213   -0.002240930330648754
-0.005698277544826734   -0.03722255963987592   -0.00239839570736275
-0.004922594514347307   -0.02662491464444044   -0.0023090501693544814
-0.009992958854960356   -0.026813599548992807   -0.00238977583055075
-0.005698277544826734   -0.03722255963987592   -0.00239839570736275
-0.011094099819809937   -0.03729484448131366   -0.0025342990200542415
-0.011098513786323105   -0.037198402467051445   -0.002597579160122712
-0.009992958854960356   -0.026813599548992807   -0.00238977583055075
-0.005698277544826734   -0.03722255963987592   -0.00239839570736275
-0.011098513786323105   -0.037198402467051445   -0.002597579160122712
-0.004922594514347307   -0.02662491464444044   -0.0023090501693544814
-0.009992958854960356   -0.026813599548992807   -0.00238977583055075
-0.011094099819809937   -0.03729484448131366   -0.0025342990200542415
-0.004913263564541547   -0.026695867289865213   -0.002240930330648754
-0.010001545926583618   -0.026903246457793434   -0.0022968803594679444
-0.011094099819809937   -0.03729484448131366   -0.0025342990200542415
-0.005698277544826734   -0.03722255963987592   -0.00239839570736275
-0.004913263564541547   -0.026695867289865213   -0.002240930330648754
-0.005673632610157319   -0.03727613381395792   -0.0023537367308247717
-0.010001545926583618   -0.026903246457793434   -0.0022968803594679444
-0.004900509426653871   -0.026747187027234203   -0.002182937330158581
-0.005673632610157319   -0.03727613381395792   -0.0023537367308247717
-0.004913263564541547   -0.026695867289865213   -0.002240930330648754
-0.010001545926583618   -0.026903246457793434   -0.0022968803594679444
-0.005673632610157319   -0.03727613381395792   -0.0023537367308247717
-0.01107922309060993   -0.03738381845840827   -0.002481526471297857
-0.011094099819809937   -0.03729484448131366   -0.0025342990200542415
-0.010001545926583618   -0.026903246457793434   -0.0022968803594679444
-0.005673632610157319   -0.03727613381395792   -0.0023537367308247717
-0.011094099819809937   -0.03729484448131366   -0.0025342990200542415
-0.004913263564541547   -0.026695867289865213   -0.002240930330648754
-0.010001545926583618   -0.026903246457793434   -0.0022968803594679444
-0.01107922309060993   -0.03738381845840827   -0.002481526471297857
-0.004900509426653871   -0.026747187027234203   -0.002182937330158581
-0.009980874218706847   -0.02697689942825521   -0.0022128996023324373
-0.01107922309060993   -0.03738381845840827   -0.002481526471297857
-0.005673632610157319   -0.03727613381395792   -0.0023537367308247717
-0.004900509426653871   -0.026747187027234203   -0.002182937330158581
-0.0056440204191121135   -0.03732508787601088   -0.002319846790783304
-0.009980874218706847   -0.02697689942825521   -0.0022128996023324373
-0.004881472741784385   -0.02677921025357714   -0.0021352389554393208
-0.0056440204191121135   -0.03732508787601088   -0.002319846790783304
-0.004900509426653871   -0.026747187027234203   -0.002182937330158581
-0.009980874218706847   -0.02697689942825521   -0.0022128996023324373
-0.0056440204191121135   -0.03732508787601088   -0.002319846790783304
-0.011042563171654371   -0.037472107105504894   -0.002438524695171562
-0.01107922309060993   -0.03738381845840827   -0.002481526471297857
-0.009980874218706847   -0.02697689942825521   -0.0022128996023324373
-0.0056440204191121135   -0.03732508787601088   -0.002319846790783304
-0.01107922309060993   -0.03738381845840827   -0.002481526471297857
-0.004900509426653871   -0.026747187027234203   -0.002182937330158581
-0.004922594514347307   -0.02662491464444044   -0.0023090501693544814
-0.005718375417974888   -0.03716418910826283   -0.0024535707147665875
-1.6149582935167917e-06   -0.026611904597966595   -0.002201951912730139
-0.004913263564541547   -0.026695867289865213   -0.002240930330648754
-0.005718375417974888   -0.03716418910826283   -0.0024535707147665875
-0.0004838213699605546   -0.03714458367193683   -0.0023790937611163727
-1.6149582935167917e-06   -0.026611904597966595   -0.002201951912730139
-0.0004557392339013498   -0.03716417848524425   -0.0023325757209021617
-0.004913263564541547   -0.026695867289865213   -0.002240930330648754
1.5973562649570724e-05   -0.026640507715446075   -0.0021691614098197634
-0.0004557392339013498   -0.03716417848524425   -0.0023325757209021617
-1.6149582935167917e-06   -0.026611904597966595   -0.002201951912730139
-0.004913263564541547   -0.026695867289865213   -0.002240930330648754
-0.0004557392339013498   -0.03716417848524425   -0.0023325757209021617
-0.005698277544826734   -0.03722255963987592   -0.00239839570736275
-0.005718375417974888   -0.03716418910826283   -0.0024535707147665875
-0.004913263564541547   -0.026695867289865213   -0.002240930330648754
-0.0004557392339013498   -0.03716417848524425   -0.0023325757209021617
-0.005718375417974888   -0.03716418910826283   -0.0024535707147665875
-1.6149582935167917e-06   -0.026611904597966595   -0.002201951912730139
-0.004913263564541547   -0.026695867289865213   -0.002240930330648754
-0.005698277544826734   -0.03722255963987592   -0.00239839570736275
1.5973562649570724e-05   -0.026640507715446075   -0.0021691614098197634
-0.004900509426653871   -0.026747187027234203   -0.002182937330158581
-0.005698277544826734   -0.03722255963987592   -0.00239839570736275
-0.0004557392339013498   -0.03716417848524425   -0.0023325757209021617
1.5973562649570724e-05   -0.026640507715446075   -0.0021691614098197634
-0.00043141998496119686   -0.037178637211899845   -0.0022964831700696166
-0.004900509426653871   -0.026747187027234203   -0.002182937330158581
2.8487241302191113e-05   -0.026649342567878806   -0.0021463693633422066
-0.00043141998496119686   -0.037178637211899845   -0.0022964831700696166
1.5973562649570724e-05   -0.026640507715446075   -0.0021691614098197634
-0.004900509426653871   -0.026747187027234203   -0.002182937330158581
-0.00043141998496119686   -0.037178637211899845   -0.0022964831700696166
-0.005673632610157319   -0.03727613381395792   -0.0023537367308247717
-0.005698277544826734   -0.03722255963987592   -0.00239839570736275
-0.004900509426653871   -0.026747187027234203   -0.002182937330158581
-0.00043141998496119686   -0.037178637211899845   -0.0022964831700696166
-0.005698277544826734   -0.03722255963987592   -0.00239839570736275
1.5973562649570724e-05   -0.026640507715446075   -0.0021691614098197634
-0.004900509426653871   -0.026747187027234203   -0.002182937330158581
-0.005673632610157319   -0.03727613381395792   -0.0023537367308247717
2.8487241302191113e-05   -0.026649342567878806   -0.0021463693633422066
-0.004881472741784385   -0.02677921025357714   -0.0021352389554393208
-0.005673632610157319   -0.03727613381395792   -0.0023537367308247717
-0.00043141998496119686   -0.037178637211899845   -0.0022964831700696166
2.8487241302191113e-05   -0.026649342567878806   -0.0021463693633422066
-0.00041287811592028676   -0.037187885553761846   -0.0022711960996535537
-0.004881472741784385   -0.02677921025357714   -0.0021352389554393208
3.6422551663732116e-05   -0.026638138102284128   -0.0021340182544816295
-0.00041287811592028676   -0.037187885553761846   -0.0022711960996535537
2.8487241302191113e-05   -0.026649342567878806   -0.0021463693633422066
-0.004881472741784385   -0.02677921025357714   -0.0021352389554393208
-0.00041287811592028676   -0.037187885553761846   -0.0022711960996535537
-0.0056440204191121135   -0.03732508787601088   -0.002319846790783304
-0.005673632610157319   -0.03727613381395792   -0.0023537367308247717
-0.004881472741784385   -0.02677921025357714   -0.0021352389554393208
-0.00041287811592028676   -0.037187885553761846   -0.0022711960996535537
-0.005673632610157319   -0.03727613381395792   -0.0023537367308247717
2.8487241302191113e-05   -0.026649342567878806   -0.0021463693633422066
-1.6149582935167917e-06   -0.026611904597966595   -0.002201951912730139
-0.0004838213699605546   -0.03714458367193683   -0.0023790937611163727
0.0050885864224694145   -0.026656146578895024   -0.0021712254082726407
1.5973562649570724e-05   -0.026640507715446075   -0.0021691614098197634
-0.0004838213699605546   -0.03714458367193683   -0.0023790937611163727
0.0049104936786456745   -0.037136208474478925   -0.0023748039150819147
0.0050885864224694145   -0.026656146578895024   -0.0021712254082726407
0.004947698318040826   -0.037118243272958394   -0.0023373768716415497
1.5973562649570724e-05   -0.026640507715446075   -0.0021691614098197634
0.005110113340881282   -0.02664486257410087   -0.002174508976951416
0.004947698318040826   -0.037118243272958394   -0.0023373768716415497
0.0050885864224694145   -0.026656146578895024   -0.0021712254082726407
1.5973562649570724e-05   -0.026640507715446075   -0.0021691614098197634
0.004947698318040826   -0.037118243272958394   -0.0023373768716415497
-0.0004557392339013498   -0.03716417848524425   -0.0023325757209021617
-0.0004838213699605546   -0.03714458367193683   -0.0023790937611163727
1.5973562649570724e-05   -0.026640507715446075   -0.0021691614098197634
0.004947698318040826   -0.037118243272958394   -0.0023373768716415497
-0.0004838213699605546   -0.03714458367193683   -0.0023790937611163727
0.0050885864224694145   -0.026656146578895024   -0.0021712254082726407
1.5973562649570724e-05   -0.026640507715446075   -0.0021691614098197634
-0.0004557392339013498   -0.03716417848524425   -0.0023325757209021617
0.005110113340881282   -0.02664486257410087   -0.002174508976951416
2.8487241302191113e-05   -0.026649342567878806   -0.0021463693633422066
-0.0004557392339013498   -0.03716417848524425   -0.0023325757209021617
0.004947698318040826   -0.037118243272958394   -0.0023373768716415497
0.005110113340881282   -0.02664486257410087   -0.002174508976951416
0.004972616219033255   -0.03709730667047732   -0.002310076388479238
2.8487241302191113e-05   -0.026649342567878806   -0.0021463693633422066
0.005111756196863382   -0.026615322850430542   -0.002187252787302708
0.004972616219033255   -0.03709730667047732   -0.002310076388479238
0.005110113340881282   -0.02664486257410087   -0.002174508976951416
2.8487241302191113e-05   -0.026649342567878806   -0.0021463693633422066
0.004972616219033255   -0.03709730667047732   -0.002310076388479238
-0.00043141998496119686   -0.037178637211899845   -0.0022964831700696166
-0.0004557392339013498   -0.03716417848524425   -0.0023325757209021617
2.8487241302191113e-05   -0.026649342567878806   -0.0021463693633422066
0.004972616219033255   -0.03709730667047732   -0.002310076388479238
-0.0004557392339013498   -0.03716417848524425   -0.0023325757209021617
0.005110113340881282   -0.02664486257410087   -0.002174508976951416
2.8487241302191113e-05   -0.026649342567878806   -0.0021463693633422066
-0.00043141998496119686   -0.037178637211899845   -0.0022964831700696166
0.005111756196863382   -0.026615322850430542   -0.002187252787302708
3.6422551663732116e-05   -0.026638138102284128   -0.0021340182544816295
-0.00043141998496119686   -0.037178637211899845   -0.0022964831700696166
0.004972616219033255   -0.03709730667047732   -0.002310076388479238
0.005111756196863382   -0.026615322850430542   -0.002187252787302708
0.004977722842461373   -0.037066531472833605   -0.0022926948864468314
3.6422551663732116e-05   -0.026638138102284128   -0.0021340182544816295
0.005100611897854333   -0.026560133772199464   -0.0022098170811768025
0.004977722842461373   -0.037066531472833605   -0.0022926948864468314
0.005111756196863382   -0.026615322850430542   -0.002187252787302708
3.6422551663732116e-05   -0.026638138102284128   -0.0021340182544816295
0.004977722842461373   -0.037066531472833605   -0.0022926948864468314
-0.00041287811592028676   -0.037187885553761846   -0.0022711960996535537
-0.00043141998496119686   -0.037178637211899845   -0.0022964831700696166
3.6422551663732116e-05   -0.026638138102284128   -0.0021340182544816295
0.004977722842461373   -0.037066531472833605   -0.0022926948864468314
-0.00043141998496119686   -0.037178637211899845   -0.0022964831700696166
0.005111756196863382   -0.026615322850430542   -0.002187252787302708
0.0050885864224694145   -0.026656146578895024   -0.0021712254082726407
0.0049104936786456745   -0.037136208474478925   -0.0023748039150819147
0.010709423157477306   -0.026737455096845476   -0.0022001908199795494
0.005110113340881282   -0.02664486257410087   -0.002174508976951416
0.0049104936786456745   -0.037136208474478925   -0.0023748039150819147
0.010756299198505128   -0.03712460032724588   -0.0024336678228443704
0.010709423157477306   -0.026737455096845476   -0.0022001908199795494
0.010829145289869375   -0.03707694897075354   -0.002402986218106369
0.005110113340881282   -0.02664486257410087   -0.002174508976951416
0.010699557957879906   -0.02669915716434007   -0.0022423998184089274
0.010829145289869375   -0.03707694897075354   -0.002402986218106369
0.010709423157477306   -0.026737455096845476   -0.0022001908199795494
0.005110113340881282   -0.02664486257410087   -0.002174508976951416
0.010829145289869375   -0.03707694897075354   -0.002402986218106369
0.004947698318040826   -0.037118243272958394   -0.0023373768716415497
0.0049104936786456745   -0.037136208474478925   -0.0023748039150819147
0.005110113340881282   -0.02664486257410087   -0.002174508976951416
0.010829145289869375   -0.03707694897075354   -0.002402986218106369
0.0049104936786456745   -0.037136208474478925   -0.0023748039150819147
0.010709423157477306   -0.026737455096845476   -0.0022001908199795494
0.005110113340881282   -0.02664486257410087   -0.002174508976951416
0.004947698318040826   -0.037118243272958394   -0.0023373768716415497
0.010699557957879906   -0.02669915716434007   -0.0022423998184089274
0.005111756196863382   -0.026615322850430542   -0.002187252787302708
0.004947698318040826   -0.037118243272958394   -0.0023373768716415497
0.010829145289869375   -0.03707694897075354   -0.002402986218106369
0.010699557957879906   -0.02669915716434007   -0.0022423998184089274
0.010867675295551434   -0.03703931630898575   -0.002387691600491237
0.005111756196863382   -0.026615322850430542   -0.002187252787302708
0.010672779693490961   -0.02665096567250976   -0.002299957342820501
0.010867675295551434   -0.03703931630898575   -0.002387691600491237
0.010699557957879906   -0.02669915716434007   -0.0022423998184089274
0.005111756196863382   -0.026615322850430542   -0.002187252787302708
0.010867675295551434   -0.03703931630898575   -0.002387691600491237
0.004972616219033255   -0.03709730667047732   -0.002310076388479238
0.004947698318040826   -0.037118243272958394   -0.0023373768716415497
0.005111756196863382   -0.026615322850430542   -0.002187252787302708
0.010867675295551434   -0.03703931630898575   -0.002387691600491237
0.004947698318040826   -0.037118243272958394   -0.0023373768716415497
0.010699557957879906   -0.02669915716434007   -0.0022423998184089274
0.005111756196863382   -0.026615322850430542   -0.002187252787302708
0.004972616219033255   -0.03709730667047732   -0.002310076388479238
0.010672779693490961   -0.02665096567250976   -0.002299957342820501
0.005100611897854333   -0.026560133772199464   -0.0022098170811768025
0.004972616219033255   -0.03709730667047732   -0.002310076388479238
0.010867675295551434   -0.03703931630898575   -0.002387691600491237
0.010672779693490961   -0.02665096567250976   -0.002299957342820501
0.010876997462054545   -0.03697892984972098   -0.0023880461711989387
0.005100611897854333   -0.026560133772199464   -0.0022098170811768025
0.0105996979631051   -0.026559105805172387   -0.0023727521009926627
0.010876997462054545   -0.03697892984972098   -0.0023880461711989387
0.010672779693490961   -0.02665096567250976   -0.002299957342820501
0.005100611897854333   -0.026560133772199464   -0.0022098170811768025
0.010876997462054545   -0.03697892984972098   -0.0023880461711989387
0.004977722842461373   -0.037066531472833605   -0.0022926948864468314
0.004972616219033255   -0.03709730667047732   -0.002310076388479238
0.005100611897854333   -0.026560133772199464   -0.0022098170811768025
0.010876997462054545   -0.03697892984972098   -0.0023880461711989387
0.004972616219033255   -0.03709730667047732   -0.002310076388479238
0.010672779693490961   -0.02665096567250976   -0.002299957342820501
-0.016890272889173847   -0.03725800321886747   -0.0028091109318665484
-0.01741775211194251   -0.04785648682444029   -0.002761722405904288
-0.011098513786323105   -0.037198402467051445   -0.002597579160122712
-0.01696234878455155   -0.03738764782333186   -0.0027320762695822298
-0.01741775211194251   -0.04785648682444029   -0.002761722405904288
-0.011632933485496716   -0.04788419310033899   -0.0026053294238836504
-0.011098513786323105   -0.037198402467051445   -0.002597579160122712
-0.011601742615626177   -0.04796367050452391   -0.0025813335691074937
-0.01696234878455155   -0.03738764782333186   -0.0027320762695822298
-0.011094099819809937   -0.03729484448131366   -0.0025342990200542415
-0.011601742615626177   -0.04796367050452391   -0.0025813335691074937
-0.011098513786323105   -0.037198402467051445   -0.002597579160122712
-0.01696234878455155   -0.03738764782333186   -0.0027320762695822298
-0.011601742615626177   -0.04796367050452391   -0.0025813335691074937
-0.01739770549857374   -0.047962825586074724   -0.00275674521145133
-0.01741775211194251   -0.04785648682444029   -0.002761722405904288
-0.01696234878455155   -0.03738764782333186   -0.0027320762695822298
-0.011601742615626177   -0.04796367050452391   -0.0025813335691074937
-0.01741775211194251   -0.04785648682444029   -0.002761722405904288
-0.011098513786323105   -0.037198402467051445   -0.002597579160122712
-0.01696234878455155   -0.03738764782333186   -0.0027320762695822298
-0.01739770549857374   -0.047962825586074724   -0.00275674521145133
-0.011094099819809937   -0.03729484448131366   -0.0025342990200542415
-0.016985301183960067   -0.03749339659335466   -0.0026701653020305177
-0.01739770549857374   -0.047962825586074724   -0.00275674521145133
-0.011601742615626177   -0.04796367050452391   -0.0025813335691074937
-0.011094099819809937   -0.03729484448131366   -0.0025342990200542415
-0.011553090153843811   -0.04805173533554015   -0.002568167042141214
-0.016985301183960067   -0.03749339659335466   -0.0026701653020305177
-0.01107922309060993   -0.03738381845840827   -0.002481526471297857
-0.011553090153843811   -0.04805173533554015   -0.002568167042141214
-0.011094099819809937   -0.03729484448131366   -0.0025342990200542415
-0.016985301183960067   -0.03749339659335466   -0.0026701653020305177
-0.011553090153843811   -0.04805173533554015   -0.002568167042141214
-0.017344472391575782   -0.048066084569110115   -0.002767951045538791
-0.01739770549857374   -0.047962825586074724   -0.00275674521145133
-0.016985301183960067   -0.03749339659335466   -0.0026701653020305177
-0.011553090153843811   -0.04805173533554015   -0.002568167042141214
-0.01739770549857374   -0.047962825586074724   -0.00275674521145133
-0.011094099819809937   -0.03729484448131366   -0.0025342990200542415
-0.016985301183960067   -0.03749339659335466   -0.0026701653020305177
-0.017344472391575782   -0.048066084569110115   -0.002767951045538791
-0.01107922309060993   -0.03738381845840827   -0.002481526471297857
-0.016992982520482914   -0.03760825687011745   -0.0026246775987155157
-0.017344472391575782   -0.048066084569110115   -0.002767951045538791
-0.011553090153843811   -0.04805173533554015   -0.002568167042141214
-0.01107922309060993   -0.03738381845840827   -0.002481526471297857
-0.011490082271613546   -0.048154451825095014   -0.0025656537138215355
-0.016992982520482914   -0.03760825687011745   -0.0026246775987155157
-0.011042563171654371   -0.037472107105504894   -0.002438524695171562
-0.011490082271613546   -0.048154451825095014   -0.0025656537138215355
-0.01107922309060993   -0.03738381845840827   -0.002481526471297857
-0.016992982520482914   -0.03760825687011745   -0.0026246775987155157
-0.011490082271613546   -0.048154451825095014   -0.0025656537138215355
-0.017258089103048463   -0.048199105130487946   -0.0027961586994149305
-0.017344472391575782   -0.048066084569110115   -0.002767951045538791
-0.016992982520482914   -0.03760825687011745   -0.0026246775987155157
-0.011490082271613546   -0.048154451825095014   -0.0025656537138215355
-0.017344472391575782   -0.048066084569110115   -0.002767951045538791
-0.01107922309060993   -0.03738381845840827   -0.002481526471297857
-0.011098513786323105   -0.037198402467051445   -0.002597579160122712
-0.011632933485496716   -0.04788419310033899   -0.0026053294238836504
-0.005718375417974888   -0.03716418910826283   -0.0024535707147665875
-0.011094099819809937   -0.03729484448131366   -0.0025342990200542415
-0.011632933485496716   -0.04788419310033899   -0.0026053294238836504
-0.006334020018345996   -0.04789019810967688   -0.0025013819554444115
-0.005718375417974888   -0.03716418910826283   -0.0024535707147665875
-0.006292284255657857   -0.04793578392201728   -0.0024587727383041866
-0.011094099819809937   -0.03729484448131366   -0.0025342990200542415
-0.005698277544826734   -0.03722255963987592   -0.00239839570736275
-0.006292284255657857   -0.04793578392201728   -0.0024587727383041866
-0.005718375417974888   -0.03716418910826283   -0.0024535707147665875
-0.011094099819809937   -0.03729484448131366   -0.0025342990200542415
-0.006292284255657857   -0.04793578392201728   -0.0024587727383041866
-0.011601742615626177   -0.04796367050452391   -0.0025813335691074937
-0.011632933485496716   -0.04788419310033899   -0.0026053294238836504
-0.011094099819809937   -0.03729484448131366   -0.0025342990200542415
-0.006292284255657857   -0.04793578392201728   -0.0024587727383041866
-0.011632933485496716   -0.04788419310033899   -0.0026053294238836504
-0.005718375417974888   -0.03716418910826283   -0.0024535707147665875
-0.011094099819809937   -0.03729484448131366   -0.0025342990200542415
-0.011601742615626177   -0.04796367050452391   -0.0025813335691074937
-0.005698277544826734   -0.03722255963987592   -0.00239839570736275
-0.01107922309060993   -0.03738381845840827   -0.002481526471297857
-0.011601742615626177   -0.04796367050452391   -0.0025813335691074937
-0.006292284255657857   -0.04793578392201728   -0.0024587727383041866
-0.005698277544826734   -0.03722255963987592   -0.00239839570736275
-0.006245135173787822   -0.04799121935296695   -0.0024270336077877696
-0.01107922309060993   -0.03738381845840827   -0.002481526471297857
-0.005673632610157319   -0.03727613381395792   -0.0023537367308247717
-0.006245135173787822   -0.04799121935296695   -0.0024270336077877696
-0.005698277544826734   -0.03722255963987592   -0.00239839570736275
-0.01107922309060993   -0.03738381845840827   -0.002481526471297857
-0.006245135173787822   -0.04799121935296695   -0.0024270336077877696
-0.011553090153843811   -0.04805173533554015   -0.002568167042141214
-0.011601742615626177   -0.04796367050452391   -0.0025813335691074937
-0.01107922309060993   -0.03738381845840827   -0.002481526471297857
-0.006245135173787822   -0.04799121935296695   -0.0024270336077877696
-0.011601742615626177   -0.04796367050452391   -0.0025813335691074937
-0.005698277544826734   -0.03722255963987592   -0.00239839570736275
-0.01107922309060993   -0.03738381845840827   -0.002481526471297857
-0.011553090153843811   -0.04805173533554015   -0.002568167042141214
-0.005673632610157319   -0.03727613381395792   -0.0023537367308247717
-0.011042563171654371   -0.037472107105504894   -0.002438524695171562
-0.011553090153843811   -0.04805173533554015   -0.002568167042141214
-0.006245135173787822   -0.04799121935296695   -0.0024270336077877696
-0.005673632610157319   -0.03727613381395792   -0.0023537367308247717
-0.006194327207931984   -0.04805667724317418   -0.0024065173783713607
-0.011042563171654371   -0.037472107105504894   -0.002438524695171562
-0.0056440204191121135   -0.03732508787601088   -0.002319846790783304
-0.006194327207931984   -0.04805667724317418   -0.0024065173783713607
-0.005673632610157319   -0.03727613381395792   -0.0023537367308247717
-0.011042563171654371   -0.037472107105504894   -0.002438524695171562
-0.006194327207931984   -0.04805667724317418   -0.0024065173783713607
-0.011490082271613546   -0.048154451825095014   -0.0025656537138215355
-0.011553090153843811   -0.04805173533554015   -0.002568167042141214
-0.011042563171654371   -0.037472107105504894   -0.002438524695171562
-0.006194327207931984   -0.04805667724317418   -0.0024065173783713607
-0.011553090153843811   -0.04805173533554015   -0.002568167042141214
-0.005673632610157319   -0.03727613381395792   -0.0023537367308247717
-0.005718375417974888   -0.03716418910826283   -0.0024535707147665875
-0.006334020018345996   -0.04789019810967688   -0.0025013819554444115
-0.0004838213699605546   -0.03714458367193683   -0.0023790937611163727
-0.005698277544826734   -0.03722255963987592   -0.00239839570736275
-0.006334020018345996   -0.04789019810967688   -0.0025013819554444115
-0.0011850119344178987   -0.04786209678026304   -0.002458902301900144
-0.0004838213699605546   -0.03714458367193683   -0.0023790937611163727
-0.0011356642973156367   -0.04787265365547125   -0.002398606258110232
-0.005698277544826734   -0.03722255963987592   -0.00239839570736275
-0.0004557392339013498   -0.03716417848524425   -0.0023325757209021617
-0.0011356642973156367   -0.04787265365547125   -0.002398606258110232
-0.0004838213699605546   -0.03714458367193683   -0.0023790937611163727
-0.005698277544826734   -0.03722255963987592   -0.00239839570736275
-0.0011356642973156367   -0.04787265365547125   -0.002398606258110232
-0.006292284255657857   -0.04793578392201728   -0.0024587727383041866
-0.006334020018345996   -0.04789019810967688   -0.0025013819554444115
-0.005698277544826734   -0.03722255963987592   -0.00239839570736275
-0.0011356642973156367   -0.04787265365547125   -0.002398606258110232
-0.006334020018345996   -0.04789019810967688   -0.0025013819554444115
-0.0004838213699605546   -0.03714458367193683   -0.0023790937611163727
-0.005698277544826734   -0.03722255963987592   -0.00239839570736275
-0.006292284255657857   -0.04793578392201728   -0.0024587727383041866
-0.0004557392339013498   -0.03716417848524425   -0.0023325757209021617
-0.005673632610157319   -0.03727613381395792   -0.0023537367308247717
-0.006292284255657857   -0.04793578392201728   -0.0024587727383041866
-0.0011356642973156367   -0.04787265365547125   -0.002398606258110232
-0.0004557392339013498   -0.03716417848524425   -0.0023325757209021617
-0.0010889793661918441   -0.04789228997152483   -0.0023491037185895632
-0.005673632610157319   -0.03727613381395792   -0.0023537367308247717
-0.00043141998496119686   -0.037178637211899845   -0.0022964831700696166
-0.0010889793661918441   -0.04789228997152483   -0.0023491037185895632
-0.0004557392339013498   -0.03716417848524425   -0.0023325757209021617
-0.005673632610157319   -0.03727613381395792   -0.0023537367308247717
-0.0010889793661918441   -0.04789228997152483   -0.0023491037185895632
-0.006245135173787822   -0.04799121935296695   -0.0024270336077877696
-0.006292284255657857   -0.04793578392201728   -0.0024587727383041866
-0.005673632610157319   -0.03727613381395792   -0.0023537367308247717
-0.0010889793661918441   -0.04789228997152483   -0.0023491037185895632
-0.006292284255657857   -0.04793578392201728   -0.0024587727383041866
-0.0004557392339013498   -0.03716417848524425   -0.0023325757209021617
-0.005673632610157319   -0.03727613381395792   -0.0023537367308247717
-0.006245135173787822   -0.04799121935296695   -0.0024270336077877696
-0.00043141998496119686   -0.037178637211899845   -0.0022964831700696166
-0.0056440204191121135   -0.03732508787601088   -0.002319846790783304
-0.006245135173787822   -0.04799121935296695   -0.0024270336077877696
-0.0010889793661918441   -0.04789228997152483   -0.0023491037185895632
-0.00043141998496119686   -0.037178637211899845   -0.0022964831700696166
-0.0010493434106092258   -0.04792145336772659   -0.0023107714917163856
-0.0056440204191121135   -0.03732508787601088   -0.002319846790783304
-0.00041287811592028676   -0.037187885553761846   -0.0022711960996535537
-0.0010493434106092258   -0.04792145336772659   -0.0023107714917163856
-0.00043141998496119686   -0.037178637211899845   -0.0022964831700696166
-0.0056440204191121135   -0.03732508787601088   -0.002319846790783304
-0.0010493434106092258   -0.04792145336772659   -0.0023107714917163856
-0.006194327207931984   -0.04805667724317418   -0.0024065173783713607
-0.006245135173787822   -0.04799121935296695   -0.0024270336077877696
-0.0056440204191121135   -0.03732508787601088   -0.002319846790783304
-0.0010493434106092258   -0.04792145336772659   -0.0023107714917163856
-0.006245135173787822   -0.04799121935296695   -0.0024270336077877696
-0.00043141998496119686   -0.037178637211899845   -0.0022964831700696166
-0.0004838213699605546   -0.03714458367193683   -0.0023790937611163727
-0.0011850119344178987   -0.04786209678026304   -0.002458902301900144
0.0049104936786456745   -0.037136208474478925   -0.0023748039150819147
-0.0004557392339013498   -0.03716417848524425   -0.0023325757209021617
-0.0011850119344178987   -0.04786209678026304   -0.002458902301900144
0.004118981635602588   -0.04779963637787016   -0.002479921908253972
0.0049104936786456745   -0.037136208474478925   -0.0023748039150819147
0.004181915580434029   -0.04777504649799964   -0.0024022514615112058
-0.0004557392339013498   -0.03716417848524425   -0.0023325757209021617
0.004947698318040826   -0.037118243272958394   -0.0023373768716415497
0.004181915580434029   -0.04777504649799964   -0.0024022514615112058
0.0049104936786456745   -0.037136208474478925   -0.0023748039150819147
-0.0004557392339013498   -0.03716417848524425   -0.0023325757209021617
0.004181915580434029   -0.04777504649799964   -0.0024022514615112058
-0.0011356642973156367   -0.04787265365547125   -0.002398606258110232
-0.0011850119344178987   -0.04786209678026304   -0.002458902301900144
-0.0004557392339013498   -0.03716417848524425   -0.0023325757209021617
0.004181915580434029   -0.04777504649799964   -0.0024022514615112058
-0.0011850119344178987   -0.04786209678026304   -0.002458902301900144
0.0049104936786456745   -0.037136208474478925   -0.0023748039150819147
-0.0004557392339013498   -0.03716417848524425   -0.0023325757209021617
-0.0011356642973156367   -0.04787265365547125   -0.002398606258110232
0.004947698318040826   -0.037118243272958394   -0.0023373768716415497
-0.00043141998496119686   -0.037178637211899845   -0.0022964831700696166
-0.0011356642973156367   -0.04787265365547125   -0.002398606258110232
0.004181915580434029   -0.04777504649799964   -0.0024022514615112058
0.004947698318040826   -0.037118243272958394   -0.0023373768716415497
0.004240080341039138   -0.04776225880166926   -0.0023353420176333043
-0.00043141998496119686   -0.037178637211899845   -0.0022964831700696166
0.004972616219033255   -0.03709730667047732   -0.002310076388479238
0.004240080341039138   -0.04776225880166926   -0.0023353420176333043
0.004947698318040826   -0.037118243272958394   -0.0023373768716415497
-0.00043141998496119686   -0.037178637211899845   -0.0022964831700696166
0.004240080341039138   -0.04776225880166926   -0.0023353420176333043
-0.0010889793661918441   -0.04789228997152483   -0.0023491037185895632
-0.0011356642973156367   -0.04787265365547125   -0.002398606258110232
-0.00043141998496119686   -0.037178637211899845   -0.0022964831700696166
0.004240080341039138   -0.04776225880166926   -0.0023353420176333043
-0.0011356642973156367   -0.04787265365547125   -0.002398606258110232
0.004947698318040826   -0.037118243272958394   -0.0023373768716415497
-0.00043141998496119686   -0.037178637211899845   -0.0022964831700696166
-0.0010889793661918441   -0.04789228997152483   -0.0023491037185895632
0.004972616219033255   -0.03709730667047732   -0.002310076388479238
-0.00041287811592028676   -0.037187885553761846   -0.0022711960996535537
-0.0010889793661918441   -0.04789228997152483   -0.0023491037185895632
0.004240080341039138   -0.04776225880166926   -0.0023353420176333043
0.004972616219033255   -0.03709730667047732   -0.002310076388479238
0.004271306309899207   -0.047755083921882574   -0.002278491043802003
-0.00041287811592028676   -0.037187885553761846   -0.0022711960996535537
0.004977722842461373   -0.037066531472833605   -0.0022926948864468314
0.004271306309899207   -0.047755083921882574   -0.002278491043802003
0.004972616219033255   -0.03709730667047732   -0.002310076388479238
-0.00041287811592028676   -0.037187885553761846   -0.0022711960996535537
0.004271306309899207   -0.047755083921882574   -0.002278491043802003
-0.0010493434106092258   -0.04792145336772659   -0.0023107714917163856
-0.0010889793661918441   -0.04789228997152483   -0.0023491037185895632
-0.00041287811592028676   -0.037187885553761846   -0.0022711960996535537
0.004271306309899207   -0.047755083921882574   -0.002278491043802003
-0.0010889793661918441   -0.04789228997152483   -0.0023491037185895632
0.004972616219033255   -0.03709730667047732   -0.002310076388479238
0.0049104936786456745   -0.037136208474478925   -0.0023748039150819147
0.004118981635602588   -0.04779963637787016   -0.002479921908253972
0.010756299198505128   -0.03712460032724588   -0.0024336678228443704
0.004947698318040826   -0.037118243272958394   -0.0023373768716415497
0.004118981635602588   -0.04779963637787016   -0.002479921908253972
0.009797756949033246   -0.04769467942493515   -0.002567768875420189
0.010756299198505128   -0.03712460032724588   -0.0024336678228443704
0.009961965838536233   -0.047638226465124035   -0.0024658110971088353
0.004947698318040826   -0.037118243272958394   -0.0023373768716415497
0.010829145289869375   -0.03707694897075354   -0.002402986218106369
0.009961965838536233   -0.047638226465124035   -0.0024658110971088353
0.010756299198505128   -0.03712460032724588   -0.0024336678228443704
0.004947698318040826   -0.037118243272958394   -0.0023373768716415497
0.009961965838536233   -0.047638226465124035   -0.0024658110971088353
0.004181915580434029   -0.04777504649799964   -0.0024022514615112058
0.004118981635602588   -0.04779963637787016   -0.002479921908253972
0.004947698318040826   -0.037118243272958394   -0.0023373768716415497
0.009961965838536233   -0.047638226465124035   -0.0024658110971088353
0.004118981635602588   -0.04779963637787016   -0.002479921908253972
0.010756299198505128   -0.03712460032724588   -0.0024336678228443704
0.004947698318040826   -0.037118243272958394   -0.0023373768716415497
0.004181915580434029   -0.04777504649799964   -0.0024022514615112058
0.010829145289869375   -0.03707694897075354   -0.002402986218106369
0.004972616219033255   -0.03709730667047732   -0.002310076388479238
0.004181915580434029   -0.04777504649799964   -0.0024022514615112058
0.009961965838536233   -0.047638226465124035   -0.0024658110971088353
0.010829145289869375   -0.03707694897075354   -0.002402986218106369
0.010074806701173437   -0.04761084951538358   -0.0023791788110867837
0.004972616219033255   -0.03709730667047732   -0.002310076388479238
0.010867675295551434   -0.03703931630898575   -0.002387691600491237
0.010074806701173437   -0.04761084951538358   -0.0023791788110867837
0.010829145289869375   -0.03707694897075354   -0.002402986218106369
0.004972616219033255   -0.03709730667047732   -0.002310076388479238
0.010074806701173437   -0.04761084951538358   -0.0023791788110867837
0.004240080341039138   -0.04776225880166926   -0.0023353420176333043
0.004181915580434029   -0.04777504649799964   -0.0024022514615112058
0.004972616219033255   -0.03709730667047732   -0.002310076388479238
0.010074806701173437   -0.04761084951538358   -0.0023791788110867837
0.004181915580434029   -0.04777504649799964   -0.0024022514615112058
0.010829145289869375   -0.03707694897075354   -0.002402986218106369
0.004972616219033255   -0.03709730667047732   -0.002310076388479238
0.004240080341039138   -0.04776225880166926   -0.0023353420176333043
0.010867675295551434   -0.03703931630898575   -0.002387691600491237
0.004977722842461373   -0.037066531472833605   -0.0022926948864468314
0.004240080341039138   -0.04776225880166926   -0.0023353420176333043
0.010074806701173437   -0.04761084951538358   -0.0023791788110867837
0.010867675295551434   -0.03703931630898575   -0.002387691600491237
0.010175011703880806   -0.04758106606303873   -0.0023085083273623845
0.004977722842461373   -0.037066531472833605   -0.0022926948864468314
0.010876997462054545   -0.03697892984972098   -0.0023880461711989387
0.010175011703880806   -0.04758106606303873   -0.0023085083273623845
0.010867675295551434   -0.03703931630898575   -0.002387691600491237
0.004977722842461373   -0.037066531472833605   -0.0022926948864468314
0.010175011703880806   -0.04758106606303873   -0.0023085083273623845
0.004271306309899207   -0.047755083921882574   -0.002278491043802003
0.004240080341039138   -0.04776225880166926   -0.0023353420176333043
0.004977722842461373   -0.037066531472833605   -0.0022926948864468314
0.010175011703880806   -0.04758106606303873   -0.0023085083273623845
0.004240080341039138   -0.04776225880166926   -0.0023353420176333043
0.010867675295551434   -0.03703931630898575   -0.002387691600491237
-0.01741775211194251   -0.04785648682444029   -0.002761722405904288
-0.016951009855087257   -0.057976743750813416   -0.0026405218070967283
-0.011632933485496716   -0.04788419310033899   -0.0026053294238836504
-0.01739770549857374   -0.047962825586074724   -0.00275674521145133
-0.016951009855087257   -0.057976743750813416   -0.0026405218070967283
-0.011585071347066642   -0.05809332130922627   -0.0025463359096256793
-0.011632933485496716   -0.04788419310033899   -0.0026053294238836504
-0.011517168013329058   -0.058152651643242674   -0.0025605794687365837
-0.01739770549857374   -0.047962825586074724   -0.00275674521145133
-0.011601742615626177   -0.04796367050452391   -0.0025813335691074937
-0.011517168013329058   -0.058152651643242674   -0.0025605794687365837
-0.011632933485496716   -0.04788419310033899   -0.0026053294238836504
-0.01739770549857374   -0.047962825586074724   -0.00275674521145133
-0.011517168013329058   -0.058152651643242674   -0.0025605794687365837
-0.016828431779801853   -0.05805685219274388   -0.00270774961207607
-0.016951009855087257   -0.057976743750813416   -0.0026405218070967283
-0.01739770549857374   -0.047962825586074724   -0.00275674521145133
-0.011517168013329058   -0.058152651643242674   -0.0025605794687365837
-0.016951009855087257   -0.057976743750813416   -0.0026405218070967283
-0.011632933485496716   -0.04788419310033899   -0.0026053294238836504
-0.01739770549857374   -0.047962825586074724   -0.00275674521145133
-0.016828431779801853   -0.05805685219274388   -0.00270774961207607
-0.011601742615626177   -0.04796367050452391   -0.0025813335691074937
-0.017344472391575782   -0.048066084569110115   -0.002767951045538791
-0.016828431779801853   -0.05805685219274388   -0.00270774961207607
-0.011517168013329058   -0.058152651643242674   -0.0025605794687365837
-0.011601742615626177   -0.04796367050452391   -0.0025813335691074937
-0.01142523907728217   -0.05823712534112694   -0.0025859259525072937
-0.017344472391575782   -0.048066084569110115   -0.002767951045538791
-0.011553090153843811   -0.04805173533554015   -0.002568167042141214
-0.01142523907728217   -0.05823712534112694   -0.0025859259525072937
-0.011601742615626177   -0.04796367050452391   -0.0025813335691074937
-0.017344472391575782   -0.048066084569110115   -0.002767951045538791
-0.01142523907728217   -0.05823712534112694   -0.0025859259525072937
-0.016688528321502565   -0.05815517689861605   -0.0027924391290654552
-0.016828431779801853   -0.05805685219274388   -0.00270774961207607
-0.017344472391575782   -0.048066084569110115   -0.002767951045538791
-0.01142523907728217   -0.05823712534112694   -0.0025859259525072937
-0.016828431779801853   -0.05805685219274388   -0.00270774961207607
-0.011601742615626177   -0.04796367050452391   -0.0025813335691074937
-0.017344472391575782   -0.048066084569110115   -0.002767951045538791
-0.016688528321502565   -0.05815517689861605   -0.0027924391290654552
-0.011553090153843811   -0.04805173533554015   -0.002568167042141214
-0.017258089103048463   -0.048199105130487946   -0.0027961586994149305
-0.016688528321502565   -0.05815517689861605   -0.0027924391290654552
-0.01142523907728217   -0.05823712534112694   -0.0025859259525072937
-0.011553090153843811   -0.04805173533554015   -0.002568167042141214
-0.01132660270609756   -0.0583518956980444   -0.0026227024280050274
-0.017258089103048463   -0.048199105130487946   -0.0027961586994149305
-0.011490082271613546   -0.048154451825095014   -0.0025656537138215355
-0.01132660270609756   -0.0583518956980444   -0.0026227024280050274
-0.011553090153843811   -0.04805173533554015   -0.002568167042141214
-0.017258089103048463   -0.048199105130487946   -0.0027961586994149305
-0.01132660270609756   -0.0583518956980444   -0.0026227024280050274
-0.016498032554709566   -0.058304849693886315   -0.0028949132040647536
-0.016688528321502565   -0.05815517689861605   -0.0027924391290654552
-0.017258089103048463   -0.048199105130487946   -0.0027961586994149305
-0.01132660270609756   -0.0583518956980444   -0.0026227024280050274
-0.016688528321502565   -0.05815517689861605   -0.0027924391290654552
-0.011553090153843811   -0.04805173533554015   -0.002568167042141214
-0.011632933485496716   -0.04788419310033899   -0.0026053294238836504
-0.011585071347066642   -0.05809332130922627   -0.0025463359096256793
-0.006334020018345996   -0.04789019810967688   -0.0025013819554444115
-0.011601742615626177   -0.04796367050452391   -0.0025813335691074937
-0.011585071347066642   -0.05809332130922627   -0.0025463359096256793
-0.006775034666812324   -0.058139439252820814   -0.0024860552243874895
-0.006334020018345996   -0.04789019810967688   -0.0025013819554444115
-0.006701093296981914   -0.058170283801244026   -0.002455029466422411
-0.011601742615626177   -0.04796367050452391   -0.0025813335691074937
-0.006292284255657857   -0.04793578392201728   -0.0024587727383041866
-0.006701093296981914   -0.058170283801244026   -0.002455029466422411
-0.006334020018345996   -0.04789019810967688   -0.0025013819554444115
-0.011601742615626177   -0.04796367050452391   -0.0025813335691074937
-0.006701093296981914   -0.058170283801244026   -0.002455029466422411
-0.011517168013329058   -0.058152651643242674   -0.0025605794687365837
-0.011585071347066642   -0.05809332130922627   -0.0025463359096256793
-0.011601742615626177   -0.04796367050452391   -0.0025813335691074937
-0.006701093296981914   -0.058170283801244026   -0.002455029466422411
-0.011585071347066642   -0.05809332130922627   -0.0025463359096256793
-0.006334020018345996   -0.04789019810967688   -0.0025013819554444115
-0.011601742615626177   -0.04796367050452391   -0.0025813335691074937
-0.011517168013329058   -0.058152651643242674   -0.0025605794687365837
-0.006292284255657857   -0.04793578392201728   -0.0024587727383041866
-0.011553090153843811   -0.04805173533554015   -0.002568167042141214
-0.011517168013329058   -0.058152651643242674   -0.0025605794687365837
-0.006701093296981914   -0.058170283801244026   -0.002455029466422411
-0.006292284255657857   -0.04793578392201728   -0.0024587727383041866
-0.006621555022076519   -0.05822530305323928   -0.00243497128414628
-0.011553090153843811   -0.04805173533554015   -0.002568167042141214
-0.006245135173787822   -0.04799121935296695   -0.0024270336077877696
-0.006621555022076519   -0.05822530305323928   -0.00243497128414628
-0.006292284255657857   -0.04793578392201728   -0.0024587727383041866
-0.011553090153843811   -0.04805173533554015   -0.002568167042141214
-0.006621555022076519   -0.05822530305323928   -0.00243497128414628
-0.01142523907728217   -0.05823712534112694   -0.0025859259525072937
-0.011517168013329058   -0.058152651643242674   -0.0025605794687365837
-0.011553090153843811   -0.04805173533554015   -0.002568167042141214
-0.006621555022076519   -0.05822530305323928   -0.00243497128414628
-0.011517168013329058   -0.058152651643242674   -0.0025605794687365837
-0.006292284255657857   -0.04793578392201728   -0.0024587727383041866
-0.011553090153843811   -0.04805173533554015   -0.002568167042141214
-0.01142523907728217   -0.05823712534112694   -0.0025859259525072937
-0.006245135173787822   -0.04799121935296695   -0.0024270336077877696
-0.011490082271613546   -0.048154451825095014   -0.0025656537138215355
-0.01142523907728217   -0.05823712534112694   -0.0025859259525072937
-0.006621555022076519   -0.05822530305323928   -0.00243497128414628
-0.006245135173787822   -0.04799121935296695   -0.0024270336077877696
-0.006539799180602369   -0.058305192606903714   -0.0024264173515930977
-0.011490082271613546   -0.048154451825095014   -0.0025656537138215355
-0.006194327207931984   -0.04805667724317418   -0.0024065173783713607
-0.006539799180602369   -0.058305192606903714   -0.0024264173515930977
-0.006245135173787822   -0.04799121935296695   -0.0024270336077877696
-0.011490082271613546   -0.048154451825095014   -0.0025656537138215355
-0.006539799180602369   -0.058305192606903714   -0.0024264173515930977
-0.01132660270609756   -0.0583518956980444   -0.0026227024280050274
-0.01142523907728217   -0.05823712534112694   -0.0025859259525072937
-0.011490082271613546   -0.048154451825095014   -0.0025656537138215355
-0.006539799180602369   -0.058305192606903714   -0.0024264173515930977
-0.01142523907728217   -0.05823712534112694   -0.0025859259525072937
-0.006245135173787822   -0.04799121935296695   -0.0024270336077877696
-0.006334020018345996   -0.04789019810967688   -0.0025013819554444115
-0.006775034666812324   -0.058139439252820814   -0.0024860552243874895
-0.0011850119344178987   -0.04786209678026304   -0.002458902301900144
-0.006292284255657857   -0.04793578392201728   -0.0024587727383041866
-0.006775034666812324   -0.058139439252820814   -0.0024860552243874895
-0.002110662538735598   -0.05810401507118505   -0.0024760944701566886
-0.0011850119344178987   -0.04786209678026304   -0.002458902301900144
-0.0020288800064336802   -0.05810472202217559   -0.002401352180225149
-0.006292284255657857   -0.04793578392201728   -0.0024587727383041866
-0.0011356642973156367   -0.04787265365547125   -0.002398606258110232
-0.0020288800064336802   -0.05810472202217559   -0.002401352180225149
-0.0011850119344178987   -0.04786209678026304   -0.002458902301900144
-0.006292284255657857   -0.04793578392201728   -0.0024587727383041866
-0.0020288800064336802   -0.05810472202217559   -0.002401352180225149
-0.006701093296981914   -0.058170283801244026   -0.002455029466422411
-0.006775034666812324   -0.058139439252820814   -0.0024860552243874895
-0.006292284255657857   -0.04793578392201728   -0.0024587727383041866
-0.0020288800064336802   -0.05810472202217559   -0.002401352180225149
-0.006775034666812324   -0.058139439252820814   -0.0024860552243874895
-0.0011850119344178987   -0.04786209678026304   -0.002458902301900144
-0.006292284255657857   -0.04793578392201728   -0.0024587727383041866
-0.006701093296981914   -0.058170283801244026   -0.002455029466422411
-0.0011356642973156367   -0.04787265365547125   -0.002398606258110232
-0.006245135173787822   -0.04799121935296695   -0.0024270336077877696
-0.006701093296981914   -0.058170283801244026   -0.002455029466422411
-0.0020288800064336802   -0.05810472202217559   -0.002401352180225149
-0.0011356642973156367   -0.04787265365547125   -0.002398606258110232
-0.001949239639637371   -0.05812783343894172   -0.0023376048023233246
-0.006245135173787822   -0.04799121935296695   -0.0024270336077877696
-0.0010889793661918441   -0.04789228997152483   -0.0023491037185895632
-0.001949239639637371   -0.05812783343894172   -0.0023376048023233246
-0.0011356642973156367   -0.04787265365547125   -0.002398606258110232
-0.006245135173787822   -0.04799121935296695   -0.0024270336077877696
-0.001949239639637371   -0.05812783343894172   -0.0023376048023233246
-0.006621555022076519   -0.05822530305323928   -0.00243497128414628
-0.006701093296981914   -0.058170283801244026   -0.002455029466422411
-0.006245135173787822   -0.04799121935296695   -0.0024270336077877696
-0.001949239639637371   -0.05812783343894172   -0.0023376048023233246
-0.006701093296981914   -0.058170283801244026   -0.002455029466422411
-0.0011356642973156367   -0.04787265365547125   -0.002398606258110232
-0.006245135173787822   -0.04799121935296695   -0.0024270336077877696
-0.006621555022076519   -0.05822530305323928   -0.00243497128414628
-0.0010889793661918441   -0.04789228997152483   -0.0023491037185895632
-0.006194327207931984   -0.04805667724317418   -0.0024065173783713607
-0.006621555022076519   -0.05822530305323928   -0.00243497128414628
-0.001949239639637371   -0.05812783343894172   -0.0023376048023233246
-0.0010889793661918441   -0.04789228997152483   -0.0023491037185895632
-0.0018781785995609162   -0.05817526369327821   -0.0022852344748255783
-0.006194327207931984   -0.04805667724317418   -0.0024065173783713607
-0.0010493434106092258   -0.04792145336772659   -0.0023107714917163856
-0.0018781785995609162   -0.05817526369327821   -0.0022852344748255783
-0.0010889793661918441   -0.04789228997152483   -0.0023491037185895632
-0.006194327207931984   -0.04805667724317418   -0.0024065173783713607
-0.0018781785995609162   -0.05817526369327821   -0.0022852344748255783
-0.006539799180602369   -0.058305192606903714   -0.0024264173515930977
-0.006621555022076519   -0.05822530305323928   -0.00243497128414628
-0.006194327207931984   -0.04805667724317418   -0.0024065173783713607
-0.0018781785995609162   -0.05817526369327821   -0.0022852344748255783
-0.006621555022076519   -0.05822530305323928   -0.00243497128414628
-0.0010889793661918441   -0.04789228997152483   -0.0023491037185895632
-0.0011850119344178987   -0.04786209678026304   -0.002458902301900144
-0.002110662538735598   -0.05810401507118505   -0.0024760944701566886
0.004118981635602588   -0.04779963637787016   -0.002479921908253972
-0.0011356642973156367   -0.04787265365547125   -0.002398606258110232
-0.002110662538735598   -0.05810401507118505   -0.0024760944701566886
0.0027144765434840732   -0.05798944932852041   -0.002520403412819355
0.004118981635602588   -0.04779963637787016   -0.002479921908253972
0.0028144695871144994   -0.05795798739581089   -0.002402355761082402
-0.0011356642973156367   -0.04787265365547125   -0.002398606258110232
0.004181915580434029   -0.04777504649799964   -0.0024022514615112058
0.0028144695871144994   -0.05795798739581089   -0.002402355761082402
0.004118981635602588   -0.04779963637787016   -0.002479921908253972
-0.0011356642973156367   -0.04787265365547125   -0.002398606258110232
0.0028144695871144994   -0.05795798739581089   -0.002402355761082402
-0.0020288800064336802   -0.05810472202217559   -0.002401352180225149
-0.002110662538735598   -0.05810401507118505   -0.0024760944701566886
-0.0011356642973156367   -0.04787265365547125   -0.002398606258110232
0.0028144695871144994   -0.05795798739581089   -0.002402355761082402
-0.002110662538735598   -0.05810401507118505   -0.0024760944701566886
0.004118981635602588   -0.04779963637787016   -0.002479921908253972
-0.0011356642973156367   -0.04787265365547125   -0.002398606258110232
-0.0020288800064336802   -0.05810472202217559   -0.002401352180225149
0.004181915580434029   -0.04777504649799964   -0.0024022514615112058
-0.0010889793661918441   -0.04789228997152483   -0.0023491037185895632
-0.0020288800064336802   -0.05810472202217559   -0.002401352180225149
0.0028144695871144994   -0.05795798739581089   -0.002402355761082402
0.004181915580434029   -0.04777504649799964   -0.0024022514615112058
0.0029170027309013908   -0.05795212201868643   -0.002296007080045132
-0.0010889793661918441   -0.04789228997152483   -0.0023491037185895632
0.004240080341039138   -0.04776225880166926   -0.0023353420176333043
0.0029170027309013908   -0.05795212201868643   -0.002296007080045132
0.004181915580434029   -0.04777504649799964   -0.0024022514615112058
-0.0010889793661918441   -0.04789228997152483   -0.0023491037185895632
0.0029170027309013908   -0.05795212201868643   -0.002296007080045132
-0.001949239639637371   -0.05812783343894172   -0.0023376048023233246
-0.0020288800064336802   -0.05810472202217559   -0.002401352180225149
-0.0010889793661918441   -0.04789228997152483   -0.0023491037185895632
0.0029170027309013908   -0.05795212201868643   -0.002296007080045132
-0.0020288800064336802   -0.05810472202217559   -0.002401352180225149
0.004181915580434029   -0.04777504649799964   -0.0024022514615112058
-0.0010889793661918441   -0.04789228997152483   -0.0023491037185895632
-0.001949239639637371   -0.05812783343894172   -0.0023376048023233246
0.004240080341039138   -0.04776225880166926   -0.0023353420176333043
-0.0010493434106092258   -0.04792145336772659   -0.0023107714917163856
-0.001949239639637371   -0.05812783343894172   -0.0023376048023233246
0.0029170027309013908   -0.05795212201868643   -0.002296007080045132
0.004240080341039138   -0.04776225880166926   -0.0023353420176333043
0.00298519387723455   -0.05796713063414175   -0.0021998145694738717
-0.0010493434106092258   -0.04792145336772659   -0.0023107714917163856
0.004271306309899207   -0.047755083921882574   -0.002278491043802003
0.00298519387723455   -0.05796713063414175   -0.0021998145694738717
0.004240080341039138   -0.04776225880166926   -0.0023353420176333043
-0.0010493434106092258   -0.04792145336772659   -0.0023107714917163856
0.00298519387723455   -0.05796713063414175   -0.0021998145694738717
-0.0018781785995609162   -0.05817526369327821   -0.0022852344748255783
-0.001949239639637371   -0.05812783343894172   -0.0023376048023233246
-0.0010493434106092258   -0.04792145336772659   -0.0023107714917163856
0.00298519387723455   -0.05796713063414175   -0.0021998145694738717
-0.001949239639637371   -0.05812783343894172   -0.0023376048023233246
0.004240080341039138   -0.04776225880166926   -0.0023353420176333043
0.004118981635602588   -0.04779963637787016   -0.002479921908253972
0.0027144765434840732   -0.05798944932852041   -0.002520403412819355
0.009797756949033246   -0.04769467942493515   -0.002567768875420189
0.004181915580434029   -0.04777504649799964   -0.0024022514615112058
0.0027144765434840732   -0.05798944932852041   -0.002520403412819355
0.007847517411255495   -0.05779248434950985   -0.002634754910467013
0.009797756949033246   -0.04769467942493515   -0.002567768875420189
0.008113553482662723   -0.057727625089240286   -0.0024629830812745914
0.004181915580434029   -0.04777504649799964   -0.0024022514615112058
0.009961965838536233   -0.047638226465124035   -0.0024658110971088353
0.008113553482662723   -0.057727625089240286   -0.0024629830812745914
0.009797756949033246   -0.04769467942493515   -0.002567768875420189
0.004181915580434029   -0.04777504649799964   -0.0024022514615112058
0.008113553482662723   -0.057727625089240286   -0.0024629830812745914
0.0028144695871144994   -0.05795798739581089   -0.002402355761082402
0.0027144765434840732   -0.05798944932852041   -0.002520403412819355
0.004181915580434029   -0.04777504649799964   -0.0024022514615112058
0.008113553482662723   -0.057727625089240286   -0.0024629830812745914
0.0027144765434840732   -0.05798944932852041   -0.002520403412819355
0.009797756949033246   -0.04769467942493515   -0.002567768875420189
0.004181915580434029   -0.04777504649799964   -0.0024022514615112058
0.0028144695871144994   -0.05795798739581089   -0.002402355761082402
0.009961965838536233   -0.047638226465124035   -0.0024658110971088353
0.004240080341039138   -0.04776225880166926   -0.0023353420176333043
0.0028144695871144994   -0.05795798739581089   -0.002402355761082402
0.008113553482662723   -0.057727625089240286   -0.0024629830812745914
0.009961965838536233   -0.047638226465124035   -0.0024658110971088353
0.008310555500616946   -0.05770979333531955   -0.002306769590621739
0.004240080341039138   -0.04776225880166926   -0.0023353420176333043
0.010074806701173437   -0.04761084951538358   -0.0023791788110867837
0.008310555500616946   -0.05770979333531955   -0.002306769590621739
0.009961965838536233   -0.047638226465124035   -0.0024658110971088353
0.004240080341039138   -0.04776225880166926   -0.0023353420176333043
0.008310555500616946   -0.05770979333531955   -0.002306769590621739
0.0029170027309013908   -0.05795212201868643   -0.002296007080045132
0.0028144695871144994   -0.05795798739581089   -0.002402355761082402
0.004240080341039138   -0.04776225880166926   -0.0023353420176333043
0.008310555500616946   -0.05770979333531955   -0.002306769590621739
0.0028144695871144994   -0.05795798739581089   -0.002402355761082402
0.009961965838536233   -0.047638226465124035   -0.0024658110971088353
0.004240080341039138   -0.04776225880166926   -0.0023353420176333043
0.0029170027309013908   -0.05795212201868643   -0.002296007080045132
0.010074806701173437   -0.04761084951538358   -0.0023791788110867837
0.004271306309899207   -0.047755083921882574   -0.002278491043802003
0.0029170027309013908   -0.05795212201868643   -0.002296007080045132
0.008310555500616946   -0.05770979333531955   -0.002306769590621739
0.010074806701173437   -0.04761084951538358   -0.0023791788110867837
0.008510285936510318   -0.05770962383135367   -0.0021668236031966662
0.004271306309899207   -0.047755083921882574   -0.002278491043802003
0.010175011703880806   -0.04758106606303873   -0.0023085083273623845
0.008510285936510318   -0.05770962383135367   -0.0021668236031966662
0.010074806701173437   -0.04761084951538358   -0.0023791788110867837
0.004271306309899207   -0.047755083921882574   -0.002278491043802003
0.008510285936510318   -0.05770962383135367   -0.0021668236031966662
0.00298519387723455   -0.05796713063414175   -0.0021998145694738717
0.0029170027309013908   -0.05795212201868643   -0.002296007080045132
0.004271306309899207   -0.047755083921882574   -0.002278491043802003
0.008510285936510318   -0.05770962383135367   -0.0021668236031966662
0.0029170027309013908   -0.05795212201868643   -0.002296007080045132
0.010074806701173437   -0.04761084951538358   -0.0023791788110867837
-0.016951009855087257   -0.057976743750813416   -0.0026405218070967283
-0.015469902352527765   -0.06693147499342188   -0.0024624235504822054
-0.011585071347066642   -0.05809332130922627   -0.0025463359096256793
-0.016828431779801853   -0.05805685219274388   -0.00270774961207607
-0.015469902352527765   -0.06693147499342188   -0.0024624235504822054
-0.010953793671509691   -0.06714179125402017   -0.002447241904952007
-0.011585071347066642   -0.05809332130922627   -0.0025463359096256793
-0.01084111078052276   -0.06717221147629229   -0.0024969735668194173
-0.016828431779801853   -0.05805685219274388   -0.00270774961207607
-0.011517168013329058   -0.058152651643242674   -0.0025605794687365837
-0.01084111078052276   -0.06717221147629229   -0.0024969735668194173
-0.011585071347066642   -0.05809332130922627   -0.0025463359096256793
-0.016828431779801853   -0.05805685219274388   -0.00270774961207607
-0.01084111078052276   -0.06717221147629229   -0.0024969735668194173
-0.015235205484701673   -0.06697661942830346   -0.0026016463106840883
-0.015469902352527765   -0.06693147499342188   -0.0024624235504822054
-0.016828431779801853   -0.05805685219274388   -0.00270774961207607
-0.01084111078052276   -0.06717221147629229   -0.0024969735668194173
-0.015469902352527765   -0.06693147499342188   -0.0024624235504822054
-0.011585071347066642   -0.05809332130922627   -0.0025463359096256793
-0.016828431779801853   -0.05805685219274388   -0.00270774961207607
-0.015235205484701673   -0.06697661942830346   -0.0026016463106840883
-0.011517168013329058   -0.058152651643242674   -0.0025605794687365837
-0.016688528321502565   -0.05815517689861605   -0.0027924391290654552
-0.015235205484701673   -0.06697661942830346   -0.0026016463106840883
-0.01084111078052276   -0.06717221147629229   -0.0024969735668194173
-0.011517168013329058   -0.058152651643242674   -0.0025605794687365837
-0.010699578390844266   -0.06724508987591103   -0.0025579725718511788
-0.016688528321502565   -0.05815517689861605   -0.0027924391290654552
-0.01142523907728217   -0.05823712534112694   -0.0025859259525072937
-0.010699578390844266   -0.06724508987591103   -0.0025579725718511788
-0.011517168013329058   -0.058152651643242674   -0.0025605794687365837
-0.016688528321502565   -0.05815517689861605   -0.0027924391290654552
-0.010699578390844266   -0.06724508987591103   -0.0025579725718511788
-0.015001105073876933   -0.06706214723466843   -0.002759215664284702
-0.015235205484701673   -0.06697661942830346   -0.0026016463106840883
-0.016688528321502565   -0.05815517689861605   -0.0027924391290654552
-0.010699578390844266   -0.06724508987591103   -0.0025579725718511788
-0.015235205484701673   -0.06697661942830346   -0.0026016463106840883
-0.011517168013329058   -0.058152651643242674   -0.0025605794687365837
-0.016688528321502565   -0.05815517689861605   -0.0027924391290654552
-0.015001105073876933   -0.06706214723466843   -0.002759215664284702
-0.01142523907728217   -0.05823712534112694   -0.0025859259525072937
-0.016498032554709566   -0.058304849693886315   -0.0028949132040647536
-0.015001105073876933   -0.06706214723466843   -0.002759215664284702
-0.010699578390844266   -0.06724508987591103   -0.0025579725718511788
-0.01142523907728217   -0.05823712534112694   -0.0025859259525072937
-0.010559931060123736   -0.06736456584348845   -0.0026301331289171207
-0.016498032554709566   -0.058304849693886315   -0.0028949132040647536
-0.01132660270609756   -0.0583518956980444   -0.0026227024280050274
-0.010559931060123736   -0.06736456584348845   -0.0026301331289171207
-0.01142523907728217   -0.05823712534112694   -0.0025859259525072937
-0.016498032554709566   -0.058304849693886315   -0.0028949132040647536
-0.010559931060123736   -0.06736456584348845   -0.0026301331289171207
-0.014701237656871636   -0.06722163113952768   -0.00293479351613298
-0.015001105073876933   -0.06706214723466843   -0.002759215664284702
-0.016498032554709566   -0.058304849693886315   -0.0028949132040647536
-0.010559931060123736   -0.06736456584348845   -0.0026301331289171207
-0.015001105073876933   -0.06706214723466843   -0.002759215664284702
-0.01142523907728217   -0.05823712534112694   -0.0025859259525072937
-0.011585071347066642   -0.05809332130922627   -0.0025463359096256793
-0.010953793671509691   -0.06714179125402017   -0.002447241904952007
-0.006775034666812324   -0.058139439252820814   -0.0024860552243874895
-0.011517168013329058   -0.058152651643242674   -0.0025605794687365837
-0.010953793671509691   -0.06714179125402017   -0.002447241904952007
-0.007043405736104627   -0.06724030866136729   -0.0024412175534301215
-0.006775034666812324   -0.058139439252820814   -0.0024860552243874895
-0.00692779444146278   -0.06725028455596298   -0.0024189632976482542
-0.011517168013329058   -0.058152651643242674   -0.0025605794687365837
-0.006701093296981914   -0.058170283801244026   -0.002455029466422411
-0.00692779444146278   -0.06725028455596298   -0.0024189632976482542
-0.006775034666812324   -0.058139439252820814   -0.0024860552243874895
-0.011517168013329058   -0.058152651643242674   -0.0025605794687365837
-0.00692779444146278   -0.06725028455596298   -0.0024189632976482542
-0.01084111078052276   -0.06717221147629229   -0.0024969735668194173
-0.010953793671509691   -0.06714179125402017   -0.002447241904952007
-0.011517168013329058   -0.058152651643242674   -0.0025605794687365837
-0.00692779444146278   -0.06725028455596298   -0.0024189632976482542
-0.010953793671509691   -0.06714179125402017   -0.002447241904952007
-0.006775034666812324   -0.058139439252820814   -0.0024860552243874895
-0.011517168013329058   -0.058152651643242674   -0.0025605794687365837
-0.01084111078052276   -0.06717221147629229   -0.0024969735668194173
-0.006701093296981914   -0.058170283801244026   -0.002455029466422411
-0.01142523907728217   -0.05823712534112694   -0.0025859259525072937
-0.01084111078052276   -0.06717221147629229   -0.0024969735668194173
-0.00692779444146278   -0.06725028455596298   -0.0024189632976482542
-0.006701093296981914   -0.058170283801244026   -0.002455029466422411
-0.006808469770173001   -0.06729817191832248   -0.002407642792688916
-0.01142523907728217   -0.05823712534112694   -0.0025859259525072937
-0.006621555022076519   -0.05822530305323928   -0.00243497128414628
-0.006808469770173001   -0.06729817191832248   -0.002407642792688916
-0.006701093296981914   -0.058170283801244026   -0.002455029466422411
-0.01142523907728217   -0.05823712534112694   -0.0025859259525072937
-0.006808469770173001   -0.06729817191832248   -0.002407642792688916
-0.010699578390844266   -0.06724508987591103   -0.0025579725718511788
-0.01084111078052276   -0.06717221147629229   -0.0024969735668194173
-0.01142523907728217   -0.05823712534112694   -0.0025859259525072937
-0.006808469770173001   -0.06729817191832248   -0.002407642792688916
-0.01084111078052276   -0.06717221147629229   -0.0024969735668194173
-0.006701093296981914   -0.058170283801244026   -0.002455029466422411
-0.01142523907728217   -0.05823712534112694   -0.0025859259525072937
-0.010699578390844266   -0.06724508987591103   -0.0025579725718511788
-0.006621555022076519   -0.05822530305323928   -0.00243497128414628
-0.01132660270609756   -0.0583518956980444   -0.0026227024280050274
-0.010699578390844266   -0.06724508987591103   -0.0025579725718511788
-0.006808469770173001   -0.06729817191832248   -0.002407642792688916
-0.006621555022076519   -0.05822530305323928   -0.00243497128414628
-0.006689340284066663   -0.06738620491128525   -0.0024071158292489673
-0.01132660270609756   -0.0583518956980444   -0.0026227024280050274
-0.006539799180602369   -0.058305192606903714   -0.0024264173515930977
-0.006689340284066663   -0.06738620491128525   -0.0024071158292489673
-0.006621555022076519   -0.05822530305323928   -0.00243497128414628
-0.01132660270609756   -0.0583518956980444   -0.0026227024280050274
-0.006689340284066663   -0.06738620491128525   -0.0024071158292489673
-0.010559931060123736   -0.06736456584348845   -0.0026301331289171207
-0.010699578390844266   -0.06724508987591103   -0.0025579725718511788
-0.01132660270609756   -0.0583518956980444   -0.0026227024280050274
-0.006689340284066663   -0.06738620491128525   -0.0024071158292489673
-0.010699578390844266   -0.06724508987591103   -0.0025579725718511788
-0.006621555022076519   -0.05822530305323928   -0.00243497128414628
-0.006775034666812324   -0.058139439252820814   -0.0024860552243874895
-0.007043405736104627   -0.06724030866136729   -0.0024412175534301215
-0.002110662538735598   -0.05810401507118505   -0.0024760944701566886
-0.006701093296981914   -0.058170283801244026   -0.002455029466422411
-0.007043405736104627   -0.06724030866136729   -0.0024412175534301215
-0.0032628364337047772   -0.06722242606609771   -0.0024692683550859964
-0.002110662538735598   -0.05810401507118505   -0.0024760944701566886
-0.0031362017164893305   -0.06720944114703017   -0.002377553948077016
-0.006701093296981914   -0.058170283801244026   -0.002455029466422411
-0.0020288800064336802   -0.05810472202217559   -0.002401352180225149
-0.0031362017164893305   -0.06720944114703017   -0.002377553948077016
-0.002110662538735598   -0.05810401507118505   -0.0024760944701566886
-0.006701093296981914   -0.058170283801244026   -0.002455029466422411
-0.0031362017164893305   -0.06720944114703017   -0.002377553948077016
-0.00692779444146278   -0.06725028455596298   -0.0024189632976482542
-0.007043405736104627   -0.06724030866136729   -0.0024412175534301215
-0.006701093296981914   -0.058170283801244026   -0.002455029466422411
-0.0031362017164893305   -0.06720944114703017   -0.002377553948077016
-0.007043405736104627   -0.06724030866136729   -0.0024412175534301215
-0.002110662538735598   -0.05810401507118505   -0.0024760944701566886
-0.006701093296981914   -0.058170283801244026   -0.002455029466422411
-0.00692779444146278   -0.06725028455596298   -0.0024189632976482542
-0.0020288800064336802   -0.05810472202217559   -0.002401352180225149
-0.006621555022076519   -0.05822530305323928   -0.00243497128414628
-0.00692779444146278   -0.06725028455596298   -0.0024189632976482542
-0.0031362017164893305   -0.06720944114703017   -0.002377553948077016
-0.0020288800064336802   -0.05810472202217559   -0.002401352180225149
-0.0030133015557614884   -0.06723073758568353   -0.0022974944003620644
-0.006621555022076519   -0.05822530305323928   -0.00243497128414628
-0.001949239639637371   -0.05812783343894172   -0.0023376048023233246
-0.0030133015557614884   -0.06723073758568353   -0.0022974944003620644
-0.0020288800064336802   -0.05810472202217559   -0.002401352180225149
-0.006621555022076519   -0.05822530305323928   -0.00243497128414628
-0.0030133015557614884   -0.06723073758568353   -0.0022974944003620644
-0.006808469770173001   -0.06729817191832248   -0.002407642792688916
-0.00692779444146278   -0.06725028455596298   -0.0024189632976482542
-0.006621555022076519   -0.05822530305323928   -0.00243497128414628
-0.0030133015557614884   -0.06723073758568353   -0.0022974944003620644
-0.00692779444146278   -0.06725028455596298   -0.0024189632976482542
-0.0020288800064336802   -0.05810472202217559   -0.002401352180225149
-0.006621555022076519   -0.05822530305323928   -0.00243497128414628
-0.006808469770173001   -0.06729817191832248   -0.002407642792688916
-0.001949239639637371   -0.05812783343894172   -0.0023376048023233246
-0.006539799180602369   -0.058305192606903714   -0.0024264173515930977
-0.006808469770173001   -0.06729817191832248   -0.002407642792688916
-0.0030133015557614884   -0.06723073758568353   -0.0022974944003620644
-0.001949239639637371   -0.05812783343894172   -0.0023376048023233246
-0.0029022659745134914   -0.0672912893916859   -0.0022280803904972364
-0.006539799180602369   -0.058305192606903714   -0.0024264173515930977
-0.0018781785995609162   -0.05817526369327821   -0.0022852344748255783
-0.0029022659745134914   -0.0672912893916859   -0.0022280803904972364
-0.001949239639637371   -0.05812783343894172   -0.0023376048023233246
-0.006539799180602369   -0.058305192606903714   -0.0024264173515930977
-0.0029022659745134914   -0.0672912893916859   -0.0022280803904972364
-0.006689340284066663   -0.06738620491128525   -0.0024071158292489673
-0.006808469770173001   -0.06729817191832248   -0.002407642792688916
-0.006539799180602369   -0.058305192606903714   -0.0024264173515930977
-0.0029022659745134914   -0.0672912893916859   -0.0022280803904972364
-0.006808469770173001   -0.06729817191832248   -0.002407642792688916
-0.001949239639637371   -0.05812783343894172   -0.0023376048023233246
-0.002110662538735598   -0.05810401507118505   -0.0024760944701566886
-0.0032628364337047772   -0.06722242606609771   -0.0024692683550859964
0.0027144765434840732   -0.05798944932852041   -0.002520403412819355
-0.0020288800064336802   -0.05810472202217559   -0.002401352180225149
-0.0032628364337047772   -0.06722242606609771   -0.0024692683550859964
0.0006949145277327512   -0.06708397946046434   -0.002537552911772704
0.0027144765434840732   -0.05798944932852041   -0.002520403412819355
0.0008489658184311828   -0.0670418345517928   -0.00237661693430154
-0.0020288800064336802   -0.05810472202217559   -0.002401352180225149
0.0028144695871144994   -0.05795798739581089   -0.002402355761082402
0.0008489658184311828   -0.0670418345517928   -0.00237661693430154
0.0027144765434840732   -0.05798944932852041   -0.002520403412819355
-0.0020288800064336802   -0.05810472202217559   -0.002401352180225149
0.0008489658184311828   -0.0670418345517928   -0.00237661693430154
-0.0031362017164893305   -0.06720944114703017   -0.002377553948077016
-0.0032628364337047772   -0.06722242606609771   -0.0024692683550859964
-0.0020288800064336802   -0.05810472202217559   -0.002401352180225149
0.0008489658184311828   -0.0670418345517928   -0.00237661693430154
-0.0032628364337047772   -0.06722242606609771   -0.0024692683550859964
0.0027144765434840732   -0.05798944932852041   -0.002520403412819355
-0.0020288800064336802   -0.05810472202217559   -0.002401352180225149
-0.0031362017164893305   -0.06720944114703017   -0.002377553948077016
0.0028144695871144994   -0.05795798739581089   -0.002402355761082402
-0.001949239639637371   -0.05812783343894172   -0.0023376048023233246
-0.0031362017164893305   -0.06720944114703017   -0.002377553948077016
0.0008489658184311828   -0.0670418345517928   -0.00237661693430154
0.0028144695871144994   -0.05795798739581089   -0.002402355761082402
0.0010113110545405858   -0.06703801808892514   -0.0022304550172209093
-0.001949239639637371   -0.05812783343894172   -0.0023376048023233246
0.0029170027309013908   -0.05795212201868643   -0.002296007080045132
0.0010113110545405858   -0.06703801808892514   -0.0022304550172209093
0.0028144695871144994   -0.05795798739581089   -0.002402355761082402
-0.001949239639637371   -0.05812783343894172   -0.0023376048023233246
0.0010113110545405858   -0.06703801808892514   -0.0022304550172209093
-0.0030133015557614884   -0.06723073758568353   -0.0022974944003620644
-0.0031362017164893305   -0.06720944114703017   -0.002377553948077016
-0.001949239639637371   -0.05812783343894172   -0.0023376048023233246
0.0010113110545405858   -0.06703801808892514   -0.0022304550172209093
-0.0031362017164893305   -0.06720944114703017   -0.002377553948077016
0.0028144695871144994   -0.05795798739581089   -0.002402355761082402
-0.001949239639637371   -0.05812783343894172   -0.0023376048023233246
-0.0030133015557614884   -0.06723073758568353   -0.0022974944003620644
0.0029170027309013908   -0.05795212201868643   -0.002296007080045132
-0.0018781785995609162   -0.05817526369327821   -0.0022852344748255783
-0.0030133015557614884   -0.06723073758568353   -0.0022974944003620644
0.0010113110545405858   -0.06703801808892514   -0.0022304550172209093
0.0029170027309013908   -0.05795212201868643   -0.002296007080045132
0.0011300448579498708   -0.06707078615104194   -0.002094465864701638
-0.0018781785995609162   -0.05817526369327821   -0.0022852344748255783
0.00298519387723455   -0.05796713063414175   -0.0021998145694738717
0.0011300448579498708   -0.06707078615104194   -0.002094465864701638
0.0029170027309013908   -0.05795212201868643   -0.002296007080045132
-0.0018781785995609162   -0.05817526369327821   -0.0022852344748255783
0.0011300448579498708   -0.06707078615104194   -0.002094465864701638
-0.0029022659745134914   -0.0672912893916859   -0.0022280803904972364
-0.0030133015557614884   -0.06723073758568353   -0.0022974944003620644
-0.0018781785995609162   -0.05817526369327821   -0.0022852344748255783
0.0011300448579498708   -0.06707078615104194   -0.002094465864701638
-0.0030133015557614884   -0.06723073758568353   -0.0022974944003620644
0.0029170027309013908   -0.05795212201868643   -0.002296007080045132
0.0027144765434840732   -0.05798944932852041   -0.002520403412819355
0.0006949145277327512   -0.06708397946046434   -0.002537552911772704
0.007847517411255495   -0.05779248434950985   -0.002634754910467013
0.0028144695871144994   -0.05795798739581089   -0.002402355761082402
0.0006949145277327512   -0.06708397946046434   -0.002537552911772704
0.004914379215997951   -0.06681184095681271   -0.0026835563215425965
0.007847517411255495   -0.05779248434950985   -0.002634754910467013
0.005304540239810786   -0.06673095214601947   -0.0024372493653803924
0.0028144695871144994   -0.05795798739581089   -0.002402355761082402
0.008113553482662723   -0.057727625089240286   -0.0024629830812745914
0.005304540239810786   -0.06673095214601947   -0.0024372493653803924
0.007847517411255495   -0.05779248434950985   -0.002634754910467013
0.0028144695871144994   -0.05795798739581089   -0.002402355761082402
0.005304540239810786   -0.06673095214601947   -0.0024372493653803924
0.0008489658184311828   -0.0670418345517928   -0.00237661693430154
0.0006949145277327512   -0.06708397946046434   -0.002537552911772704
0.0028144695871144994   -0.05795798739581089   -0.002402355761082402
0.005304540239810786   -0.06673095214601947   -0.0024372493653803924
0.0006949145277327512   -0.06708397946046434   -0.002537552911772704
0.007847517411255495   -0.05779248434950985   -0.002634754910467013
0.0028144695871144994   -0.05795798739581089   -0.002402355761082402
0.0008489658184311828   -0.0670418345517928   -0.00237661693430154
0.008113553482662723   -0.057727625089240286   -0.0024629830812745914
0.0029170027309013908   -0.05795212201868643   -0.002296007080045132
0.0008489658184311828   -0.0670418345517928   -0.00237661693430154
0.005304540239810786   -0.06673095214601947   -0.0024372493653803924
0.008113553482662723   -0.057727625089240286   -0.0024629830812745914
0.005603684406124343   -0.06671694579401508   -0.002209263558629094
0.0029170027309013908   -0.05795212201868643   -0.002296007080045132
0.008310555500616946   -0.05770979333531955   -0.002306769590621739
0.005603684406124343   -0.06671694579401508   -0.002209263558629094
0.008113553482662723   -0.057727625089240286   -0.0024629830812745914
0.0029170027309013908   -0.05795212201868643   -0.002296007080045132
0.005603684406124343   -0.06671694579401508   -0.002209263558629094
0.0010113110545405858   -0.06703801808892514   -0.0022304550172209093
0.0008489658184311828   -0.0670418345517928   -0.00237661693430154
0.0029170027309013908   -0.05795212201868643   -0.002296007080045132
0.005603684406124343   -0.06671694579401508   -0.002209263558629094
0.0008489658184311828   -0.0670418345517928   -0.00237661693430154
0.008113553482662723   -0.057727625089240286   -0.0024629830812745914
0.0029170027309013908   -0.05795212201868643   -0.002296007080045132
0.0010113110545405858   -0.06703801808892514   -0.0022304550172209093
0.008310555500616946   -0.05770979333531955   -0.002306769590621739
0.00298519387723455   -0.05796713063414175   -0.0021998145694738717
0.0010113110545405858   -0.06703801808892514   -0.0022304550172209093
0.005603684406124343   -0.06671694579401508   -0.002209263558629094
0.008310555500616946   -0.05770979333531955   -0.002306769590621739
0.005913599420773944   -0.06674093095100445   -0.002001461796255971
0.00298519387723455   -0.05796713063414175   -0.0021998145694738717
0.008510285936510318   -0.05770962383135367   -0.0021668236031966662
0.005913599420773944   -0.06674093095100445   -0.002001461796255971
0.008310555500616946   -0.05770979333531955   -0.002306769590621739
0.00298519387723455   -0.05796713063414175   -0.0021998145694738717
0.005913599420773944   -0.06674093095100445   -0.002001461796255971
0.0011300448579498708   -0.06707078615104194   -0.002094465864701638
0.0010113110545405858   -0.06703801808892514   -0.0022304550172209093
0.00298519387723455   -0.05796713063414175   -0.0021998145694738717
0.005913599420773944   -0.06674093095100445   -0.002001461796255971
0.0010113110545405858   -0.06703801808892514   -0.0022304550172209093
0.008310555500616946   -0.05770979333531955   -0.002306769590621739
-0.015469902352527765   -0.06693147499342188   -0.0024624235504822054
-0.01295628014012408   -0.07396037974014688   -0.0022341339639995452
-0.010953793671509691   -0.06714179125402017   -0.002447241904952007
-0.015235205484701673   -0.06697661942830346   -0.0026016463106840883
-0.01295628014012408   -0.07396037974014688   -0.0022341339639995452
-0.00974235193019709   -0.07427183304641351   -0.0023275559497994073
-0.010953793671509691   -0.06714179125402017   -0.002447241904952007
-0.00958003932862047   -0.07425578418268484   -0.002404092504454665
-0.015235205484701673   -0.06697661942830346   -0.0026016463106840883
-0.01084111078052276   -0.06717221147629229   -0.0024969735668194173
-0.00958003932862047   -0.07425578418268484   -0.002404092504454665
-0.010953793671509691   -0.06714179125402017   -0.002447241904952007
-0.015235205484701673   -0.06697661942830346   -0.0026016463106840883
-0.00958003932862047   -0.07425578418268484   -0.002404092504454665
-0.012606401560035303   -0.07395160876675837   -0.002440496235432409
-0.01295628014012408   -0.07396037974014688   -0.0022341339639995452
-0.015235205484701673   -0.06697661942830346   -0.0026016463106840883
-0.00958003932862047   -0.07425578418268484   -0.002404092504454665
-0.01295628014012408   -0.07396037974014688   -0.0022341339639995452
-0.010953793671509691   -0.06714179125402017   -0.002447241904952007
-0.015235205484701673   -0.06697661942830346   -0.0026016463106840883
-0.012606401560035303   -0.07395160876675837   -0.002440496235432409
-0.01084111078052276   -0.06717221147629229   -0.0024969735668194173
-0.015001105073876933   -0.06706214723466843   -0.002759215664284702
-0.012606401560035303   -0.07395160876675837   -0.002440496235432409
-0.00958003932862047   -0.07425578418268484   -0.002404092504454665
-0.01084111078052276   -0.06717221147629229   -0.0024969735668194173
-0.009389137135386078   -0.07430060152447975   -0.002492141223788525
-0.015001105073876933   -0.06706214723466843   -0.002759215664284702
-0.010699578390844266   -0.06724508987591103   -0.0025579725718511788
-0.009389137135386078   -0.07430060152447975   -0.002492141223788525
-0.01084111078052276   -0.06717221147629229   -0.0024969735668194173
-0.015001105073876933   -0.06706214723466843   -0.002759215664284702
-0.009389137135386078   -0.07430060152447975   -0.002492141223788525
-0.012283884641305174   -0.07400698475007028   -0.0026630715245739597
-0.012606401560035303   -0.07395160876675837   -0.002440496235432409
-0.015001105073876933   -0.06706214723466843   -0.002759215664284702
-0.009389137135386078   -0.07430060152447975   -0.002492141223788525
-0.012606401560035303   -0.07395160876675837   -0.002440496235432409
-0.01084111078052276   -0.06717221147629229   -0.0024969735668194173
-0.015001105073876933   -0.06706214723466843   -0.002759215664284702
-0.012283884641305174   -0.07400698475007028   -0.0026630715245739597
-0.010699578390844266   -0.06724508987591103   -0.0025579725718511788
-0.014701237656871636   -0.06722163113952768   -0.00293479351613298
-0.012283884641305174   -0.07400698475007028   -0.0026630715245739597
-0.009389137135386078   -0.07430060152447975   -0.002492141223788525
-0.010699578390844266   -0.06724508987591103   -0.0025579725718511788
-0.009215951241087926   -0.07440730577803581   -0.002590965726851339
-0.014701237656871636   -0.06722163113952768   -0.00293479351613298
-0.010559931060123736   -0.06736456584348845   -0.0026301331289171207
-0.009215951241087926   -0.07440730577803581   -0.002590965726851339
-0.010699578390844266   -0.06724508987591103   -0.0025579725718511788
-0.014701237656871636   -0.06722163113952768   -0.00293479351613298
-0.009215951241087926   -0.07440730577803581   -0.002590965726851339
-0.011890524655883623   -0.07415487799695326   -0.0029009043784031623
-0.012283884641305174   -0.07400698475007028   -0.0026630715245739597
-0.014701237656871636   -0.06722163113952768   -0.00293479351613298
-0.009215951241087926   -0.07440730577803581   -0.002590965726851339
-0.012283884641305174   -0.07400698475007028   -0.0026630715245739597
-0.010699578390844266   -0.06724508987591103   -0.0025579725718511788
-0.010953793671509691   -0.06714179125402017   -0.002447241904952007
-0.00974235193019709   -0.07427183304641351   -0.0023275559497994073
-0.007043405736104627   -0.06724030866136729   -0.0024412175534301215
-0.01084111078052276   -0.06717221147629229   -0.0024969735668194173
-0.00974235193019709   -0.07427183304641351   -0.0023275559497994073
-0.0071165356640605   -0.07447374263950306   -0.0024006665542404496
-0.007043405736104627   -0.06724030866136729   -0.0024412175534301215
-0.006949975591792171   -0.07444803803094671   -0.0023772536912881437
-0.01084111078052276   -0.06717221147629229   -0.0024969735668194173
-0.00692779444146278   -0.06725028455596298   -0.0024189632976482542
-0.006949975591792171   -0.07444803803094671   -0.0023772536912881437
-0.007043405736104627   -0.06724030866136729   -0.0024412175534301215
-0.01084111078052276   -0.06717221147629229   -0.0024969735668194173
-0.006949975591792171   -0.07444803803094671   -0.0023772536912881437
-0.00958003932862047   -0.07425578418268484   -0.002404092504454665
-0.00974235193019709   -0.07427183304641351   -0.0023275559497994073
-0.01084111078052276   -0.06717221147629229   -0.0024969735668194173
-0.006949975591792171   -0.07444803803094671   -0.0023772536912881437
-0.00974235193019709   -0.07427183304641351   -0.0023275559497994073
-0.007043405736104627   -0.06724030866136729   -0.0024412175534301215
-0.01084111078052276   -0.06717221147629229   -0.0024969735668194173
-0.00958003932862047   -0.07425578418268484   -0.002404092504454665
-0.00692779444146278   -0.06725028455596298   -0.0024189632976482542
-0.010699578390844266   -0.06724508987591103   -0.0025579725718511788
-0.00958003932862047   -0.07425578418268484   -0.002404092504454665
-0.006949975591792171   -0.07444803803094671   -0.0023772536912881437
-0.00692779444146278   -0.06725028455596298   -0.0024189632976482542
-0.006785760280182508   -0.07447487078110612   -0.002365022033177397
-0.010699578390844266   -0.06724508987591103   -0.0025579725718511788
-0.006808469770173001   -0.06729817191832248   -0.002407642792688916
-0.006785760280182508   -0.07447487078110612   -0.002365022033177397
-0.00692779444146278   -0.06725028455596298   -0.0024189632976482542
-0.010699578390844266   -0.06724508987591103   -0.0025579725718511788
-0.006785760280182508   -0.07447487078110612   -0.002365022033177397
-0.009389137135386078   -0.07430060152447975   -0.002492141223788525
-0.00958003932862047   -0.07425578418268484   -0.002404092504454665
-0.010699578390844266   -0.06724508987591103   -0.0025579725718511788
-0.006785760280182508   -0.07447487078110612   -0.002365022033177397
-0.00958003932862047   -0.07425578418268484   -0.002404092504454665
-0.00692779444146278   -0.06725028455596298   -0.0024189632976482542
-0.010699578390844266   -0.06724508987591103   -0.0025579725718511788
-0.009389137135386078   -0.07430060152447975   -0.002492141223788525
-0.006808469770173001   -0.06729817191832248   -0.002407642792688916
-0.010559931060123736   -0.06736456584348845   -0.0026301331289171207
-0.009389137135386078   -0.07430060152447975   -0.002492141223788525
-0.006785760280182508   -0.07447487078110612   -0.002365022033177397
-0.006808469770173001   -0.06729817191832248   -0.002407642792688916
-0.006634664752411594   -0.0745559876303396   -0.002366314247482608
-0.010559931060123736   -0.06736456584348845   -0.0026301331289171207
-0.006689340284066663   -0.06738620491128525   -0.0024071158292489673
-0.006634664752411594   -0.0745559876303396   -0.002366314247482608
-0.006808469770173001   -0.06729817191832248   -0.002407642792688916
-0.010559931060123736   -0.06736456584348845   -0.0026301331289171207
-0.006634664752411594   -0.0745559876303396   -0.002366314247482608
-0.009215951241087926   -0.07440730577803581   -0.002590965726851339
-0.009389137135386078   -0.07430060152447975   -0.002492141223788525
-0.010559931060123736   -0.06736456584348845   -0.0026301331289171207
-0.006634664752411594   -0.0745559876303396   -0.002366314247482608
-0.009389137135386078   -0.07430060152447975   -0.002492141223788525
-0.006808469770173001   -0.06729817191832248   -0.002407642792688916
-0.007043405736104627   -0.06724030866136729   -0.0024412175534301215
-0.0071165356640605   -0.07447374263950306   -0.0024006665542404496
-0.0032628364337047772   -0.06722242606609771   -0.0024692683550859964
-0.00692779444146278   -0.06725028455596298   -0.0024189632976482542
-0.0071165356640605   -0.07447374263950306   -0.0024006665542404496
-0.004601561348691932   -0.07457988440788667   -0.00248704797593299
-0.0032628364337047772   -0.06722242606609771   -0.0024692683550859964
-0.00441379929656561   -0.07454280623075746   -0.0023693787766068046
-0.00692779444146278   -0.06725028455596298   -0.0024189632976482542
-0.0031362017164893305   -0.06720944114703017   -0.002377553948077016
-0.00441379929656561   -0.07454280623075746   -0.0023693787766068046
-0.0032628364337047772   -0.06722242606609771   -0.0024692683550859964
-0.00692779444146278   -0.06725028455596298   -0.0024189632976482542
-0.00441379929656561   -0.07454280623075746   -0.0023693787766068046
-0.006949975591792171   -0.07444803803094671   -0.0023772536912881437
-0.0071165356640605   -0.07447374263950306   -0.0024006665542404496
-0.00692779444146278   -0.06725028455596298   -0.0024189632976482542
-0.00441379929656561   -0.07454280623075746   -0.0023693787766068046
-0.0071165356640605   -0.07447374263950306   -0.0024006665542404496
-0.0032628364337047772   -0.06722242606609771   -0.0024692683550859964
-0.00692779444146278   -0.06725028455596298   -0.0024189632976482542
-0.006949975591792171   -0.07444803803094671   -0.0023772536912881437
-0.0031362017164893305   -0.06720944114703017   -0.002377553948077016
-0.006808469770173001   -0.06729817191832248   -0.002407642792688916
-0.006949975591792171   -0.07444803803094671   -0.0023772536912881437
-0.00441379929656561   -0.07454280623075746   -0.0023693787766068046
-0.0031362017164893305   -0.06720944114703017   -0.002377553948077016
-0.004234817732138548   -0.07455192191156079   -0.0022615914614120105
-0.006808469770173001   -0.06729817191832248   -0.002407642792688916
-0.0030133015557614884   -0.06723073758568353   -0.0022974944003620644
-0.004234817732138548   -0.07455192191156079   -0.0022615914614120105
-0.0031362017164893305   -0.06720944114703017   -0.002377553948077016
-0.006808469770173001   -0.06729817191832248   -0.002407642792688916
-0.004234817732138548   -0.07455192191156079   -0.0022615914614120105
-0.006785760280182508   -0.07447487078110612   -0.002365022033177397
-0.006949975591792171   -0.07444803803094671   -0.0023772536912881437
-0.006808469770173001   -0.06729817191832248   -0.002407642792688916
-0.004234817732138548   -0.07455192191156079   -0.0022615914614120105
-0.006949975591792171   -0.07444803803094671   -0.0023772536912881437
-0.0031362017164893305   -0.06720944114703017   -0.002377553948077016
-0.006808469770173001   -0.06729817191832248   -0.002407642792688916
-0.006785760280182508   -0.07447487078110612   -0.002365022033177397
-0.0030133015557614884   -0.06723073758568353   -0.0022974944003620644
-0.006689340284066663   -0.06738620491128525   -0.0024071158292489673
-0.006785760280182508   -0.07447487078110612   -0.002365022033177397
-0.004234817732138548   -0.07455192191156079   -0.0022615914614120105
-0.0030133015557614884   -0.06723073758568353   -0.0022974944003620644
-0.004085967424031376   -0.07461623939671731   -0.0021698641593852173
-0.006689340284066663   -0.06738620491128525   -0.0024071158292489673
-0.0029022659745134914   -0.0672912893916859   -0.0022280803904972364
-0.004085967424031376   -0.07461623939671731   -0.0021698641593852173
-0.0030133015557614884   -0.06723073758568353   -0.0022974944003620644
-0.006689340284066663   -0.06738620491128525   -0.0024071158292489673
-0.004085967424031376   -0.07461623939671731   -0.0021698641593852173
-0.006634664752411594   -0.0745559876303396   -0.002366314247482608
-0.006785760280182508   -0.07447487078110612   -0.002365022033177397
-0.006689340284066663   -0.06738620491128525   -0.0024071158292489673
-0.004085967424031376   -0.07461623939671731   -0.0021698641593852173
-0.006785760280182508   -0.07447487078110612   -0.002365022033177397
-0.0030133015557614884   -0.06723073758568353   -0.0022974944003620644
-0.0032628364337047772   -0.06722242606609771   -0.0024692683550859964
-0.004601561348691932   -0.07457988440788667   -0.00248704797593299
0.0006949145277327512   -0.06708397946046434   -0.002537552911772704
-0.0031362017164893305   -0.06720944114703017   -0.002377553948077016
-0.004601561348691932   -0.07457988440788667   -0.00248704797593299
-0.0019270252478074362   -0.0745532003552447   -0.0025887884374719344
0.0006949145277327512   -0.06708397946046434   -0.002537552911772704
-0.0016859544179895789   -0.07449507484185311   -0.002380950263112062
-0.0031362017164893305   -0.06720944114703017   -0.002377553948077016
0.0008489658184311828   -0.0670418345517928   -0.00237661693430154
-0.0016859544179895789   -0.07449507484185311   -0.002380950263112062
0.0006949145277327512   -0.06708397946046434   -0.002537552911772704
-0.0031362017164893305   -0.06720944114703017   -0.002377553948077016
-0.0016859544179895789   -0.07449507484185311   -0.002380950263112062
-0.00441379929656561   -0.07454280623075746   -0.0023693787766068046
-0.004601561348691932   -0.07457988440788667   -0.00248704797593299
-0.0031362017164893305   -0.06720944114703017   -0.002377553948077016
-0.0016859544179895789   -0.07449507484185311   -0.002380950263112062
-0.004601561348691932   -0.07457988440788667   -0.00248704797593299
0.0006949145277327512   -0.06708397946046434   -0.002537552911772704
-0.0031362017164893305   -0.06720944114703017   -0.002377553948077016
-0.00441379929656561   -0.07454280623075746   -0.0023693787766068046
0.0008489658184311828   -0.0670418345517928   -0.00237661693430154
-0.0030133015557614884   -0.06723073758568353   -0.0022974944003620644
-0.00441379929656561   -0.07454280623075746   -0.0023693787766068046
-0.0016859544179895789   -0.07449507484185311   -0.002380950263112062
0.0008489658184311828   -0.0670418345517928   -0.00237661693430154
-0.0014394967815358293   -0.07448481337136904   -0.0021836844110602136
-0.0030133015557614884   -0.06723073758568353   -0.0022974944003620644
0.0010113110545405858   -0.06703801808892514   -0.0022304550172209093
-0.0014394967815358293   -0.07448481337136904   -0.0021836844110602136
0.0008489658184311828   -0.0670418345517928   -0.00237661693430154
-0.0030133015557614884   -0.06723073758568353   -0.0022974944003620644
-0.0014394967815358293   -0.07448481337136904   -0.0021836844110602136
-0.004234817732138548   -0.07455192191156079   -0.0022615914614120105
-0.00441379929656561   -0.07454280623075746   -0.0023693787766068046
-0.0030133015557614884   -0.06723073758568353   -0.0022974944003620644
-0.0014394967815358293   -0.07448481337136904   -0.0021836844110602136
-0.00441379929656561   -0.07454280623075746   -0.0023693787766068046
0.0008489658184311828   -0.0670418345517928   -0.00237661693430154
-0.0030133015557614884   -0.06723073758568353   -0.0022974944003620644
-0.004234817732138548   -0.07455192191156079   -0.0022615914614120105
0.0010113110545405858   -0.06703801808892514   -0.0022304550172209093
-0.0029022659745134914   -0.0672912893916859   -0.0022280803904972364
-0.004234817732138548   -0.07455192191156079   -0.0022615914614120105
-0.0014394967815358293   -0.07448481337136904   -0.0021836844110602136
0.0010113110545405858   -0.06703801808892514   -0.0022304550172209093
-0.0012569449256037129   -0.07453273607935136   -0.002004529800825104
-0.0029022659745134914   -0.0672912893916859   -0.0022280803904972364
0.0011300448579498708   -0.06707078615104194   -0.002094465864701638
-0.0012569449256037129   -0.07453273607935136   -0.002004529800825104
0.0010113110545405858   -0.06703801808892514   -0.0022304550172209093
-0.0029022659745134914   -0.0672912893916859   -0.0022280803904972364
-0.0012569449256037129   -0.07453273607935136   -0.002004529800825104
-0.004085967424031376   -0.07461623939671731   -0.0021698641593852173
-0.004234817732138548   -0.07455192191156079   -0.0022615914614120105
-0.0029022659745134914   -0.0672912893916859   -0.0022280803904972364
-0.0012569449256037129   -0.07453273607935136   -0.002004529800825104
-0.004234817732138548   -0.07455192191156079   -0.0022615914614120105
0.0010113110545405858   -0.06703801808892514   -0.0022304550172209093
0.0006949145277327512   -0.06708397946046434   -0.002537552911772704
-0.0019270252478074362   -0.0745532003552447   -0.0025887884374719344
0.004914379215997951   -0.06681184095681271   -0.0026835563215425965
0.0008489658184311828   -0.0670418345517928   -0.00237661693430154
-0.0019270252478074362   -0.0745532003552447   -0.0025887884374719344
0.0009518286310909859   -0.07429632970479351   -0.0027973266004922234
0.004914379215997951   -0.06681184095681271   -0.0026835563215425965
0.0015135875922273148   -0.07416983029095567   -0.00245734030999732
0.0008489658184311828   -0.0670418345517928   -0.00237661693430154
0.005304540239810786   -0.06673095214601947   -0.0024372493653803924
0.0015135875922273148   -0.07416983029095567   -0.00245734030999732
0.004914379215997951   -0.06681184095681271   -0.0026835563215425965
0.0008489658184311828   -0.0670418345517928   -0.00237661693430154
0.0015135875922273148   -0.07416983029095567   -0.00245734030999732
-0.0016859544179895789   -0.07449507484185311   -0.002380950263112062
-0.0019270252478074362   -0.0745532003552447   -0.0025887884374719344
0.0008489658184311828   -0.0670418345517928   -0.00237661693430154
0.0015135875922273148   -0.07416983029095567   -0.00245734030999732
-0.0019270252478074362   -0.0745532003552447   -0.0025887884374719344
0.004914379215997951   -0.06681184095681271   -0.0026835563215425965
0.0008489658184311828   -0.0670418345517928   -0.00237661693430154
-0.0016859544179895789   -0.07449507484185311   -0.002380950263112062
0.005304540239810786   -0.06673095214601947   -0.0024372493653803924
0.0010113110545405858   -0.06703801808892514   -0.0022304550172209093
-0.0016859544179895789   -0.07449507484185311   -0.002380950263112062
0.0015135875922273148   -0.07416983029095567   -0.00245734030999732
0.005304540239810786   -0.06673095214601947   -0.0024372493653803924
0.001955064478309147   -0.074144205414503   -0.002138121856427266
0.0010113110545405858   -0.06703801808892514   -0.0022304550172209093
0.005603684406124343   -0.06671694579401508   -0.002209263558629094
0.001955064478309147   -0.074144205414503   -0.002138121856427266
0.005304540239810786   -0.06673095214601947   -0.0024372493653803924
0.0010113110545405858   -0.06703801808892514   -0.0022304550172209093
0.001955064478309147   -0.074144205414503   -0.002138121856427266
-0.0014394967815358293   -0.07448481337136904   -0.0021836844110602136
-0.0016859544179895789   -0.07449507484185311   -0.002380950263112062
0.0010113110545405858   -0.06703801808892514   -0.0022304550172209093
0.001955064478309147   -0.074144205414503   -0.002138121856427266
-0.0016859544179895789   -0.07449507484185311   -0.002380950263112062
0.005304540239810786   -0.06673095214601947   -0.0024372493653803924
0.0010113110545405858   -0.06703801808892514   -0.0022304550172209093
-0.0014394967815358293   -0.07448481337136904   -0.0021836844110602136
0.005603684406124343   -0.06671694579401508   -0.002209263558629094
0.0011300448579498708   -0.06707078615104194   -0.002094465864701638
-0.0014394967815358293   -0.07448481337136904   -0.0021836844110602136
0.001955064478309147   -0.074144205414503   -0.002138121856427266
0.005603684406124343   -0.06671694579401508   -0.002209263558629094
0.002413827965957865   -0.07416572315235756   -0.0018465961243886845
0.0011300448579498708   -0.06707078615104194   -0.002094465864701638
0.005913599420773944   -0.06674093095100445   -0.002001461796255971
0.002413827965957865   -0.07416572315235756   -0.0018465961243886845
0.005603684406124343   -0.06671694579401508   -0.002209263558629094
0.0011300448579498708   -0.06707078615104194   -0.002094465864701638
0.002413827965957865   -0.07416572315235756   -0.0018465961243886845
-0.0012569449256037129   -0.07453273607935136   -0.002004529800825104
-0.0014394967815358293   -0.07448481337136904   -0.0021836844110602136
0.0011300448579498708   -0.06707078615104194   -0.002094465864701638
0.002413827965957865   -0.07416572315235756   -0.0018465961243886845
-0.0014394967815358293   -0.07448481337136904   -0.0021836844110602136
0.005603684406124343   -0.06671694579401508   -0.002209263558629094
-0.01295628014012408   -0.07396037974014688   -0.0022341339639995452
-0.009500537417318605   -0.07813832233552594   -0.001966024534649861
-0.00974235193019709   -0.07427183304641351   -0.0023275559497994073
-0.012606401560035303   -0.07395160876675837   -0.002440496235432409
-0.009500537417318605   -0.07813832233552594   -0.001966024534649861
-0.008005184627113552   -0.07853223452846603   -0.002202759325521023
-0.00974235193019709   -0.07427183304641351   -0.0023275559497994073
-0.007800393038330828   -0.078454383754567   -0.0022841912988044465
-0.012606401560035303   -0.07395160876675837   -0.002440496235432409
-0.00958003932862047   -0.07425578418268484   -0.002404092504454665
-0.007800393038330828   -0.078454383754567   -0.0022841912988044465
-0.00974235193019709   -0.07427183304641351   -0.0023275559497994073
-0.012606401560035303   -0.07395160876675837   -0.002440496235432409
-0.007800393038330828   -0.078454383754567   -0.0022841912988044465
-0.009064500621606728   -0.07805061763783351   -0.0022136068993630106
-0.009500537417318605   -0.07813832233552594   -0.001966024534649861
-0.012606401560035303   -0.07395160876675837   -0.002440496235432409
-0.007800393038330828   -0.078454383754567   -0.0022841912988044465
-0.009500537417318605   -0.07813832233552594   -0.001966024534649861
-0.00974235193019709   -0.07427183304641351   -0.0023275559497994073
-0.012606401560035303   -0.07395160876675837   -0.002440496235432409
-0.009064500621606728   -0.07805061763783351   -0.0022136068993630106
-0.00958003932862047   -0.07425578418268484   -0.002404092504454665
-0.012283884641305174   -0.07400698475007028   -0.0026630715245739597
-0.009064500621606728   -0.07805061763783351   -0.0022136068993630106
-0.007800393038330828   -0.078454383754567   -0.0022841912988044465
-0.00958003932862047   -0.07425578418268484   -0.002404092504454665
-0.007573584805601304   -0.07845821149766133   -0.002366448230353769
-0.012283884641305174   -0.07400698475007028   -0.0026630715245739597
-0.009389137135386078   -0.07430060152447975   -0.002492141223788525
-0.007573584805601304   -0.07845821149766133   -0.002366448230353769
-0.00958003932862047   -0.07425578418268484   -0.002404092504454665
-0.012283884641305174   -0.07400698475007028   -0.0026630715245739597
-0.007573584805601304   -0.07845821149766133   -0.002366448230353769
-0.008688285485636115   -0.07805809918504979   -0.002460234022754829
-0.009064500621606728   -0.07805061763783351   -0.0022136068993630106
-0.012283884641305174   -0.07400698475007028   -0.0026630715245739597
-0.007573584805601304   -0.07845821149766133   -0.002366448230353769
-0.009064500621606728   -0.07805061763783351   -0.0022136068993630106
-0.00958003932862047   -0.07425578418268484   -0.002404092504454665
-0.012283884641305174   -0.07400698475007028   -0.0026630715245739597
-0.008688285485636115   -0.07805809918504979   -0.002460234022754829
-0.009389137135386078   -0.07430060152447975   -0.002492141223788525
-0.011890524655883623   -0.07415487799695326   -0.0029009043784031623
-0.008688285485636115   -0.07805809918504979   -0.002460234022754829
-0.007573584805601304   -0.07845821149766133   -0.002366448230353769
-0.009389137135386078   -0.07430060152447975   -0.002492141223788525
-0.007362880235368965   -0.07854409616939767   -0.0024498745731931656
-0.011890524655883623   -0.07415487799695326   -0.0029009043784031623
-0.009215951241087926   -0.07440730577803581   -0.002590965726851339
-0.007362880235368965   -0.07854409616939767   -0.0024498745731931656
-0.009389137135386078   -0.07430060152447975   -0.002492141223788525
-0.011890524655883623   -0.07415487799695326   -0.0029009043784031623
-0.007362880235368965   -0.07854409616939767   -0.0024498745731931656
-0.008242051655534799   -0.07816623059819307   -0.0027121739527293624
-0.008688285485636115   -0.07805809918504979   -0.002460234022754829
-0.011890524655883623   -0.07415487799695326   -0.0029009043784031623
-0.007362880235368965   -0.07854409616939767   -0.0024498745731931656
-0.008688285485636115   -0.07805809918504979   -0.002460234022754829
-0.009389137135386078   -0.07430060152447975   -0.002492141223788525
-0.00974235193019709   -0.07427183304641351   -0.0023275559497994073
-0.008005184627113552   -0.07853223452846603   -0.002202759325521023
-0.0071165356640605   -0.07447374263950306   -0.0024006665542404496
-0.00958003932862047   -0.07425578418268484   -0.002404092504454665
-0.008005184627113552   -0.07853223452846603   -0.002202759325521023
-0.006910127419159703   -0.07892761825221216   -0.0024119895085813075
-0.0071165356640605   -0.07447374263950306   -0.0024006665542404496
-0.00669405481588061   -0.07884774326557581   -0.0023549217416070373
-0.00958003932862047   -0.07425578418268484   -0.002404092504454665
-0.006949975591792171   -0.07444803803094671   -0.0023772536912881437
-0.00669405481588061   -0.07884774326557581   -0.0023549217416070373
-0.0071165356640605   -0.07447374263950306   -0.0024006665542404496
-0.00958003932862047   -0.07425578418268484   -0.002404092504454665
-0.00669405481588061   -0.07884774326557581   -0.0023549217416070373
-0.007800393038330828   -0.078454383754567   -0.0022841912988044465
-0.008005184627113552   -0.07853223452846603   -0.002202759325521023
-0.00958003932862047   -0.07425578418268484   -0.002404092504454665
-0.00669405481588061   -0.07884774326557581   -0.0023549217416070373
-0.008005184627113552   -0.07853223452846603   -0.002202759325521023
-0.0071165356640605   -0.07447374263950306   -0.0024006665542404496
-0.00958003932862047   -0.07425578418268484   -0.002404092504454665
-0.007800393038330828   -0.078454383754567   -0.0022841912988044465
-0.006949975591792171   -0.07444803803094671   -0.0023772536912881437
-0.009389137135386078   -0.07430060152447975   -0.002492141223788525
-0.007800393038330828   -0.078454383754567   -0.0022841912988044465
-0.00669405481588061   -0.07884774326557581   -0.0023549217416070373
-0.006949975591792171   -0.07444803803094671   -0.0023772536912881437
-0.006485145849660055   -0.07884629644059406   -0.00229714408704961
-0.009389137135386078   -0.07430060152447975   -0.002492141223788525
-0.006785760280182508   -0.07447487078110612   -0.002365022033177397
-0.006485145849660055   -0.07884629644059406   -0.00229714408704961
-0.006949975591792171   -0.07444803803094671   -0.0023772536912881437
-0.009389137135386078   -0.07430060152447975   -0.002492141223788525
-0.006485145849660055   -0.07884629644059406   -0.00229714408704961
-0.007573584805601304   -0.07845821149766133   -0.002366448230353769
-0.007800393038330828   -0.078454383754567   -0.0022841912988044465
-0.009389137135386078   -0.07430060152447975   -0.002492141223788525
-0.006485145849660055   -0.07884629644059406   -0.00229714408704961
-0.007800393038330828   -0.078454383754567   -0.0022841912988044465
-0.006949975591792171   -0.07444803803094671   -0.0023772536912881437
-0.009389137135386078   -0.07430060152447975   -0.002492141223788525
-0.007573584805601304   -0.07845821149766133   -0.002366448230353769
-0.006785760280182508   -0.07447487078110612   -0.002365022033177397
-0.009215951241087926   -0.07440730577803581   -0.002590965726851339
-0.007573584805601304   -0.07845821149766133   -0.002366448230353769
-0.006485145849660055   -0.07884629644059406   -0.00229714408704961
-0.006785760280182508   -0.07447487078110612   -0.002365022033177397
-0.0062673490775962655   -0.07892163976165043   -0.002241647700927698
-0.009215951241087926   -0.07440730577803581   -0.002590965726851339
-0.006634664752411594   -0.0745559876303396   -0.002366314247482608
-0.0062673490775962655   -0.07892163976165043   -0.002241647700927698
-0.006785760280182508   -0.07447487078110612   -0.002365022033177397
-0.009215951241087926   -0.07440730577803581   -0.002590965726851339
-0.0062673490775962655   -0.07892163976165043   -0.002241647700927698
-0.007362880235368965   -0.07854409616939767   -0.0024498745731931656
-0.007573584805601304   -0.07845821149766133   -0.002366448230353769
-0.009215951241087926   -0.07440730577803581   -0.002590965726851339
-0.0062673490775962655   -0.07892163976165043   -0.002241647700927698
-0.007573584805601304   -0.07845821149766133   -0.002366448230353769
-0.006785760280182508   -0.07447487078110612   -0.002365022033177397
-0.0071165356640605   -0.07447374263950306   -0.0024006665542404496
-0.006910127419159703   -0.07892761825221216   -0.0024119895085813075
-0.004601561348691932   -0.07457988440788667   -0.00248704797593299
-0.006949975591792171   -0.07444803803094671   -0.0023772536912881437
-0.006910127419159703   -0.07892761825221216   -0.0024119895085813075
-0.0059100965186112955   -0.07940480652243792   -0.00264239172392561
-0.004601561348691932   -0.07457988440788667   -0.00248704797593299
-0.005645212354406811   -0.07933549332976382   -0.0024390542377939893
-0.006949975591792171   -0.07444803803094671   -0.0023772536912881437
-0.00441379929656561   -0.07454280623075746   -0.0023693787766068046
-0.005645212354406811   -0.07933549332976382   -0.0024390542377939893
-0.004601561348691932   -0.07457988440788667   -0.00248704797593299
-0.006949975591792171   -0.07444803803094671   -0.0023772536912881437
-0.005645212354406811   -0.07933549332976382   -0.0024390542377939893
-0.00669405481588061   -0.07884774326557581   -0.0023549217416070373
-0.006910127419159703   -0.07892761825221216   -0.0024119895085813075
-0.006949975591792171   -0.07444803803094671   -0.0023772536912881437
-0.005645212354406811   -0.07933549332976382   -0.0024390542377939893
-0.006910127419159703   -0.07892761825221216   -0.0024119895085813075
-0.004601561348691932   -0.07457988440788667   -0.00248704797593299
-0.006949975591792171   -0.07444803803094671   -0.0023772536912881437
-0.00669405481588061   -0.07884774326557581   -0.0023549217416070373
-0.00441379929656561   -0.07454280623075746   -0.0023693787766068046
-0.006785760280182508   -0.07447487078110612   -0.002365022033177397
-0.00669405481588061   -0.07884774326557581   -0.0023549217416070373
-0.005645212354406811   -0.07933549332976382   -0.0024390542377939893
-0.00441379929656561   -0.07454280623075746   -0.0023693787766068046
-0.005399776524147688   -0.07933177513260362   -0.0022364055780942013
-0.006785760280182508   -0.07447487078110612   -0.002365022033177397
-0.004234817732138548   -0.07455192191156079   -0.0022615914614120105
-0.005399776524147688   -0.07933177513260362   -0.0022364055780942013
-0.00441379929656561   -0.07454280623075746   -0.0023693787766068046
-0.006785760280182508   -0.07447487078110612   -0.002365022033177397
-0.005399776524147688   -0.07933177513260362   -0.0022364055780942013
-0.006485145849660055   -0.07884629644059406   -0.00229714408704961
-0.00669405481588061   -0.07884774326557581   -0.0023549217416070373
-0.006785760280182508   -0.07447487078110612   -0.002365022033177397
-0.005399776524147688   -0.07933177513260362   -0.0022364055780942013
-0.00669405481588061   -0.07884774326557581   -0.0023549217416070373
-0.00441379929656561   -0.07454280623075746   -0.0023693787766068046
-0.006785760280182508   -0.07447487078110612   -0.002365022033177397
-0.006485145849660055   -0.07884629644059406   -0.00229714408704961
-0.004234817732138548   -0.07455192191156079   -0.0022615914614120105
-0.006634664752411594   -0.0745559876303396   -0.002366314247482608
-0.006485145849660055   -0.07884629644059406   -0.00229714408704961
-0.005399776524147688   -0.07933177513260362   -0.0022364055780942013
-0.004234817732138548   -0.07455192191156079   -0.0022615914614120105
-0.0051362704650871486   -0.07939010719773601   -0.002033302475598184
-0.006634664752411594   -0.0745559876303396   -0.002366314247482608
-0.004085967424031376   -0.07461623939671731   -0.0021698641593852173
-0.0051362704650871486   -0.07939010719773601   -0.002033302475598184
-0.004234817732138548   -0.07455192191156079   -0.0022615914614120105
-0.006634664752411594   -0.0745559876303396   -0.002366314247482608
-0.0051362704650871486   -0.07939010719773601   -0.002033302475598184
-0.0062673490775962655   -0.07892163976165043   -0.002241647700927698
-0.006485145849660055   -0.07884629644059406   -0.00229714408704961
-0.006634664752411594   -0.0745559876303396   -0.002366314247482608
-0.0051362704650871486   -0.07939010719773601   -0.002033302475598184
-0.006485145849660055   -0.07884629644059406   -0.00229714408704961
-0.004234817732138548   -0.07455192191156079   -0.0022615914614120105
-0.004601561348691932   -0.07457988440788667   -0.00248704797593299
-0.0059100965186112955   -0.07940480652243792   -0.00264239172392561
-0.0019270252478074362   -0.0745532003552447   -0.0025887884374719344
-0.00441379929656561   -0.07454280623075746   -0.0023693787766068046
-0.0059100965186112955   -0.07940480652243792   -0.00264239172392561
-0.004925890637174117   -0.08   -0.0028193666981005923
-0.0019270252478074362   -0.0745532003552447   -0.0025887884374719344
-0.0045927434822605594   -0.08   -0.002510556426678087
-0.00441379929656561   -0.07454280623075746   -0.0023693787766068046
-0.0016859544179895789   -0.07449507484185311   -0.002380950263112062
-0.0045927434822605594   -0.08   -0.002510556426678087
-0.0019270252478074362   -0.0745532003552447   -0.0025887884374719344
-0.00441379929656561   -0.07454280623075746   -0.0023693787766068046
-0.0045927434822605594   -0.08   -0.002510556426678087
-0.005645212354406811   -0.07933549332976382   -0.0024390542377939893
-0.0059100965186112955   -0.07940480652243792   -0.00264239172392561
-0.00441379929656561   -0.07454280623075746   -0.0023693787766068046
-0.0045927434822605594   -0.08   -0.002510556426678087
-0.0059100965186112955   -0.07940480652243792   -0.00264239172392561
-0.0019270252478074362   -0.0745532003552447   -0.0025887884374719344
-0.00441379929656561   -0.07454280623075746   -0.0023693787766068046
-0.005645212354406811   -0.07933549332976382   -0.0024390542377939893
-0.0016859544179895789   -0.07449507484185311   -0.002380950263112062
-0.004234817732138548   -0.07455192191156079   -0.0022615914614120105
-0.005645212354406811   -0.07933549332976382   -0.0024390542377939893
-0.0045927434822605594   -0.08   -0.002510556426678087
-0.0016859544179895789   -0.07449507484185311   -0.002380950263112062
-0.004258019280598816   -0.08   -0.0021980836989982495
-0.004234817732138548   -0.07455192191156079   -0.0022615914614120105
-0.0014394967815358293   -0.07448481337136904   -0.0021836844110602136
-0.004258019280598816   -0.08   -0.0021980836989982495
-0.0016859544179895789   -0.07449507484185311   -0.002380950263112062
-0.004234817732138548   -0.07455192191156079   -0.0022615914614120105
-0.004258019280598816   -0.08   -0.0021980836989982495
-0.005399776524147688   -0.07933177513260362   -0.0022364055780942013
-0.005645212354406811   -0.07933549332976382   -0.0024390542377939893
-0.004234817732138548   -0.07455192191156079   -0.0022615914614120105
-0.004258019280598816   -0.08   -0.0021980836989982495
-0.005645212354406811   -0.07933549332976382   -0.0024390542377939893
-0.0016859544179895789   -0.07449507484185311   -0.002380950263112062
-0.004234817732138548   -0.07455192191156079   -0.0022615914614120105
-0.005399776524147688   -0.07933177513260362   -0.0022364055780942013
-0.0014394967815358293   -0.07448481337136904   -0.0021836844110602136
-0.004085967424031376   -0.07461623939671731   -0.0021698641593852173
-0.005399776524147688   -0.07933177513260362   -0.0022364055780942013
-0.004258019280598816   -0.08   -0.0021980836989982495
-0.0014394967815358293   -0.07448481337136904   -0.0021836844110602136
-0.003930810376377661   -0.08   -0.0018897414335334374
-0.004085967424031376   -0.07461623939671731   -0.0021698641593852173
-0.0012569449256037129   -0.07453273607935136   -0.002004529800825104
-0.003930810376377661   -0.08   -0.0018897414335334374
-0.0014394967815358293   -0.07448481337136904   -0.0021836844110602136
-0.004085967424031376   -0.07461623939671731   -0.0021698641593852173
-0.003930810376377661   -0.08   -0.0018897414335334374
-0.0051362704650871486   -0.07939010719773601   -0.002033302475598184
-0.005399776524147688   -0.07933177513260362   -0.0022364055780942013
-0.004085967424031376   -0.07461623939671731   -0.0021698641593852173
-0.003930810376377661   -0.08   -0.0018897414335334374
-0.005399776524147688   -0.07933177513260362   -0.0022364055780942013
-0.0014394967815358293   -0.07448481337136904   -0.0021836844110602136
-0.0019270252478074362   -0.0745532003552447   -0.0025887884374719344
-0.004925890637174117   -0.08   -0.0028193666981005923
0.0009518286310909859   -0.07429632970479351   -0.0027973266004922234
-0.0016859544179895789   -0.07449507484185311   -0.002380950263112062
-0.004925890637174117   -0.08   -0.0028193666981005923
-0.004212035545045256   -0.08   -0.0030337011722972804
0.0009518286310909859   -0.07429632970479351   -0.0027973266004922234
-0.0035155314875891645   -0.08   -0.002586959619833029
-0.0016859544179895789   -0.07449507484185311   -0.002380950263112062
0.0015135875922273148   -0.07416983029095567   -0.00245734030999732
-0.0035155314875891645   -0.08   -0.002586959619833029
0.0009518286310909859   -0.07429632970479351   -0.0027973266004922234
-0.0016859544179895789   -0.07449507484185311   -0.002380950263112062
-0.0035155314875891645   -0.08   -0.002586959619833029
-0.0045927434822605594   -0.08   -0.002510556426678087
-0.004925890637174117   -0.08   -0.0028193666981005923
-0.0016859544179895789   -0.07449507484185311   -0.002380950263112062
-0.0035155314875891645   -0.08   -0.002586959619833029
-0.004925890637174117   -0.08   -0.0028193666981005923
0.0009518286310909859   -0.07429632970479351   -0.0027973266004922234
-0.0016859544179895789   -0.07449507484185311   -0.002380950263112062
-0.0045927434822605594   -0.08   -0.002510556426678087
0.0015135875922273148   -0.07416983029095567   -0.00245734030999732
-0.0014394967815358293   -0.07448481337136904   -0.0021836844110602136
-0.0045927434822605594   -0.08   -0.002510556426678087
-0.0035155314875891645   -0.08   -0.002586959619833029
0.0015135875922273148   -0.07416983029095567   -0.00245734030999732
-0.0029600791832938675   -0.08   -0.0021595947168947765
-0.0014394967815358293   -0.07448481337136904   -0.0021836844110602136
0.001955064478309147   -0.074144205414503   -0.002138121856427266
-0.0029600791832938675   -0.08   -0.0021595947168947765
0.0015135875922273148   -0.07416983029095567   -0.00245734030999732
-0.0014394967815358293   -0.07448481337136904   -0.0021836844110602136
-0.0029600791832938675   -0.08   -0.0021595947168947765
-0.004258019280598816   -0.08   -0.0021980836989982495
-0.0045927434822605594   -0.08   -0.002510556426678087
-0.0014394967815358293   -0.07448481337136904   -0.0021836844110602136
-0.0029600791832938675   -0.08   -0.0021595947168947765
-0.0045927434822605594   -0.08   -0.002510556426678087
0.0015135875922273148   -0.07416983029095567   -0.00245734030999732
-0.0014394967815358293   -0.07448481337136904   -0.0021836844110602136
-0.004258019280598816   -0.08   -0.0021980836989982495
0.001955064478309147   -0.074144205414503   -0.002138121856427266
-0.0012569449256037129   -0.07453273607935136   -0.002004529800825104
-0.004258019280598816   -0.08   -0.0021980836989982495
-0.0029600791832938675   -0.08   -0.0021595947168947765
0.001955064478309147   -0.074144205414503   -0.002138121856427266
-0.0022739240057378885   -0.08   -0.0017159426889565717
-0.0012569449256037129   -0.07453273607935136   -0.002004529800825104
0.002413827965957865   -0.07416572315235756   -0.0018465961243886845
-0.0022739240057378885   -0.08   -0.0017159426889565717
0.001955064478309147   -0.074144205414503   -0.002138121856427266
-0.0012569449256037129   -0.07453273607935136   -0.002004529800825104
-0.0022739240057378885   -0.08   -0.0017159426889565717
-0.003930810376377661   -0.08   -0.0018897414335334374
-0.004258019280598816   -0.08   -0.0021980836989982495
-0.0012569449256037129   -0.07453273607935136   -0.002004529800825104
-0.0022739240057378885   -0.08   -0.0017159426889565717
-0.004258019280598816   -0.08   -0.0021980836989982495
0.001955064478309147   -0.074144205414503   -0.002138121856427266
-0.009500537417318605   -0.07813832233552594   -0.001966024534649861
-0.005677305747134871   -0.07834837623202731   -0.0016827301884270375
-0.008005184627113552   -0.07853223452846603   -0.002202759325521023
-0.009064500621606728   -0.07805061763783351   -0.0022136068993630106
-0.005677305747134871   -0.07834837623202731   -0.0016827301884270375
-0.0060215160645283525   -0.07865189812502182   -0.001987543416652571
-0.008005184627113552   -0.07853223452846603   -0.002202759325521023
-0.0058666380200979576   -0.07854558698167907   -0.002098660142214162
-0.009064500621606728   -0.07805061763783351   -0.0022136068993630106
-0.007800393038330828   -0.078454383754567   -0.0022841912988044465
-0.0058666380200979576   -0.07854558698167907   -0.002098660142214162
-0.008005184627113552   -0.07853223452846603   -0.002202759325521023
-0.009064500621606728   -0.07805061763783351   -0.0022136068993630106
-0.0058666380200979576   -0.07854558698167907   -0.002098660142214162
-0.005282172501776348   -0.07821187234173795   -0.001942855102911003
-0.005677305747134871   -0.07834837623202731   -0.0016827301884270375
-0.009064500621606728   -0.07805061763783351   -0.0022136068993630106
-0.0058666380200979576   -0.07854558698167907   -0.002098660142214162
-0.005677305747134871   -0.07834837623202731   -0.0016827301884270375
-0.008005184627113552   -0.07853223452846603   -0.002202759325521023
-0.009064500621606728   -0.07805061763783351   -0.0022136068993630106
-0.005282172501776348   -0.07821187234173795   -0.001942855102911003
-0.007800393038330828   -0.078454383754567   -0.0022841912988044465
-0.008688285485636115   -0.07805809918504979   -0.002460234022754829
-0.005282172501776348   -0.07821187234173795   -0.001942855102911003
-0.0058666380200979576   -0.07854558698167907   -0.002098660142214162
-0.007800393038330828   -0.078454383754567   -0.0022841912988044465
-0.0056849820204919015   -0.0785063206673503   -0.002201171873034411
-0.008688285485636115   -0.07805809918504979   -0.002460234022754829
-0.007573584805601304   -0.07845821149766133   -0.002366448230353769
-0.0056849820204919015   -0.0785063206673503   -0.002201171873034411
-0.007800393038330828   -0.078454383754567   -0.0022841912988044465
-0.008688285485636115   -0.07805809918504979   -0.002460234022754829
-0.0056849820204919015   -0.0785063206673503   -0.002201171873034411
-0.0049532605656392925   -0.07816982702533361   -0.0021923015040098076
-0.005282172501776348   -0.07821187234173795   -0.001942855102911003
-0.008688285485636115   -0.07805809918504979   -0.002460234022754829
-0.0056849820204919015   -0.0785063206673503   -0.002201171873034411
-0.005282172501776348   -0.07821187234173795   -0.001942855102911003
-0.007800393038330828   -0.078454383754567   -0.0022841912988044465
-0.008688285485636115   -0.07805809918504979   -0.002460234022754829
-0.0049532605656392925   -0.07816982702533361   -0.0021923015040098076
-0.007573584805601304   -0.07845821149766133   -0.002366448230353769
-0.008242051655534799   -0.07816623059819307   -0.0027121739527293624
-0.0049532605656392925   -0.07816982702533361   -0.0021923015040098076
-0.0056849820204919015   -0.0785063206673503   -0.002201171873034411
-0.007573584805601304   -0.07845821149766133   -0.002366448230353769
-0.005529363978323535   -0.07853466578901641   -0.0022945418714237797
-0.008242051655534799   -0.07816623059819307   -0.0027121739527293624
-0.007362880235368965   -0.07854409616939767   -0.0024498745731931656
-0.005529363978323535   -0.07853466578901641   -0.0022945418714237797
-0.007573584805601304   -0.07845821149766133   -0.002366448230353769
-0.008242051655534799   -0.07816623059819307   -0.0027121739527293624
-0.005529363978323535   -0.07853466578901641   -0.0022945418714237797
-0.004581142228358075   -0.07820519077371858   -0.0024299598625673593
-0.0049532605656392925   -0.07816982702533361   -0.0021923015040098076
-0.008242051655534799   -0.07816623059819307   -0.0027121739527293624
-0.005529363978323535   -0.07853466578901641   -0.0022945418714237797
-0.0049532605656392925   -0.07816982702533361   -0.0021923015040098076
-0.007573584805601304   -0.07845821149766133   -0.002366448230353769
-0.008005184627113552   -0.07853223452846603   -0.002202759325521023
-0.0060215160645283525   -0.07865189812502182   -0.001987543416652571
-0.006910127419159703   -0.07892761825221216   -0.0024119895085813075
-0.007800393038330828   -0.078454383754567   -0.0022841912988044465
-0.0060215160645283525   -0.07865189812502182   -0.001987543416652571
-0.006487473506437518   -0.07883959336768863   -0.002231264108052194
-0.006910127419159703   -0.07892761825221216   -0.0024119895085813075
-0.006350396067208036   -0.07874466554244766   -0.00223418059727718
-0.007800393038330828   -0.078454383754567   -0.0022841912988044465
-0.00669405481588061   -0.07884774326557581   -0.0023549217416070373
-0.006350396067208036   -0.07874466554244766   -0.00223418059727718
-0.006910127419159703   -0.07892761825221216   -0.0024119895085813075
-0.007800393038330828   -0.078454383754567   -0.0022841912988044465
-0.006350396067208036   -0.07874466554244766   -0.00223418059727718
-0.0058666380200979576   -0.07854558698167907   -0.002098660142214162
-0.0060215160645283525   -0.07865189812502182   -0.001987543416652571
-0.007800393038330828   -0.078454383754567   -0.0022841912988044465
-0.006350396067208036   -0.07874466554244766   -0.00223418059727718
-0.0060215160645283525   -0.07865189812502182   -0.001987543416652571
-0.006910127419159703   -0.07892761825221216   -0.0024119895085813075
-0.007800393038330828   -0.078454383754567   -0.0022841912988044465
-0.0058666380200979576   -0.07854558698167907   -0.002098660142214162
-0.00669405481588061   -0.07884774326557581   -0.0023549217416070373
-0.007573584805601304   -0.07845821149766133   -0.002366448230353769
-0.0058666380200979576   -0.07854558698167907   -0.002098660142214162
-0.006350396067208036   -0.07874466554244766   -0.00223418059727718
-0.00669405481588061   -0.07884774326557581   -0.0023549217416070373
-0.006197818183965645   -0.07871046148248362   -0.0022259408519668218
-0.007573584805601304   -0.07845821149766133   -0.002366448230353769
-0.006485145849660055   -0.07884629644059406   -0.00229714408704961
-0.006197818183965645   -0.07871046148248362   -0.0022259408519668218
-0.00669405481588061   -0.07884774326557581   -0.0023549217416070373
-0.007573584805601304   -0.07845821149766133   -0.002366448230353769
-0.006197818183965645   -0.07871046148248362   -0.0022259408519668218
-0.0056849820204919015   -0.0785063206673503   -0.002201171873034411
-0.0058666380200979576   -0.07854558698167907   -0.002098660142214162
-0.007573584805601304   -0.07845821149766133   -0.002366448230353769
-0.006197818183965645   -0.07871046148248362   -0.0022259408519668218
-0.0058666380200979576   -0.07854558698167907   -0.002098660142214162
-0.00669405481588061   -0.07884774326557581   -0.0023549217416070373
-0.007573584805601304   -0.07845821149766133   -0.002366448230353769
-0.0056849820204919015   -0.0785063206673503   -0.002201171873034411
-0.006485145849660055   -0.07884629644059406   -0.00229714408704961
-0.007362880235368965   -0.07854409616939767   -0.0024498745731931656
-0.0056849820204919015   -0.0785063206673503   -0.002201171873034411
-0.006197818183965645   -0.07871046148248362   -0.0022259408519668218
-0.006485145849660055   -0.07884629644059406   -0.00229714408704961
-0.006042684822235844   -0.078734204343522   -0.0022089470351950155
-0.007362880235368965   -0.07854409616939767   -0.0024498745731931656
-0.0062673490775962655   -0.07892163976165043   -0.002241647700927698
-0.006042684822235844   -0.078734204343522   -0.0022089470351950155
-0.006485145849660055   -0.07884629644059406   -0.00229714408704961
-0.007362880235368965   -0.07854409616939767   -0.0024498745731931656
-0.006042684822235844   -0.078734204343522   -0.0022089470351950155
-0.005529363978323535   -0.07853466578901641   -0.0022945418714237797
-0.0056849820204919015   -0.0785063206673503   -0.002201171873034411
-0.007362880235368965   -0.07854409616939767   -0.0024498745731931656
-0.006042684822235844   -0.078734204343522   -0.0022089470351950155
-0.0056849820204919015   -0.0785063206673503   -0.002201171873034411
-0.006485145849660055   -0.07884629644059406   -0.00229714408704961
-0.006910127419159703   -0.07892761825221216   -0.0024119895085813075
-0.006487473506437518   -0.07883959336768863   -0.002231264108052194
-0.0059100965186112955   -0.07940480652243792   -0.00264239172392561
-0.00669405481588061   -0.07884774326557581   -0.0023549217416070373
-0.006487473506437518   -0.07883959336768863   -0.002231264108052194
-0.006986985364890696   -0.07891855167180976   -0.0024711341113742547
-0.0059100965186112955   -0.07940480652243792   -0.00264239172392561
-0.006844988313158425   -0.0788280422209774   -0.0023700098162405237
-0.00669405481588061   -0.07884774326557581   -0.0023549217416070373
-0.005645212354406811   -0.07933549332976382   -0.0024390542377939893
-0.006844988313158425   -0.0788280422209774   -0.0023700098162405237
-0.0059100965186112955   -0.07940480652243792   -0.00264239172392561
-0.00669405481588061   -0.07884774326557581   -0.0023549217416070373
-0.006844988313158425   -0.0788280422209774   -0.0023700098162405237
-0.006350396067208036   -0.07874466554244766   -0.00223418059727718
-0.006487473506437518   -0.07883959336768863   -0.002231264108052194
-0.00669405481588061   -0.07884774326557581   -0.0023549217416070373
-0.006844988313158425   -0.0788280422209774   -0.0023700098162405237
-0.006487473506437518   -0.07883959336768863   -0.002231264108052194
-0.0059100965186112955   -0.07940480652243792   -0.00264239172392561
-0.00669405481588061   -0.07884774326557581   -0.0023549217416070373
-0.006350396067208036   -0.07874466554244766   -0.00223418059727718
-0.005645212354406811   -0.07933549332976382   -0.0024390542377939893
-0.006485145849660055   -0.07884629644059406   -0.00229714408704961
-0.006350396067208036   -0.07874466554244766   -0.00223418059727718
-0.006844988313158425   -0.0788280422209774   -0.0023700098162405237
-0.005645212354406811   -0.07933549332976382   -0.0024390542377939893
-0.006674660066545949   -0.07879924972403263   -0.0022552985185009373
-0.006485145849660055   -0.07884629644059406   -0.00229714408704961
-0.005399776524147688   -0.07933177513260362   -0.0022364055780942013
-0.006674660066545949   -0.07879924972403263   -0.0022552985185009373
-0.005645212354406811   -0.07933549332976382   -0.0024390542377939893
-0.006485145849660055   -0.07884629644059406   -0.00229714408704961
-0.006674660066545949   -0.07879924972403263   -0.0022552985185009373
-0.006197818183965645   -0.07871046148248362   -0.0022259408519668218
-0.006350396067208036   -0.07874466554244766   -0.00223418059727718
-0.006485145849660055   -0.07884629644059406   -0.00229714408704961
-0.006674660066545949   -0.07879924972403263   -0.0022552985185009373
-0.006350396067208036   -0.07874466554244766   -0.00223418059727718
-0.005645212354406811   -0.07933549332976382   -0.0024390542377939893
-0.006485145849660055   -0.07884629644059406   -0.00229714408704961
-0.006197818183965645   -0.07871046148248362   -0.0022259408519668218
-0.005399776524147688   -0.07933177513260362   -0.0022364055780942013
-0.0062673490775962655   -0.07892163976165043   -0.002241647700927698
-0.006197818183965645   -0.07871046148248362   -0.0022259408519668218
-0.006674660066545949   -0.07879924972403263   -0.0022552985185009373
-0.005399776524147688   -0.07933177513260362   -0.0022364055780942013
-0.0064994931737302605   -0.07882246977050458   -0.0021331129010292303
-0.0062673490775962655   -0.07892163976165043   -0.002241647700927698
-0.0051362704650871486   -0.07939010719773601   -0.002033302475598184
-0.0064994931737302605   -0.07882246977050458   -0.0021331129010292303
-0.005399776524147688   -0.07933177513260362   -0.0022364055780942013
-0.0062673490775962655   -0.07892163976165043   -0.002241647700927698
-0.0064994931737302605   -0.07882246977050458   -0.0021331129010292303
-0.006042684822235844   -0.078734204343522   -0.0022089470351950155
-0.006197818183965645   -0.07871046148248362   -0.0022259408519668218
-0.0062673490775962655   -0.07892163976165043   -0.002241647700927698
-0.0064994931737302605   -0.07882246977050458   -0.0021331129010292303
-0.006197818183965645   -0.07871046148248362   -0.0022259408519668218
-0.005399776524147688   -0.07933177513260362   -0.0022364055780942013
-0.0059100965186112955   -0.07940480652243792   -0.00264239172392561
-0.006986985364890696   -0.07891855167180976   -0.0024711341113742547
-0.004925890637174117   -0.08   -0.0028193666981005923
-0.005645212354406811   -0.07933549332976382   -0.0024390542377939893
-0.006986985364890696   -0.07891855167180976   -0.0024711341113742547
-0.007710412878723703   -0.07883373359903231   -0.0026990137354533325
-0.004925890637174117   -0.08   -0.0028193666981005923
-0.007524931228862637   -0.07874829654964641   -0.002498838798792271
-0.005645212354406811   -0.07933549332976382   -0.0024390542377939893
-0.0045927434822605594   -0.08   -0.002510556426678087
-0.007524931228862637   -0.07874829654964641   -0.002498838798792271
-0.004925890637174117   -0.08   -0.0028193666981005923
-0.005645212354406811   -0.07933549332976382   -0.0024390542377939893
-0.007524931228862637   -0.07874829654964641   -0.002498838798792271
-0.006844988313158425   -0.0788280422209774   -0.0023700098162405237
-0.006986985364890696   -0.07891855167180976   -0.0024711341113742547
-0.005645212354406811   -0.07933549332976382   -0.0024390542377939893
-0.007524931228862637   -0.07874829654964641   -0.002498838798792271
-0.006986985364890696   -0.07891855167180976   -0.0024711341113742547
-0.004925890637174117   -0.08   -0.0028193666981005923
-0.005645212354406811   -0.07933549332976382   -0.0024390542377939893
-0.006844988313158425   -0.0788280422209774   -0.0023700098162405237
-0.0045927434822605594   -0.08   -0.002510556426678087
-0.005399776524147688   -0.07933177513260362   -0.0022364055780942013
-0.006844988313158425   -0.0788280422209774   -0.0023700098162405237
-0.007524931228862637   -0.07874829654964641   -0.002498838798792271
-0.0045927434822605594   -0.08   -0.002510556426678087
-0.007280211986818262   -0.07872884846492487   -0.0022835365103410794
-0.005399776524147688   -0.07933177513260362   -0.0022364055780942013
-0.004258019280598816   -0.08   -0.0021980836989982495
-0.007280211986818262   -0.07872884846492487   -0.0022835365103410794
-0.0045927434822605594   -0.08   -0.002510556426678087
-0.005399776524147688   -0.07933177513260362   -0.0022364055780942013
-0.007280211986818262   -0.07872884846492487   -0.0022835365103410794
-0.006674660066545949   -0.07879924972403263   -0.0022552985185009373
-0.006844988313158425   -0.0788280422209774   -0.0023700098162405237
-0.005399776524147688   -0.07933177513260362   -0.0022364055780942013
-0.007280211986818262   -0.07872884846492487   -0.0022835365103410794
-0.006844988313158425   -0.0788280422209774   -0.0023700098162405237
-0.0045927434822605594   -0.08   -0.002510556426678087
-0.005399776524147688   -0.07933177513260362   -0.0022364055780942013
-0.006674660066545949   -0.07879924972403263   -0.0022552985185009373
-0.004258019280598816   -0.08   -0.0021980836989982495
-0.0051362704650871486   -0.07939010719773601   -0.002033302475598184
-0.006674660066545949   -0.07879924972403263   -0.0022552985185009373
-0.007280211986818262   -0.07872884846492487   -0.0022835365103410794
-0.004258019280598816   -0.08   -0.0021980836989982495
-0.007049977961086241   -0.07876264770277597   -0.0020599152934561993
-0.0051362704650871486   -0.07939010719773601   -0.002033302475598184
-0.003930810376377661   -0.08   -0.0018897414335334374
-0.007049977961086241   -0.07876264770277597   -0.0020599152934561993
-0.004258019280598816   -0.08   -0.0021980836989982495
-0.0051362704650871486   -0.07939010719773601   -0.002033302475598184
-0.007049977961086241   -0.07876264770277597   -0.0020599152934561993
-0.0064994931737302605   -0.07882246977050458   -0.0021331129010292303
-0.006674660066545949   -0.07879924972403263   -0.0022552985185009373
-0.0051362704650871486   -0.07939010719773601   -0.002033302475598184
-0.007049977961086241   -0.07876264770277597   -0.0020599152934561993
-0.006674660066545949   -0.07879924972403263   -0.0022552985185009373
-0.004258019280598816   -0.08   -0.0021980836989982495
-0.004925890637174117   -0.08   -0.0028193666981005923
-0.007710412878723703   -0.07883373359903231   -0.0026990137354533325
-0.004212035545045256   -0.08   -0.0030337011722972804
-0.0045927434822605594   -0.08   -0.002510556426678087
-0.007710412878723703   -0.07883373359903231   -0.0026990137354533325
-0.009116350791193625   -0.07844791245492891   -0.002940604928594332
-0.004212035545045256   -0.08   -0.0030337011722972804
-0.00862350498731684   -0.07837592447624238   -0.0026121869308257622
-0.0045927434822605594   -0.08   -0.002510556426678087
-0.0035155314875891645   -0.08   -0.002586959619833029
-0.00862350498731684   -0.07837592447624238   -0.0026121869308257622
-0.004212035545045256   -0.08   -0.0030337011722972804
-0.0045927434822605594   -0.08   -0.002510556426678087
-0.00862350498731684   -0.07837592447624238   -0.0026121869308257622
-0.007524931228862637   -0.07874829654964641   -0.002498838798792271
-0.007710412878723703   -0.07883373359903231   -0.0026990137354533325
-0.0045927434822605594   -0.08   -0.002510556426678087
-0.00862350498731684   -0.07837592447624238   -0.0026121869308257622
-0.007710412878723703   -0.07883373359903231   -0.0026990137354533325
-0.004212035545045256   -0.08   -0.0030337011722972804
-0.0045927434822605594   -0.08   -0.002510556426678087
-0.007524931228862637   -0.07874829654964641   -0.002498838798792271
-0.0035155314875891645   -0.08   -0.002586959619833029
-0.004258019280598816   -0.08   -0.0021980836989982495
-0.007524931228862637   -0.07874829654964641   -0.002498838798792271
-0.00862350498731684   -0.07837592447624238   -0.0026121869308257622
-0.0035155314875891645   -0.08   -0.002586959619833029
-0.008170622976380113   -0.0783660284579477   -0.0022616134510512367
-0.004258019280598816   -0.08   -0.0021980836989982495
-0.0029600791832938675   -0.08   -0.0021595947168947765
-0.008170622976380113   -0.0783660284579477   -0.0022616134510512367
-0.0035155314875891645   -0.08   -0.002586959619833029
-0.004258019280598816   -0.08   -0.0021980836989982495
-0.008170622976380113   -0.0783660284579477   -0.0022616134510512367
-0.007280211986818262   -0.07872884846492487   -0.0022835365103410794
-0.007524931228862637   -0.07874829654964641   -0.002498838798792271
-0.004258019280598816   -0.08   -0.0021980836989982495
-0.008170622976380113   -0.0783660284579477   -0.0022616134510512367
-0.007524931228862637   -0.07874829654964641   -0.002498838798792271
-0.0035155314875891645   -0.08   -0.002586959619833029
-0.004258019280598816   -0.08   -0.0021980836989982495
-0.007280211986818262   -0.07872884846492487   -0.0022835365103410794
-0.0029600791832938675   -0.08   -0.0021595947168947765
-0.003930810376377661   -0.08   -0.0018897414335334374
-0.007280211986818262   -0.07872884846492487   -0.0022835365103410794
-0.008170622976380113   -0.0783660284579477   -0.0022616134510512367
-0.0029600791832938675   -0.08   -0.0021595947168947765
-0.007598691864164345   -0.07846051126438812   -0.001894945835519061
-0.003930810376377661   -0.08   -0.0018897414335334374
-0.0022739240057378885   -0.08   -0.0017159426889565717
-0.007598691864164345   -0.07846051126438812   -0.001894945835519061
-0.0029600791832938675   -0.08   -0.0021595947168947765
-0.003930810376377661   -0.08   -0.0018897414335334374
-0.007598691864164345   -0.07846051126438812   -0.001894945835519061
-0.007049977961086241   -0.07876264770277597   -0.0020599152934561993
-0.007280211986818262   -0.07872884846492487   -0.0022835365103410794
-0.003930810376377661   -0.08   -0.0018897414335334374
-0.007598691864164345   -0.07846051126438812   -0.001894945835519061
-0.007280211986818262   -0.07872884846492487   -0.0022835365103410794
-0.0029600791832938675   -0.08   -0.0021595947168947765
-0.005677305747134871   -0.07834837623202731   -0.0016827301884270375
-0.0023147062086506854   -0.0753872703917781   -0.0014540483201644862
-0.0060215160645283525   -0.07865189812502182   -0.001987543416652571
-0.005282172501776348   -0.07821187234173795   -0.001942855102911003
-0.0023147062086506854   -0.0753872703917781   -0.0014540483201644862
-0.004320822760635202   -0.0756161721199466   -0.0017777964268757978
-0.0060215160645283525   -0.07865189812502182   -0.001987543416652571
-0.004210833712679371   -0.07548753586362919   -0.001876852408957889
-0.005282172501776348   -0.07821187234173795   -0.001942855102911003
-0.0058666380200979576   -0.07854558698167907   -0.002098660142214162
-0.004210833712679371   -0.07548753586362919   -0.001876852408957889
-0.0060215160645283525   -0.07865189812502182   -0.001987543416652571
-0.005282172501776348   -0.07821187234173795   -0.001942855102911003
-0.004210833712679371   -0.07548753586362919   -0.001876852408957889
-0.0019997195124280107   -0.07522809812677311   -0.0016788275982628715
-0.0023147062086506854   -0.0753872703917781   -0.0014540483201644862
-0.005282172501776348   -0.07821187234173795   -0.001942855102911003
-0.004210833712679371   -0.07548753586362919   -0.001876852408957889
-0.0023147062086506854   -0.0753872703917781   -0.0014540483201644862
-0.0060215160645283525   -0.07865189812502182   -0.001987543416652571
-0.005282172501776348   -0.07821187234173795   -0.001942855102911003
-0.0019997195124280107   -0.07522809812677311   -0.0016788275982628715
-0.0058666380200979576   -0.07854558698167907   -0.002098660142214162
-0.0049532605656392925   -0.07816982702533361   -0.0021923015040098076
-0.0019997195124280107   -0.07522809812677311   -0.0016788275982628715
-0.004210833712679371   -0.07548753586362919   -0.001876852408957889
-0.0058666380200979576   -0.07854558698167907   -0.002098660142214162
-0.004087020064743903   -0.07541622381486289   -0.0019669711908410254
-0.0049532605656392925   -0.07816982702533361   -0.0021923015040098076
-0.0056849820204919015   -0.0785063206673503   -0.002201171873034411
-0.004087020064743903   -0.07541622381486289   -0.0019669711908410254
-0.0058666380200979576   -0.07854558698167907   -0.002098660142214162
-0.0049532605656392925   -0.07816982702533361   -0.0021923015040098076
-0.004087020064743903   -0.07541622381486289   -0.0019669711908410254
-0.0017518635004310059   -0.07515224595088724   -0.0018903591543772062
-0.0019997195124280107   -0.07522809812677311   -0.0016788275982628715
-0.0049532605656392925   -0.07816982702533361   -0.0021923015040098076
-0.004087020064743903   -0.07541622381486289   -0.0019669711908410254
-0.0019997195124280107   -0.07522809812677311   -0.0016788275982628715
-0.0058666380200979576   -0.07854558698167907   -0.002098660142214162
-0.0049532605656392925   -0.07816982702533361   -0.0021923015040098076
-0.0017518635004310059   -0.07515224595088724   -0.0018903591543772062
-0.0056849820204919015   -0.0785063206673503   -0.002201171873034411
-0.004581142228358075   -0.07820519077371858   -0.0024299598625673593
-0.0017518635004310059   -0.07515224595088724   -0.0018903591543772062
-0.004087020064743903   -0.07541622381486289   -0.0019669711908410254
-0.0056849820204919015   -0.0785063206673503   -0.002201171873034411
-0.003992088307882395   -0.07540024428409317   -0.0020484378481702677
-0.004581142228358075   -0.07820519077371858   -0.0024299598625673593
-0.005529363978323535   -0.07853466578901641   -0.0022945418714237797
-0.003992088307882395   -0.07540024428409317   -0.0020484378481702677
-0.0056849820204919015   -0.0785063206673503   -0.002201171873034411
-0.004581142228358075   -0.07820519077371858   -0.0024299598625673593
-0.003992088307882395   -0.07540024428409317   -0.0020484378481702677
-0.0014812093337487088   -0.07513793058086837   -0.0020880824043285496
-0.0017518635004310059   -0.07515224595088724   -0.0018903591543772062
-0.004581142228358075   -0.07820519077371858   -0.0024299598625673593
-0.003992088307882395   -0.07540024428409317   -0.0020484378481702677
-0.0017518635004310059   -0.07515224595088724   -0.0018903591543772062
-0.0056849820204919015   -0.0785063206673503   -0.002201171873034411
-0.0060215160645283525   -0.07865189812502182   -0.001987543416652571
-0.004320822760635202   -0.0756161721199466   -0.0017777964268757978
-0.006487473506437518   -0.07883959336768863   -0.002231264108052194
-0.0058666380200979576   -0.07854558698167907   -0.002098660142214162
-0.004320822760635202   -0.0756161721199466   -0.0017777964268757978
-0.006300947998908998   -0.07569694365282176   -0.0020418851170711182
-0.006487473506437518   -0.07883959336768863   -0.002231264108052194
-0.006208461832659708   -0.07558471745821453   -0.0020473512097341847
-0.0058666380200979576   -0.07854558698167907   -0.002098660142214162
-0.006350396067208036   -0.07874466554244766   -0.00223418059727718
-0.006208461832659708   -0.07558471745821453   -0.0020473512097341847
-0.006487473506437518   -0.07883959336768863   -0.002231264108052194
-0.0058666380200979576   -0.07854558698167907   -0.002098660142214162
-0.006208461832659708   -0.07558471745821453   -0.0020473512097341847
-0.004210833712679371   -0.07548753586362919   -0.001876852408957889
-0.004320822760635202   -0.0756161721199466   -0.0017777964268757978
-0.0058666380200979576   -0.07854558698167907   -0.002098660142214162
-0.006208461832659708   -0.07558471745821453   -0.0020473512097341847
-0.004320822760635202   -0.0756161721199466   -0.0017777964268757978
-0.006487473506437518   -0.07883959336768863   -0.002231264108052194
-0.0058666380200979576   -0.07854558698167907   -0.002098660142214162
-0.004210833712679371   -0.07548753586362919   -0.001876852408957889
-0.006350396067208036   -0.07874466554244766   -0.00223418059727718
-0.0056849820204919015   -0.0785063206673503   -0.002201171873034411
-0.004210833712679371   -0.07548753586362919   -0.001876852408957889
-0.006208461832659708   -0.07558471745821453   -0.0020473512097341847
-0.006350396067208036   -0.07874466554244766   -0.00223418059727718
-0.00611280697334535   -0.07552416723671652   -0.0020445406118369423
-0.0056849820204919015   -0.0785063206673503   -0.002201171873034411
-0.006197818183965645   -0.07871046148248362   -0.0022259408519668218
-0.00611280697334535   -0.07552416723671652   -0.0020445406118369423
-0.006350396067208036   -0.07874466554244766   -0.00223418059727718
-0.0056849820204919015   -0.0785063206673503   -0.002201171873034411
-0.00611280697334535   -0.07552416723671652   -0.0020445406118369423
-0.004087020064743903   -0.07541622381486289   -0.0019669711908410254
-0.004210833712679371   -0.07548753586362919   -0.001876852408957889
-0.0056849820204919015   -0.0785063206673503   -0.002201171873034411
-0.00611280697334535   -0.07552416723671652   -0.0020445406118369423
-0.004210833712679371   -0.07548753586362919   -0.001876852408957889
-0.006350396067208036   -0.07874466554244766   -0.00223418059727718
-0.0056849820204919015   -0.0785063206673503   -0.002201171873034411
-0.004087020064743903   -0.07541622381486289   -0.0019669711908410254
-0.006197818183965645   -0.07871046148248362   -0.0022259408519668218
-0.005529363978323535   -0.07853466578901641   -0.0022945418714237797
-0.004087020064743903   -0.07541622381486289   -0.0019669711908410254
-0.00611280697334535   -0.07552416723671652   -0.0020445406118369423
-0.006197818183965645   -0.07871046148248362   -0.0022259408519668218
-0.00602055582732982   -0.07551279976259523   -0.0020333748223279997
-0.005529363978323535   -0.07853466578901641   -0.0022945418714237797
-0.006042684822235844   -0.078734204343522   -0.0022089470351950155
-0.00602055582732982   -0.07551279976259523   -0.0020333748223279997
-0.006197818183965645   -0.07871046148248362   -0.0022259408519668218
-0.005529363978323535   -0.07853466578901641   -0.0022945418714237797
-0.00602055582732982   -0.07551279976259523   -0.0020333748223279997
-0.003992088307882395   -0.07540024428409317   -0.0020484378481702677
-0.004087020064743903   -0.07541622381486289   -0.0019669711908410254
-0.005529363978323535   -0.07853466578901641   -0.0022945418714237797
-0.00602055582732982   -0.07551279976259523   -0.0020333748223279997
-0.004087020064743903   -0.07541622381486289   -0.0019669711908410254
-0.006197818183965645   -0.07871046148248362   -0.0022259408519668218
-0.006487473506437518   -0.07883959336768863   -0.002231264108052194
-0.006300947998908998   -0.07569694365282176   -0.0020418851170711182
-0.006986985364890696   -0.07891855167180976   -0.0024711341113742547
-0.006350396067208036   -0.07874466554244766   -0.00223418059727718
-0.006300947998908998   -0.07569694365282176   -0.0020418851170711182
-0.008267350775970798   -0.07562516798791523   -0.0022890410819928018
-0.006986985364890696   -0.07891855167180976   -0.0024711341113742547
-0.008175595193880881   -0.07552550158116517   -0.0022047692941799296
-0.006350396067208036   -0.07874466554244766   -0.00223418059727718
-0.006844988313158425   -0.0788280422209774   -0.0023700098162405237
-0.008175595193880881   -0.07552550158116517   -0.0022047692941799296
-0.006986985364890696   -0.07891855167180976   -0.0024711341113742547
-0.006350396067208036   -0.07874466554244766   -0.00223418059727718
-0.008175595193880881   -0.07552550158116517   -0.0022047692941799296
-0.006208461832659708   -0.07558471745821453   -0.0020473512097341847
-0.006300947998908998   -0.07569694365282176   -0.0020418851170711182
-0.006350396067208036   -0.07874466554244766   -0.00223418059727718
-0.008175595193880881   -0.07552550158116517   -0.0022047692941799296
-0.006300947998908998   -0.07569694365282176   -0.0020418851170711182
-0.006986985364890696   -0.07891855167180976   -0.0024711341113742547
-0.006350396067208036   -0.07874466554244766   -0.00223418059727718
-0.006208461832659708   -0.07558471745821453   -0.0020473512097341847
-0.006844988313158425   -0.0788280422209774   -0.0023700098162405237
-0.006197818183965645   -0.07871046148248362   -0.0022259408519668218
-0.006208461832659708   -0.07558471745821453   -0.0020473512097341847
-0.008175595193880881   -0.07552550158116517   -0.0022047692941799296
-0.006844988313158425   -0.0788280422209774   -0.0023700098162405237
-0.008072624394535185   -0.0754766430829032   -0.002112342963809133
-0.006197818183965645   -0.07871046148248362   -0.0022259408519668218
-0.006674660066545949   -0.07879924972403263   -0.0022552985185009373
-0.008072624394535185   -0.0754766430829032   -0.002112342963809133
-0.006844988313158425   -0.0788280422209774   -0.0023700098162405237
-0.006197818183965645   -0.07871046148248362   -0.0022259408519668218
-0.008072624394535185   -0.0754766430829032   -0.002112342963809133
-0.00611280697334535   -0.07552416723671652   -0.0020445406118369423
-0.006208461832659708   -0.07558471745821453   -0.0020473512097341847
-0.006197818183965645   -0.07871046148248362   -0.0022259408519668218
-0.008072624394535185   -0.0754766430829032   -0.002112342963809133
-0.006208461832659708   -0.07558471745821453   -0.0020473512097341847
-0.006844988313158425   -0.0788280422209774   -0.0023700098162405237
-0.006197818183965645   -0.07871046148248362   -0.0022259408519668218
-0.00611280697334535   -0.07552416723671652   -0.0020445406118369423
-0.006674660066545949   -0.07879924972403263   -0.0022552985185009373
-0.006042684822235844   -0.078734204343522   -0.0022089470351950155
-0.00611280697334535   -0.07552416723671652   -0.0020445406118369423
-0.008072624394535185   -0.0754766430829032   -0.002112342963809133
-0.006674660066545949   -0.07879924972403263   -0.0022552985185009373
-0.007969222032871284   -0.0754736970354729   -0.002010768499379782
-0.006042684822235844   -0.078734204343522   -0.0022089470351950155
-0.0064994931737302605   -0.07882246977050458   -0.0021331129010292303
-0.007969222032871284   -0.0754736970354729   -0.002010768499379782
-0.006674660066545949   -0.07879924972403263   -0.0022552985185009373
-0.006042684822235844   -0.078734204343522   -0.0022089470351950155
-0.007969222032871284   -0.0754736970354729   -0.002010768499379782
-0.00602055582732982   -0.07551279976259523   -0.0020333748223279997
-0.00611280697334535   -0.07552416723671652   -0.0020445406118369423
-0.006042684822235844   -0.078734204343522   -0.0022089470351950155
-0.007969222032871284   -0.0754736970354729   -0.002010768499379782
-0.00611280697334535   -0.07552416723671652   -0.0020445406118369423
-0.006674660066545949   -0.07879924972403263   -0.0022552985185009373
-0.006986985364890696   -0.07891855167180976   -0.0024711341113742547
-0.008267350775970798   -0.07562516798791523   -0.0022890410819928018
-0.007710412878723703   -0.07883373359903231   -0.0026990137354533325
-0.006844988313158425   -0.0788280422209774   -0.0023700098162405237
-0.008267350775970798   -0.07562516798791523   -0.0022890410819928018
-0.01042783690858969   -0.07539133389874303   -0.0025160423391414966
-0.007710412878723703   -0.07883373359903231   -0.0026990137354533325
-0.010315530322965541   -0.075304258760223   -0.0023440369939406566
-0.006844988313158425   -0.0788280422209774   -0.0023700098162405237
-0.007524931228862637   -0.07874829654964641   -0.002498838798792271
-0.010315530322965541   -0.075304258760223   -0.0023440369939406566
-0.007710412878723703   -0.07883373359903231   -0.0026990137354533325
-0.006844988313158425   -0.0788280422209774   -0.0023700098162405237
-0.010315530322965541   -0.075304258760223   -0.0023440369939406566
-0.008175595193880881   -0.07552550158116517   -0.0022047692941799296
-0.008267350775970798   -0.07562516798791523   -0.0022890410819928018
-0.006844988313158425   -0.0788280422209774   -0.0023700098162405237
-0.010315530322965541   -0.075304258760223   -0.0023440369939406566
-0.008267350775970798   -0.07562516798791523   -0.0022890410819928018
-0.007710412878723703   -0.07883373359903231   -0.0026990137354533325
-0.006844988313158425   -0.0788280422209774   -0.0023700098162405237
-0.008175595193880881   -0.07552550158116517   -0.0022047692941799296
-0.007524931228862637   -0.07874829654964641   -0.002498838798792271
-0.006674660066545949   -0.07879924972403263   -0.0022552985185009373
-0.008175595193880881   -0.07552550158116517   -0.0022047692941799296
-0.010315530322965541   -0.075304258760223   -0.0023440369939406566
-0.007524931228862637   -0.07874829654964641   -0.002498838798792271
-0.01016048686229867   -0.07526704535906817   -0.0021644741605832633
-0.006674660066545949   -0.07879924972403263   -0.0022552985185009373
-0.007280211986818262   -0.07872884846492487   -0.0022835365103410794
-0.01016048686229867   -0.07526704535906817   -0.0021644741605832633
-0.007524931228862637   -0.07874829654964641   -0.002498838798792271
-0.006674660066545949   -0.07879924972403263   -0.0022552985185009373
-0.01016048686229867   -0.07526704535906817   -0.0021644741605832633
-0.008072624394535185   -0.0754766430829032   -0.002112342963809133
-0.008175595193880881   -0.07552550158116517   -0.0022047692941799296
-0.006674660066545949   -0.07879924972403263   -0.0022552985185009373
-0.01016048686229867   -0.07526704535906817   -0.0021644741605832633
-0.008175595193880881   -0.07552550158116517   -0.0022047692941799296
-0.007524931228862637   -0.07874829654964641   -0.002498838798792271
-0.006674660066545949   -0.07879924972403263   -0.0022552985185009373
-0.008072624394535185   -0.0754766430829032   -0.002112342963809133
-0.007280211986818262   -0.07872884846492487   -0.0022835365103410794
-0.0064994931737302605   -0.07882246977050458   -0.0021331129010292303
-0.008072624394535185   -0.0754766430829032   -0.002112342963809133
-0.01016048686229867   -0.07526704535906817   -0.0021644741605832633
-0.007280211986818262   -0.07872884846492487   -0.0022835365103410794
-0.010025137978720159   -0.07527975400366528   -0.0019723466809584453
-0.0064994931737302605   -0.07882246977050458   -0.0021331129010292303
-0.007049977961086241   -0.07876264770277597   -0.0020599152934561993
-0.010025137978720159   -0.07527975400366528   -0.0019723466809584453
-0.007280211986818262   -0.07872884846492487   -0.0022835365103410794
-0.0064994931737302605   -0.07882246977050458   -0.0021331129010292303
-0.010025137978720159   -0.07527975400366528   -0.0019723466809584453
-0.007969222032871284   -0.0754736970354729   -0.002010768499379782
-0.008072624394535185   -0.0754766430829032   -0.002112342963809133
-0.0064994931737302605   -0.07882246977050458   -0.0021331129010292303
-0.010025137978720159   -0.07527975400366528   -0.0019723466809584453
-0.008072624394535185   -0.0754766430829032   -0.002112342963809133
-0.007280211986818262   -0.07872884846492487   -0.0022835365103410794
-0.007710412878723703   -0.07883373359903231   -0.0026990137354533325
-0.01042783690858969   -0.07539133389874303   -0.0025160423391414966
-0.009116350791193625   -0.07844791245492891   -0.002940604928594332
-0.007524931228862637   -0.07874829654964641   -0.002498838798792271
-0.01042783690858969   -0.07539133389874303   -0.0025160423391414966
-0.013210042731156807   -0.07501104386259198   -0.002733846334960068
-0.009116350791193625   -0.07844791245492891   -0.002940604928594332
-0.01284855348012821   -0.07491667314403509   -0.002462287231018453
-0.007524931228862637   -0.07874829654964641   -0.002498838798792271
-0.00862350498731684   -0.07837592447624238   -0.0026121869308257622
-0.01284855348012821   -0.07491667314403509   -0.002462287231018453
-0.009116350791193625   -0.07844791245492891   -0.002940604928594332
-0.007524931228862637   -0.07874829654964641   -0.002498838798792271
-0.01284855348012821   -0.07491667314403509   -0.002462287231018453
-0.010315530322965541   -0.075304258760223   -0.0023440369939406566
-0.01042783690858969   -0.07539133389874303   -0.0025160423391414966
-0.007524931228862637   -0.07874829654964641   -0.002498838798792271
-0.01284855348012821   -0.07491667314403509   -0.002462287231018453
-0.01042783690858969   -0.07539133389874303   -0.0025160423391414966
-0.009116350791193625   -0.07844791245492891   -0.002940604928594332
-0.007524931228862637   -0.07874829654964641   -0.002498838798792271
-0.010315530322965541   -0.075304258760223   -0.0023440369939406566
-0.00862350498731684   -0.07837592447624238   -0.0026121869308257622
-0.007280211986818262   -0.07872884846492487   -0.0022835365103410794
-0.010315530322965541   -0.075304258760223   -0.0023440369939406566
-0.01284855348012821   -0.07491667314403509   -0.002462287231018453
-0.00862350498731684   -0.07837592447624238   -0.0026121869308257622
-0.012524486342554705   -0.0748822518856795   -0.0021748827823873007
-0.007280211986818262   -0.07872884846492487   -0.0022835365103410794
-0.008170622976380113   -0.0783660284579477   -0.0022616134510512367
-0.012524486342554705   -0.0748822518856795   -0.0021748827823873007
-0.00862350498731684   -0.07837592447624238   -0.0026121869308257622
-0.007280211986818262   -0.07872884846492487   -0.0022835365103410794
-0.012524486342554705   -0.0748822518856795   -0.0021748827823873007
-0.01016048686229867   -0.07526704535906817   -0.0021644741605832633
-0.010315530322965541   -0.075304258760223   -0.0023440369939406566
-0.007280211986818262   -0.07872884846492487   -0.0022835365103410794
-0.012524486342554705   -0.0748822518856795   -0.0021748827823873007
-0.010315530322965541   -0.075304258760223   -0.0023440369939406566
-0.00862350498731684   -0.07837592447624238   -0.0026121869308257622
-0.007280211986818262   -0.07872884846492487   -0.0022835365103410794
-0.01016048686229867   -0.07526704535906817   -0.0021644741605832633
-0.008170622976380113   -0.0783660284579477   -0.0022616134510512367
-0.007049977961086241   -0.07876264770277597   -0.0020599152934561993
-0.01016048686229867   -0.07526704535906817   -0.0021644741605832633
-0.012524486342554705   -0.0748822518856795   -0.0021748827823873007
-0.008170622976380113   -0.0783660284579477   -0.0022616134510512367
-0.012104473517597816   -0.0749255249963885   -0.0018743656657973639
-0.007049977961086241   -0.07876264770277597   -0.0020599152934561993
-0.007598691864164345   -0.07846051126438812   -0.001894945835519061
-0.012104473517597816   -0.0749255249963885   -0.0018743656657973639
-0.008170622976380113   -0.0783660284579477   -0.0022616134510512367
-0.007049977961086241   -0.07876264770277597   -0.0020599152934561993
-0.012104473517597816   -0.0749255249963885   -0.0018743656657973639
-0.010025137978720159   -0.07527975400366528   -0.0019723466809584453
-0.01016048686229867   -0.07526704535906817   -0.0021644741605832633
-0.007049977961086241   -0.07876264770277597   -0.0020599152934561993
-0.012104473517597816   -0.0749255249963885   -0.0018743656657973639
-0.01016048686229867   -0.07526704535906817   -0.0021644741605832633
-0.008170622976380113   -0.0783660284579477   -0.0022616134510512367
-0.0023147062086506854   -0.0753872703917781   -0.0014540483201644862
0.0004122786555978134   -0.06993932150204522   -0.0012028476708717114
-0.004320822760635202   -0.0756161721199466   -0.0017777964268757978
-0.0019997195124280107   -0.07522809812677311   -0.0016788275982628715
0.0004122786555978134   -0.06993932150204522   -0.0012028476708717114
-0.00297068439110285   -0.07010713266823913   -0.0015206726018454455
-0.004320822760635202   -0.0756161721199466   -0.0017777964268757978
-0.002912403241487374   -0.06997232599725613   -0.001599237319382986
-0.0019997195124280107   -0.07522809812677311   -0.0016788275982628715
-0.004210833712679371   -0.07548753586362919   -0.001876852408957889
-0.002912403241487374   -0.06997232599725613   -0.001599237319382986
-0.004320822760635202   -0.0756161721199466   -0.0017777964268757978
-0.0019997195124280107   -0.07522809812677311   -0.0016788275982628715
-0.002912403241487374   -0.06997232599725613   -0.001599237319382986
0.000632167391782145   -0.06977761386730881   -0.0013817865555518418
0.0004122786555978134   -0.06993932150204522   -0.0012028476708717114
-0.0019997195124280107   -0.07522809812677311   -0.0016788275982628715
-0.002912403241487374   -0.06997232599725613   -0.001599237319382986
0.0004122786555978134   -0.06993932150204522   -0.0012028476708717114
-0.004320822760635202   -0.0756161721199466   -0.0017777964268757978
-0.0019997195124280107   -0.07522809812677311   -0.0016788275982628715
0.000632167391782145   -0.06977761386730881   -0.0013817865555518418
-0.004210833712679371   -0.07548753586362919   -0.001876852408957889
-0.0017518635004310059   -0.07515224595088724   -0.0018903591543772062
0.000632167391782145   -0.06977761386730881   -0.0013817865555518418
-0.002912403241487374   -0.06997232599725613   -0.001599237319382986
-0.004210833712679371   -0.07548753586362919   -0.001876852408957889
-0.0028460459001213405   -0.06988425211467116   -0.0016686432203975074
-0.0017518635004310059   -0.07515224595088724   -0.0018903591543772062
-0.004087020064743903   -0.07541622381486289   -0.0019669711908410254
-0.0028460459001213405   -0.06988425211467116   -0.0016686432203975074
-0.004210833712679371   -0.07548753586362919   -0.001876852408957889
-0.0017518635004310059   -0.07515224595088724   -0.0018903591543772062
-0.0028460459001213405   -0.06988425211467116   -0.0016686432203975074
0.0007939113681524845   -0.06968413454165581   -0.0015479061814347428
0.000632167391782145   -0.06977761386730881   -0.0013817865555518418
-0.0017518635004310059   -0.07515224595088724   -0.0018903591543772062
-0.0028460459001213405   -0.06988425211467116   -0.0016686432203975074
0.000632167391782145   -0.06977761386730881   -0.0013817865555518418
-0.004210833712679371   -0.07548753586362919   -0.001876852408957889
-0.0017518635004310059   -0.07515224595088724   -0.0018903591543772062
0.0007939113681524845   -0.06968413454165581   -0.0015479061814347428
-0.004087020064743903   -0.07541622381486289   -0.0019669711908410254
-0.0014812093337487088   -0.07513793058086837   -0.0020880824043285496
0.0007939113681524845   -0.06968413454165581   -0.0015479061814347428
-0.0028460459001213405   -0.06988425211467116   -0.0016686432203975074
-0.004087020064743903   -0.07541622381486289   -0.0019669711908410254
-0.0028063746582371175   -0.06984030582193451   -0.0017297945228269365
-0.0014812093337487088   -0.07513793058086837   -0.0020880824043285496
-0.003992088307882395   -0.07540024428409317   -0.0020484378481702677
-0.0028063746582371175   -0.06984030582193451   -0.0017297945228269365
-0.004087020064743903   -0.07541622381486289   -0.0019669711908410254
-0.0014812093337487088   -0.07513793058086837   -0.0020880824043285496
-0.0028063746582371175   -0.06984030582193451   -0.0017297945228269365
0.0009670385312215628   -0.06963799738432215   -0.001701143451629746
0.0007939113681524845   -0.06968413454165581   -0.0015479061814347428
-0.0014812093337487088   -0.07513793058086837   -0.0020880824043285496
-0.0028063746582371175   -0.06984030582193451   -0.0017297945228269365
0.0007939113681524845   -0.06968413454165581   -0.0015479061814347428
-0.004087020064743903   -0.07541622381486289   -0.0019669711908410254
-0.004320822760635202   -0.0756161721199466   -0.0017777964268757978
-0.00297068439110285   -0.07010713266823913   -0.0015206726018454455
-0.006300947998908998   -0.07569694365282176   -0.0020418851170711182
-0.004210833712679371   -0.07548753586362919   -0.001876852408957889
-0.00297068439110285   -0.07010713266823913   -0.0015206726018454455
-0.006243186790503505   -0.07013922740593859   -0.0017825824070635034
-0.006300947998908998   -0.07569694365282176   -0.0020418851170711182
-0.006200337611120165   -0.07002349737934332   -0.0017846118575046306
-0.004210833712679371   -0.07548753586362919   -0.001876852408957889
-0.006208461832659708   -0.07558471745821453   -0.0020473512097341847
-0.006200337611120165   -0.07002349737934332   -0.0017846118575046306
-0.006300947998908998   -0.07569694365282176   -0.0020418851170711182
-0.004210833712679371   -0.07548753586362919   -0.001876852408957889
-0.006200337611120165   -0.07002349737934332   -0.0017846118575046306
-0.002912403241487374   -0.06997232599725613   -0.001599237319382986
-0.00297068439110285   -0.07010713266823913   -0.0015206726018454455
-0.004210833712679371   -0.07548753586362919   -0.001876852408957889
-0.006200337611120165   -0.07002349737934332   -0.0017846118575046306
-0.00297068439110285   -0.07010713266823913   -0.0015206726018454455
-0.006300947998908998   -0.07569694365282176   -0.0020418851170711182
-0.004210833712679371   -0.07548753586362919   -0.001876852408957889
-0.002912403241487374   -0.06997232599725613   -0.001599237319382986
-0.006208461832659708   -0.07558471745821453   -0.0020473512097341847
-0.004087020064743903   -0.07541622381486289   -0.0019669711908410254
-0.002912403241487374   -0.06997232599725613   -0.001599237319382986
-0.006200337611120165   -0.07002349737934332   -0.0017846118575046306
-0.006208461832659708   -0.07558471745821453   -0.0020473512097341847
-0.006156277160128098   -0.0699495963279347   -0.0017778668483071586
-0.004087020064743903   -0.07541622381486289   -0.0019669711908410254
-0.00611280697334535   -0.07552416723671652   -0.0020445406118369423
-0.006156277160128098   -0.0699495963279347   -0.0017778668483071586
-0.006208461832659708   -0.07558471745821453   -0.0020473512097341847
-0.004087020064743903   -0.07541622381486289   -0.0019669711908410254
-0.006156277160128098   -0.0699495963279347   -0.0017778668483071586
-0.0028460459001213405   -0.06988425211467116   -0.0016686432203975074
-0.002912403241487374   -0.06997232599725613   -0.001599237319382986
-0.004087020064743903   -0.07541622381486289   -0.0019669711908410254
-0.006156277160128098   -0.0699495963279347   -0.0017778668483071586
-0.002912403241487374   -0.06997232599725613   -0.001599237319382986
-0.006208461832659708   -0.07558471745821453   -0.0020473512097341847
-0.004087020064743903   -0.07541622381486289   -0.0019669711908410254
-0.0028460459001213405   -0.06988425211467116   -0.0016686432203975074
-0.00611280697334535   -0.07552416723671652   -0.0020445406118369423
-0.003992088307882395   -0.07540024428409317   -0.0020484378481702677
-0.0028460459001213405   -0.06988425211467116   -0.0016686432203975074
-0.006156277160128098   -0.0699495963279347   -0.0017778668483071586
-0.00611280697334535   -0.07552416723671652   -0.0020445406118369423
-0.006117739375563159   -0.06991683244830782   -0.001762930718535336
-0.003992088307882395   -0.07540024428409317   -0.0020484378481702677
-0.00602055582732982   -0.07551279976259523   -0.0020333748223279997
-0.006117739375563159   -0.06991683244830782   -0.001762930718535336
-0.00611280697334535   -0.07552416723671652   -0.0020445406118369423
-0.003992088307882395   -0.07540024428409317   -0.0020484378481702677
-0.006117739375563159   -0.06991683244830782   -0.001762930718535336
-0.0028063746582371175   -0.06984030582193451   -0.0017297945228269365
-0.0028460459001213405   -0.06988425211467116   -0.0016686432203975074
-0.003992088307882395   -0.07540024428409317   -0.0020484378481702677
-0.006117739375563159   -0.06991683244830782   -0.001762930718535336
-0.0028460459001213405   -0.06988425211467116   -0.0016686432203975074
-0.00611280697334535   -0.07552416723671652   -0.0020445406118369423
-0.006300947998908998   -0.07569694365282176   -0.0020418851170711182
-0.006243186790503505   -0.07013922740593859   -0.0017825824070635034
-0.008267350775970798   -0.07562516798791523   -0.0022890410819928018
-0.006208461832659708   -0.07558471745821453   -0.0020473512097341847
-0.006243186790503505   -0.07013922740593859   -0.0017825824070635034
-0.009464211258798877   -0.07003502926828196   -0.0020190034868747295
-0.008267350775970798   -0.07562516798791523   -0.0022890410819928018
-0.009424318010445278   -0.06993517539222649   -0.0019463439019226886
-0.006208461832659708   -0.07558471745821453   -0.0020473512097341847
-0.008175595193880881   -0.07552550158116517   -0.0022047692941799296
-0.009424318010445278   -0.06993517539222649   -0.0019463439019226886
-0.008267350775970798   -0.07562516798791523   -0.0022890410819928018
-0.006208461832659708   -0.07558471745821453   -0.0020473512097341847
-0.009424318010445278   -0.06993517539222649   -0.0019463439019226886
-0.006200337611120165   -0.07002349737934332   -0.0017846118575046306
-0.006243186790503505   -0.07013922740593859   -0.0017825824070635034
-0.006208461832659708   -0.07558471745821453   -0.0020473512097341847
-0.009424318010445278   -0.06993517539222649   -0.0019463439019226886
-0.006243186790503505   -0.07013922740593859   -0.0017825824070635034
-0.008267350775970798   -0.07562516798791523   -0.0022890410819928018
-0.006208461832659708   -0.07558471745821453   -0.0020473512097341847
-0.006200337611120165   -0.07002349737934332   -0.0017846118575046306
-0.008175595193880881   -0.07552550158116517   -0.0022047692941799296
-0.00611280697334535   -0.07552416723671652   -0.0020445406118369423
-0.006200337611120165   -0.07002349737934332   -0.0017846118575046306
-0.009424318010445278   -0.06993517539222649   -0.0019463439019226886
-0.008175595193880881   -0.07552550158116517   -0.0022047692941799296
-0.009376113262604313   -0.06987669016042933   -0.0018650997334960615
-0.00611280697334535   -0.07552416723671652   -0.0020445406118369423
-0.008072624394535185   -0.0754766430829032   -0.002112342963809133
-0.009376113262604313   -0.06987669016042933   -0.0018650997334960615
-0.008175595193880881   -0.07552550158116517   -0.0022047692941799296
-0.00611280697334535   -0.07552416723671652   -0.0020445406118369423
-0.009376113262604313   -0.06987669016042933   -0.0018650997334960615
-0.006156277160128098   -0.0699495963279347   -0.0017778668483071586
-0.006200337611120165   -0.07002349737934332   -0.0017846118575046306
-0.00611280697334535   -0.07552416723671652   -0.0020445406118369423
-0.009376113262604313   -0.06987669016042933   -0.0018650997334960615
-0.006200337611120165   -0.07002349737934332   -0.0017846118575046306
-0.008175595193880881   -0.07552550158116517   -0.0022047692941799296
-0.00611280697334535   -0.07552416723671652   -0.0020445406118369423
-0.006156277160128098   -0.0699495963279347   -0.0017778668483071586
-0.008072624394535185   -0.0754766430829032   -0.002112342963809133
-0.00602055582732982   -0.07551279976259523   -0.0020333748223279997
-0.006156277160128098   -0.0699495963279347   -0.0017778668483071586
-0.009376113262604313   -0.06987669016042933   -0.0018650997334960615
-0.008072624394535185   -0.0754766430829032   -0.002112342963809133
-0.009329225305747247   -0.06985764832694924   -0.0017755354639244368
-0.00602055582732982   -0.07551279976259523   -0.0020333748223279997
-0.007969222032871284   -0.0754736970354729   -0.002010768499379782
-0.009329225305747247   -0.06985764832694924   -0.0017755354639244368
-0.008072624394535185   -0.0754766430829032   -0.002112342963809133
-0.00602055582732982   -0.07551279976259523   -0.0020333748223279997
-0.009329225305747247   -0.06985764832694924   -0.0017755354639244368
-0.006117739375563159   -0.06991683244830782   -0.001762930718535336
-0.006156277160128098   -0.0699495963279347   -0.0017778668483071586
-0.00602055582732982   -0.07551279976259523   -0.0020333748223279997
-0.009329225305747247   -0.06985764832694924   -0.0017755354639244368
-0.006156277160128098   -0.0699495963279347   -0.0017778668483071586
-0.008072624394535185   -0.0754766430829032   -0.002112342963809133
-0.008267350775970798   -0.07562516798791523   -0.0022890410819928018
-0.009464211258798877   -0.07003502926828196   -0.0020190034868747295
-0.01042783690858969   -0.07539133389874303   -0.0025160423391414966
-0.008175595193880881   -0.07552550158116517   -0.0022047692941799296
-0.009464211258798877   -0.07003502926828196   -0.0020190034868747295
-0.01283976953269073   -0.0697982360780235   -0.002229021256532147
-0.01042783690858969   -0.07539133389874303   -0.0025160423391414966
-0.012787672057027372   -0.06971354476550758   -0.0020815810065721745
-0.008175595193880881   -0.07552550158116517   -0.0022047692941799296
-0.010315530322965541   -0.075304258760223   -0.0023440369939406566
-0.012787672057027372   -0.06971354476550758   -0.0020815810065721745
-0.01042783690858969   -0.07539133389874303   -0.0025160423391414966
-0.008175595193880881   -0.07552550158116517   -0.0022047692941799296
-0.012787672057027372   -0.06971354476550758   -0.0020815810065721745
-0.009424318010445278   -0.06993517539222649   -0.0019463439019226886
-0.009464211258798877   -0.07003502926828196   -0.0020190034868747295
-0.008175595193880881   -0.07552550158116517   -0.0022047692941799296
-0.012787672057027372   -0.06971354476550758   -0.0020815810065721745
-0.009464211258798877   -0.07003502926828196   -0.0020190034868747295
-0.01042783690858969   -0.07539133389874303   -0.0025160423391414966
-0.008175595193880881   -0.07552550158116517   -0.0022047692941799296
-0.009424318010445278   -0.06993517539222649   -0.0019463439019226886
-0.010315530322965541   -0.075304258760223   -0.0023440369939406566
-0.008072624394535185   -0.0754766430829032   -0.002112342963809133
-0.009424318010445278   -0.06993517539222649   -0.0019463439019226886
-0.012787672057027372   -0.06971354476550758   -0.0020815810065721745
-0.010315530322965541   -0.075304258760223   -0.0023440369939406566
-0.012699360877167172   -0.06966903595564669   -0.0019268746163086357
-0.008072624394535185   -0.0754766430829032   -0.002112342963809133
-0.01016048686229867   -0.07526704535906817   -0.0021644741605832633
-0.012699360877167172   -0.06966903595564669   -0.0019268746163086357
-0.010315530322965541   -0.075304258760223   -0.0023440369939406566
-0.008072624394535185   -0.0754766430829032   -0.002112342963809133
-0.012699360877167172   -0.06966903595564669   -0.0019268746163086357
-0.009376113262604313   -0.06987669016042933   -0.0018650997334960615
-0.009424318010445278   -0.06993517539222649   -0.0019463439019226886
-0.008072624394535185   -0.0754766430829032   -0.002112342963809133
-0.012699360877167172   -0.06966903595564669   -0.0019268746163086357
-0.009424318010445278   -0.06993517539222649   -0.0019463439019226886
-0.010315530322965541   -0.075304258760223   -0.0023440369939406566
-0.008072624394535185   -0.0754766430829032   -0.002112342963809133
-0.009376113262604313   -0.06987669016042933   -0.0018650997334960615
-0.01016048686229867   -0.07526704535906817   -0.0021644741605832633
-0.007969222032871284   -0.0754736970354729   -0.002010768499379782
-0.009376113262604313   -0.06987669016042933   -0.0018650997334960615
-0.012699360877167172   -0.06966903595564669   -0.0019268746163086357
-0.01016048686229867   -0.07526704535906817   -0.0021644741605832633
-0.012627611693905891   -0.06966706098826696   -0.0017626379904187057
-0.007969222032871284   -0.0754736970354729   -0.002010768499379782
-0.010025137978720159   -0.07527975400366528   -0.0019723466809584453
-0.012627611693905891   -0.06966706098826696   -0.0017626379904187057
-0.01016048686229867   -0.07526704535906817   -0.0021644741605832633
-0.007969222032871284   -0.0754736970354729   -0.002010768499379782
-0.012627611693905891   -0.06966706098826696   -0.0017626379904187057
-0.009329225305747247   -0.06985764832694924   -0.0017755354639244368
-0.009376113262604313   -0.06987669016042933   -0.0018650997334960615
-0.007969222032871284   -0.0754736970354729   -0.002010768499379782
-0.012627611693905891   -0.06966706098826696   -0.0017626379904187057
-0.009376113262604313   -0.06987669016042933   -0.0018650997334960615
-0.01016048686229867   -0.07526704535906817   -0.0021644741605832633
-0.01042783690858969   -0.07539133389874303   -0.0025160423391414966
-0.01283976953269073   -0.0697982360780235   -0.002229021256532147
-0.013210042731156807   -0.07501104386259198   -0.002733846334960068
-0.010315530322965541   -0.075304258760223   -0.0023440369939406566
-0.01283976953269073   -0.0697982360780235   -0.002229021256532147
-0.016776475547548773   -0.06945733444823188   -0.0024247805637374414
-0.013210042731156807   -0.07501104386259198   -0.002733846334960068
-0.016509801219376615   -0.06936903550833685   -0.002194012859154272
-0.010315530322965541   -0.075304258760223   -0.0023440369939406566
-0.01284855348012821   -0.07491667314403509   -0.002462287231018453
-0.016509801219376615   -0.06936903550833685   -0.002194012859154272
-0.013210042731156807   -0.07501104386259198   -0.002733846334960068
-0.010315530322965541   -0.075304258760223   -0.0023440369939406566
-0.016509801219376615   -0.06936903550833685   -0.002194012859154272
-0.012787672057027372   -0.06971354476550758   -0.0020815810065721745
-0.01283976953269073   -0.0697982360780235   -0.002229021256532147
-0.010315530322965541   -0.075304258760223   -0.0023440369939406566
-0.016509801219376615   -0.06936903550833685   -0.002194012859154272
-0.01283976953269073   -0.0697982360780235   -0.002229021256532147
-0.013210042731156807   -0.07501104386259198   -0.002733846334960068
-0.010315530322965541   -0.075304258760223   -0.0023440369939406566
-0.012787672057027372   -0.06971354476550758   -0.0020815810065721745
-0.01284855348012821   -0.07491667314403509   -0.002462287231018453
-0.01016048686229867   -0.07526704535906817   -0.0021644741605832633
-0.012787672057027372   -0.06971354476550758   -0.0020815810065721745
-0.016509801219376615   -0.06936903550833685   -0.002194012859154272
-0.01284855348012821   -0.07491667314403509   -0.002462287231018453
-0.016278318270500105   -0.06932832073236653   -0.0019512669718630578
-0.01016048686229867   -0.07526704535906817   -0.0021644741605832633
-0.012524486342554705   -0.0748822518856795   -0.0021748827823873007
-0.016278318270500105   -0.06932832073236653   -0.0019512669718630578
-0.01284855348012821   -0.07491667314403509   -0.002462287231018453
-0.01016048686229867   -0.07526704535906817   -0.0021644741605832633
-0.016278318270500105   -0.06932832073236653   -0.0019512669718630578
-0.012699360877167172   -0.06966903595564669   -0.0019268746163086357
-0.012787672057027372   -0.06971354476550758   -0.0020815810065721745
-0.01016048686229867   -0.07526704535906817   -0.0021644741605832633
-0.016278318270500105   -0.06932832073236653   -0.0019512669718630578
-0.012787672057027372   -0.06971354476550758   -0.0020815810065721745
-0.01284855348012821   -0.07491667314403509   -0.002462287231018453
-0.01016048686229867   -0.07526704535906817   -0.0021644741605832633
-0.012699360877167172   -0.06966903595564669   -0.0019268746163086357
-0.012524486342554705   -0.0748822518856795   -0.0021748827823873007
-0.010025137978720159   -0.07527975400366528   -0.0019723466809584453
-0.012699360877167172   -0.06966903595564669   -0.0019268746163086357
-0.016278318270500105   -0.06932832073236653   -0.0019512669718630578
-0.012524486342554705   -0.0748822518856795   -0.0021748827823873007
-0.01596643494139427   -0.06935262345972094   -0.0016980901584606799
-0.010025137978720159   -0.07527975400366528   -0.0019723466809584453
-0.012104473517597816   -0.0749255249963885   -0.0018743656657973639
-0.01596643494139427   -0.06935262345972094   -0.0016980901584606799
-0.012524486342554705   -0.0748822518856795   -0.0021748827823873007
-0.010025137978720159   -0.07527975400366528   -0.0019723466809584453
-0.01596643494139427   -0.06935262345972094   -0.0016980901584606799
-0.012627611693905891   -0.06966706098826696   -0.0017626379904187057
-0.012699360877167172   -0.06966903595564669   -0.0019268746163086357
-0.010025137978720159   -0.07527975400366528   -0.0019723466809584453
-0.01596643494139427   -0.06935262345972094   -0.0016980901584606799
-0.012699360877167172   -0.06966903595564669   -0.0019268746163086357
-0.012524486342554705   -0.0748822518856795   -0.0021748827823873007
0.0004122786555978134   -0.06993932150204522   -0.0012028476708717114
0.0024821641060699157   -0.06254422639784957   -0.0009166425503159719
-0.00297068439110285   -0.07010713266823913   -0.0015206726018454455
0.000632167391782145   -0.06977761386730881   -0.0013817865555518418
0.0024821641060699157   -0.06254422639784957   -0.0009166425503159719
-0.0019962065558089327   -0.06265510748155013   -0.0012199991627630203
-0.00297068439110285   -0.07010713266823913   -0.0015206726018454455
-0.0019841047057994232   -0.06252102350176333   -0.0012744460508596483
0.000632167391782145   -0.06977761386730881   -0.0013817865555518418
-0.002912403241487374   -0.06997232599725613   -0.001599237319382986
-0.0019841047057994232   -0.06252102350176333   -0.0012744460508596483
-0.00297068439110285   -0.07010713266823913   -0.0015206726018454455
0.000632167391782145   -0.06977761386730881   -0.0013817865555518418
-0.0019841047057994232   -0.06252102350176333   -0.0012744460508596483
0.0026127082861993355   -0.0623864348167139   -0.0010489502268740715
0.0024821641060699157   -0.06254422639784957   -0.0009166425503159719
0.000632167391782145   -0.06977761386730881   -0.0013817865555518418
-0.0019841047057994232   -0.06252102350176333   -0.0012744460508596483
0.0024821641060699157   -0.06254422639784957   -0.0009166425503159719
-0.00297068439110285   -0.07010713266823913   -0.0015206726018454455
0.000632167391782145   -0.06977761386730881   -0.0013817865555518418
0.0026127082861993355   -0.0623864348167139   -0.0010489502268740715
-0.002912403241487374   -0.06997232599725613   -0.001599237319382986
0.0007939113681524845   -0.06968413454165581   -0.0015479061814347428
0.0026127082861993355   -0.0623864348167139   -0.0010489502268740715
-0.0019841047057994232   -0.06252102350176333   -0.0012744460508596483
-0.002912403241487374   -0.06997232599725613   -0.001599237319382986
-0.0019687148263405115   -0.06242379517027714   -0.0013205251550565769
0.0007939113681524845   -0.06968413454165581   -0.0015479061814347428
-0.0028460459001213405   -0.06988425211467116   -0.0016686432203975074
-0.0019687148263405115   -0.06242379517027714   -0.0013205251550565769
-0.002912403241487374   -0.06997232599725613   -0.001599237319382986
0.0007939113681524845   -0.06968413454165581   -0.0015479061814347428
-0.0019687148263405115   -0.06242379517027714   -0.0013205251550565769
0.0026961553048661024   -0.062282871607148314   -0.001169433417809882
0.0026127082861993355   -0.0623864348167139   -0.0010489502268740715
0.0007939113681524845   -0.06968413454165581   -0.0015479061814347428
-0.0019687148263405115   -0.06242379517027714   -0.0013205251550565769
0.0026127082861993355   -0.0623864348167139   -0.0010489502268740715
-0.002912403241487374   -0.06997232599725613   -0.001599237319382986
0.0007939113681524845   -0.06968413454165581   -0.0015479061814347428
0.0026961553048661024   -0.062282871607148314   -0.001169433417809882
-0.0028460459001213405   -0.06988425211467116   -0.0016686432203975074
0.0009670385312215628   -0.06963799738432215   -0.001701143451629746
0.0026961553048661024   -0.062282871607148314   -0.001169433417809882
-0.0019687148263405115   -0.06242379517027714   -0.0013205251550565769
-0.0028460459001213405   -0.06988425211467116   -0.0016686432203975074
-0.0019761033538154144   -0.06236031262793814   -0.001358846933998969
0.0009670385312215628   -0.06963799738432215   -0.001701143451629746
-0.0028063746582371175   -0.06984030582193451   -0.0017297945228269365
-0.0019761033538154144   -0.06236031262793814   -0.001358846933998969
-0.0028460459001213405   -0.06988425211467116   -0.0016686432203975074
0.0009670385312215628   -0.06963799738432215   -0.001701143451629746
-0.0019761033538154144   -0.06236031262793814   -0.001358846933998969
0.0027818076471092072   -0.06221346218111219   -0.0012783396131347503
0.0026961553048661024   -0.062282871607148314   -0.001169433417809882
0.0009670385312215628   -0.06963799738432215   -0.001701143451629746
-0.0019761033538154144   -0.06236031262793814   -0.001358846933998969
0.0026961553048661024   -0.062282871607148314   -0.001169433417809882
-0.0028460459001213405   -0.06988425211467116   -0.0016686432203975074
-0.00297068439110285   -0.07010713266823913   -0.0015206726018454455
-0.0019962065558089327   -0.06265510748155013   -0.0012199991627630203
-0.006243186790503505   -0.07013922740593859   -0.0017825824070635034
-0.002912403241487374   -0.06997232599725613   -0.001599237319382986
-0.0019962065558089327   -0.06265510748155013   -0.0012199991627630203
-0.006305548239661907   -0.06265566385593895   -0.0014702329324467443
-0.006243186790503505   -0.07013922740593859   -0.0017825824070635034
-0.006306112230384672   -0.06254220400466298   -0.0014650951699845395
-0.002912403241487374   -0.06997232599725613   -0.001599237319382986
-0.006200337611120165   -0.07002349737934332   -0.0017846118575046306
-0.006306112230384672   -0.06254220400466298   -0.0014650951699845395
-0.006243186790503505   -0.07013922740593859   -0.0017825824070635034
-0.002912403241487374   -0.06997232599725613   -0.001599237319382986
-0.006306112230384672   -0.06254220400466298   -0.0014650951699845395
-0.0019841047057994232   -0.06252102350176333   -0.0012744460508596483
-0.0019962065558089327   -0.06265510748155013   -0.0012199991627630203
-0.002912403241487374   -0.06997232599725613   -0.001599237319382986
-0.006306112230384672   -0.06254220400466298   -0.0014650951699845395
-0.0019962065558089327   -0.06265510748155013   -0.0012199991627630203
-0.006243186790503505   -0.07013922740593859   -0.0017825824070635034
-0.002912403241487374   -0.06997232599725613   -0.001599237319382986
-0.0019841047057994232   -0.06252102350176333   -0.0012744460508596483
-0.006200337611120165   -0.07002349737934332   -0.0017846118575046306
-0.0028460459001213405   -0.06988425211467116   -0.0016686432203975074
-0.0019841047057994232   -0.06252102350176333   -0.0012744460508596483
-0.006306112230384672   -0.06254220400466298   -0.0014650951699845395
-0.006200337611120165   -0.07002349737934332   -0.0017846118575046306
-0.006306387869348516   -0.06246123559114151   -0.001451622872543625
-0.0028460459001213405   -0.06988425211467116   -0.0016686432203975074
-0.006156277160128098   -0.0699495963279347   -0.0017778668483071586
-0.006306387869348516   -0.06246123559114151   -0.001451622872543625
-0.006200337611120165   -0.07002349737934332   -0.0017846118575046306
-0.0028460459001213405   -0.06988425211467116   -0.0016686432203975074
-0.006306387869348516   -0.06246123559114151   -0.001451622872543625
-0.0019687148263405115   -0.06242379517027714   -0.0013205251550565769
-0.0019841047057994232   -0.06252102350176333   -0.0012744460508596483
-0.0028460459001213405   -0.06988425211467116   -0.0016686432203975074
-0.006306387869348516   -0.06246123559114151   -0.001451622872543625
-0.0019841047057994232   -0.06252102350176333   -0.0012744460508596483
-0.006200337611120165   -0.07002349737934332   -0.0017846118575046306
-0.0028460459001213405   -0.06988425211467116   -0.0016686432203975074
-0.0019687148263405115   -0.06242379517027714   -0.0013205251550565769
-0.006156277160128098   -0.0699495963279347   -0.0017778668483071586
-0.0028063746582371175   -0.06984030582193451   -0.0017297945228269365
-0.0019687148263405115   -0.06242379517027714   -0.0013205251550565769
-0.006306387869348516   -0.06246123559114151   -0.001451622872543625
-0.006156277160128098   -0.0699495963279347   -0.0017778668483071586
-0.0063124262487651   -0.0624128157574662   -0.0014302475399036413
-0.0028063746582371175   -0.06984030582193451   -0.0017297945228269365
-0.006117739375563159   -0.06991683244830782   -0.001762930718535336
-0.0063124262487651   -0.0624128157574662   -0.0014302475399036413
-0.006156277160128098   -0.0699495963279347   -0.0017778668483071586
-0.0028063746582371175   -0.06984030582193451   -0.0017297945228269365
-0.0063124262487651   -0.0624128157574662   -0.0014302475399036413
-0.0019761033538154144   -0.06236031262793814   -0.001358846933998969
-0.0019687148263405115   -0.06242379517027714   -0.0013205251550565769
-0.0028063746582371175   -0.06984030582193451   -0.0017297945228269365
-0.0063124262487651   -0.0624128157574662   -0.0014302475399036413
-0.0019687148263405115   -0.06242379517027714   -0.0013205251550565769
-0.006156277160128098   -0.0699495963279347   -0.0017778668483071586
-0.006243186790503505   -0.07013922740593859   -0.0017825824070635034
-0.006305548239661907   -0.06265566385593895   -0.0014702329324467443
-0.009464211258798877   -0.07003502926828196   -0.0020190034868747295
-0.006200337611120165   -0.07002349737934332   -0.0017846118575046306
-0.006305548239661907   -0.06265566385593895   -0.0014702329324467443
-0.010541659447103063   -0.06254841937510038   -0.001689445418401437
-0.009464211258798877   -0.07003502926828196   -0.0020190034868747295
-0.01054541131480686   -0.062453084985304295   -0.0016254413107292377
-0.006200337611120165   -0.07002349737934332   -0.0017846118575046306
-0.009424318010445278   -0.06993517539222649   -0.0019463439019226886
-0.01054541131480686   -0.062453084985304295   -0.0016254413107292377
-0.009464211258798877   -0.07003502926828196   -0.0020190034868747295
-0.006200337611120165   -0.07002349737934332   -0.0017846118575046306
-0.01054541131480686   -0.062453084985304295   -0.0016254413107292377
-0.006306112230384672   -0.06254220400466298   -0.0014650951699845395
-0.006305548239661907   -0.06265566385593895   -0.0014702329324467443
-0.006200337611120165   -0.07002349737934332   -0.0017846118575046306
-0.01054541131480686   -0.062453084985304295   -0.0016254413107292377
-0.006305548239661907   -0.06265566385593895   -0.0014702329324467443
-0.009464211258798877   -0.07003502926828196   -0.0020190034868747295
-0.006200337611120165   -0.07002349737934332   -0.0017846118575046306
-0.006306112230384672   -0.06254220400466298   -0.0014650951699845395
-0.009424318010445278   -0.06993517539222649   -0.0019463439019226886
-0.006156277160128098   -0.0699495963279347   -0.0017778668483071586
-0.006306112230384672   -0.06254220400466298   -0.0014650951699845395
-0.01054541131480686   -0.062453084985304295   -0.0016254413107292377
-0.009424318010445278   -0.06993517539222649   -0.0019463439019226886
-0.010541942539823108   -0.06238995451841247   -0.0015532639678804518
-0.006156277160128098   -0.0699495963279347   -0.0017778668483071586
-0.009376113262604313   -0.06987669016042933   -0.0018650997334960615
-0.010541942539823108   -0.06238995451841247   -0.0015532639678804518
-0.009424318010445278   -0.06993517539222649   -0.0019463439019226886
-0.006156277160128098   -0.0699495963279347   -0.0017778668483071586
-0.010541942539823108   -0.06238995451841247   -0.0015532639678804518
-0.006306387869348516   -0.06246123559114151   -0.001451622872543625
-0.006306112230384672   -0.06254220400466298   -0.0014650951699845395
-0.006156277160128098   -0.0699495963279347   -0.0017778668483071586
-0.010541942539823108   -0.06238995451841247   -0.0015532639678804518
-0.006306112230384672   -0.06254220400466298   -0.0014650951699845395
-0.009424318010445278   -0.06993517539222649   -0.0019463439019226886
-0.006156277160128098   -0.0699495963279347   -0.0017778668483071586
-0.006306387869348516   -0.06246123559114151   -0.001451622872543625
-0.009376113262604313   -0.06987669016042933   -0.0018650997334960615
-0.006117739375563159   -0.06991683244830782   -0.001762930718535336
-0.006306387869348516   -0.06246123559114151   -0.001451622872543625
-0.010541942539823108   -0.06238995451841247   -0.0015532639678804518
-0.009376113262604313   -0.06987669016042933   -0.0018650997334960615
-0.010539773624694096   -0.06235846166873979   -0.0014731519427850922
-0.006117739375563159   -0.06991683244830782   -0.001762930718535336
-0.009329225305747247   -0.06985764832694924   -0.0017755354639244368
-0.010539773624694096   -0.06235846166873979   -0.0014731519427850922
-0.009376113262604313   -0.06987669016042933   -0.0018650997334960615
-0.006117739375563159   -0.06991683244830782   -0.001762930718535336
-0.010539773624694096   -0.06235846166873979   -0.0014731519427850922
-0.0063124262487651   -0.0624128157574662   -0.0014302475399036413
-0.006306387869348516   -0.06246123559114151   -0.001451622872543625
-0.006117739375563159   -0.06991683244830782   -0.001762930718535336
-0.010539773624694096   -0.06235846166873979   -0.0014731519427850922
-0.006306387869348516   -0.06246123559114151   -0.001451622872543625
-0.009376113262604313   -0.06987669016042933   -0.0018650997334960615
-0.009464211258798877   -0.07003502926828196   -0.0020190034868747295
-0.010541659447103063   -0.06254841937510038   -0.001689445418401437
-0.01283976953269073   -0.0697982360780235   -0.002229021256532147
-0.009424318010445278   -0.06993517539222649   -0.0019463439019226886
-0.010541659447103063   -0.06254841937510038   -0.001689445418401437
-0.014909833639612196   -0.06233743968216364   -0.0018780413804594799
-0.01283976953269073   -0.0697982360780235   -0.002229021256532147
-0.01490469770776155   -0.06225946718295938   -0.0017544752061125941
-0.009424318010445278   -0.06993517539222649   -0.0019463439019226886
-0.012787672057027372   -0.06971354476550758   -0.0020815810065721745
-0.01490469770776155   -0.06225946718295938   -0.0017544752061125941
-0.01283976953269073   -0.0697982360780235   -0.002229021256532147
-0.009424318010445278   -0.06993517539222649   -0.0019463439019226886
-0.01490469770776155   -0.06225946718295938   -0.0017544752061125941
-0.01054541131480686   -0.062453084985304295   -0.0016254413107292377
-0.010541659447103063   -0.06254841937510038   -0.001689445418401437
-0.009424318010445278   -0.06993517539222649   -0.0019463439019226886
-0.01490469770776155   -0.06225946718295938   -0.0017544752061125941
-0.010541659447103063   -0.06254841937510038   -0.001689445418401437
-0.01283976953269073   -0.0697982360780235   -0.002229021256532147
-0.009424318010445278   -0.06993517539222649   -0.0019463439019226886
-0.01054541131480686   -0.062453084985304295   -0.0016254413107292377
-0.012787672057027372   -0.06971354476550758   -0.0020815810065721745
-0.009376113262604313   -0.06987669016042933   -0.0018650997334960615
-0.01054541131480686   -0.062453084985304295   -0.0016254413107292377
-0.01490469770776155   -0.06225946718295938   -0.0017544752061125941
-0.012787672057027372   -0.06971354476550758   -0.0020815810065721745
-0.014868086605525247   -0.06221251057756709   -0.0016239675254862186
-0.009376113262604313   -0.06987669016042933   -0.0018650997334960615
-0.012699360877167172   -0.06966903595564669   -0.0019268746163086357
-0.014868086605525247   -0.06221251057756709   -0.0016239675254862186
-0.012787672057027372   -0.06971354476550758   -0.0020815810065721745
-0.009376113262604313   -0.06987669016042933   -0.0018650997334960615
-0.014868086605525247   -0.06221251057756709   -0.0016239675254862186
-0.010541942539823108   -0.06238995451841247   -0.0015532639678804518
-0.01054541131480686   -0.062453084985304295   -0.0016254413107292377
-0.009376113262604313   -0.06987669016042933   -0.0018650997334960615
-0.014868086605525247   -0.06221251057756709   -0.0016239675254862186
-0.01054541131480686   -0.062453084985304295   -0.0016254413107292377
-0.012787672057027372   -0.06971354476550758   -0.0020815810065721745
-0.009376113262604313   -0.06987669016042933   -0.0018650997334960615
-0.010541942539823108   -0.06238995451841247   -0.0015532639678804518
-0.012699360877167172   -0.06966903595564669   -0.0019268746163086357
-0.009329225305747247   -0.06985764832694924   -0.0017755354639244368
-0.010541942539823108   -0.06238995451841247   -0.0015532639678804518
-0.014868086605525247   -0.06221251057756709   -0.0016239675254862186
-0.012699360877167172   -0.06966903595564669   -0.0019268746163086357
-0.01484361293434042   -0.062199849447024   -0.0014848880670031343
-0.009329225305747247   -0.06985764832694924   -0.0017755354639244368
-0.012627611693905891   -0.06966706098826696   -0.0017626379904187057
-0.01484361293434042   -0.062199849447024   -0.0014848880670031343
-0.012699360877167172   -0.06966903595564669   -0.0019268746163086357
-0.009329225305747247   -0.06985764832694924   -0.0017755354639244368
-0.01484361293434042   -0.062199849447024   -0.0014848880670031343
-0.010539773624694096   -0.06235846166873979   -0.0014731519427850922
-0.010541942539823108   -0.06238995451841247   -0.0015532639678804518
-0.009329225305747247   -0.06985764832694924   -0.0017755354639244368
-0.01484361293434042   -0.062199849447024   -0.0014848880670031343
-0.010541942539823108   -0.06238995451841247   -0.0015532639678804518
-0.012699360877167172   -0.06966903595564669   -0.0019268746163086357
-0.01283976953269073   -0.0697982360780235   -0.002229021256532147
-0.014909833639612196   -0.06233743968216364   -0.0018780413804594799
-0.016776475547548773   -0.06945733444823188   -0.0024247805637374414
-0.012787672057027372   -0.06971354476550758   -0.0020815810065721745
-0.014909833639612196   -0.06233743968216364   -0.0018780413804594799
-0.019789007031821276   -0.06204671909367695   -0.0020480692691822763
-0.016776475547548773   -0.06945733444823188   -0.0024247805637374414
-0.01960672444626304   -0.061970213360283535   -0.0018590595858189536
-0.012787672057027372   -0.06971354476550758   -0.0020815810065721745
-0.016509801219376615   -0.06936903550833685   -0.002194012859154272
-0.01960672444626304   -0.061970213360283535   -0.0018590595858189536
-0.016776475547548773   -0.06945733444823188   -0.0024247805637374414
-0.012787672057027372   -0.06971354476550758   -0.0020815810065721745
-0.01960672444626304   -0.061970213360283535   -0.0018590595858189536
-0.01490469770776155   -0.06225946718295938   -0.0017544752061125941
-0.014909833639612196   -0.06233743968216364   -0.0018780413804594799
-0.012787672057027372   -0.06971354476550758   -0.0020815810065721745
-0.01960672444626304   -0.061970213360283535   -0.0018590595858189536
-0.014909833639612196   -0.06233743968216364   -0.0018780413804594799
-0.016776475547548773   -0.06945733444823188   -0.0024247805637374414
-0.012787672057027372   -0.06971354476550758   -0.0020815810065721745
-0.01490469770776155   -0.06225946718295938   -0.0017544752061125941
-0.016509801219376615   -0.06936903550833685   -0.002194012859154272
-0.012699360877167172   -0.06966903595564669   -0.0019268746163086357
-0.01490469770776155   -0.06225946718295938   -0.0017544752061125941
-0.01960672444626304   -0.061970213360283535   -0.0018590595858189536
-0.016509801219376615   -0.06936903550833685   -0.002194012859154272
-0.019450808126880534   -0.0619291555616527   -0.001658384857337539
-0.012699360877167172   -0.06966903595564669   -0.0019268746163086357
-0.016278318270500105   -0.06932832073236653   -0.0019512669718630578
-0.019450808126880534   -0.0619291555616527   -0.001658384857337539
-0.016509801219376615   -0.06936903550833685   -0.002194012859154272
-0.012699360877167172   -0.06966903595564669   -0.0019268746163086357
-0.019450808126880534   -0.0619291555616527   -0.001658384857337539
-0.014868086605525247   -0.06221251057756709   -0.0016239675254862186
-0.01490469770776155   -0.06225946718295938   -0.0017544752061125941
-0.012699360877167172   -0.06966903595564669   -0.0019268746163086357
-0.019450808126880534   -0.0619291555616527   -0.001658384857337539
-0.01490469770776155   -0.06225946718295938   -0.0017544752061125941
-0.016509801219376615   -0.06936903550833685   -0.002194012859154272
-0.012699360877167172   -0.06966903595564669   -0.0019268746163086357
-0.014868086605525247   -0.06221251057756709   -0.0016239675254862186
-0.016278318270500105   -0.06932832073236653   -0.0019512669718630578
-0.012627611693905891   -0.06966706098826696   -0.0017626379904187057
-0.014868086605525247   -0.06221251057756709   -0.0016239675254862186
-0.019450808126880534   -0.0619291555616527   -0.001658384857337539
-0.016278318270500105   -0.06932832073236653   -0.0019512669718630578
-0.019225760663242185   -0.06194250464232067   -0.0014476429541765924
-0.012627611693905891   -0.06966706098826696   -0.0017626379904187057
-0.01596643494139427   -0.06935262345972094   -0.0016980901584606799
-0.019225760663242185   -0.06194250464232067   -0.0014476429541765924
-0.016278318270500105   -0.06932832073236653   -0.0019512669718630578
-0.012627611693905891   -0.06966706098826696   -0.0017626379904187057
-0.019225760663242185   -0.06194250464232067   -0.0014476429541765924
-0.01484361293434042   -0.062199849447024   -0.0014848880670031343
-0.014868086605525247   -0.06221251057756709   -0.0016239675254862186
-0.012627611693905891   -0.06966706098826696   -0.0017626379904187057
-0.019225760663242185   -0.06194250464232067   -0.0014476429541765924
-0.014868086605525247   -0.06221251057756709   -0.0016239675254862186
-0.016278318270500105   -0.06932832073236653   -0.0019512669718630578
0.0024821641060699157   -0.06254422639784957   -0.0009166425503159719
0.003907964897301335   -0.05365028928566941   -0.0006105877422159589
-0.0019962065558089327   -0.06265510748155013   -0.0012199991627630203
0.0026127082861993355   -0.0623864348167139   -0.0010489502268740715
0.003907964897301335   -0.05365028928566941   -0.0006105877422159589
-0.0014046043945303054   -0.05370476996577325   -0.0008959983000926863
-0.0019962065558089327   -0.06265510748155013   -0.0012199991627630203
-0.0014296395890001042   -0.053573949608438205   -0.0009253227826475138
0.0026127082861993355   -0.0623864348167139   -0.0010489502268740715
-0.0019841047057994232   -0.06252102350176333   -0.0012744460508596483
-0.0014296395890001042   -0.053573949608438205   -0.0009253227826475138
-0.0019962065558089327   -0.06265510748155013   -0.0012199991627630203
0.0026127082861993355   -0.0623864348167139   -0.0010489502268740715
-0.0014296395890001042   -0.053573949608438205   -0.0009253227826475138
0.003959464721749084   -0.053498267805642916   -0.000697230555017889
0.003907964897301335   -0.05365028928566941   -0.0006105877422159589
0.0026127082861993355   -0.0623864348167139   -0.0010489502268740715
-0.0014296395890001042   -0.053573949608438205   -0.0009253227826475138
0.003907964897301335   -0.05365028928566941   -0.0006105877422159589
-0.0019962065558089327   -0.06265510748155013   -0.0012199991627630203
0.0026127082861993355   -0.0623864348167139   -0.0010489502268740715
0.003959464721749084   -0.053498267805642916   -0.000697230555017889
-0.0019841047057994232   -0.06252102350176333   -0.0012744460508596483
0.0026961553048661024   -0.062282871607148314   -0.001169433417809882
0.003959464721749084   -0.053498267805642916   -0.000697230555017889
-0.0014296395890001042   -0.053573949608438205   -0.0009253227826475138
-0.0019841047057994232   -0.06252102350176333   -0.0012744460508596483
-0.001455956230618457   -0.053470432398484   -0.0009471795757316463
0.0026961553048661024   -0.062282871607148314   -0.001169433417809882
-0.0019687148263405115   -0.06242379517027714   -0.0013205251550565769
-0.001455956230618457   -0.053470432398484   -0.0009471795757316463
-0.0019841047057994232   -0.06252102350176333   -0.0012744460508596483
0.0026961553048661024   -0.062282871607148314   -0.001169433417809882
-0.001455956230618457   -0.053470432398484   -0.0009471795757316463
0.0039750614556405845   -0.05338744933192459   -0.0007728568595631216
0.003959464721749084   -0.053498267805642916   -0.000697230555017889
0.0026961553048661024   -0.062282871607148314   -0.001169433417809882
-0.001455956230618457   -0.053470432398484   -0.0009471795757316463
0.003959464721749084   -0.053498267805642916   -0.000697230555017889
-0.0019841047057994232   -0.06252102350176333   -0.0012744460508596483
0.0026961553048661024   -0.062282871607148314   -0.001169433417809882
0.0039750614556405845   -0.05338744933192459   -0.0007728568595631216
-0.0019687148263405115   -0.06242379517027714   -0.0013205251550565769
0.0027818076471092072   -0.06221346218111219   -0.0012783396131347503
0.0039750614556405845   -0.05338744933192459   -0.0007728568595631216
-0.001455956230618457   -0.053470432398484   -0.0009471795757316463
-0.0019687148263405115   -0.06242379517027714   -0.0013205251550565769
-0.0015007287325298937   -0.05339096932919088   -0.0009618213141677009
0.0027818076471092072   -0.06221346218111219   -0.0012783396131347503
-0.0019761033538154144   -0.06236031262793814   -0.001358846933998969
-0.0015007287325298937   -0.05339096932919088   -0.0009618213141677009
-0.0019687148263405115   -0.06242379517027714   -0.0013205251550565769
0.0027818076471092072   -0.06221346218111219   -0.0012783396131347503
-0.0015007287325298937   -0.05339096932919088   -0.0009618213141677009
0.003983763864636262   -0.05329832556978783   -0.0008379877021584751
0.0039750614556405845   -0.05338744933192459   -0.0007728568595631216
0.0027818076471092072   -0.06221346218111219   -0.0012783396131347503
-0.0015007287325298937   -0.05339096932919088   -0.0009618213141677009
0.0039750614556405845   -0.05338744933192459   -0.0007728568595631216
-0.0019687148263405115   -0.06242379517027714   -0.0013205251550565769
-0.0019962065558089327   -0.06265510748155013   -0.0012199991627630203
-0.0014046043945303054   -0.05370476996577325   -0.0008959983000926863
-0.006305548239661907   -0.06265566385593895   -0.0014702329324467443
-0.0019841047057994232   -0.06252102350176333   -0.0012744460508596483
-0.0014046043945303054   -0.05370476996577325   -0.0008959983000926863
-0.006496783220328878   -0.05367670074780716   -0.0011310813293766995
-0.006305548239661907   -0.06265566385593895   -0.0014702329324467443
-0.0065314693203139575   -0.053567348529305   -0.001117350215444981
-0.0019841047057994232   -0.06252102350176333   -0.0012744460508596483
-0.006306112230384672   -0.06254220400466298   -0.0014650951699845395
-0.0065314693203139575   -0.053567348529305   -0.001117350215444981
-0.006305548239661907   -0.06265566385593895   -0.0014702329324467443
-0.0019841047057994232   -0.06252102350176333   -0.0012744460508596483
-0.0065314693203139575   -0.053567348529305   -0.001117350215444981
-0.0014296395890001042   -0.053573949608438205   -0.0009253227826475138
-0.0014046043945303054   -0.05370476996577325   -0.0008959983000926863
-0.0019841047057994232   -0.06252102350176333   -0.0012744460508596483
-0.0065314693203139575   -0.053567348529305   -0.001117350215444981
-0.0014046043945303054   -0.05370476996577325   -0.0008959983000926863
-0.006305548239661907   -0.06265566385593895   -0.0014702329324467443
-0.0019841047057994232   -0.06252102350176333   -0.0012744460508596483
-0.0014296395890001042   -0.053573949608438205   -0.0009253227826475138
-0.006306112230384672   -0.06254220400466298   -0.0014650951699845395
-0.0019687148263405115   -0.06242379517027714   -0.0013205251550565769
-0.0014296395890001042   -0.053573949608438205   -0.0009253227826475138
-0.0065314693203139575   -0.053567348529305   -0.001117350215444981
-0.006306112230384672   -0.06254220400466298   -0.0014650951699845395
-0.006566631426910765   -0.05348140139440278   -0.0010959319562565508
-0.0019687148263405115   -0.06242379517027714   -0.0013205251550565769
-0.006306387869348516   -0.06246123559114151   -0.001451622872543625
-0.006566631426910765   -0.05348140139440278   -0.0010959319562565508
-0.006306112230384672   -0.06254220400466298   -0.0014650951699845395
-0.0019687148263405115   -0.06242379517027714   -0.0013205251550565769
-0.006566631426910765   -0.05348140139440278   -0.0010959319562565508
-0.001455956230618457   -0.053470432398484   -0.0009471795757316463
-0.0014296395890001042   -0.053573949608438205   -0.0009253227826475138
-0.0019687148263405115   -0.06242379517027714   -0.0013205251550565769
-0.006566631426910765   -0.05348140139440278   -0.0010959319562565508
-0.0014296395890001042   -0.053573949608438205   -0.0009253227826475138
-0.006306112230384672   -0.06254220400466298   -0.0014650951699845395
-0.0019687148263405115   -0.06242379517027714   -0.0013205251550565769
-0.001455956230618457   -0.053470432398484   -0.0009471795757316463
-0.006306387869348516   -0.06246123559114151   -0.001451622872543625
-0.0019761033538154144   -0.06236031262793814   -0.001358846933998969
-0.001455956230618457   -0.053470432398484   -0.0009471795757316463
-0.006566631426910765   -0.05348140139440278   -0.0010959319562565508
-0.006306387869348516   -0.06246123559114151   -0.001451622872543625
-0.00660726247973893   -0.05341925714783401   -0.0010671963247567548
-0.0019761033538154144   -0.06236031262793814   -0.001358846933998969
-0.0063124262487651   -0.0624128157574662   -0.0014302475399036413
-0.00660726247973893   -0.05341925714783401   -0.0010671963247567548
-0.006306387869348516   -0.06246123559114151   -0.001451622872543625
-0.0019761033538154144   -0.06236031262793814   -0.001358846933998969
-0.00660726247973893   -0.05341925714783401   -0.0010671963247567548
-0.0015007287325298937   -0.05339096932919088   -0.0009618213141677009
-0.001455956230618457   -0.053470432398484   -0.0009471795757316463
-0.0019761033538154144   -0.06236031262793814   -0.001358846933998969
-0.00660726247973893   -0.05341925714783401   -0.0010671963247567548
-0.001455956230618457   -0.053470432398484   -0.0009471795757316463
-0.006306387869348516   -0.06246123559114151   -0.001451622872543625
-0.006305548239661907   -0.06265566385593895   -0.0014702329324467443
-0.006496783220328878   -0.05367670074780716   -0.0011310813293766995
-0.010541659447103063   -0.06254841937510038   -0.001689445418401437
-0.006306112230384672   -0.06254220400466298   -0.0014650951699845395
-0.006496783220328878   -0.05367670074780716   -0.0011310813293766995
-0.011502849796828633   -0.053571174518031395   -0.001332257064453426
-0.010541659447103063   -0.06254841937510038   -0.001689445418401437
-0.011540263891325283   -0.053481334094578836   -0.0012756768766541257
-0.006306112230384672   -0.06254220400466298   -0.0014650951699845395
-0.01054541131480686   -0.062453084985304295   -0.0016254413107292377
-0.011540263891325283   -0.053481334094578836   -0.0012756768766541257
-0.010541659447103063   -0.06254841937510038   -0.001689445418401437
-0.006306112230384672   -0.06254220400466298   -0.0014650951699845395
-0.011540263891325283   -0.053481334094578836   -0.0012756768766541257
-0.0065314693203139575   -0.053567348529305   -0.001117350215444981
-0.006496783220328878   -0.05367670074780716   -0.0011310813293766995
-0.006306112230384672   -0.06254220400466298   -0.0014650951699845395
-0.011540263891325283   -0.053481334094578836   -0.0012756768766541257
-0.006496783220328878   -0.05367670074780716   -0.0011310813293766995
-0.010541659447103063   -0.06254841937510038   -0.001689445418401437
-0.006306112230384672   -0.06254220400466298   -0.0014650951699845395
-0.0065314693203139575   -0.053567348529305   -0.001117350215444981
-0.01054541131480686   -0.062453084985304295   -0.0016254413107292377
-0.006306387869348516   -0.06246123559114151   -0.001451622872543625
-0.0065314693203139575   -0.053567348529305   -0.001117350215444981
-0.011540263891325283   -0.053481334094578836   -0.0012756768766541257
-0.01054541131480686   -0.062453084985304295   -0.0016254413107292377
-0.01157126786280472   -0.05341467505625457   -0.0012115450897540526
-0.006306387869348516   -0.06246123559114151   -0.001451622872543625
-0.010541942539823108   -0.06238995451841247   -0.0015532639678804518
-0.01157126786280472   -0.05341467505625457   -0.0012115450897540526
-0.01054541131480686   -0.062453084985304295   -0.0016254413107292377
-0.006306387869348516   -0.06246123559114151   -0.001451622872543625
-0.01157126786280472   -0.05341467505625457   -0.0012115450897540526
-0.006566631426910765   -0.05348140139440278   -0.0010959319562565508
-0.0065314693203139575   -0.053567348529305   -0.001117350215444981
-0.006306387869348516   -0.06246123559114151   -0.001451622872543625
-0.01157126786280472   -0.05341467505625457   -0.0012115450897540526
-0.0065314693203139575   -0.053567348529305   -0.001117350215444981
-0.01054541131480686   -0.062453084985304295   -0.0016254413107292377
-0.006306387869348516   -0.06246123559114151   -0.001451622872543625
-0.006566631426910765   -0.05348140139440278   -0.0010959319562565508
-0.010541942539823108   -0.06238995451841247   -0.0015532639678804518
-0.0063124262487651   -0.0624128157574662   -0.0014302475399036413
-0.006566631426910765   -0.05348140139440278   -0.0010959319562565508
-0.01157126786280472   -0.05341467505625457   -0.0012115450897540526
-0.010541942539823108   -0.06238995451841247   -0.0015532639678804518
-0.011603171299323846   -0.05337110062562606   -0.0011400843058941125
-0.0063124262487651   -0.0624128157574662   -0.0014302475399036413
-0.010539773624694096   -0.06235846166873979   -0.0014731519427850922
-0.011603171299323846   -0.05337110062562606   -0.0011400843058941125
-0.010541942539823108   -0.06238995451841247   -0.0015532639678804518
-0.0063124262487651   -0.0624128157574662   -0.0014302475399036413
-0.011603171299323846   -0.05337110062562606   -0.0011400843058941125
-0.00660726247973893   -0.05341925714783401   -0.0010671963247567548
-0.006566631426910765   -0.05348140139440278   -0.0010959319562565508
-0.0063124262487651   -0.0624128157574662   -0.0014302475399036413
-0.011603171299323846   -0.05337110062562606   -0.0011400843058941125
-0.006566631426910765   -0.05348140139440278   -0.0010959319562565508
-0.010541942539823108   -0.06238995451841247   -0.0015532639678804518
-0.010541659447103063   -0.06254841937510038   -0.001689445418401437
-0.011502849796828633   -0.053571174518031395   -0.001332257064453426
-0.014909833639612196   -0.06233743968216364   -0.0018780413804594799
-0.01054541131480686   -0.062453084985304295   -0.0016254413107292377
-0.011502849796828633   -0.053571174518031395   -0.001332257064453426
-0.016627990504014242   -0.053390298252117246   -0.0015002848785093308
-0.014909833639612196   -0.06233743968216364   -0.0018780413804594799
-0.016658960541637978   -0.05331952181043687   -0.001400273123426612
-0.01054541131480686   -0.062453084985304295   -0.0016254413107292377
-0.01490469770776155   -0.06225946718295938   -0.0017544752061125941
-0.016658960541637978   -0.05331952181043687   -0.001400273123426612
-0.014909833639612196   -0.06233743968216364   -0.0018780413804594799
-0.01054541131480686   -0.062453084985304295   -0.0016254413107292377
-0.016658960541637978   -0.05331952181043687   -0.001400273123426612
-0.011540263891325283   -0.053481334094578836   -0.0012756768766541257
-0.011502849796828633   -0.053571174518031395   -0.001332257064453426
-0.01054541131480686   -0.062453084985304295   -0.0016254413107292377
-0.016658960541637978   -0.05331952181043687   -0.001400273123426612
-0.011502849796828633   -0.053571174518031395   -0.001332257064453426
-0.014909833639612196   -0.06233743968216364   -0.0018780413804594799
-0.01054541131480686   -0.062453084985304295   -0.0016254413107292377
-0.011540263891325283   -0.053481334094578836   -0.0012756768766541257
-0.01490469770776155   -0.06225946718295938   -0.0017544752061125941
-0.010541942539823108   -0.06238995451841247   -0.0015532639678804518
-0.011540263891325283   -0.053481334094578836   -0.0012756768766541257
-0.016658960541637978   -0.05331952181043687   -0.001400273123426612
-0.01490469770776155   -0.06225946718295938   -0.0017544752061125941
-0.016662986755395067   -0.053270499134407685   -0.0012937548656137218
-0.010541942539823108   -0.06238995451841247   -0.0015532639678804518
-0.014868086605525247   -0.06221251057756709   -0.0016239675254862186
-0.016662986755395067   -0.053270499134407685   -0.0012937548656137218
-0.01490469770776155   -0.06225946718295938   -0.0017544752061125941
-0.010541942539823108   -0.06238995451841247   -0.0015532639678804518
-0.016662986755395067   -0.053270499134407685   -0.0012937548656137218
-0.01157126786280472   -0.05341467505625457   -0.0012115450897540526
-0.011540263891325283   -0.053481334094578836   -0.0012756768766541257
-0.010541942539823108   -0.06238995451841247   -0.0015532639678804518
-0.016662986755395067   -0.053270499134407685   -0.0012937548656137218
-0.011540263891325283   -0.053481334094578836   -0.0012756768766541257
-0.01490469770776155   -0.06225946718295938   -0.0017544752061125941
-0.010541942539823108   -0.06238995451841247   -0.0015532639678804518
-0.01157126786280472   -0.05341467505625457   -0.0012115450897540526
-0.014868086605525247   -0.06221251057756709   -0.0016239675254862186
-0.010539773624694096   -0.06235846166873979   -0.0014731519427850922
-0.01157126786280472   -0.05341467505625457   -0.0012115450897540526
-0.016662986755395067   -0.053270499134407685   -0.0012937548656137218
-0.014868086605525247   -0.06221251057756709   -0.0016239675254862186
-0.016674647597889454   -0.05324663643408397   -0.0011793525575893719
-0.010539773624694096   -0.06235846166873979   -0.0014731519427850922
-0.01484361293434042   -0.062199849447024   -0.0014848880670031343
-0.016674647597889454   -0.05324663643408397   -0.0011793525575893719
-0.014868086605525247   -0.06221251057756709   -0.0016239675254862186
-0.010539773624694096   -0.06235846166873979   -0.0014731519427850922
-0.016674647597889454   -0.05324663643408397   -0.0011793525575893719
-0.011603171299323846   -0.05337110062562606   -0.0011400843058941125
-0.01157126786280472   -0.05341467505625457   -0.0012115450897540526
-0.010539773624694096   -0.06235846166873979   -0.0014731519427850922
-0.016674647597889454   -0.05324663643408397   -0.0011793525575893719
-0.01157126786280472   -0.05341467505625457   -0.0012115450897540526
-0.014868086605525247   -0.06221251057756709   -0.0016239675254862186
-0.014909833639612196   -0.06233743968216364   -0.0018780413804594799
-0.016627990504014242   -0.053390298252117246   -0.0015002848785093308
-0.019789007031821276   -0.06204671909367695   -0.0020480692691822763
-0.01490469770776155   -0.06225946718295938   -0.0017544752061125941
-0.016627990504014242   -0.053390298252117246   -0.0015002848785093308
-0.02221677065106375   -0.05315309535403435   -0.0016438175457845602
-0.019789007031821276   -0.06204671909367695   -0.0020480692691822763
-0.02210996841499937   -0.05308844446189832   -0.0014979002085231871
-0.01490469770776155   -0.06225946718295938   -0.0017544752061125941
-0.01960672444626304   -0.061970213360283535   -0.0018590595858189536
-0.02210996841499937   -0.05308844446189832   -0.0014979002085231871
-0.019789007031821276   -0.06204671909367695   -0.0020480692691822763
-0.01490469770776155   -0.06225946718295938   -0.0017544752061125941
-0.02210996841499937   -0.05308844446189832   -0.0014979002085231871
-0.016658960541637978   -0.05331952181043687   -0.001400273123426612
-0.016627990504014242   -0.053390298252117246   -0.0015002848785093308
-0.01490469770776155   -0.06225946718295938   -0.0017544752061125941
-0.02210996841499937   -0.05308844446189832   -0.0014979002085231871
-0.016627990504014242   -0.053390298252117246   -0.0015002848785093308
-0.019789007031821276   -0.06204671909367695   -0.0020480692691822763
-0.01490469770776155   -0.06225946718295938   -0.0017544752061125941
-0.016658960541637978   -0.05331952181043687   -0.001400273123426612
-0.01960672444626304   -0.061970213360283535   -0.0018590595858189536
-0.014868086605525247   -0.06221251057756709   -0.0016239675254862186
-0.016658960541637978   -0.05331952181043687   -0.001400273123426612
-0.02210996841499937   -0.05308844446189832   -0.0014979002085231871
-0.01960672444626304   -0.061970213360283535   -0.0018590595858189536
-0.022019915538687238   -0.053046897621133744   -0.001340624217430479
-0.014868086605525247   -0.06221251057756709   -0.0016239675254862186
-0.019450808126880534   -0.0619291555616527   -0.001658384857337539
-0.022019915538687238   -0.053046897621133744   -0.001340624217430479
-0.01960672444626304   -0.061970213360283535   -0.0018590595858189536
-0.014868086605525247   -0.06221251057756709   -0.0016239675254862186
-0.022019915538687238   -0.053046897621133744   -0.001340624217430479
-0.016662986755395067   -0.053270499134407685   -0.0012937548656137218
-0.016658960541637978   -0.05331952181043687   -0.001400273123426612
-0.014868086605525247   -0.06221251057756709   -0.0016239675254862186
-0.022019915538687238   -0.053046897621133744   -0.001340624217430479
-0.016658960541637978   -0.05331952181043687   -0.001400273123426612
-0.01960672444626304   -0.061970213360283535   -0.0018590595858189536
-0.014868086605525247   -0.06221251057756709   -0.0016239675254862186
-0.016662986755395067   -0.053270499134407685   -0.0012937548656137218
-0.019450808126880534   -0.0619291555616527   -0.001658384857337539
-0.01484361293434042   -0.062199849447024   -0.0014848880670031343
-0.016662986755395067   -0.053270499134407685   -0.0012937548656137218
-0.022019915538687238   -0.053046897621133744   -0.001340624217430479
-0.019450808126880534   -0.0619291555616527   -0.001658384857337539
-0.02187127665300858   -0.053048112941019236   -0.0011734051424087215
-0.01484361293434042   -0.062199849447024   -0.0014848880670031343
-0.019225760663242185   -0.06194250464232067   -0.0014476429541765924
-0.02187127665300858   -0.053048112941019236   -0.0011734051424087215
-0.019450808126880534   -0.0619291555616527   -0.001658384857337539
-0.01484361293434042   -0.062199849447024   -0.0014848880670031343
-0.02187127665300858   -0.053048112941019236   -0.0011734051424087215
-0.016674647597889454   -0.05324663643408397   -0.0011793525575893719
-0.016662986755395067   -0.053270499134407685   -0.0012937548656137218
-0.01484361293434042   -0.062199849447024   -0.0014848880670031343
-0.02187127665300858   -0.053048112941019236   -0.0011734051424087215
-0.016662986755395067   -0.053270499134407685   -0.0012937548656137218
-0.019450808126880534   -0.0619291555616527   -0.001658384857337539
0.003907964897301335   -0.05365028928566941   -0.0006105877422159589
0.004699341583607389   -0.04367111350000576   -0.00031091239584186855
-0.0014046043945303054   -0.05370476996577325   -0.0008959983000926863
0.003959464721749084   -0.053498267805642916   -0.000697230555017889
0.004699341583607389   -0.04367111350000576   -0.00031091239584186855
-0.0011978435742266487   -0.043669787363631245   -0.000575595916297704
-0.0014046043945303054   -0.05370476996577325   -0.0008959983000926863
-0.0012506494663126365   -0.04354324193428085   -0.0005794859356944075
0.003959464721749084   -0.053498267805642916   -0.000697230555017889
-0.0014296395890001042   -0.053573949608438205   -0.0009253227826475138
-0.0012506494663126365   -0.04354324193428085   -0.0005794859356944075
-0.0014046043945303054   -0.05370476996577325   -0.0008959983000926863
0.003959464721749084   -0.053498267805642916   -0.000697230555017889
-0.0012506494663126365   -0.04354324193428085   -0.0005794859356944075
0.0046822028082484325   -0.04352557291313356   -0.00035241403167927374
0.004699341583607389   -0.04367111350000576   -0.00031091239584186855
0.003959464721749084   -0.053498267805642916   -0.000697230555017889
-0.0012506494663126365   -0.04354324193428085   -0.0005794859356944075
0.004699341583607389   -0.04367111350000576   -0.00031091239584186855
-0.0014046043945303054   -0.05370476996577325   -0.0008959983000926863
0.003959464721749084   -0.053498267805642916   -0.000697230555017889
0.0046822028082484325   -0.04352557291313356   -0.00035241403167927374
-0.0014296395890001042   -0.053573949608438205   -0.0009253227826475138
0.0039750614556405845   -0.05338744933192459   -0.0007728568595631216
0.0046822028082484325   -0.04352557291313356   -0.00035241403167927374
-0.0012506494663126365   -0.04354324193428085   -0.0005794859356944075
-0.0014296395890001042   -0.053573949608438205   -0.0009253227826475138
-0.0013093252256684727   -0.043434285307776294   -0.000576756670695
0.0039750614556405845   -0.05338744933192459   -0.0007728568595631216
-0.001455956230618457   -0.053470432398484   -0.0009471795757316463
-0.0013093252256684727   -0.043434285307776294   -0.000576756670695
-0.0014296395890001042   -0.053573949608438205   -0.0009253227826475138
0.0039750614556405845   -0.05338744933192459   -0.0007728568595631216
-0.0013093252256684727   -0.043434285307776294   -0.000576756670695
0.0046396903416161765   -0.043408422026515556   -0.0003833061419378223
0.0046822028082484325   -0.04352557291313356   -0.00035241403167927374
0.0039750614556405845   -0.05338744933192459   -0.0007728568595631216
-0.0013093252256684727   -0.043434285307776294   -0.000576756670695
0.0046822028082484325   -0.04352557291313356   -0.00035241403167927374
-0.0014296395890001042   -0.053573949608438205   -0.0009253227826475138
0.0039750614556405845   -0.05338744933192459   -0.0007728568595631216
0.0046396903416161765   -0.043408422026515556   -0.0003833061419378223
-0.001455956230618457   -0.053470432398484   -0.0009471795757316463
0.003983763864636262   -0.05329832556978783   -0.0008379877021584751
0.0046396903416161765   -0.043408422026515556   -0.0003833061419378223
-0.0013093252256684727   -0.043434285307776294   -0.000576756670695
-0.001455956230618457   -0.053470432398484   -0.0009471795757316463
-0.0013821313155314814   -0.04334009801212109   -0.0005671471679339044
0.003983763864636262   -0.05329832556978783   -0.0008379877021584751
-0.0015007287325298937   -0.05339096932919088   -0.0009618213141677009
-0.0013821313155314814   -0.04334009801212109   -0.0005671471679339044
-0.001455956230618457   -0.053470432398484   -0.0009471795757316463
0.003983763864636262   -0.05329832556978783   -0.0008379877021584751
-0.0013821313155314814   -0.04334009801212109   -0.0005671471679339044
0.00458035601334926   -0.043300577227892635   -0.0004043296209447588
0.0046396903416161765   -0.043408422026515556   -0.0003833061419378223
0.003983763864636262   -0.05329832556978783   -0.0008379877021584751
-0.0013821313155314814   -0.04334009801212109   -0.0005671471679339044
0.0046396903416161765   -0.043408422026515556   -0.0003833061419378223
-0.001455956230618457   -0.053470432398484   -0.0009471795757316463
-0.0014046043945303054   -0.05370476996577325   -0.0008959983000926863
-0.0011978435742266487   -0.043669787363631245   -0.000575595916297704
-0.006496783220328878   -0.05367670074780716   -0.0011310813293766995
-0.0014296395890001042   -0.053573949608438205   -0.0009253227826475138
-0.0011978435742266487   -0.043669787363631245   -0.000575595916297704
-0.006822661925250937   -0.0436164576773651   -0.0007941090145563492
-0.006496783220328878   -0.05367670074780716   -0.0011310813293766995
-0.006881740762761984   -0.04351138262511655   -0.0007710706478305772
-0.0014296395890001042   -0.053573949608438205   -0.0009253227826475138
-0.0065314693203139575   -0.053567348529305   -0.001117350215444981
-0.006881740762761984   -0.04351138262511655   -0.0007710706478305772
-0.006496783220328878   -0.05367670074780716   -0.0011310813293766995
-0.0014296395890001042   -0.053573949608438205   -0.0009253227826475138
-0.006881740762761984   -0.04351138262511655   -0.0007710706478305772
-0.0012506494663126365   -0.04354324193428085   -0.0005794859356944075
-0.0011978435742266487   -0.043669787363631245   -0.000575595916297704
-0.0014296395890001042   -0.053573949608438205   -0.0009253227826475138
-0.006881740762761984   -0.04351138262511655   -0.0007710706478305772
-0.0011978435742266487   -0.043669787363631245   -0.000575595916297704
-0.006496783220328878   -0.05367670074780716   -0.0011310813293766995
-0.0014296395890001042   -0.053573949608438205   -0.0009253227826475138
-0.0012506494663126365   -0.04354324193428085   -0.0005794859356944075
-0.0065314693203139575   -0.053567348529305   -0.001117350215444981
-0.001455956230618457   -0.053470432398484   -0.0009471795757316463
-0.0012506494663126365   -0.04354324193428085   -0.0005794859356944075
-0.006881740762761984   -0.04351138262511655   -0.0007710706478305772
-0.0065314693203139575   -0.053567348529305   -0.001117350215444981
-0.006942006580911349   -0.04342062625114124   -0.0007411379890116465
-0.001455956230618457   -0.053470432398484   -0.0009471795757316463
-0.006566631426910765   -0.05348140139440278   -0.0010959319562565508
-0.006942006580911349   -0.04342062625114124   -0.0007411379890116465
-0.0065314693203139575   -0.053567348529305   -0.001117350215444981
-0.001455956230618457   -0.053470432398484   -0.0009471795757316463
-0.006942006580911349   -0.04342062625114124   -0.0007411379890116465
-0.0013093252256684727   -0.043434285307776294   -0.000576756670695
-0.0012506494663126365   -0.04354324193428085   -0.0005794859356944075
-0.001455956230618457   -0.053470432398484   -0.0009471795757316463
-0.006942006580911349   -0.04342062625114124   -0.0007411379890116465
-0.0012506494663126365   -0.04354324193428085   -0.0005794859356944075
-0.0065314693203139575   -0.053567348529305   -0.001117350215444981
-0.001455956230618457   -0.053470432398484   -0.0009471795757316463
-0.0013093252256684727   -0.043434285307776294   -0.000576756670695
-0.006566631426910765   -0.05348140139440278   -0.0010959319562565508
-0.0015007287325298937   -0.05339096932919088   -0.0009618213141677009
-0.0013093252256684727   -0.043434285307776294   -0.000576756670695
-0.006942006580911349   -0.04342062625114124   -0.0007411379890116465
-0.006566631426910765   -0.05348140139440278   -0.0010959319562565508
-0.007007365306994831   -0.04334504326762395   -0.0007046334626410234
-0.0015007287325298937   -0.05339096932919088   -0.0009618213141677009
-0.00660726247973893   -0.05341925714783401   -0.0010671963247567548
-0.007007365306994831   -0.04334504326762395   -0.0007046334626410234
-0.006566631426910765   -0.05348140139440278   -0.0010959319562565508
-0.0015007287325298937   -0.05339096932919088   -0.0009618213141677009
-0.007007365306994831   -0.04334504326762395   -0.0007046334626410234
-0.0013821313155314814   -0.04334009801212109   -0.0005671471679339044
-0.0013093252256684727   -0.043434285307776294   -0.000576756670695
-0.0015007287325298937   -0.05339096932919088   -0.0009618213141677009
-0.007007365306994831   -0.04334504326762395   -0.0007046334626410234
-0.0013093252256684727   -0.043434285307776294   -0.000576756670695
-0.006566631426910765   -0.05348140139440278   -0.0010959319562565508
-0.006496783220328878   -0.05367670074780716   -0.0011310813293766995
-0.006822661925250937   -0.0436164576773651   -0.0007941090145563492
-0.011502849796828633   -0.053571174518031395   -0.001332257064453426
-0.0065314693203139575   -0.053567348529305   -0.001117350215444981
-0.006822661925250937   -0.0436164576773651   -0.0007941090145563492
-0.012352370340307582   -0.043516994215555355   -0.0009784924302417295
-0.011502849796828633   -0.053571174518031395   -0.001332257064453426
-0.01241318612317142   -0.043431717580581404   -0.0009285717922560194
-0.0065314693203139575   -0.053567348529305   -0.001117350215444981
-0.011540263891325283   -0.053481334094578836   -0.0012756768766541257
-0.01241318612317142   -0.043431717580581404   -0.0009285717922560194
-0.011502849796828633   -0.053571174518031395   -0.001332257064453426
-0.0065314693203139575   -0.053567348529305   -0.001117350215444981
-0.01241318612317142   -0.043431717580581404   -0.0009285717922560194
-0.006881740762761984   -0.04351138262511655   -0.0007710706478305772
-0.006822661925250937   -0.0436164576773651   -0.0007941090145563492
-0.0065314693203139575   -0.053567348529305   -0.001117350215444981
-0.01241318612317142   -0.043431717580581404   -0.0009285717922560194
-0.006822661925250937   -0.0436164576773651   -0.0007941090145563492
-0.011502849796828633   -0.053571174518031395   -0.001332257064453426
-0.0065314693203139575   -0.053567348529305   -0.001117350215444981
-0.006881740762761984   -0.04351138262511655   -0.0007710706478305772
-0.011540263891325283   -0.053481334094578836   -0.0012756768766541257
-0.006566631426910765   -0.05348140139440278   -0.0010959319562565508
-0.006881740762761984   -0.04351138262511655   -0.0007710706478305772
-0.01241318612317142   -0.043431717580581404   -0.0009285717922560194
-0.011540263891325283   -0.053481334094578836   -0.0012756768766541257
-0.012468360184287926   -0.04336065837489343   -0.0008719172705602174
-0.006566631426910765   -0.05348140139440278   -0.0010959319562565508
-0.01157126786280472   -0.05341467505625457   -0.0012115450897540526
-0.012468360184287926   -0.04336065837489343   -0.0008719172705602174
-0.011540263891325283   -0.053481334094578836   -0.0012756768766541257
-0.006566631426910765   -0.05348140139440278   -0.0010959319562565508
-0.012468360184287926   -0.04336065837489343   -0.0008719172705602174
-0.006942006580911349   -0.04342062625114124   -0.0007411379890116465
-0.006881740762761984   -0.04351138262511655   -0.0007710706478305772
-0.006566631426910765   -0.05348140139440278   -0.0010959319562565508
-0.012468360184287926   -0.04336065837489343   -0.0008719172705602174
-0.006881740762761984   -0.04351138262511655   -0.0007710706478305772
-0.011540263891325283   -0.053481334094578836   -0.0012756768766541257
-0.006566631426910765   -0.05348140139440278   -0.0010959319562565508
-0.006942006580911349   -0.04342062625114124   -0.0007411379890116465
-0.01157126786280472   -0.05341467505625457   -0.0012115450897540526
-0.00660726247973893   -0.05341925714783401   -0.0010671963247567548
-0.006942006580911349   -0.04342062625114124   -0.0007411379890116465
-0.012468360184287926   -0.04336065837489343   -0.0008719172705602174
-0.01157126786280472   -0.05341467505625457   -0.0012115450897540526
-0.01252405698218192   -0.04330393715990902   -0.0008087859519789887
-0.00660726247973893   -0.05341925714783401   -0.0010671963247567548
-0.011603171299323846   -0.05337110062562606   -0.0011400843058941125
-0.01252405698218192   -0.04330393715990902   -0.0008087859519789887
-0.01157126786280472   -0.05341467505625457   -0.0012115450897540526
-0.00660726247973893   -0.05341925714783401   -0.0010671963247567548
-0.01252405698218192   -0.04330393715990902   -0.0008087859519789887
-0.007007365306994831   -0.04334504326762395   -0.0007046334626410234
-0.006942006580911349   -0.04342062625114124   -0.0007411379890116465
-0.00660726247973893   -0.05341925714783401   -0.0010671963247567548
-0.01252405698218192   -0.04330393715990902   -0.0008087859519789887
-0.006942006580911349   -0.04342062625114124   -0.0007411379890116465
-0.01157126786280472   -0.05341467505625457   -0.0012115450897540526
-0.011502849796828633   -0.053571174518031395   -0.001332257064453426
-0.012352370340307582   -0.043516994215555355   -0.0009784924302417295
-0.016627990504014242   -0.053390298252117246   -0.0015002848785093308
-0.011540263891325283   -0.053481334094578836   -0.0012756768766541257
-0.012352370340307582   -0.043516994215555355   -0.0009784924302417295
-0.017991585092212187   -0.043369280260842025   -0.0011291558604754252
-0.016627990504014242   -0.053390298252117246   -0.0015002848785093308
-0.018048059068917488   -0.04330397228084678   -0.0010521478827986762
-0.011540263891325283   -0.053481334094578836   -0.0012756768766541257
-0.016658960541637978   -0.05331952181043687   -0.001400273123426612
-0.018048059068917488   -0.04330397228084678   -0.0010521478827986762
-0.016627990504014242   -0.053390298252117246   -0.0015002848785093308
-0.011540263891325283   -0.053481334094578836   -0.0012756768766541257
-0.018048059068917488   -0.04330397228084678   -0.0010521478827986762
-0.01241318612317142   -0.043431717580581404   -0.0009285717922560194
-0.012352370340307582   -0.043516994215555355   -0.0009784924302417295
-0.011540263891325283   -0.053481334094578836   -0.0012756768766541257
-0.018048059068917488   -0.04330397228084678   -0.0010521478827986762
-0.012352370340307582   -0.043516994215555355   -0.0009784924302417295
-0.016627990504014242   -0.053390298252117246   -0.0015002848785093308
-0.011540263891325283   -0.053481334094578836   -0.0012756768766541257
-0.01241318612317142   -0.043431717580581404   -0.0009285717922560194
-0.016658960541637978   -0.05331952181043687   -0.001400273123426612
-0.01157126786280472   -0.05341467505625457   -0.0012115450897540526
-0.01241318612317142   -0.043431717580581404   -0.0009285717922560194
-0.018048059068917488   -0.04330397228084678   -0.0010521478827986762
-0.016658960541637978   -0.05331952181043687   -0.001400273123426612
-0.01808229328294273   -0.04325106411456374   -0.000969315414702094
-0.01157126786280472   -0.05341467505625457   -0.0012115450897540526
-0.016662986755395067   -0.053270499134407685   -0.0012937548656137218
-0.01808229328294273   -0.04325106411456374   -0.000969315414702094
-0.016658960541637978   -0.05331952181043687   -0.001400273123426612
-0.01157126786280472   -0.05341467505625457   -0.0012115450897540526
-0.01808229328294273   -0.04325106411456374   -0.000969315414702094
-0.012468360184287926   -0.04336065837489343   -0.0008719172705602174
-0.01241318612317142   -0.043431717580581404   -0.0009285717922560194
-0.01157126786280472   -0.05341467505625457   -0.0012115450897540526
-0.01808229328294273   -0.04325106411456374   -0.000969315414702094
-0.01241318612317142   -0.043431717580581404   -0.0009285717922560194
-0.016658960541637978   -0.05331952181043687   -0.001400273123426612
-0.01157126786280472   -0.05341467505625457   -0.0012115450897540526
-0.012468360184287926   -0.04336065837489343   -0.0008719172705602174
-0.016662986755395067   -0.053270499134407685   -0.0012937548656137218
-0.011603171299323846   -0.05337110062562606   -0.0011400843058941125
-0.012468360184287926   -0.04336065837489343   -0.0008719172705602174
-0.01808229328294273   -0.04325106411456374   -0.000969315414702094
-0.016662986755395067   -0.053270499134407685   -0.0012937548656137218
-0.018119881575068882   -0.0432137361792832   -0.0008794538180453864
-0.011603171299323846   -0.05337110062562606   -0.0011400843058941125
-0.016674647597889454   -0.05324663643408397   -0.0011793525575893719
-0.018119881575068882   -0.0432137361792832   -0.0008794538180453864
-0.016662986755395067   -0.053270499134407685   -0.0012937548656137218
-0.011603171299323846   -0.05337110062562606   -0.0011400843058941125
-0.018119881575068882   -0.0432137361792832   -0.0008794538180453864
-0.01252405698218192   -0.04330393715990902   -0.0008087859519789887
-0.012468360184287926   -0.04336065837489343   -0.0008719172705602174
-0.011603171299323846   -0.05337110062562606   -0.0011400843058941125
-0.018119881575068882   -0.0432137361792832   -0.0008794538180453864
-0.012468360184287926   -0.04336065837489343   -0.0008719172705602174
-0.016662986755395067   -0.053270499134407685   -0.0012937548656137218
-0.016627990504014242   -0.053390298252117246   -0.0015002848785093308
-0.017991585092212187   -0.043369280260842025   -0.0011291558604754252
-0.02221677065106375   -0.05315309535403435   -0.0016438175457845602
-0.016658960541637978   -0.05331952181043687   -0.001400273123426612
-0.017991585092212187   -0.043369280260842025   -0.0011291558604754252
-0.024043773742158315   -0.04318761003310279   -0.0012489659744803758
-0.02221677065106375   -0.05315309535403435   -0.0016438175457845602
-0.02400234391155627   -0.043132545163299264   -0.001146405252457396
-0.016658960541637978   -0.05331952181043687   -0.001400273123426612
-0.02210996841499937   -0.05308844446189832   -0.0014979002085231871
-0.02400234391155627   -0.043132545163299264   -0.001146405252457396
-0.02221677065106375   -0.05315309535403435   -0.0016438175457845602
-0.016658960541637978   -0.05331952181043687   -0.001400273123426612
-0.02400234391155627   -0.043132545163299264   -0.001146405252457396
-0.018048059068917488   -0.04330397228084678   -0.0010521478827986762
-0.017991585092212187   -0.043369280260842025   -0.0011291558604754252
-0.016658960541637978   -0.05331952181043687   -0.001400273123426612
-0.02400234391155627   -0.043132545163299264   -0.001146405252457396
-0.017991585092212187   -0.043369280260842025   -0.0011291558604754252
-0.02221677065106375   -0.05315309535403435   -0.0016438175457845602
-0.016658960541637978   -0.05331952181043687   -0.001400273123426612
-0.018048059068917488   -0.04330397228084678   -0.0010521478827986762
-0.02210996841499937   -0.05308844446189832   -0.0014979002085231871
-0.016662986755395067   -0.053270499134407685   -0.0012937548656137218
-0.018048059068917488   -0.04330397228084678   -0.0010521478827986762
-0.02400234391155627   -0.043132545163299264   -0.001146405252457396
-0.02210996841499937   -0.05308844446189832   -0.0014979002085231871
-0.023968584661845035   -0.04308818717996868   -0.0010331570351600696
-0.016662986755395067   -0.053270499134407685   -0.0012937548656137218
-0.022019915538687238   -0.053046897621133744   -0.001340624217430479
-0.023968584661845035   -0.04308818717996868   -0.0010331570351600696
-0.02210996841499937   -0.05308844446189832   -0.0014979002085231871
-0.016662986755395067   -0.053270499134407685   -0.0012937548656137218
-0.023968584661845035   -0.04308818717996868   -0.0010331570351600696
-0.01808229328294273   -0.04325106411456374   -0.000969315414702094
-0.018048059068917488   -0.04330397228084678   -0.0010521478827986762
-0.016662986755395067   -0.053270499134407685   -0.0012937548656137218
-0.023968584661845035   -0.04308818717996868   -0.0010331570351600696
-0.018048059068917488   -0.04330397228084678   -0.0010521478827986762
-0.02210996841499937   -0.05308844446189832   -0.0014979002085231871
-0.016662986755395067   -0.053270499134407685   -0.0012937548656137218
-0.01808229328294273   -0.04325106411456374   -0.000969315414702094
-0.022019915538687238   -0.053046897621133744   -0.001340624217430479
-0.016674647597889454   -0.05324663643408397   -0.0011793525575893719
-0.01808229328294273   -0.04325106411456374   -0.000969315414702094
-0.023968584661845035   -0.04308818717996868   -0.0010331570351600696
-0.022019915538687238   -0.053046897621133744   -0.001340624217430479
-0.023887330121581677   -0.04307410157562597   -0.0009104405582407696
-0.016674647597889454   -0.05324663643408397   -0.0011793525575893719
-0.02187127665300858   -0.053048112941019236   -0.0011734051424087215
-0.023887330121581677   -0.04307410157562597   -0.0009104405582407696
-0.022019915538687238   -0.053046897621133744   -0.001340624217430479
-0.016674647597889454   -0.05324663643408397   -0.0011793525575893719
-0.023887330121581677   -0.04307410157562597   -0.0009104405582407696
-0.018119881575068882   -0.0432137361792832   -0.0008794538180453864
-0.01808229328294273   -0.04325106411456374   -0.000969315414702094
-0.016674647597889454   -0.05324663643408397   -0.0011793525575893719
-0.023887330121581677   -0.04307410157562597   -0.0009104405582407696
-0.01808229328294273   -0.04325106411456374   -0.000969315414702094
-0.022019915538687238   -0.053046897621133744   -0.001340624217430479
0.004699341583607389   -0.04367111350000576   -0.00031091239584186855
0.004856742380208145   -0.03300339314548987   -4.843838948181501e-05
-0.0011978435742266487   -0.043669787363631245   -0.000575595916297704
0.0046822028082484325   -0.04352557291313356   -0.00035241403167927374
0.004856742380208145   -0.03300339314548987   -4.843838948181501e-05
-0.0013746170971236417   -0.03294850493763738   -0.00028644194633909077
-0.0011978435742266487   -0.043669787363631245   -0.000575595916297704
-0.001447072739118353   -0.03282738314506725   -0.00026491231466598794
0.0046822028082484325   -0.04352557291313356   -0.00035241403167927374
-0.0012506494663126365   -0.04354324193428085   -0.0005794859356944075
-0.001447072739118353   -0.03282738314506725   -0.00026491231466598794
-0.0011978435742266487   -0.043669787363631245   -0.000575595916297704
0.0046822028082484325   -0.04352557291313356   -0.00035241403167927374
-0.001447072739118353   -0.03282738314506725   -0.00026491231466598794
0.004779786646213576   -0.03286455202874289   -4.402522593584399e-05
0.004856742380208145   -0.03300339314548987   -4.843838948181501e-05
0.0046822028082484325   -0.04352557291313356   -0.00035241403167927374
-0.001447072739118353   -0.03282738314506725   -0.00026491231466598794
0.004856742380208145   -0.03300339314548987   -4.843838948181501e-05
-0.0011978435742266487   -0.043669787363631245   -0.000575595916297704
0.0046822028082484325   -0.04352557291313356   -0.00035241403167927374
0.004779786646213576   -0.03286455202874289   -4.402522593584399e-05
-0.0012506494663126365   -0.04354324193428085   -0.0005794859356944075
0.0046396903416161765   -0.043408422026515556   -0.0003833061419378223
0.004779786646213576   -0.03286455202874289   -4.402522593584399e-05
-0.001447072739118353   -0.03282738314506725   -0.00026491231466598794
-0.0012506494663126365   -0.04354324193428085   -0.0005794859356944075
-0.0015300191471361625   -0.03271303806872268   -0.00023738306112452325
0.0046396903416161765   -0.043408422026515556   -0.0003833061419378223
-0.0013093252256684727   -0.043434285307776294   -0.000576756670695
-0.0015300191471361625   -0.03271303806872268   -0.00023738306112452325
-0.0012506494663126365   -0.04354324193428085   -0.0005794859356944075
0.0046396903416161765   -0.043408422026515556   -0.0003833061419378223
-0.0015300191471361625   -0.03271303806872268   -0.00023738306112452325
0.004685376368751763   -0.032740446688383405   -2.7351502248791994e-05
0.004779786646213576   -0.03286455202874289   -4.402522593584399e-05
0.0046396903416161765   -0.043408422026515556   -0.0003833061419378223
-0.0015300191471361625   -0.03271303806872268   -0.00023738306112452325
0.004779786646213576   -0.03286455202874289   -4.402522593584399e-05
-0.0012506494663126365   -0.04354324193428085   -0.0005794859356944075
0.0046396903416161765   -0.043408422026515556   -0.0003833061419378223
0.004685376368751763   -0.032740446688383405   -2.7351502248791994e-05
-0.0013093252256684727   -0.043434285307776294   -0.000576756670695
0.00458035601334926   -0.043300577227892635   -0.0004043296209447588
0.004685376368751763   -0.032740446688383405   -2.7351502248791994e-05
-0.0015300191471361625   -0.03271303806872268   -0.00023738306112452325
-0.0013093252256684727   -0.043434285307776294   -0.000576756670695
-0.0016231044775852556   -0.03260390619900185   -0.00020234990354215038
0.00458035601334926   -0.043300577227892635   -0.0004043296209447588
-0.0013821313155314814   -0.04334009801212109   -0.0005671471679339044
-0.0016231044775852556   -0.03260390619900185   -0.00020234990354215038
-0.0013093252256684727   -0.043434285307776294   -0.000576756670695
0.00458035601334926   -0.043300577227892635   -0.0004043296209447588
-0.0016231044775852556   -0.03260390619900185   -0.00020234990354215038
0.004560939172993736   -0.03261060748876844   1.0274544972127278e-06
0.004685376368751763   -0.032740446688383405   -2.7351502248791994e-05
0.00458035601334926   -0.043300577227892635   -0.0004043296209447588
-0.0016231044775852556   -0.03260390619900185   -0.00020234990354215038
0.004685376368751763   -0.032740446688383405   -2.7351502248791994e-05
-0.0013093252256684727   -0.043434285307776294   -0.000576756670695
-0.0011978435742266487   -0.043669787363631245   -0.000575595916297704
-0.0013746170971236417   -0.03294850493763738   -0.00028644194633909077
-0.006822661925250937   -0.0436164576773651   -0.0007941090145563492
-0.0012506494663126365   -0.04354324193428085   -0.0005794859356944075
-0.0013746170971236417   -0.03294850493763738   -0.00028644194633909077
-0.00727916479965022   -0.032884619811236325   -0.00048792552736822743
-0.006822661925250937   -0.0436164576773651   -0.0007941090145563492
-0.007353056106130079   -0.032783289427728846   -0.0004549944485648941
-0.0012506494663126365   -0.04354324193428085   -0.0005794859356944075
-0.006881740762761984   -0.04351138262511655   -0.0007710706478305772
-0.007353056106130079   -0.032783289427728846   -0.0004549944485648941
-0.006822661925250937   -0.0436164576773651   -0.0007941090145563492
-0.0012506494663126365   -0.04354324193428085   -0.0005794859356944075
-0.007353056106130079   -0.032783289427728846   -0.0004549944485648941
-0.001447072739118353   -0.03282738314506725   -0.00026491231466598794
-0.0013746170971236417   -0.03294850493763738   -0.00028644194633909077
-0.0012506494663126365   -0.04354324193428085   -0.0005794859356944075
-0.007353056106130079   -0.032783289427728846   -0.0004549944485648941
-0.0013746170971236417   -0.03294850493763738   -0.00028644194633909077
-0.006822661925250937   -0.0436164576773651   -0.0007941090145563492
-0.0012506494663126365   -0.04354324193428085   -0.0005794859356944075
-0.001447072739118353   -0.03282738314506725   -0.00026491231466598794
-0.006881740762761984   -0.04351138262511655   -0.0007710706478305772
-0.0013093252256684727   -0.043434285307776294   -0.000576756670695
-0.001447072739118353   -0.03282738314506725   -0.00026491231466598794
-0.007353056106130079   -0.032783289427728846   -0.0004549944485648941
-0.006881740762761984   -0.04351138262511655   -0.0007710706478305772
-0.007428599216478191   -0.03268721986842585   -0.0004163474142912375
-0.0013093252256684727   -0.043434285307776294   -0.000576756670695
-0.006942006580911349   -0.04342062625114124   -0.0007411379890116465
-0.007428599216478191   -0.03268721986842585   -0.0004163474142912375
-0.006881740762761984   -0.04351138262511655   -0.0007710706478305772
-0.0013093252256684727   -0.043434285307776294   -0.000576756670695
-0.007428599216478191   -0.03268721986842585   -0.0004163474142912375
-0.0015300191471361625   -0.03271303806872268   -0.00023738306112452325
-0.001447072739118353   -0.03282738314506725   -0.00026491231466598794
-0.0013093252256684727   -0.043434285307776294   -0.000576756670695
-0.007428599216478191   -0.03268721986842585   -0.0004163474142912375
-0.001447072739118353   -0.03282738314506725   -0.00026491231466598794
-0.006881740762761984   -0.04351138262511655   -0.0007710706478305772
-0.0013093252256684727   -0.043434285307776294   -0.000576756670695
-0.0015300191471361625   -0.03271303806872268   -0.00023738306112452325
-0.006942006580911349   -0.04342062625114124   -0.0007411379890116465
-0.0013821313155314814   -0.04334009801212109   -0.0005671471679339044
-0.0015300191471361625   -0.03271303806872268   -0.00023738306112452325
-0.007428599216478191   -0.03268721986842585   -0.0004163474142912375
-0.006942006580911349   -0.04342062625114124   -0.0007411379890116465
-0.007508941670228632   -0.03259789397888098   -0.0003719214406984682
-0.0013821313155314814   -0.04334009801212109   -0.0005671471679339044
-0.007007365306994831   -0.04334504326762395   -0.0007046334626410234
-0.007508941670228632   -0.03259789397888098   -0.0003719214406984682
-0.006942006580911349   -0.04342062625114124   -0.0007411379890116465
-0.0013821313155314814   -0.04334009801212109   -0.0005671471679339044
-0.007508941670228632   -0.03259789397888098   -0.0003719214406984682
-0.0016231044775852556   -0.03260390619900185   -0.00020234990354215038
-0.0015300191471361625   -0.03271303806872268   -0.00023738306112452325
-0.0013821313155314814   -0.04334009801212109   -0.0005671471679339044
-0.007508941670228632   -0.03259789397888098   -0.0003719214406984682
-0.0015300191471361625   -0.03271303806872268   -0.00023738306112452325
-0.006942006580911349   -0.04342062625114124   -0.0007411379890116465
-0.006822661925250937   -0.0436164576773651   -0.0007941090145563492
-0.00727916479965022   -0.032884619811236325   -0.00048792552736822743
-0.012352370340307582   -0.043516994215555355   -0.0009784924302417295
-0.006881740762761984   -0.04351138262511655   -0.0007710706478305772
-0.00727916479965022   -0.032884619811236325   -0.00048792552736822743
-0.013087701731695206   -0.03280804993418006   -0.0006590716468955333
-0.012352370340307582   -0.043516994215555355   -0.0009784924302417295
-0.013161049709300026   -0.03272506512380594   -0.0006147437337042218
-0.006881740762761984   -0.04351138262511655   -0.0007710706478305772
-0.01241318612317142   -0.043431717580581404   -0.0009285717922560194
-0.013161049709300026   -0.03272506512380594   -0.0006147437337042218
-0.012352370340307582   -0.043516994215555355   -0.0009784924302417295
-0.006881740762761984   -0.04351138262511655   -0.0007710706478305772
-0.013161049709300026   -0.03272506512380594   -0.0006147437337042218
-0.007353056106130079   -0.032783289427728846   -0.0004549944485648941
-0.00727916479965022   -0.032884619811236325   -0.00048792552736822743
-0.006881740762761984   -0.04351138262511655   -0.0007710706478305772
-0.013161049709300026   -0.03272506512380594   -0.0006147437337042218
-0.00727916479965022   -0.032884619811236325   -0.00048792552736822743
-0.012352370340307582   -0.043516994215555355   -0.0009784924302417295
-0.006881740762761984   -0.04351138262511655   -0.0007710706478305772
-0.007353056106130079   -0.032783289427728846   -0.0004549944485648941
-0.01241318612317142   -0.043431717580581404   -0.0009285717922560194
-0.006942006580911349   -0.04342062625114124   -0.0007411379890116465
-0.007353056106130079   -0.032783289427728846   -0.0004549944485648941
-0.013161049709300026   -0.03272506512380594   -0.0006147437337042218
-0.01241318612317142   -0.043431717580581404   -0.0009285717922560194
-0.01322965451738885   -0.032647641554563414   -0.0005648953751842706
-0.006942006580911349   -0.04342062625114124   -0.0007411379890116465
-0.012468360184287926   -0.04336065837489343   -0.0008719172705602174
-0.01322965451738885   -0.032647641554563414   -0.0005648953751842706
-0.01241318612317142   -0.043431717580581404   -0.0009285717922560194
-0.006942006580911349   -0.04342062625114124   -0.0007411379890116465
-0.01322965451738885   -0.032647641554563414   -0.0005648953751842706
-0.007428599216478191   -0.03268721986842585   -0.0004163474142912375
-0.007353056106130079   -0.032783289427728846   -0.0004549944485648941
-0.006942006580911349   -0.04342062625114124   -0.0007411379890116465
-0.01322965451738885   -0.032647641554563414   -0.0005648953751842706
-0.007353056106130079   -0.032783289427728846   -0.0004549944485648941
-0.01241318612317142   -0.043431717580581404   -0.0009285717922560194
-0.006942006580911349   -0.04342062625114124   -0.0007411379890116465
-0.007428599216478191   -0.03268721986842585   -0.0004163474142912375
-0.012468360184287926   -0.04336065837489343   -0.0008719172705602174
-0.007007365306994831   -0.04334504326762395   -0.0007046334626410234
-0.007428599216478191   -0.03268721986842585   -0.0004163474142912375
-0.01322965451738885   -0.032647641554563414   -0.0005648953751842706
-0.012468360184287926   -0.04336065837489343   -0.0008719172705602174
-0.013298504642732446   -0.032575994511613304   -0.000509800366039698
-0.007007365306994831   -0.04334504326762395   -0.0007046334626410234
-0.01252405698218192   -0.04330393715990902   -0.0008087859519789887
-0.013298504642732446   -0.032575994511613304   -0.000509800366039698
-0.012468360184287926   -0.04336065837489343   -0.0008719172705602174
-0.007007365306994831   -0.04334504326762395   -0.0007046334626410234
-0.013298504642732446   -0.032575994511613304   -0.000509800366039698
-0.007508941670228632   -0.03259789397888098   -0.0003719214406984682
-0.007428599216478191   -0.03268721986842585   -0.0004163474142912375
-0.007007365306994831   -0.04334504326762395   -0.0007046334626410234
-0.013298504642732446   -0.032575994511613304   -0.000509800366039698
-0.007428599216478191   -0.03268721986842585   -0.0004163474142912375
-0.012468360184287926   -0.04336065837489343   -0.0008719172705602174
-0.012352370340307582   -0.043516994215555355   -0.0009784924302417295
-0.013087701731695206   -0.03280804993418006   -0.0006590716468955333
-0.017991585092212187   -0.043369280260842025   -0.0011291558604754252
-0.01241318612317142   -0.043431717580581404   -0.0009285717922560194
-0.013087701731695206   -0.03280804993418006   -0.0006590716468955333
-0.01900112747739305   -0.0327045614984854   -0.0007984182675533645
-0.017991585092212187   -0.043369280260842025   -0.0011291558604754252
-0.01907137008153613   -0.03264087837781794   -0.0007428288283503993
-0.01241318612317142   -0.043431717580581404   -0.0009285717922560194
-0.018048059068917488   -0.04330397228084678   -0.0010521478827986762
-0.01907137008153613   -0.03264087837781794   -0.0007428288283503993
-0.017991585092212187   -0.043369280260842025   -0.0011291558604754252
-0.01241318612317142   -0.043431717580581404   -0.0009285717922560194
-0.01907137008153613   -0.03264087837781794   -0.0007428288283503993
-0.013161049709300026   -0.03272506512380594   -0.0006147437337042218
-0.013087701731695206   -0.03280804993418006   -0.0006590716468955333
-0.01241318612317142   -0.043431717580581404   -0.0009285717922560194
-0.01907137008153613   -0.03264087837781794   -0.0007428288283503993
-0.013087701731695206   -0.03280804993418006   -0.0006590716468955333
-0.017991585092212187   -0.043369280260842025   -0.0011291558604754252
-0.01241318612317142   -0.043431717580581404   -0.0009285717922560194
-0.013161049709300026   -0.03272506512380594   -0.0006147437337042218
-0.018048059068917488   -0.04330397228084678   -0.0010521478827986762
-0.012468360184287926   -0.04336065837489343   -0.0008719172705602174
-0.013161049709300026   -0.03272506512380594   -0.0006147437337042218
-0.01907137008153613   -0.03264087837781794   -0.0007428288283503993
-0.018048059068917488   -0.04330397228084678   -0.0010521478827986762
-0.01912464021299157   -0.03258062330928225   -0.0006826316892162264
-0.012468360184287926   -0.04336065837489343   -0.0008719172705602174
-0.01808229328294273   -0.04325106411456374   -0.000969315414702094
-0.01912464021299157   -0.03258062330928225   -0.0006826316892162264
-0.018048059068917488   -0.04330397228084678   -0.0010521478827986762
-0.012468360184287926   -0.04336065837489343   -0.0008719172705602174
-0.01912464021299157   -0.03258062330928225   -0.0006826316892162264
-0.01322965451738885   -0.032647641554563414   -0.0005648953751842706
-0.013161049709300026   -0.03272506512380594   -0.0006147437337042218
-0.012468360184287926   -0.04336065837489343   -0.0008719172705602174
-0.01912464021299157   -0.03258062330928225   -0.0006826316892162264
-0.013161049709300026   -0.03272506512380594   -0.0006147437337042218
-0.018048059068917488   -0.04330397228084678   -0.0010521478827986762
-0.012468360184287926   -0.04336065837489343   -0.0008719172705602174
-0.01322965451738885   -0.032647641554563414   -0.0005648953751842706
-0.01808229328294273   -0.04325106411456374   -0.000969315414702094
-0.01252405698218192   -0.04330393715990902   -0.0008087859519789887
-0.01322965451738885   -0.032647641554563414   -0.0005648953751842706
-0.01912464021299157   -0.03258062330928225   -0.0006826316892162264
-0.01808229328294273   -0.04325106411456374   -0.000969315414702094
-0.01917749099961538   -0.032526462766982185   -0.000616623211251549
-0.01252405698218192   -0.04330393715990902   -0.0008087859519789887
-0.018119881575068882   -0.0432137361792832   -0.0008794538180453864
-0.01917749099961538   -0.032526462766982185   -0.000616623211251549
-0.01808229328294273   -0.04325106411456374   -0.000969315414702094
-0.01252405698218192   -0.04330393715990902   -0.0008087859519789887
-0.01917749099961538   -0.032526462766982185   -0.000616623211251549
-0.013298504642732446   -0.032575994511613304   -0.000509800366039698
-0.01322965451738885   -0.032647641554563414   -0.0005648953751842706
-0.01252405698218192   -0.04330393715990902   -0.0008087859519789887
-0.01917749099961538   -0.032526462766982185   -0.000616623211251549
-0.01322965451738885   -0.032647641554563414   -0.0005648953751842706
-0.01808229328294273   -0.04325106411456374   -0.000969315414702094
-0.017991585092212187   -0.043369280260842025   -0.0011291558604754252
-0.01900112747739305   -0.0327045614984854   -0.0007984182675533645
-0.024043773742158315   -0.04318761003310279   -0.0012489659744803758
-0.018048059068917488   -0.04330397228084678   -0.0010521478827986762
-0.01900112747739305   -0.0327045614984854   -0.0007984182675533645
-0.025268355964397186   -0.03258233911959574   -0.0009018531602087035
-0.024043773742158315   -0.04318761003310279   -0.0012489659744803758
-0.025279201436957305   -0.032531500588962134   -0.0008404727356313381
-0.018048059068917488   -0.04330397228084678   -0.0010521478827986762
-0.02400234391155627   -0.043132545163299264   -0.001146405252457396
-0.025279201436957305   -0.032531500588962134   -0.0008404727356313381
-0.024043773742158315   -0.04318761003310279   -0.0012489659744803758
-0.018048059068917488   -0.04330397228084678   -0.0010521478827986762
-0.025279201436957305   -0.032531500588962134   -0.0008404727356313381
-0.01907137008153613   -0.03264087837781794   -0.0007428288283503993
-0.01900112747739305   -0.0327045614984854   -0.0007984182675533645
-0.018048059068917488   -0.04330397228084678   -0.0010521478827986762
-0.025279201436957305   -0.032531500588962134   -0.0008404727356313381
-0.01900112747739305   -0.0327045614984854   -0.0007984182675533645
-0.024043773742158315   -0.04318761003310279   -0.0012489659744803758
-0.018048059068917488   -0.04330397228084678   -0.0010521478827986762
-0.01907137008153613   -0.03264087837781794   -0.0007428288283503993
-0.02400234391155627   -0.043132545163299264   -0.001146405252457396
-0.01808229328294273   -0.04325106411456374   -0.000969315414702094
-0.01907137008153613   -0.03264087837781794   -0.0007428288283503993
-0.025279201436957305   -0.032531500588962134   -0.0008404727356313381
-0.02400234391155627   -0.043132545163299264   -0.001146405252457396
-0.02529032906955507   -0.03248006315067363   -0.0007698130368368348
-0.01808229328294273   -0.04325106411456374   -0.000969315414702094
-0.023968584661845035   -0.04308818717996868   -0.0010331570351600696
-0.02529032906955507   -0.03248006315067363   -0.0007698130368368348
-0.02400234391155627   -0.043132545163299264   -0.001146405252457396
-0.01808229328294273   -0.04325106411456374   -0.000969315414702094
-0.02529032906955507   -0.03248006315067363   -0.0007698130368368348
-0.01912464021299157   -0.03258062330928225   -0.0006826316892162264
-0.01907137008153613   -0.03264087837781794   -0.0007428288283503993
-0.01808229328294273   -0.04325106411456374   -0.000969315414702094
-0.02529032906955507   -0.03248006315067363   -0.0007698130368368348
-0.01907137008153613   -0.03264087837781794   -0.0007428288283503993
-0.02400234391155627   -0.043132545163299264   -0.001146405252457396
-0.01808229328294273   -0.04325106411456374   -0.000969315414702094
-0.01912464021299157   -0.03258062330928225   -0.0006826316892162264
-0.023968584661845035   -0.04308818717996868   -0.0010331570351600696
-0.018119881575068882   -0.0432137361792832   -0.0008794538180453864
-0.01912464021299157   -0.03258062330928225   -0.0006826316892162264
-0.02529032906955507   -0.03248006315067363   -0.0007698130368368348
-0.023968584661845035   -0.04308818717996868   -0.0010331570351600696
-0.025266244525788312   -0.0324461323126375   -0.0006909760638445651
-0.018119881575068882   -0.0432137361792832   -0.0008794538180453864
-0.023887330121581677   -0.04307410157562597   -0.0009104405582407696
-0.025266244525788312   -0.0324461323126375   -0.0006909760638445651
-0.023968584661845035   -0.04308818717996868   -0.0010331570351600696
-0.018119881575068882   -0.0432137361792832   -0.0008794538180453864
-0.025266244525788312   -0.0324461323126375   -0.0006909760638445651
-0.01917749099961538   -0.032526462766982185   -0.000616623211251549
-0.01912464021299157   -0.03258062330928225   -0.0006826316892162264
-0.018119881575068882   -0.0432137361792832   -0.0008794538180453864
-0.025266244525788312   -0.0324461323126375   -0.0006909760638445651
-0.01912464021299157   -0.03258062330928225   -0.0006826316892162264
-0.023968584661845035   -0.04308818717996868   -0.0010331570351600696
0.004856742380208145   -0.03300339314548987   -4.843838948181501e-05
0.004352889180447477   -0.02201954875132602   0.00013271378538357308
-0.0013746170971236417   -0.03294850493763738   -0.00028644194633909077
0.004779786646213576   -0.03286455202874289   -4.402522593584399e-05
0.004352889180447477   -0.02201954875132602   0.00013271378538357308
-0.0019245190327233403   -0.021915997971921827   -5.6469902412972524e-05
-0.0013746170971236417   -0.03294850493763738   -0.00028644194633909077
-0.0020110614961056685   -0.021806333901028024   -1.1554313378696841e-05
0.004779786646213576   -0.03286455202874289   -4.402522593584399e-05
-0.001447072739118353   -0.03282738314506725   -0.00026491231466598794
-0.0020110614961056685   -0.021806333901028024   -1.1554313378696841e-05
-0.0013746170971236417   -0.03294850493763738   -0.00028644194633909077
0.004779786646213576   -0.03286455202874289   -4.402522593584399e-05
-0.0020110614961056685   -0.021806333901028024   -1.1554313378696841e-05
0.004216540854771467   -0.021887258841099183   0.0001886512731527627
0.004352889180447477   -0.02201954875132602   0.00013271378538357308
0.004779786646213576   -0.03286455202874289   -4.402522593584399e-05
-0.0020110614961056685   -0.021806333901028024   -1.1554313378696841e-05
0.004352889180447477   -0.02201954875132602   0.00013271378538357308
-0.0013746170971236417   -0.03294850493763738   -0.00028644194633909077
0.004779786646213576   -0.03286455202874289   -4.402522593584399e-05
0.004216540854771467   -0.021887258841099183   0.0001886512731527627
-0.001447072739118353   -0.03282738314506725   -0.00026491231466598794
0.004685376368751763   -0.032740446688383405   -2.7351502248791994e-05
0.004216540854771467   -0.021887258841099183   0.0001886512731527627
-0.0020110614961056685   -0.021806333901028024   -1.1554313378696841e-05
-0.001447072739118353   -0.03282738314506725   -0.00026491231466598794
-0.0021122933381380123   -0.02169058417768826   4.1346286596672975e-05
0.004685376368751763   -0.032740446688383405   -2.7351502248791994e-05
-0.0015300191471361625   -0.03271303806872268   -0.00023738306112452325
-0.0021122933381380123   -0.02169058417768826   4.1346286596672975e-05
-0.001447072739118353   -0.03282738314506725   -0.00026491231466598794
0.004685376368751763   -0.032740446688383405   -2.7351502248791994e-05
-0.0021122933381380123   -0.02169058417768826   4.1346286596672975e-05
0.004064378623968796   -0.021755858460524243   0.00026896578265750404
0.004216540854771467   -0.021887258841099183   0.0001886512731527627
0.004685376368751763   -0.032740446688383405   -2.7351502248791994e-05
-0.0021122933381380123   -0.02169058417768826   4.1346286596672975e-05
0.004216540854771467   -0.021887258841099183   0.0001886512731527627
-0.001447072739118353   -0.03282738314506725   -0.00026491231466598794
0.004685376368751763   -0.032740446688383405   -2.7351502248791994e-05
0.004064378623968796   -0.021755858460524243   0.00026896578265750404
-0.0015300191471361625   -0.03271303806872268   -0.00023738306112452325
0.004560939172993736   -0.03261060748876844   1.0274544972127278e-06
0.004064378623968796   -0.021755858460524243   0.00026896578265750404
-0.0021122933381380123   -0.02169058417768826   4.1346286596672975e-05
-0.0015300191471361625   -0.03271303806872268   -0.00023738306112452325
-0.002216996516198879   -0.02156767468446504   0.00010212407884281047
0.004560939172993736   -0.03261060748876844   1.0274544972127278e-06
-0.0016231044775852556   -0.03260390619900185   -0.00020234990354215038
-0.002216996516198879   -0.02156767468446504   0.00010212407884281047
-0.0015300191471361625   -0.03271303806872268   -0.00023738306112452325
0.004560939172993736   -0.03261060748876844   1.0274544972127278e-06
-0.002216996516198879   -0.02156767468446504   0.00010212407884281047
0.00387845961057702   -0.021594449513498908   0.00035733602695047005
0.004064378623968796   -0.021755858460524243   0.00026896578265750404
0.004560939172993736   -0.03261060748876844   1.0274544972127278e-06
-0.002216996516198879   -0.02156767468446504   0.00010212407884281047
0.004064378623968796   -0.021755858460524243   0.00026896578265750404
-0.0015300191471361625   -0.03271303806872268   -0.00023738306112452325
-0.0013746170971236417   -0.03294850493763738   -0.00028644194633909077
-0.0019245190327233403   -0.021915997971921827   -5.6469902412972524e-05
-0.00727916479965022   -0.032884619811236325   -0.00048792552736822743
-0.001447072739118353   -0.03282738314506725   -0.00026491231466598794
-0.0019245190327233403   -0.021915997971921827   -5.6469902412972524e-05
-0.007835888832256268   -0.02188920103264074   -0.0002388392790871648
-0.00727916479965022   -0.032884619811236325   -0.00048792552736822743
-0.007914104682124248   -0.0217934730799731   -0.00019706508246972323
-0.001447072739118353   -0.03282738314506725   -0.00026491231466598794
-0.007353056106130079   -0.032783289427728846   -0.0004549944485648941
-0.007914104682124248   -0.0217934730799731   -0.00019706508246972323
-0.00727916479965022   -0.032884619811236325   -0.00048792552736822743
-0.001447072739118353   -0.03282738314506725   -0.00026491231466598794
-0.007914104682124248   -0.0217934730799731   -0.00019706508246972323
-0.0020110614961056685   -0.021806333901028024   -1.1554313378696841e-05
-0.0019245190327233403   -0.021915997971921827   -5.6469902412972524e-05
-0.001447072739118353   -0.03282738314506725   -0.00026491231466598794
-0.007914104682124248   -0.0217934730799731   -0.00019706508246972323
-0.0019245190327233403   -0.021915997971921827   -5.6469902412972524e-05
-0.00727916479965022   -0.032884619811236325   -0.00048792552736822743
-0.001447072739118353   -0.03282738314506725   -0.00026491231466598794
-0.0020110614961056685   -0.021806333901028024   -1.1554313378696841e-05
-0.007353056106130079   -0.032783289427728846   -0.0004549944485648941
-0.0015300191471361625   -0.03271303806872268   -0.00023738306112452325
-0.0020110614961056685   -0.021806333901028024   -1.1554313378696841e-05
-0.007914104682124248   -0.0217934730799731   -0.00019706508246972323
-0.007353056106130079   -0.032783289427728846   -0.0004549944485648941
-0.007995011918866738   -0.021693894556963994   -0.00015114975737082057
-0.0015300191471361625   -0.03271303806872268   -0.00023738306112452325
-0.007428599216478191   -0.03268721986842585   -0.0004163474142912375
-0.007995011918866738   -0.021693894556963994   -0.00015114975737082057
-0.007353056106130079   -0.032783289427728846   -0.0004549944485648941
-0.0015300191471361625   -0.03271303806872268   -0.00023738306112452325
-0.007995011918866738   -0.021693894556963994   -0.00015114975737082057
-0.0021122933381380123   -0.02169058417768826   4.1346286596672975e-05
-0.0020110614961056685   -0.021806333901028024   -1.1554313378696841e-05
-0.0015300191471361625   -0.03271303806872268   -0.00023738306112452325
-0.007995011918866738   -0.021693894556963994   -0.00015114975737082057
-0.0020110614961056685   -0.021806333901028024   -1.1554313378696841e-05
-0.007353056106130079   -0.032783289427728846   -0.0004549944485648941
-0.0015300191471361625   -0.03271303806872268   -0.00023738306112452325
-0.0021122933381380123   -0.02169058417768826   4.1346286596672975e-05
-0.007428599216478191   -0.03268721986842585   -0.0004163474142912375
-0.0016231044775852556   -0.03260390619900185   -0.00020234990354215038
-0.0021122933381380123   -0.02169058417768826   4.1346286596672975e-05
-0.007995011918866738   -0.021693894556963994   -0.00015114975737082057
-0.007428599216478191   -0.03268721986842585   -0.0004163474142912375
-0.008079239645553576   -0.02159224231936611   -0.0001002649266436205
-0.0016231044775852556   -0.03260390619900185   -0.00020234990354215038
-0.007508941670228632   -0.03259789397888098   -0.0003719214406984682
-0.008079239645553576   -0.02159224231936611   -0.0001002649266436205
-0.007428599216478191   -0.03268721986842585   -0.0004163474142912375
-0.0016231044775852556   -0.03260390619900185   -0.00020234990354215038
-0.008079239645553576   -0.02159224231936611   -0.0001002649266436205
-0.002216996516198879   -0.02156767468446504   0.00010212407884281047
-0.0021122933381380123   -0.02169058417768826   4.1346286596672975e-05
-0.0016231044775852556   -0.03260390619900185   -0.00020234990354215038
-0.008079239645553576   -0.02159224231936611   -0.0001002649266436205
-0.0021122933381380123   -0.02169058417768826   4.1346286596672975e-05
-0.007428599216478191   -0.03268721986842585   -0.0004163474142912375
-0.00727916479965022   -0.032884619811236325   -0.00048792552736822743
-0.007835888832256268   -0.02188920103264074   -0.0002388392790871648
-0.013087701731695206   -0.03280804993418006   -0.0006590716468955333
-0.007353056106130079   -0.032783289427728846   -0.0004549944485648941
-0.007835888832256268   -0.02188920103264074   -0.0002388392790871648
-0.013686701135655364   -0.02188175422839642   -0.0004036933741805922
-0.013087701731695206   -0.03280804993418006   -0.0006590716468955333
-0.013761469426563599   -0.02179780518123904   -0.00036385570364542985
-0.007353056106130079   -0.032783289427728846   -0.0004549944485648941
-0.013161049709300026   -0.03272506512380594   -0.0006147437337042218
-0.013761469426563599   -0.02179780518123904   -0.00036385570364542985
-0.013087701731695206   -0.03280804993418006   -0.0006590716468955333
-0.007353056106130079   -0.032783289427728846   -0.0004549944485648941
-0.013761469426563599   -0.02179780518123904   -0.00036385570364542985
-0.007914104682124248   -0.0217934730799731   -0.00019706508246972323
-0.007835888832256268   -0.02188920103264074   -0.0002388392790871648
-0.007353056106130079   -0.032783289427728846   -0.0004549944485648941
-0.013761469426563599   -0.02179780518123904   -0.00036385570364542985
-0.007835888832256268   -0.02188920103264074   -0.0002388392790871648
-0.013087701731695206   -0.03280804993418006   -0.0006590716468955333
-0.007353056106130079   -0.032783289427728846   -0.0004549944485648941
-0.007914104682124248   -0.0217934730799731   -0.00019706508246972323
-0.013161049709300026   -0.03272506512380594   -0.0006147437337042218
-0.007428599216478191   -0.03268721986842585   -0.0004163474142912375
-0.007914104682124248   -0.0217934730799731   -0.00019706508246972323
-0.013761469426563599   -0.02179780518123904   -0.00036385570364542985
-0.013161049709300026   -0.03272506512380594   -0.0006147437337042218
-0.013832693799409167   -0.021712332057511222   -0.00032039752026997043
-0.007428599216478191   -0.03268721986842585   -0.0004163474142912375
-0.01322965451738885   -0.032647641554563414   -0.0005648953751842706
-0.013832693799409167   -0.021712332057511222   -0.00032039752026997043
-0.013161049709300026   -0.03272506512380594   -0.0006147437337042218
-0.007428599216478191   -0.03268721986842585   -0.0004163474142912375
-0.013832693799409167   -0.021712332057511222   -0.00032039752026997043
-0.007995011918866738   -0.021693894556963994   -0.00015114975737082057
-0.007914104682124248   -0.0217934730799731   -0.00019706508246972323
-0.007428599216478191   -0.03268721986842585   -0.0004163474142912375
-0.013832693799409167   -0.021712332057511222   -0.00032039752026997043
-0.007914104682124248   -0.0217934730799731   -0.00019706508246972323
-0.013161049709300026   -0.03272506512380594   -0.0006147437337042218
-0.007428599216478191   -0.03268721986842585   -0.0004163474142912375
-0.007995011918866738   -0.021693894556963994   -0.00015114975737082057
-0.01322965451738885   -0.032647641554563414   -0.0005648953751842706
-0.007508941670228632   -0.03259789397888098   -0.0003719214406984682
-0.007995011918866738   -0.021693894556963994   -0.00015114975737082057
-0.013832693799409167   -0.021712332057511222   -0.00032039752026997043
-0.01322965451738885   -0.032647641554563414   -0.0005648953751842706
-0.013903201318466188   -0.02162484821232955   -0.0002735246357245561
-0.007508941670228632   -0.03259789397888098   -0.0003719214406984682
-0.013298504642732446   -0.032575994511613304   -0.000509800366039698
-0.013903201318466188   -0.02162484821232955   -0.0002735246357245561
-0.01322965451738885   -0.032647641554563414   -0.0005648953751842706
-0.007508941670228632   -0.03259789397888098   -0.0003719214406984682
-0.013903201318466188   -0.02162484821232955   -0.0002735246357245561
-0.008079239645553576   -0.02159224231936611   -0.0001002649266436205
-0.007995011918866738   -0.021693894556963994   -0.00015114975737082057
-0.007508941670228632   -0.03259789397888098   -0.0003719214406984682
-0.013903201318466188   -0.02162484821232955   -0.0002735246357245561
-0.007995011918866738   -0.021693894556963994   -0.00015114975737082057
-0.01322965451738885   -0.032647641554563414   -0.0005648953751842706
-0.013087701731695206   -0.03280804993418006   -0.0006590716468955333
-0.013686701135655364   -0.02188175422839642   -0.0004036933741805922
-0.01900112747739305   -0.0327045614984854   -0.0007984182675533645
-0.013161049709300026   -0.03272506512380594   -0.0006147437337042218
-0.013686701135655364   -0.02188175422839642   -0.0004036933741805922
-0.019661447984396663   -0.021847782791344306   -0.0005421876622095777
-0.01900112747739305   -0.0327045614984854   -0.0007984182675533645
-0.019732726435107078   -0.021779349774199125   -0.0005044857753243722
-0.013161049709300026   -0.03272506512380594   -0.0006147437337042218
-0.01907137008153613   -0.03264087837781794   -0.0007428288283503993
-0.019732726435107078   -0.021779349774199125   -0.0005044857753243722
-0.01900112747739305   -0.0327045614984854   -0.0007984182675533645
-0.013161049709300026   -0.03272506512380594   -0.0006147437337042218
-0.019732726435107078   -0.021779349774199125   -0.0005044857753243722
-0.013761469426563599   -0.02179780518123904   -0.00036385570364542985
-0.013686701135655364   -0.02188175422839642   -0.0004036933741805922
-0.013161049709300026   -0.03272506512380594   -0.0006147437337042218
-0.019732726435107078   -0.021779349774199125   -0.0005044857753243722
-0.013686701135655364   -0.02188175422839642   -0.0004036933741805922
-0.01900112747739305   -0.0327045614984854   -0.0007984182675533645
-0.013161049709300026   -0.03272506512380594   -0.0006147437337042218
-0.013761469426563599   -0.02179780518123904   -0.00036385570364542985
-0.01907137008153613   -0.03264087837781794   -0.0007428288283503993
-0.01322965451738885   -0.032647641554563414   -0.0005648953751842706
-0.013761469426563599   -0.02179780518123904   -0.00036385570364542985
-0.019732726435107078   -0.021779349774199125   -0.0005044857753243722
-0.01907137008153613   -0.03264087837781794   -0.0007428288283503993
-0.019793128480041375   -0.02170716120170991   -0.00046421471810442576
-0.01322965451738885   -0.032647641554563414   -0.0005648953751842706
-0.01912464021299157   -0.03258062330928225   -0.0006826316892162264
-0.019793128480041375   -0.02170716120170991   -0.00046421471810442576
-0.01907137008153613   -0.03264087837781794   -0.0007428288283503993
-0.01322965451738885   -0.032647641554563414   -0.0005648953751842706
-0.019793128480041375   -0.02170716120170991   -0.00046421471810442576
-0.013832693799409167   -0.021712332057511222   -0.00032039752026997043
-0.013761469426563599   -0.02179780518123904   -0.00036385570364542985
-0.01322965451738885   -0.032647641554563414   -0.0005648953751842706
-0.019793128480041375   -0.02170716120170991   -0.00046421471810442576
-0.013761469426563599   -0.02179780518123904   -0.00036385570364542985
-0.01907137008153613   -0.03264087837781794   -0.0007428288283503993
-0.01322965451738885   -0.032647641554563414   -0.0005648953751842706
-0.013832693799409167   -0.021712332057511222   -0.00032039752026997043
-0.01912464021299157   -0.03258062330928225   -0.0006826316892162264
-0.013298504642732446   -0.032575994511613304   -0.000509800366039698
-0.013832693799409167   -0.021712332057511222   -0.00032039752026997043
-0.019793128480041375   -0.02170716120170991   -0.00046421471810442576
-0.01912464021299157   -0.03258062330928225   -0.0006826316892162264
-0.019850217726331745   -0.021633068033086848   -0.00042025372560872414
-0.013298504642732446   -0.032575994511613304   -0.000509800366039698
-0.01917749099961538   -0.032526462766982185   -0.000616623211251549
-0.019850217726331745   -0.021633068033086848   -0.00042025372560872414
-0.01912464021299157   -0.03258062330928225   -0.0006826316892162264
-0.013298504642732446   -0.032575994511613304   -0.000509800366039698
-0.019850217726331745   -0.021633068033086848   -0.00042025372560872414
-0.013903201318466188   -0.02162484821232955   -0.0002735246357245561
-0.013832693799409167   -0.021712332057511222   -0.00032039752026997043
-0.013298504642732446   -0.032575994511613304   -0.000509800366039698
-0.019850217726331745   -0.021633068033086848   -0.00042025372560872414
-0.013832693799409167   -0.021712332057511222   -0.00032039752026997043
-0.01912464021299157   -0.03258062330928225   -0.0006826316892162264
-0.01900112747739305   -0.0327045614984854   -0.0007984182675533645
-0.019661447984396663   -0.021847782791344306   -0.0005421876622095777
-0.025268355964397186   -0.03258233911959574   -0.0009018531602087035
-0.01907137008153613   -0.03264087837781794   -0.0007428288283503993
-0.019661447984396663   -0.021847782791344306   -0.0005421876622095777
-0.025919833256652224   -0.021791838599373288   -0.0006446869248938612
-0.025268355964397186   -0.03258233911959574   -0.0009018531602087035
-0.025964175743543837   -0.021734380308578667   -0.0006164334995076205
-0.01907137008153613   -0.03264087837781794   -0.0007428288283503993
-0.025279201436957305   -0.032531500588962134   -0.0008404727356313381
-0.025964175743543837   -0.021734380308578667   -0.0006164334995076205
-0.025268355964397186   -0.03258233911959574   -0.0009018531602087035
-0.01907137008153613   -0.03264087837781794   -0.0007428288283503993
-0.025964175743543837   -0.021734380308578667   -0.0006164334995076205
-0.019732726435107078   -0.021779349774199125   -0.0005044857753243722
-0.019661447984396663   -0.021847782791344306   -0.0005421876622095777
-0.01907137008153613   -0.03264087837781794   -0.0007428288283503993
-0.025964175743543837   -0.021734380308578667   -0.0006164334995076205
-0.019661447984396663   -0.021847782791344306   -0.0005421876622095777
-0.025268355964397186   -0.03258233911959574   -0.0009018531602087035
-0.01907137008153613   -0.03264087837781794   -0.0007428288283503993
-0.019732726435107078   -0.021779349774199125   -0.0005044857753243722
-0.025279201436957305   -0.032531500588962134   -0.0008404727356313381
-0.01912464021299157   -0.03258062330928225   -0.0006826316892162264
-0.019732726435107078   -0.021779349774199125   -0.0005044857753243722
-0.025964175743543837   -0.021734380308578667   -0.0006164334995076205
-0.025279201436957305   -0.032531500588962134   -0.0008404727356313381
-0.026004721810966927   -0.0216693693399049   -0.0005818736695236842
-0.01912464021299157   -0.03258062330928225   -0.0006826316892162264
-0.02529032906955507   -0.03248006315067363   -0.0007698130368368348
-0.026004721810966927   -0.0216693693399049   -0.0005818736695236842
-0.025279201436957305   -0.032531500588962134   -0.0008404727356313381
-0.01912464021299157   -0.03258062330928225   -0.0006826316892162264
-0.026004721810966927   -0.0216693693399049   -0.0005818736695236842
-0.019793128480041375   -0.02170716120170991   -0.00046421471810442576
-0.019732726435107078   -0.021779349774199125   -0.0005044857753243722
-0.01912464021299157   -0.03258062330928225   -0.0006826316892162264
-0.026004721810966927   -0.0216693693399049   -0.0005818736695236842
-0.019732726435107078   -0.021779349774199125   -0.0005044857753243722
-0.025279201436957305   -0.032531500588962134   -0.0008404727356313381
-0.01912464021299157   -0.03258062330928225   -0.0006826316892162264
-0.019793128480041375   -0.02170716120170991   -0.00046421471810442576
-0.02529032906955507   -0.03248006315067363   -0.0007698130368368348
-0.01917749099961538   -0.032526462766982185   -0.000616623211251549
-0.019793128480041375   -0.02170716120170991   -0.00046421471810442576
-0.026004721810966927   -0.0216693693399049   -0.0005818736695236842
-0.02529032906955507   -0.03248006315067363   -0.0007698130368368348
-0.026024419912761245   -0.02160969502446488   -0.0005425860515053029
-0.01917749099961538   -0.032526462766982185   -0.000616623211251549
-0.025266244525788312   -0.0324461323126375   -0.0006909760638445651
-0.026024419912761245   -0.02160969502446488   -0.0005425860515053029
-0.02529032906955507   -0.03248006315067363   -0.0007698130368368348
-0.01917749099961538   -0.032526462766982185   -0.000616623211251549
-0.026024419912761245   -0.02160969502446488   -0.0005425860515053029
-0.019850217726331745   -0.021633068033086848   -0.00042025372560872414
-0.019793128480041375   -0.02170716120170991   -0.00046421471810442576
-0.01917749099961538   -0.032526462766982185   -0.000616623211251549
-0.026024419912761245   -0.02160969502446488   -0.0005425860515053029
-0.019793128480041375   -0.02170716120170991   -0.00046421471810442576
-0.02529032906955507   -0.03248006315067363   -0.0007698130368368348
0.004352889180447477   -0.02201954875132602   0.00013271378538357308
0.003049429755700331   -0.011057221975769891   0.00014254388121455897
-0.0019245190327233403   -0.021915997971921827   -5.6469902412972524e-05
0.004216540854771467   -0.021887258841099183   0.0001886512731527627
0.003049429755700331   -0.011057221975769891   0.00014254388121455897
-0.0028038286850554602   -0.010913787075867171   7.238931159030143e-05
-0.0019245190327233403   -0.021915997971921827   -5.6469902412972524e-05
-0.0028899022123354567   -0.010858386630690846   0.00013477437880251076
0.004216540854771467   -0.021887258841099183   0.0001886512731527627
-0.0020110614961056685   -0.021806333901028024   -1.1554313378696841e-05
-0.0028899022123354567   -0.010858386630690846   0.00013477437880251076
-0.0019245190327233403   -0.021915997971921827   -5.6469902412972524e-05
0.004216540854771467   -0.021887258841099183   0.0001886512731527627
-0.0028899022123354567   -0.010858386630690846   0.00013477437880251076
0.0027811641286813963   -0.010916711945861126   0.00029699475049042547
0.003049429755700331   -0.011057221975769891   0.00014254388121455897
0.004216540854771467   -0.021887258841099183   0.0001886512731527627
-0.0028899022123354567   -0.010858386630690846   0.00013477437880251076
0.003049429755700331   -0.011057221975769891   0.00014254388121455897
-0.0019245190327233403   -0.021915997971921827   -5.6469902412972524e-05
0.004216540854771467   -0.021887258841099183   0.0001886512731527627
0.0027811641286813963   -0.010916711945861126   0.00029699475049042547
-0.0020110614961056685   -0.021806333901028024   -1.1554313378696841e-05
0.004064378623968796   -0.021755858460524243   0.00026896578265750404
0.0027811641286813963   -0.010916711945861126   0.00029699475049042547
-0.0028899022123354567   -0.010858386630690846   0.00013477437880251076
-0.0020110614961056685   -0.021806333901028024   -1.1554313378696841e-05
-0.0030029990230485454   -0.0107598088713663   0.0002105203116778737
0.004064378623968796   -0.021755858460524243   0.00026896578265750404
-0.0021122933381380123   -0.02169058417768826   4.1346286596672975e-05
-0.0030029990230485454   -0.0107598088713663   0.0002105203116778737
-0.0020110614961056685   -0.021806333901028024   -1.1554313378696841e-05
0.004064378623968796   -0.021755858460524243   0.00026896578265750404
-0.0030029990230485454   -0.0107598088713663   0.0002105203116778737
0.0026240621704180043   -0.010801739627336245   0.0004122701016082376
0.0027811641286813963   -0.010916711945861126   0.00029699475049042547
0.004064378623968796   -0.021755858460524243   0.00026896578265750404
-0.0030029990230485454   -0.0107598088713663   0.0002105203116778737
0.0027811641286813963   -0.010916711945861126   0.00029699475049042547
-0.0020110614961056685   -0.021806333901028024   -1.1554313378696841e-05
0.004064378623968796   -0.021755858460524243   0.00026896578265750404
0.0026240621704180043   -0.010801739627336245   0.0004122701016082376
-0.0021122933381380123   -0.02169058417768826   4.1346286596672975e-05
0.00387845961057702   -0.021594449513498908   0.00035733602695047005
0.0026240621704180043   -0.010801739627336245   0.0004122701016082376
-0.0030029990230485454   -0.0107598088713663   0.0002105203116778737
-0.0021122933381380123   -0.02169058417768826   4.1346286596672975e-05
-0.0030980724068346314   -0.01065380033884488   0.0002772001155815907
0.00387845961057702   -0.021594449513498908   0.00035733602695047005
-0.002216996516198879   -0.02156767468446504   0.00010212407884281047
-0.0030980724068346314   -0.01065380033884488   0.0002772001155815907
-0.0021122933381380123   -0.02169058417768826   4.1346286596672975e-05
0.00387845961057702   -0.021594449513498908   0.00035733602695047005
-0.0030980724068346314   -0.01065380033884488   0.0002772001155815907
0.0024227483279404866   -0.010626057110473125   0.0005442581436505126
0.0026240621704180043   -0.010801739627336245   0.0004122701016082376
0.00387845961057702   -0.021594449513498908   0.00035733602695047005
-0.0030980724068346314   -0.01065380033884488   0.0002772001155815907
0.0026240621704180043   -0.010801739627336245   0.0004122701016082376
-0.0021122933381380123   -0.02169058417768826   4.1346286596672975e-05
-0.0019245190327233403   -0.021915997971921827   -5.6469902412972524e-05
-0.0028038286850554602   -0.010913787075867171   7.238931159030143e-05
-0.007835888832256268   -0.02188920103264074   -0.0002388392790871648
-0.0020110614961056685   -0.021806333901028024   -1.1554313378696841e-05
-0.0028038286850554602   -0.010913787075867171   7.238931159030143e-05
-0.00837509998885898   -0.011075052385836262   -7.27624779459728e-05
-0.007835888832256268   -0.02188920103264074   -0.0002388392790871648
-0.008454332332652298   -0.010990394575497673   -2.858168620073271e-05
-0.0020110614961056685   -0.021806333901028024   -1.1554313378696841e-05
-0.007914104682124248   -0.0217934730799731   -0.00019706508246972323
-0.008454332332652298   -0.010990394575497673   -2.858168620073271e-05
-0.007835888832256268   -0.02188920103264074   -0.0002388392790871648
-0.0020110614961056685   -0.021806333901028024   -1.1554313378696841e-05
-0.008454332332652298   -0.010990394575497673   -2.858168620073271e-05
-0.0028899022123354567   -0.010858386630690846   0.00013477437880251076
-0.0028038286850554602   -0.010913787075867171   7.238931159030143e-05
-0.0020110614961056685   -0.021806333901028024   -1.1554313378696841e-05
-0.008454332332652298   -0.010990394575497673   -2.858168620073271e-05
-0.0028038286850554602   -0.010913787075867171   7.238931159030143e-05
-0.007835888832256268   -0.02188920103264074   -0.0002388392790871648
-0.0020110614961056685   -0.021806333901028024   -1.1554313378696841e-05
-0.0028899022123354567   -0.010858386630690846   0.00013477437880251076
-0.007914104682124248   -0.0217934730799731   -0.00019706508246972323
-0.0021122933381380123   -0.02169058417768826   4.1346286596672975e-05
-0.0028899022123354567   -0.010858386630690846   0.00013477437880251076
-0.008454332332652298   -0.010990394575497673   -2.858168620073271e-05
-0.007914104682124248   -0.0217934730799731   -0.00019706508246972323
-0.008537254567797019   -0.010894823895835229   1.8169301500998584e-05
-0.0021122933381380123   -0.02169058417768826   4.1346286596672975e-05
-0.007995011918866738   -0.021693894556963994   -0.00015114975737082057
-0.008537254567797019   -0.010894823895835229   1.8169301500998584e-05
-0.007914104682124248   -0.0217934730799731   -0.00019706508246972323
-0.0021122933381380123   -0.02169058417768826   4.1346286596672975e-05
-0.008537254567797019   -0.010894823895835229   1.8169301500998584e-05
-0.0030029990230485454   -0.0107598088713663   0.0002105203116778737
-0.0028899022123354567   -0.010858386630690846   0.00013477437880251076
-0.0021122933381380123   -0.02169058417768826   4.1346286596672975e-05
-0.008537254567797019   -0.010894823895835229   1.8169301500998584e-05
-0.0028899022123354567   -0.010858386630690846   0.00013477437880251076
-0.007914104682124248   -0.0217934730799731   -0.00019706508246972323
-0.0021122933381380123   -0.02169058417768826   4.1346286596672975e-05
-0.0030029990230485454   -0.0107598088713663   0.0002105203116778737
-0.007995011918866738   -0.021693894556963994   -0.00015114975737082057
-0.002216996516198879   -0.02156767468446504   0.00010212407884281047
-0.0030029990230485454   -0.0107598088713663   0.0002105203116778737
-0.008537254567797019   -0.010894823895835229   1.8169301500998584e-05
-0.007995011918866738   -0.021693894556963994   -0.00015114975737082057
-0.008616060969143437   -0.010790078669779869   6.972462104504577e-05
-0.002216996516198879   -0.02156767468446504   0.00010212407884281047
-0.008079239645553576   -0.02159224231936611   -0.0001002649266436205
-0.008616060969143437   -0.010790078669779869   6.972462104504577e-05
-0.007995011918866738   -0.021693894556963994   -0.00015114975737082057
-0.002216996516198879   -0.02156767468446504   0.00010212407884281047
-0.008616060969143437   -0.010790078669779869   6.972462104504577e-05
-0.0030980724068346314   -0.01065380033884488   0.0002772001155815907
-0.0030029990230485454   -0.0107598088713663   0.0002105203116778737
-0.002216996516198879   -0.02156767468446504   0.00010212407884281047
-0.008616060969143437   -0.010790078669779869   6.972462104504577e-05
-0.0030029990230485454   -0.0107598088713663   0.0002105203116778737
-0.007995011918866738   -0.021693894556963994   -0.00015114975737082057
-0.007835888832256268   -0.02188920103264074   -0.0002388392790871648
-0.00837509998885898   -0.011075052385836262   -7.27624779459728e-05
-0.013686701135655364   -0.02188175422839642   -0.0004036933741805922
-0.007914104682124248   -0.0217934730799731   -0.00019706508246972323
-0.00837509998885898   -0.011075052385836262   -7.27624779459728e-05
-0.014083152012769806   -0.01120102769210436   -0.00023359687628479319
-0.013686701135655364   -0.02188175422839642   -0.0004036933741805922
-0.014154303975517759   -0.011114116842615682   -0.00019937052525968534
-0.007914104682124248   -0.0217934730799731   -0.00019706508246972323
-0.013761469426563599   -0.02179780518123904   -0.00036385570364542985
-0.014154303975517759   -0.011114116842615682   -0.00019937052525968534
-0.013686701135655364   -0.02188175422839642   -0.0004036933741805922
-0.007914104682124248   -0.0217934730799731   -0.00019706508246972323
-0.014154303975517759   -0.011114116842615682   -0.00019937052525968534
-0.008454332332652298   -0.010990394575497673   -2.858168620073271e-05
-0.00837509998885898   -0.011075052385836262   -7.27624779459728e-05
-0.007914104682124248   -0.0217934730799731   -0.00019706508246972323
-0.014154303975517759   -0.011114116842615682   -0.00019937052525968534
-0.00837509998885898   -0.011075052385836262   -7.27624779459728e-05
-0.013686701135655364   -0.02188175422839642   -0.0004036933741805922
-0.007914104682124248   -0.0217934730799731   -0.00019706508246972323
-0.008454332332652298   -0.010990394575497673   -2.858168620073271e-05
-0.013761469426563599   -0.02179780518123904   -0.00036385570364542985
-0.007995011918866738   -0.021693894556963994   -0.00015114975737082057
-0.008454332332652298   -0.010990394575497673   -2.858168620073271e-05
-0.014154303975517759   -0.011114116842615682   -0.00019937052525968534
-0.013761469426563599   -0.02179780518123904   -0.00036385570364542985
-0.014222401355585163   -0.011022331592262508   -0.00016526052388568784
-0.007995011918866738   -0.021693894556963994   -0.00015114975737082057
-0.013832693799409167   -0.021712332057511222   -0.00032039752026997043
-0.014222401355585163   -0.011022331592262508   -0.00016526052388568784
-0.013761469426563599   -0.02179780518123904   -0.00036385570364542985
-0.007995011918866738   -0.021693894556963994   -0.00015114975737082057
-0.014222401355585163   -0.011022331592262508   -0.00016526052388568784
-0.008537254567797019   -0.010894823895835229   1.8169301500998584e-05
-0.008454332332652298   -0.010990394575497673   -2.858168620073271e-05
-0.007995011918866738   -0.021693894556963994   -0.00015114975737082057
-0.014222401355585163   -0.011022331592262508   -0.00016526052388568784
-0.008454332332652298   -0.010990394575497673   -2.858168620073271e-05
-0.013761469426563599   -0.02179780518123904   -0.00036385570364542985
-0.007995011918866738   -0.021693894556963994   -0.00015114975737082057
-0.008537254567797019   -0.010894823895835229   1.8169301500998584e-05
-0.013832693799409167   -0.021712332057511222   -0.00032039752026997043
-0.008079239645553576   -0.02159224231936611   -0.0001002649266436205
-0.008537254567797019   -0.010894823895835229   1.8169301500998584e-05
-0.014222401355585163   -0.011022331592262508   -0.00016526052388568784
-0.013832693799409167   -0.021712332057511222   -0.00032039752026997043
-0.014285163580918359   -0.010922961495583514   -0.0001281304191941657
-0.008079239645553576   -0.02159224231936611   -0.0001002649266436205
-0.013903201318466188   -0.02162484821232955   -0.0002735246357245561
-0.014285163580918359   -0.010922961495583514   -0.0001281304191941657
-0.013832693799409167   -0.021712332057511222   -0.00032039752026997043
-0.008079239645553576   -0.02159224231936611   -0.0001002649266436205
-0.014285163580918359   -0.010922961495583514   -0.0001281304191941657
-0.008616060969143437   -0.010790078669779869   6.972462104504577e-05
-0.008537254567797019   -0.010894823895835229   1.8169301500998584e-05
-0.008079239645553576   -0.02159224231936611   -0.0001002649266436205
-0.014285163580918359   -0.010922961495583514   -0.0001281304191941657
-0.008537254567797019   -0.010894823895835229   1.8169301500998584e-05
-0.013832693799409167   -0.021712332057511222   -0.00032039752026997043
-0.013686701135655364   -0.02188175422839642   -0.0004036933741805922
-0.014083152012769806   -0.01120102769210436   -0.00023359687628479319
-0.019661447984396663   -0.021847782791344306   -0.0005421876622095777
-0.013761469426563599   -0.02179780518123904   -0.00036385570364542985
-0.014083152012769806   -0.01120102769210436   -0.00023359687628479319
-0.019991699559837123   -0.011252704832048172   -0.00038208757805420485
-0.019661447984396663   -0.021847782791344306   -0.0005421876622095777
-0.020055799236098806   -0.011174623704910014   -0.0003571470147859564
-0.013761469426563599   -0.02179780518123904   -0.00036385570364542985
-0.019732726435107078   -0.021779349774199125   -0.0005044857753243722
-0.020055799236098806   -0.011174623704910014   -0.0003571470147859564
-0.019661447984396663   -0.021847782791344306   -0.0005421876622095777
-0.013761469426563599   -0.02179780518123904   -0.00036385570364542985
-0.020055799236098806   -0.011174623704910014   -0.0003571470147859564
-0.014154303975517759   -0.011114116842615682   -0.00019937052525968534
-0.014083152012769806   -0.01120102769210436   -0.00023359687628479319
-0.013761469426563599   -0.02179780518123904   -0.00036385570364542985
-0.020055799236098806   -0.011174623704910014   -0.0003571470147859564
-0.014083152012769806   -0.01120102769210436   -0.00023359687628479319
-0.019661447984396663   -0.021847782791344306   -0.0005421876622095777
-0.013761469426563599   -0.02179780518123904   -0.00036385570364542985
-0.014154303975517759   -0.011114116842615682   -0.00019937052525968534
-0.019732726435107078   -0.021779349774199125   -0.0005044857753243722
-0.013832693799409167   -0.021712332057511222   -0.00032039752026997043
-0.014154303975517759   -0.011114116842615682   -0.00019937052525968534
-0.020055799236098806   -0.011174623704910014   -0.0003571470147859564
-0.019732726435107078   -0.021779349774199125   -0.0005044857753243722
-0.020112918472639553   -0.011089592825459623   -0.0003329226617427831
-0.013832693799409167   -0.021712332057511222   -0.00032039752026997043
-0.019793128480041375   -0.02170716120170991   -0.00046421471810442576
-0.020112918472639553   -0.011089592825459623   -0.0003329226617427831
-0.019732726435107078   -0.021779349774199125   -0.0005044857753243722
-0.013832693799409167   -0.021712332057511222   -0.00032039752026997043
-0.020112918472639553   -0.011089592825459623   -0.0003329226617427831
-0.014222401355585163   -0.011022331592262508   -0.00016526052388568784
-0.014154303975517759   -0.011114116842615682   -0.00019937052525968534
-0.013832693799409167   -0.021712332057511222   -0.00032039752026997043
-0.020112918472639553   -0.011089592825459623   -0.0003329226617427831
-0.014154303975517759   -0.011114116842615682   -0.00019937052525968534
-0.019732726435107078   -0.021779349774199125   -0.0005044857753243722
-0.013832693799409167   -0.021712332057511222   -0.00032039752026997043
-0.014222401355585163   -0.011022331592262508   -0.00016526052388568784
-0.019793128480041375   -0.02170716120170991   -0.00046421471810442576
-0.013903201318466188   -0.02162484821232955   -0.0002735246357245561
-0.014222401355585163   -0.011022331592262508   -0.00016526052388568784
-0.020112918472639553   -0.011089592825459623   -0.0003329226617427831
-0.019793128480041375   -0.02170716120170991   -0.00046421471810442576
-0.02016463927199258   -0.010999084656784112   -0.0003079850998290988
-0.013903201318466188   -0.02162484821232955   -0.0002735246357245561
-0.019850217726331745   -0.021633068033086848   -0.00042025372560872414
-0.02016463927199258   -0.010999084656784112   -0.0003079850998290988
-0.019793128480041375   -0.02170716120170991   -0.00046421471810442576
-0.013903201318466188   -0.02162484821232955   -0.0002735246357245561
-0.02016463927199258   -0.010999084656784112   -0.0003079850998290988
-0.014285163580918359   -0.010922961495583514   -0.0001281304191941657
-0.014222401355585163   -0.011022331592262508   -0.00016526052388568784
-0.013903201318466188   -0.02162484821232955   -0.0002735246357245561
-0.02016463927199258   -0.010999084656784112   -0.0003079850998290988
-0.014222401355585163   -0.011022331592262508   -0.00016526052388568784
-0.019793128480041375   -0.02170716120170991   -0.00046421471810442576
-0.019661447984396663   -0.021847782791344306   -0.0005421876622095777
-0.019991699559837123   -0.011252704832048172   -0.00038208757805420485
-0.025919833256652224   -0.021791838599373288   -0.0006446869248938612
-0.019732726435107078   -0.021779349774199125   -0.0005044857753243722
-0.019991699559837123   -0.011252704832048172   -0.00038208757805420485
-0.02611038564536918   -0.011258512522502307   -0.000505404351335969
-0.025919833256652224   -0.021791838599373288   -0.0006446869248938612
-0.02616548435281273   -0.011182710628949254   -0.0004947165384081572
-0.019732726435107078   -0.021779349774199125   -0.0005044857753243722
-0.025964175743543837   -0.021734380308578667   -0.0006164334995076205
-0.02616548435281273   -0.011182710628949254   -0.0004947165384081572
-0.025919833256652224   -0.021791838599373288   -0.0006446869248938612
-0.019732726435107078   -0.021779349774199125   -0.0005044857753243722
-0.02616548435281273   -0.011182710628949254   -0.0004947165384081572
-0.020055799236098806   -0.011174623704910014   -0.0003571470147859564
-0.019991699559837123   -0.011252704832048172   -0.00038208757805420485
-0.019732726435107078   -0.021779349774199125   -0.0005044857753243722
-0.02616548435281273   -0.011182710628949254   -0.0004947165384081572
-0.019991699559837123   -0.011252704832048172   -0.00038208757805420485
-0.025919833256652224   -0.021791838599373288   -0.0006446869248938612
-0.019732726435107078   -0.021779349774199125   -0.0005044857753243722
-0.020055799236098806   -0.011174623704910014   -0.0003571470147859564
-0.025964175743543837   -0.021734380308578667   -0.0006164334995076205
-0.019793128480041375   -0.02170716120170991   -0.00046421471810442576
-0.020055799236098806   -0.011174623704910014   -0.0003571470147859564
-0.02616548435281273   -0.011182710628949254   -0.0004947165384081572
-0.025964175743543837   -0.021734380308578667   -0.0006164334995076205
-0.0262148479386565   -0.011100768699973307   -0.00048222021399160384
-0.019793128480041375   -0.02170716120170991   -0.00046421471810442576
-0.026004721810966927   -0.0216693693399049   -0.0005818736695236842
-0.0262148479386565   -0.011100768699973307   -0.00048222021399160384
-0.025964175743543837   -0.021734380308578667   -0.0006164334995076205
-0.019793128480041375   -0.02170716120170991   -0.00046421471810442576
-0.0262148479386565   -0.011100768699973307   -0.00048222021399160384
-0.020112918472639553   -0.011089592825459623   -0.0003329226617427831
-0.020055799236098806   -0.011174623704910014   -0.0003571470147859564
-0.019793128480041375   -0.02170716120170991   -0.00046421471810442576
-0.0262148479386565   -0.011100768699973307   -0.00048222021399160384
-0.020055799236098806   -0.011174623704910014   -0.0003571470147859564
-0.025964175743543837   -0.021734380308578667   -0.0006164334995076205
-0.019793128480041375   -0.02170716120170991   -0.00046421471810442576
-0.020112918472639553   -0.011089592825459623   -0.0003329226617427831
-0.026004721810966927   -0.0216693693399049   -0.0005818736695236842
-0.019850217726331745   -0.021633068033086848   -0.00042025372560872414
-0.020112918472639553   -0.011089592825459623   -0.0003329226617427831
-0.0262148479386565   -0.011100768699973307   -0.00048222021399160384
-0.026004721810966927   -0.0216693693399049   -0.0005818736695236842
-0.026256390067322083   -0.011013997169078277   -0.0004706106588001218
-0.019850217726331745   -0.021633068033086848   -0.00042025372560872414
-0.026024419912761245   -0.02160969502446488   -0.0005425860515053029
-0.026256390067322083   -0.011013997169078277   -0.0004706106588001218
-0.026004721810966927   -0.0216693693399049   -0.0005818736695236842
-0.019850217726331745   -0.021633068033086848   -0.00042025372560872414
-0.026256390067322083   -0.011013997169078277   -0.0004706106588001218
-0.02016463927199258   -0.010999084656784112   -0.0003079850998290988
-0.020112918472639553   -0.011089592825459623   -0.0003329226617427831
-0.019850217726331745   -0.021633068033086848   -0.00042025372560872414
-0.026256390067322083   -0.011013997169078277   -0.0004706106588001218
-0.020112918472639553   -0.011089592825459623   -0.0003329226617427831
-0.026004721810966927   -0.0216693693399049   -0.0005818736695236842
0.003049429755700331   -0.011057221975769891   0.00014254388121455897
0.0   0.0   0.0
-0.0028038286850554602   -0.010913787075867171   7.238931159030143e-05
0.0027811641286813963   -0.010916711945861126   0.00029699475049042547
0.0   0.0   0.0
-0.0035212899757674915   -0.000890405787731361   -3.024011405260177e-05
-0.0028038286850554602   -0.010913787075867171   7.238931159030143e-05
-0.003731626574284603   -0.000691514174144197   9.08137766756312e-05
0.0027811641286813963   -0.010916711945861126   0.00029699475049042547
-0.0028899022123354567   -0.010858386630690846   0.00013477437880251076
-0.003731626574284603   -0.000691514174144197   9.08137766756312e-05
-0.0028038286850554602   -0.010913787075867171   7.238931159030143e-05
0.0027811641286813963   -0.010916711945861126   0.00029699475049042547
-0.003731626574284603   -0.000691514174144197   9.08137766756312e-05
0.0   0.0   0.0
0.0   0.0   0.0
0.0027811641286813963   -0.010916711945861126   0.00029699475049042547
-0.003731626574284603   -0.000691514174144197   9.08137766756312e-05
0.0   0.0   0.0
-0.0028038286850554602   -0.010913787075867171   7.238931159030143e-05
0.0027811641286813963   -0.010916711945861126   0.00029699475049042547
0.0   0.0   0.0
-0.0028899022123354567   -0.010858386630690846   0.00013477437880251076
0.0026240621704180043   -0.010801739627336245   0.0004122701016082376
0.0   0.0   0.0
-0.003731626574284603   -0.000691514174144197   9.08137766756312e-05
-0.0028899022123354567   -0.010858386630690846   0.00013477437880251076
-0.003863560501893879   -0.0005956034036260477   0.0001606127037931443
0.0026240621704180043   -0.010801739627336245   0.0004122701016082376
-0.0030029990230485454   -0.0107598088713663   0.0002105203116778737
-0.003863560501893879   -0.0005956034036260477   0.0001606127037931443
-0.0028899022123354567   -0.010858386630690846   0.00013477437880251076
0.0026240621704180043   -0.010801739627336245   0.0004122701016082376
-0.003863560501893879   -0.0005956034036260477   0.0001606127037931443
0.0   0.0   0.0
0.0   0.0   0.0
0.0026240621704180043   -0.010801739627336245   0.0004122701016082376
-0.003863560501893879   -0.0005956034036260477   0.0001606127037931443
0.0   0.0   0.0
-0.0028899022123354567   -0.010858386630690846   0.00013477437880251076
0.0026240621704180043   -0.010801739627336245   0.0004122701016082376
0.0   0.0   0.0
-0.0030029990230485454   -0.0107598088713663   0.0002105203116778737
0.0024227483279404866   -0.010626057110473125   0.0005442581436505126
0.0   0.0   0.0
-0.003863560501893879   -0.0005956034036260477   0.0001606127037931443
-0.0030029990230485454   -0.0107598088713663   0.0002105203116778737
-0.004040321959171888   -0.00046828185292571657   0.00024071493283895699
0.0024227483279404866   -0.010626057110473125   0.0005442581436505126
-0.0030980724068346314   -0.01065380033884488   0.0002772001155815907
-0.004040321959171888   -0.00046828185292571657   0.00024071493283895699
-0.0030029990230485454   -0.0107598088713663   0.0002105203116778737
0.0024227483279404866   -0.010626057110473125   0.0005442581436505126
-0.004040321959171888   -0.00046828185292571657   0.00024071493283895699
0.0   0.0   0.0
0.0   0.0   0.0
0.0024227483279404866   -0.010626057110473125   0.0005442581436505126
-0.004040321959171888   -0.00046828185292571657   0.00024071493283895699
0.0   0.0   0.0
-0.0030029990230485454   -0.0107598088713663   0.0002105203116778737
-0.0028038286850554602   -0.010913787075867171   7.238931159030143e-05
-0.0035212899757674915   -0.000890405787731361   -3.024011405260177e-05
-0.00837509998885898   -0.011075052385836262   -7.27624779459728e-05
-0.0028899022123354567   -0.010858386630690846   0.00013477437880251076
-0.0035212899757674915   -0.000890405787731361   -3.024011405260177e-05
-0.00862518900369761   -0.00116541823504272   -2.937792124225112e-05
-0.00837509998885898   -0.011075052385836262   -7.27624779459728e-05
-0.008733476978890526   -0.0010565561337143965   1.5275525627028106e-06
-0.0028899022123354567   -0.010858386630690846   0.00013477437880251076
-0.008454332332652298   -0.010990394575497673   -2.858168620073271e-05
-0.008733476978890526   -0.0010565561337143965   1.5275525627028106e-06
-0.00837509998885898   -0.011075052385836262   -7.27624779459728e-05
-0.0028899022123354567   -0.010858386630690846   0.00013477437880251076
-0.008733476978890526   -0.0010565561337143965   1.5275525627028106e-06
-0.003731626574284603   -0.000691514174144197   9.08137766756312e-05
-0.0035212899757674915   -0.000890405787731361   -3.024011405260177e-05
-0.0028899022123354567   -0.010858386630690846   0.00013477437880251076
-0.008733476978890526   -0.0010565561337143965   1.5275525627028106e-06
-0.0035212899757674915   -0.000890405787731361   -3.024011405260177e-05
-0.00837509998885898   -0.011075052385836262   -7.27624779459728e-05
-0.0028899022123354567   -0.010858386630690846   0.00013477437880251076
-0.003731626574284603   -0.000691514174144197   9.08137766756312e-05
-0.008454332332652298   -0.010990394575497673   -2.858168620073271e-05
-0.0030029990230485454   -0.0107598088713663   0.0002105203116778737
-0.003731626574284603   -0.000691514174144197   9.08137766756312e-05
-0.008733476978890526   -0.0010565561337143965   1.5275525627028106e-06
-0.008454332332652298   -0.010990394575497673   -2.858168620073271e-05
-0.008841274958901248   -0.000929226432608025   5.6982806804404905e-05
-0.0030029990230485454   -0.0107598088713663   0.0002105203116778737
-0.008537254567797019   -0.010894823895835229   1.8169301500998584e-05
-0.008841274958901248   -0.000929226432608025   5.6982806804404905e-05
-0.008454332332652298   -0.010990394575497673   -2.858168620073271e-05
-0.0030029990230485454   -0.0107598088713663   0.0002105203116778737
-0.008841274958901248   -0.000929226432608025   5.6982806804404905e-05
-0.003863560501893879   -0.0005956034036260477   0.0001606127037931443
-0.003731626574284603   -0.000691514174144197   9.08137766756312e-05
-0.0030029990230485454   -0.0107598088713663   0.0002105203116778737
-0.008841274958901248   -0.000929226432608025   5.6982806804404905e-05
-0.003731626574284603   -0.000691514174144197   9.08137766756312e-05
-0.008454332332652298   -0.010990394575497673   -2.858168620073271e-05
-0.0030029990230485454   -0.0107598088713663   0.0002105203116778737
-0.003863560501893879   -0.0005956034036260477   0.0001606127037931443
-0.008537254567797019   -0.010894823895835229   1.8169301500998584e-05
-0.0030980724068346314   -0.01065380033884488   0.0002772001155815907
-0.003863560501893879   -0.0005956034036260477   0.0001606127037931443
-0.008841274958901248   -0.000929226432608025   5.6982806804404905e-05
-0.008537254567797019   -0.010894823895835229   1.8169301500998584e-05
-0.008960507467427816   -0.0007821128046149117   0.00011002132934409794
-0.0030980724068346314   -0.01065380033884488   0.0002772001155815907
-0.008616060969143437   -0.010790078669779869   6.972462104504577e-05
-0.008960507467427816   -0.0007821128046149117   0.00011002132934409794
-0.008537254567797019   -0.010894823895835229   1.8169301500998584e-05
-0.0030980724068346314   -0.01065380033884488   0.0002772001155815907
-0.008960507467427816   -0.0007821128046149117   0.00011002132934409794
-0.004040321959171888   -0.00046828185292571657   0.00024071493283895699
-0.003863560501893879   -0.0005956034036260477   0.0001606127037931443
-0.0030980724068346314   -0.01065380033884488   0.0002772001155815907
-0.008960507467427816   -0.0007821128046149117   0.00011002132934409794
-0.003863560501893879   -0.0005956034036260477   0.0001606127037931443
-0.008537254567797019   -0.010894823895835229   1.8169301500998584e-05
-0.00837509998885898   -0.011075052385836262   -7.27624779459728e-05
-0.00862518900369761   -0.00116541823504272   -2.937792124225112e-05
-0.014083152012769806   -0.01120102769210436   -0.00023359687628479319
-0.008454332332652298   -0.010990394575497673   -2.858168620073271e-05
-0.00862518900369761   -0.00116541823504272   -2.937792124225112e-05
-0.014222579256765629   -0.00124167967985874   -0.00013152277481321784
-0.014083152012769806   -0.01120102769210436   -0.00023359687628479319
-0.014288203770047244   -0.0011565670811332484   -0.00012305165077810594
-0.008454332332652298   -0.010990394575497673   -2.858168620073271e-05
-0.014154303975517759   -0.011114116842615682   -0.00019937052525968534
-0.014288203770047244   -0.0011565670811332484   -0.00012305165077810594
-0.014083152012769806   -0.01120102769210436   -0.00023359687628479319
-0.008454332332652298   -0.010990394575497673   -2.858168620073271e-05
-0.014288203770047244   -0.0011565670811332484   -0.00012305165077810594
-0.008733476978890526   -0.0010565561337143965   1.5275525627028106e-06
-0.00862518900369761   -0.00116541823504272   -2.937792124225112e-05
-0.008454332332652298   -0.010990394575497673   -2.858168620073271e-05
-0.014288203770047244   -0.0011565670811332484   -0.00012305165077810594
-0.00862518900369761   -0.00116541823504272   -2.937792124225112e-05
-0.014083152012769806   -0.01120102769210436   -0.00023359687628479319
-0.008454332332652298   -0.010990394575497673   -2.858168620073271e-05
-0.008733476978890526   -0.0010565561337143965   1.5275525627028106e-06
-0.014154303975517759   -0.011114116842615682   -0.00019937052525968534
-0.008537254567797019   -0.010894823895835229   1.8169301500998584e-05
-0.008733476978890526   -0.0010565561337143965   1.5275525627028106e-06
-0.014288203770047244   -0.0011565670811332484   -0.00012305165077810594
-0.014154303975517759   -0.011114116842615682   -0.00019937052525968534
-0.014356426673291487   -0.0010578924575402357   -0.0001081337441297954
-0.008537254567797019   -0.010894823895835229   1.8169301500998584e-05
-0.014222401355585163   -0.011022331592262508   -0.00016526052388568784
-0.014356426673291487   -0.0010578924575402357   -0.0001081337441297954
-0.014154303975517759   -0.011114116842615682   -0.00019937052525968534
-0.008537254567797019   -0.010894823895835229   1.8169301500998584e-05
-0.014356426673291487   -0.0010578924575402357   -0.0001081337441297954
-0.008841274958901248   -0.000929226432608025   5.6982806804404905e-05
-0.008733476978890526   -0.0010565561337143965   1.5275525627028106e-06
-0.008537254567797019   -0.010894823895835229   1.8169301500998584e-05
-0.014356426673291487   -0.0010578924575402357   -0.0001081337441297954
-0.008733476978890526   -0.0010565561337143965   1.5275525627028106e-06
-0.014154303975517759   -0.011114116842615682   -0.00019937052525968534
-0.008537254567797019   -0.010894823895835229   1.8169301500998584e-05
-0.008841274958901248   -0.000929226432608025   5.6982806804404905e-05
-0.014222401355585163   -0.011022331592262508   -0.00016526052388568784
-0.008616060969143437   -0.010790078669779869   6.972462104504577e-05
-0.008841274958901248   -0.000929226432608025   5.6982806804404905e-05
-0.014356426673291487   -0.0010578924575402357   -0.0001081337441297954
-0.014222401355585163   -0.011022331592262508   -0.00016526052388568784
-0.014421045579170023   -0.0009380207840273795   -8.839597802247622e-05
-0.008616060969143437   -0.010790078669779869   6.972462104504577e-05
-0.014285163580918359   -0.010922961495583514   -0.0001281304191941657
-0.014421045579170023   -0.0009380207840273795   -8.839597802247622e-05
-0.014222401355585163   -0.011022331592262508   -0.00016526052388568784
-0.008616060969143437   -0.010790078669779869   6.972462104504577e-05
-0.014421045579170023   -0.0009380207840273795   -8.839597802247622e-05
-0.008960507467427816   -0.0007821128046149117   0.00011002132934409794
-0.008841274958901248   -0.000929226432608025   5.6982806804404905e-05
-0.008616060969143437   -0.010790078669779869   6.972462104504577e-05
-0.014421045579170023   -0.0009380207840273795   -8.839597802247622e-05
-0.008841274958901248   -0.000929226432608025   5.6982806804404905e-05
-0.014222401355585163   -0.011022331592262508   -0.00016526052388568784
-0.014083152012769806   -0.01120102769210436   -0.00023359687628479319
-0.014222579256765629   -0.00124167967985874   -0.00013152277481321784
-0.019991699559837123   -0.011252704832048172   -0.00038208757805420485
-0.014154303975517759   -0.011114116842615682   -0.00019937052525968534
-0.014222579256765629   -0.00124167967985874   -0.00013152277481321784
-0.020095043393081675   -0.0012279038017422193   -0.0002778629176665782
-0.019991699559837123   -0.011252704832048172   -0.00038208757805420485
-0.020139347032983746   -0.0011512540401710635   -0.00027424968133735547
-0.014154303975517759   -0.011114116842615682   -0.00019937052525968534
-0.020055799236098806   -0.011174623704910014   -0.0003571470147859564
-0.020139347032983746   -0.0011512540401710635   -0.00027424968133735547
-0.019991699559837123   -0.011252704832048172   -0.00038208757805420485
-0.014154303975517759   -0.011114116842615682   -0.00019937052525968534
-0.020139347032983746   -0.0011512540401710635   -0.00027424968133735547
-0.014288203770047244   -0.0011565670811332484   -0.00012305165077810594
-0.014222579256765629   -0.00124167967985874   -0.00013152277481321784
-0.014154303975517759   -0.011114116842615682   -0.00019937052525968534
-0.020139347032983746   -0.0011512540401710635   -0.00027424968133735547
-0.014222579256765629   -0.00124167967985874   -0.00013152277481321784
-0.019991699559837123   -0.011252704832048172   -0.00038208757805420485
-0.014154303975517759   -0.011114116842615682   -0.00019937052525968534
-0.014288203770047244   -0.0011565670811332484   -0.00012305165077810594
-0.020055799236098806   -0.011174623704910014   -0.0003571470147859564
-0.014222401355585163   -0.011022331592262508   -0.00016526052388568784
-0.014288203770047244   -0.0011565670811332484   -0.00012305165077810594
-0.020139347032983746   -0.0011512540401710635   -0.00027424968133735547
-0.020055799236098806   -0.011174623704910014   -0.0003571470147859564
-0.02018557343281816   -0.001066046081603498   -0.00027181181218153004
-0.014222401355585163   -0.011022331592262508   -0.00016526052388568784
-0.020112918472639553   -0.011089592825459623   -0.0003329226617427831
-0.02018557343281816   -0.001066046081603498   -0.00027181181218153004
-0.020055799236098806   -0.011174623704910014   -0.0003571470147859564
-0.014222401355585163   -0.011022331592262508   -0.00016526052388568784
-0.02018557343281816   -0.001066046081603498   -0.00027181181218153004
-0.014356426673291487   -0.0010578924575402357   -0.0001081337441297954
-0.014288203770047244   -0.0011565670811332484   -0.00012305165077810594
-0.014222401355585163   -0.011022331592262508   -0.00016526052388568784
-0.02018557343281816   -0.001066046081603498   -0.00027181181218153004
-0.014288203770047244   -0.0011565670811332484   -0.00012305165077810594
-0.020055799236098806   -0.011174623704910014   -0.0003571470147859564
-0.014222401355585163   -0.011022331592262508   -0.00016526052388568784
-0.014356426673291487   -0.0010578924575402357   -0.0001081337441297954
-0.020112918472639553   -0.011089592825459623   -0.0003329226617427831
-0.014285163580918359   -0.010922961495583514   -0.0001281304191941657
-0.014356426673291487   -0.0010578924575402357   -0.0001081337441297954
-0.02018557343281816   -0.001066046081603498   -0.00027181181218153004
-0.020112918472639553   -0.011089592825459623   -0.0003329226617427831
-0.02022058156083044   -0.0009738969580238232   -0.00027075323025162597
-0.014285163580918359   -0.010922961495583514   -0.0001281304191941657
-0.02016463927199258   -0.010999084656784112   -0.0003079850998290988
-0.02022058156083044   -0.0009738969580238232   -0.00027075323025162597
-0.020112918472639553   -0.011089592825459623   -0.0003329226617427831
-0.014285163580918359   -0.010922961495583514   -0.0001281304191941657
-0.02022058156083044   -0.0009738969580238232   -0.00027075323025162597
-0.014421045579170023   -0.0009380207840273795   -8.839597802247622e-05
-0.014356426673291487   -0.0010578924575402357   -0.0001081337441297954
-0.014285163580918359   -0.010922961495583514   -0.0001281304191941657
-0.02022058156083044   -0.0009738969580238232   -0.00027075323025162597
-0.014356426673291487   -0.0010578924575402357   -0.0001081337441297954
-0.020112918472639553   -0.011089592825459623   -0.0003329226617427831
-0.019991699559837123   -0.011252704832048172   -0.00038208757805420485
-0.020095043393081675   -0.0012279038017422193   -0.0002778629176665782
-0.02611038564536918   -0.011258512522502307   -0.000505404351335969
-0.020055799236098806   -0.011174623704910014   -0.0003571470147859564
-0.020095043393081675   -0.0012279038017422193   -0.0002778629176665782
-0.02612940290843292   -0.0012189756076320367   -0.0004218746876298186
-0.02611038564536918   -0.011258512522502307   -0.000505404351335969
-0.026165054807691702   -0.0011357883408990863   -0.0004218433757820805
-0.020055799236098806   -0.011174623704910014   -0.0003571470147859564
-0.02616548435281273   -0.011182710628949254   -0.0004947165384081572
-0.026165054807691702   -0.0011357883408990863   -0.0004218433757820805
-0.02611038564536918   -0.011258512522502307   -0.000505404351335969
-0.020055799236098806   -0.011174623704910014   -0.0003571470147859564
-0.026165054807691702   -0.0011357883408990863   -0.0004218433757820805
-0.020139347032983746   -0.0011512540401710635   -0.00027424968133735547
-0.020095043393081675   -0.0012279038017422193   -0.0002778629176665782
-0.020055799236098806   -0.011174623704910014   -0.0003571470147859564
-0.026165054807691702   -0.0011357883408990863   -0.0004218433757820805
-0.020095043393081675   -0.0012279038017422193   -0.0002778629176665782
-0.02611038564536918   -0.011258512522502307   -0.000505404351335969
-0.020055799236098806   -0.011174623704910014   -0.0003571470147859564
-0.020139347032983746   -0.0011512540401710635   -0.00027424968133735547
-0.02616548435281273   -0.011182710628949254   -0.0004947165384081572
-0.020112918472639553   -0.011089592825459623   -0.0003329226617427831
-0.020139347032983746   -0.0011512540401710635   -0.00027424968133735547
-0.026165054807691702   -0.0011357883408990863   -0.0004218433757820805
-0.02616548435281273   -0.011182710628949254   -0.0004947165384081572
-0.026204200350121148   -0.0010527555326527438   -0.00042829929944159206
-0.020112918472639553   -0.011089592825459623   -0.0003329226617427831
-0.0262148479386565   -0.011100768699973307   -0.00048222021399160384
-0.026204200350121148   -0.0010527555326527438   -0.00042829929944159206
-0.02616548435281273   -0.011182710628949254   -0.0004947165384081572
-0.020112918472639553   -0.011089592825459623   -0.0003329226617427831
-0.026204200350121148   -0.0010527555326527438   -0.00042829929944159206
-0.02018557343281816   -0.001066046081603498   -0.00027181181218153004
-0.020139347032983746   -0.0011512540401710635   -0.00027424968133735547
-0.020112918472639553   -0.011089592825459623   -0.0003329226617427831
-0.026204200350121148   -0.0010527555326527438   -0.00042829929944159206
-0.020139347032983746   -0.0011512540401710635   -0.00027424968133735547
-0.02616548435281273   -0.011182710628949254   -0.0004947165384081572
-0.020112918472639553   -0.011089592825459623   -0.0003329226617427831
-0.02018557343281816   -0.001066046081603498   -0.00027181181218153004
-0.0262148479386565   -0.011100768699973307   -0.00048222021399160384
-0.02016463927199258   -0.010999084656784112   -0.0003079850998290988
-0.02018557343281816   -0.001066046081603498   -0.00027181181218153004
-0.026204200350121148   -0.0010527555326527438   -0.00042829929944159206
-0.0262148479386565   -0.011100768699973307   -0.00048222021399160384
-0.02623300670662145   -0.0009624068314659124   -0.0004351805405080035
-0.02016463927199258   -0.010999084656784112   -0.0003079850998290988
-0.026256390067322083   -0.011013997169078277   -0.0004706106588001218
-0.02623300670662145   -0.0009624068314659124   -0.0004351805405080035
-0.0262148479386565   -0.011100768699973307   -0.00048222021399160384
-0.02016463927199258   -0.010999084656784112   -0.0003079850998290988
-0.02623300670662145   -0.0009624068314659124   -0.0004351805405080035
-0.02022058156083044   -0.0009738969580238232   -0.00027075323025162597
-0.02018557343281816   -0.001066046081603498   -0.00027181181218153004
-0.02016463927199258   -0.010999084656784112   -0.0003079850998290988
-0.02623300670662145   -0.0009624068314659124   -0.0004351805405080035
-0.02018557343281816   -0.001066046081603498   -0.00027181181218153004
-0.0262148479386565   -0.011100768699973307   -0.00048222021399160384
              </DataArray>   
          </PointData>  
       </Piece>  
   </UnstructuredGrid> 
</VTKFile> 
